 Entering Gaussian System
 *********************************************
 Gaussian 98:
 frequency output generated by the xtb code
 *********************************************
                         Standard orientation:
 --------------------------------------------------------------------
  Center     Atomic     Atomic              Coordinates (Angstroms)
  Number     Number      Type              X           Y           Z
 --------------------------------------------------------------------
    1          6             0        0.027852   -0.772502   -0.027894
    2          6             0        0.643893    0.421615   -0.811778
    3          6             0       -0.403081    1.536200   -0.987122
    4          6             0       -1.235094    1.807386    0.265019
    5          6             0       -1.784099    0.494420    0.836438
    6          6             0       -0.605756   -0.367130    1.314804
    7          6             0       -1.237691   -1.248637   -0.776729
    8          6             0       -2.347543   -0.363259   -0.264811
    9          8             0        0.283008    0.247347    2.214862
   10          6             0        1.036775   -1.911484    0.158235
   11          6             0       -3.593247   -0.347894   -0.702850
   12          6             0        1.993418    0.910718   -0.313707
   13          6             0        3.097392    0.326264   -0.760576
   14          1             0        0.851577    0.015396   -1.809908
   15          8             0        1.498603   -2.462351   -1.056320
   16          6             0        2.088176    2.077804    0.621479
   17          1             0        0.093927    2.451349   -1.311399
   18          1             0       -1.086037    1.246657   -1.788677
   19          1             0       -0.631781    2.294725    1.030573
   20          1             0       -2.064206    2.469856    0.008133
   21          1             0       -2.509517    0.698911    1.628079
   22          1             0       -1.003091   -1.283929    1.785334
   23          1             0       -1.136595   -1.185516   -1.860298
   24          1             0       -1.458074   -2.288886   -0.517465
   25          1             0       -0.209036    0.470960    3.014975
   26          1             0        0.578512   -2.699333    0.774666
   27          1             0        1.922583   -1.541213    0.676960
   28          1             0       -3.920390   -0.985487   -1.507277
   29          1             0       -4.335605    0.305533   -0.276986
   30          1             0        4.076205    0.646670   -0.442320
   31          1             0        3.073054   -0.510096   -1.438969
   32          1             0        0.732080   -2.777743   -1.552944
   33          1             0        1.599886    2.957587    0.207425
   34          1             0        1.618087    1.832759    1.569365
   35          1             0        3.132032    2.320752    0.805487
 --------------------------------------------------------------------
     1 basis functions        1 primitive gaussians
     1 alpha electrons        1 beta electrons
 
 Harmonic frequencies (cm**-1), IR intensities (km*mol⁻¹),
 Raman scattering activities (A**4/amu), Raman depolarization ratios,
 reduced masses (AMU), force constants (mDyne/A) and normal coordinates:
                      1                      2                      3
                        a                      a                      a 
 Frequencies --    52.9659                98.0055               113.0682
 Red. masses --     9.9511                 9.5753                12.5296
 Frc consts  --     0.0000                 0.0000                 0.0000
 IR Inten    --     0.2745                 0.5633                 3.2342
 Raman Activ --     0.0000                 0.0000                 0.0000
 Depolar     --     0.0000                 0.0000                 0.0000
 Atom AN      X      Y      Z        X      Y      Z        X      Y      Z
   1   6    -0.00   0.01   0.08    -0.01   0.08  -0.05     0.09   0.03   0.02
   2   6    -0.05  -0.01   0.01     0.10   0.03  -0.02     0.07   0.05   0.03
   3   6    -0.01   0.04   0.07     0.15   0.06  -0.10     0.03   0.01  -0.01
   4   6    -0.01   0.01   0.07     0.04   0.08  -0.17     0.00  -0.00  -0.03
   5   6    -0.06  -0.01  -0.01    -0.02   0.12  -0.12     0.04  -0.02  -0.02
   6   6    -0.08  -0.00   0.05    -0.07   0.08  -0.07     0.05   0.02   0.01
   7   6     0.03  -0.05   0.06     0.01   0.14  -0.12     0.12   0.00   0.00
   8   6     0.02   0.01  -0.06    -0.06  -0.03   0.02     0.08  -0.04  -0.03
   9   8    -0.19  -0.02   0.16    -0.15   0.04   0.03    -0.00   0.05   0.05
  10   6     0.07   0.09   0.14    -0.07   0.03  -0.02     0.06  -0.01  -0.04
  11   6     0.07   0.08  -0.21    -0.20  -0.46   0.41     0.09  -0.10  -0.06
  12   6     0.02  -0.03  -0.16     0.10  -0.04   0.04     0.03   0.15   0.05
  13   6    -0.03   0.19  -0.58     0.10   0.02  -0.07     0.07   0.27  -0.02
  14   1    -0.04  -0.01  -0.00     0.04   0.00  -0.00     0.03   0.01   0.01
  15   8     0.09   0.03   0.20    -0.01   0.08  -0.01    -0.61  -0.48  -0.10
  16   6     0.12  -0.30   0.15     0.12  -0.20   0.22    -0.05   0.09   0.13
  17   1     0.01   0.01   0.03     0.06   0.02  -0.01     0.00   0.01  -0.00
  18   1    -0.00   0.03   0.01     0.06   0.03  -0.05     0.02  -0.01  -0.01
  19   1     0.00  -0.02   0.03    -0.00   0.03  -0.04    -0.01   0.01  -0.01
  20   1     0.01   0.02   0.03     0.02   0.02  -0.07    -0.01  -0.01  -0.01
  21   1    -0.03  -0.01  -0.01    -0.00   0.06  -0.04     0.00  -0.01  -0.01
  22   1    -0.03  -0.01   0.00    -0.04   0.02  -0.04     0.02   0.00   0.00
  23   1     0.02  -0.04   0.02     0.00   0.10  -0.03     0.04  -0.00   0.00
  24   1     0.00  -0.01   0.04     0.02   0.02  -0.09     0.04  -0.00   0.00
  25   1    -0.07   0.00   0.02    -0.06   0.01  -0.01    -0.01   0.02   0.00
  26   1     0.04   0.03   0.06    -0.04   0.01  -0.02     0.07   0.06   0.11
  27   1     0.02   0.05   0.03    -0.02  -0.00   0.01     0.09   0.01  -0.15
  28   1     0.04   0.03  -0.07    -0.07  -0.19   0.17     0.04  -0.03  -0.02
  29   1     0.02   0.04  -0.09    -0.08  -0.18   0.16     0.01  -0.04  -0.03
  30   1     0.00   0.05  -0.21     0.03  -0.01  -0.01     0.02   0.10  -0.01
  31   1    -0.04   0.10  -0.23     0.02   0.03  -0.05     0.03   0.09  -0.03
  32   1     0.03  -0.02   0.06     0.00   0.04  -0.02    -0.22  -0.14   0.10
  33   1     0.01  -0.06   0.13     0.04  -0.04   0.10    -0.05   0.02   0.06
  34   1     0.07  -0.17   0.04     0.03  -0.10   0.05     0.00  -0.01   0.04
  35   1     0.04  -0.09   0.02     0.03  -0.07   0.08    -0.02   0.05   0.03
                      4                      5                      6
                        a                      a                      a 
 Frequencies --   129.8955               153.8059               178.5360
 Red. masses --     9.9266                12.5133                 3.4222
 Frc consts  --     0.0000                 0.0000                 0.0000
 IR Inten    --     0.3917                 0.5538                 2.4037
 Raman Activ --     0.0000                 0.0000                 0.0000
 Depolar     --     0.0000                 0.0000                 0.0000
 Atom AN      X      Y      Z        X      Y      Z        X      Y      Z
   1   6    -0.03  -0.08  -0.00    -0.02   0.03  -0.16    -0.02  -0.02  -0.05
   2   6     0.03  -0.16  -0.07    -0.02   0.11  -0.06    -0.02   0.01   0.01
   3   6     0.04  -0.19  -0.27    -0.03   0.14   0.08    -0.05  -0.01   0.02
   4   6     0.16   0.02  -0.24     0.02   0.04   0.13     0.00  -0.02   0.05
   5   6     0.13   0.13  -0.02     0.00  -0.00  -0.01    -0.01  -0.04  -0.00
   6   6     0.01  -0.02  -0.00    -0.02  -0.08  -0.13     0.03   0.02  -0.04
   7   6    -0.10  -0.03   0.08    -0.02   0.15  -0.24    -0.03  -0.00  -0.05
   8   6    -0.01   0.10   0.08    -0.02   0.07  -0.07    -0.02  -0.01  -0.02
   9   8     0.08  -0.29   0.10     0.13  -0.32  -0.15     0.12   0.17  -0.24
  10   6    -0.03  -0.08   0.00    -0.06   0.03   0.13    -0.05  -0.04  -0.00
  11   6    -0.03   0.25   0.15    -0.08  -0.00   0.11    -0.03   0.01  -0.01
  12   6    -0.08   0.04   0.04    -0.02   0.10  -0.06    -0.03   0.02   0.06
  13   6     0.06   0.34  -0.01    -0.03   0.07  -0.04    -0.05  -0.02   0.07
  14   1     0.05  -0.08   0.00    -0.02   0.06  -0.03     0.00   0.02  -0.00
  15   8     0.11   0.02   0.01     0.18  -0.41   0.46     0.07  -0.07   0.05
  16   6    -0.33  -0.03   0.15    -0.02   0.12  -0.08     0.06  -0.04   0.14
  17   1     0.01  -0.08  -0.14    -0.01   0.05   0.04    -0.02  -0.00  -0.01
  18   1    -0.00  -0.10  -0.05    -0.02   0.07   0.02    -0.02  -0.01   0.01
  19   1     0.07   0.03  -0.10     0.02  -0.02   0.05     0.02  -0.03   0.02
  20   1     0.05   0.00  -0.07     0.01   0.03   0.07     0.01   0.01   0.04
  21   1     0.06   0.08  -0.00     0.00  -0.02   0.01    -0.00  -0.02   0.00
  22   1    -0.05   0.00  -0.02    -0.02  -0.03  -0.07     0.03   0.01   0.02
  23   1    -0.04  -0.03   0.02    -0.00   0.10  -0.07    -0.01   0.01  -0.01
  24   1    -0.05   0.00   0.05    -0.01   0.03  -0.13    -0.01  -0.00  -0.02
  25   1     0.02  -0.07   0.02     0.07  -0.14   0.00     0.02   0.19  -0.11
  26   1    -0.01  -0.04  -0.02    -0.05   0.06   0.08    -0.03  -0.01  -0.01
  27   1    -0.02  -0.02   0.03    -0.04   0.04   0.06    -0.03  -0.01   0.02
  28   1    -0.05   0.08   0.06    -0.04   0.01   0.03    -0.01   0.01  -0.01
  29   1     0.03   0.11   0.05    -0.02  -0.03   0.08    -0.01   0.00   0.01
  30   1    -0.01   0.15   0.01    -0.01   0.02  -0.02    -0.01  -0.01   0.02
  31   1     0.07   0.11  -0.02    -0.01   0.02  -0.01    -0.02  -0.01   0.03
  32   1     0.04   0.00  -0.02     0.07  -0.12   0.09     0.03  -0.01  -0.01
  33   1    -0.17  -0.03   0.08     0.03   0.04  -0.05    -0.40  -0.13   0.30
  34   1    -0.05  -0.07   0.05    -0.04   0.05  -0.04     0.46  -0.21   0.21
  35   1    -0.11   0.07   0.03    -0.01   0.01   0.00     0.02   0.27  -0.35
                      7                      8                      9
                        a                      a                      a 
 Frequencies --   200.8501               206.1926               250.6997
 Red. masses --    10.3614                 9.1304                 8.3506
 Frc consts  --     0.0000                 0.0000                 0.0000
 IR Inten    --     1.2638                 4.2225                23.6442
 Raman Activ --     0.0000                 0.0000                 0.0000
 Depolar     --     0.0000                 0.0000                 0.0000
 Atom AN      X      Y      Z        X      Y      Z        X      Y      Z
   1   6    -0.03  -0.06  -0.06    -0.06  -0.11   0.09     0.08  -0.02  -0.09
   2   6    -0.01  -0.02   0.04     0.14  -0.14   0.19     0.03   0.02  -0.09
   3   6    -0.01  -0.01   0.04     0.14  -0.14   0.14    -0.02  -0.01   0.02
   4   6    -0.21  -0.05  -0.07     0.07  -0.12   0.09    -0.02  -0.10   0.05
   5   6    -0.02  -0.08   0.04    -0.08  -0.08   0.03     0.05  -0.13   0.03
   6   6     0.11   0.05  -0.04    -0.10  -0.08   0.06     0.06  -0.07  -0.04
   7   6    -0.07  -0.05   0.00    -0.05   0.08  -0.09     0.01   0.03  -0.09
   8   6    -0.05  -0.06   0.05    -0.08   0.00  -0.03     0.00  -0.02   0.00
   9   8     0.29   0.35  -0.42    -0.12   0.11  -0.05    -0.37   0.19   0.20
  10   6    -0.06  -0.10  -0.02    -0.25  -0.28   0.04     0.15  -0.00  -0.12
  11   6    -0.04   0.13   0.00    -0.09   0.01  -0.02    -0.08   0.27   0.24
  12   6    -0.03  -0.04   0.15     0.15   0.04   0.04     0.02   0.00  -0.07
  13   6    -0.01   0.14  -0.05     0.21   0.30  -0.16     0.05  -0.03   0.05
  14   1     0.01   0.02   0.01     0.05  -0.05   0.06     0.00   0.02  -0.03
  15   8     0.09  -0.11   0.04    -0.02   0.03  -0.01     0.19  -0.22  -0.05
  16   6    -0.00  -0.16   0.31     0.12   0.25  -0.20    -0.06  -0.03  -0.03
  17   1     0.01   0.00   0.05     0.04  -0.04   0.04    -0.02   0.01   0.02
  18   1     0.03   0.01  -0.02     0.05  -0.04   0.03    -0.01   0.01   0.00
  19   1    -0.11   0.06  -0.02     0.02  -0.06   0.04    -0.01  -0.01   0.01
  20   1    -0.09  -0.07  -0.07     0.05  -0.01   0.01    -0.02  -0.04   0.02
  21   1     0.01  -0.03   0.03    -0.03  -0.01  -0.00     0.02  -0.05   0.02
  22   1     0.08   0.03   0.06    -0.01  -0.01   0.04     0.04  -0.04  -0.02
  23   1    -0.03  -0.02  -0.00     0.01   0.08  -0.02     0.00   0.03  -0.03
  24   1    -0.02  -0.02   0.00    -0.03   0.01  -0.09     0.01   0.00  -0.05
  25   1     0.14   0.07  -0.06    -0.04   0.09  -0.03    -0.30   0.42  -0.18
  26   1    -0.04  -0.03  -0.03    -0.14  -0.12  -0.09     0.06   0.02   0.00
  27   1    -0.03  -0.03   0.02    -0.09  -0.15   0.10     0.04   0.03  -0.06
  28   1    -0.03   0.07  -0.02    -0.02   0.02  -0.02    -0.12   0.14   0.06
  29   1     0.01   0.05   0.01    -0.03  -0.01   0.01     0.05   0.10   0.16
  30   1    -0.00   0.04  -0.01     0.06   0.17  -0.12     0.01  -0.01   0.04
  31   1     0.00   0.08  -0.07     0.08   0.06  -0.01     0.03  -0.01   0.01
  32   1     0.04  -0.01  -0.03     0.02   0.12  -0.11     0.06  -0.16   0.04
  33   1     0.20   0.03   0.01     0.03   0.04  -0.11     0.02   0.00  -0.03
  34   1    -0.19   0.02   0.01     0.04   0.13  -0.04    -0.07  -0.01  -0.03
  35   1     0.00  -0.20   0.26     0.03   0.09  -0.08    -0.02  -0.03   0.05
                     10                     11                     12
                        a                      a                      a 
 Frequencies --   271.1802               278.0396               286.5720
 Red. masses --     9.2028                 5.8496                 7.5532
 Frc consts  --     0.0000                 0.0000                 0.0000
 IR Inten    --     5.3353                88.1805                76.3470
 Raman Activ --     0.0000                 0.0000                 0.0000
 Depolar     --     0.0000                 0.0000                 0.0000
 Atom AN      X      Y      Z        X      Y      Z        X      Y      Z
   1   6     0.00   0.06   0.04    -0.07  -0.07   0.04    -0.11  -0.06  -0.02
   2   6     0.08   0.06   0.09    -0.07  -0.02   0.10     0.04  -0.07   0.06
   3   6    -0.03  -0.06  -0.08     0.04   0.06   0.02     0.11  -0.05   0.04
   4   6    -0.43  -0.11  -0.31     0.08   0.13   0.01     0.14  -0.07   0.06
   5   6    -0.06  -0.10   0.07     0.04   0.11  -0.06    -0.12  -0.04  -0.09
   6   6    -0.02  -0.05   0.04    -0.08  -0.04  -0.01    -0.15  -0.07  -0.06
   7   6     0.02   0.08  -0.05    -0.04  -0.11   0.07    -0.16  -0.18   0.07
   8   6    -0.07  -0.10   0.09     0.02   0.04  -0.04    -0.16  -0.04  -0.07
   9   8     0.09  -0.32   0.10     0.18  -0.37  -0.11    -0.08   0.02  -0.26
  10   6     0.03   0.11   0.06     0.01   0.02   0.03     0.21   0.24  -0.01
  11   6    -0.04   0.19   0.03     0.03  -0.14  -0.05    -0.22   0.09   0.07
  12   6     0.14   0.05   0.02    -0.07   0.01   0.11     0.07  -0.03   0.09
  13   6     0.08  -0.04  -0.02    -0.11   0.04  -0.03     0.13   0.09   0.06
  14   1     0.04   0.00   0.03    -0.01  -0.00   0.03     0.03  -0.03   0.02
  15   8    -0.09   0.09   0.05    -0.04   0.10  -0.02    -0.02   0.14  -0.05
  16   6     0.29   0.08  -0.03     0.08   0.08   0.02     0.17   0.06  -0.01
  17   1    -0.02   0.01   0.02     0.04  -0.00  -0.00     0.03  -0.01   0.02
  18   1     0.07  -0.04  -0.08     0.00   0.02   0.01     0.03  -0.01   0.01
  19   1    -0.23   0.13  -0.11     0.03   0.03  -0.00     0.07  -0.10   0.04
  20   1    -0.20  -0.17  -0.21     0.03   0.05   0.01     0.08   0.05   0.05
  21   1    -0.00  -0.02   0.03    -0.00   0.03  -0.03    -0.04   0.01  -0.03
  22   1    -0.02  -0.02  -0.02    -0.08   0.01   0.01    -0.03  -0.01  -0.00
  23   1     0.00   0.08  -0.01    -0.01  -0.08   0.02    -0.05  -0.13   0.02
  24   1     0.03   0.00  -0.06    -0.03  -0.02   0.07    -0.05  -0.03   0.10
  25   1     0.01   0.03  -0.01    -0.10   0.65  -0.32     0.07  -0.20   0.05
  26   1     0.03   0.04   0.04     0.04  -0.00   0.02     0.21   0.07   0.11
  27   1     0.01   0.05  -0.01     0.00   0.03  -0.01     0.08   0.21  -0.12
  28   1    -0.05   0.12  -0.03     0.04  -0.09   0.02    -0.13   0.03   0.05
  29   1     0.02   0.06   0.06    -0.02  -0.03  -0.06    -0.01   0.08   0.04
  30   1     0.04  -0.02  -0.03    -0.02   0.01  -0.04     0.03   0.06   0.01
  31   1    -0.00  -0.02   0.01    -0.05   0.01  -0.01     0.06   0.02   0.02
  32   1    -0.03   0.01   0.04    -0.01  -0.07   0.05     0.00  -0.32   0.20
  33   1     0.02   0.01   0.02     0.11   0.05  -0.05     0.05   0.01  -0.02
  34   1     0.15   0.01   0.02    -0.03   0.09  -0.00     0.06   0.06   0.01
  35   1     0.09   0.05  -0.08     0.04  -0.05   0.04     0.06   0.01  -0.03
                     13                     14                     15
                        a                      a                      a 
 Frequencies --   314.9842               325.7455               341.4040
 Red. masses --     9.5876                 8.1586                 5.2755
 Frc consts  --     0.0000                 0.0000                 0.0000
 IR Inten    --    10.8375                 3.1619               112.8415
 Raman Activ --     0.0000                 0.0000                 0.0000
 Depolar     --     0.0000                 0.0000                 0.0000
 Atom AN      X      Y      Z        X      Y      Z        X      Y      Z
   1   6    -0.03   0.07  -0.00    -0.00  -0.04  -0.03     0.03   0.06  -0.12
   2   6     0.08  -0.07  -0.11     0.00   0.01   0.03     0.02   0.11  -0.15
   3   6     0.10   0.01   0.12     0.23   0.31   0.23    -0.03   0.09  -0.04
   4   6    -0.01  -0.10   0.10    -0.23   0.20  -0.04     0.05  -0.05   0.04
   5   6    -0.06  -0.08   0.10    -0.01   0.12  -0.05    -0.01  -0.07  -0.06
   6   6     0.00  -0.00   0.01    -0.00   0.07  -0.04     0.00  -0.03  -0.12
   7   6     0.01   0.11  -0.09    -0.11  -0.17   0.23    -0.07  -0.27   0.17
   8   6    -0.04  -0.02   0.04    -0.04   0.03   0.03    -0.05  -0.13   0.01
   9   8     0.15  -0.04  -0.13    -0.03  -0.06   0.07    -0.08  -0.08  -0.05
  10   6     0.00   0.20   0.14    -0.01  -0.14  -0.13    -0.01   0.10   0.03
  11   6    -0.01  -0.01  -0.06    -0.02  -0.06  -0.01    -0.07   0.06   0.04
  12   6     0.12  -0.18  -0.20     0.08  -0.08  -0.05     0.06   0.09  -0.08
  13   6     0.32  -0.01   0.06     0.16   0.03  -0.00     0.12   0.07   0.10
  14   1    -0.02  -0.03  -0.04    -0.05   0.04  -0.01     0.01   0.05  -0.05
  15   8    -0.21   0.23   0.12     0.17  -0.18  -0.10    -0.08  -0.13   0.14
  16   6    -0.36  -0.23  -0.12    -0.14  -0.01  -0.13     0.15   0.01   0.03
  17   1     0.02   0.02   0.08     0.14   0.09   0.17    -0.02   0.04   0.00
  18   1     0.03   0.04   0.02     0.12   0.19  -0.02    -0.02   0.03  -0.01
  19   1    -0.04  -0.02   0.05    -0.20   0.15   0.03     0.04  -0.06   0.02
  20   1    -0.00  -0.03   0.00    -0.11  -0.04  -0.12     0.03   0.02   0.06
  21   1    -0.01  -0.03   0.03     0.00   0.02  -0.00     0.00  -0.02  -0.01
  22   1     0.03  -0.01   0.01    -0.04   0.03  -0.02     0.01  -0.03  -0.06
  23   1     0.00   0.09  -0.02    -0.06  -0.16   0.06    -0.09  -0.20   0.03
  24   1     0.01   0.02  -0.08    -0.03  -0.02   0.18     0.02  -0.05   0.19
  25   1     0.02   0.19  -0.09    -0.01  -0.07   0.03    -0.06   0.02  -0.05
  26   1     0.04   0.06   0.08    -0.03  -0.04  -0.06    -0.04   0.05   0.02
  27   1     0.01   0.10  -0.00    -0.01  -0.06  -0.01     0.00   0.01   0.02
  28   1     0.03   0.02  -0.05     0.01  -0.07   0.03    -0.08   0.01   0.04
  29   1    -0.03  -0.04  -0.01    -0.01   0.01  -0.06     0.03   0.08   0.01
  30   1     0.05   0.06   0.08     0.03   0.06  -0.00     0.02   0.02   0.08
  31   1     0.18  -0.01   0.02     0.08  -0.01   0.02     0.07   0.02   0.02
  32   1    -0.08   0.10   0.05     0.07  -0.13  -0.02    -0.10   0.62  -0.26
  33   1    -0.16  -0.10  -0.04    -0.13  -0.05  -0.02     0.07   0.03   0.04
  34   1    -0.14  -0.14  -0.07     0.01  -0.04  -0.02     0.04  -0.01   0.00
  35   1    -0.14   0.03   0.04    -0.06   0.10  -0.07     0.05  -0.04   0.02
                     16                     17                     18
                        a                      a                      a 
 Frequencies --   348.2746               399.9596               415.5283
 Red. masses --     8.5893                 8.0019                 8.7623
 Frc consts  --     0.0000                 0.0000                 0.0000
 IR Inten    --     2.4886                65.5381                 3.3266
 Raman Activ --     0.0000                 0.0000                 0.0000
 Depolar     --     0.0000                 0.0000                 0.0000
 Atom AN      X      Y      Z        X      Y      Z        X      Y      Z
   1   6     0.03  -0.14   0.11     0.02   0.10  -0.06    -0.07   0.04  -0.04
   2   6    -0.07  -0.09   0.16     0.00   0.11  -0.16     0.01  -0.02  -0.08
   3   6     0.17   0.11   0.11    -0.01   0.14  -0.06     0.38   0.20  -0.12
   4   6    -0.03   0.07  -0.04     0.03  -0.09   0.01     0.21  -0.25  -0.14
   5   6     0.07  -0.03  -0.20     0.06  -0.13  -0.08     0.06  -0.16   0.07
   6   6    -0.06  -0.04   0.00     0.08   0.00  -0.04     0.10  -0.08   0.07
   7   6     0.19  -0.14  -0.16     0.10  -0.21   0.02    -0.12   0.04   0.01
   8   6     0.23  -0.06  -0.24     0.13  -0.18  -0.08    -0.18  -0.18   0.23
   9   8    -0.03   0.03  -0.12     0.02  -0.01   0.05     0.03   0.07   0.11
  10   6     0.12  -0.02   0.15    -0.36  -0.12   0.11    -0.03   0.10  -0.03
  11   6     0.06   0.15   0.26     0.08   0.06   0.10    -0.06  -0.00  -0.14
  12   6    -0.11  -0.07   0.11     0.00   0.13  -0.14    -0.12   0.05   0.09
  13   6    -0.21  -0.07  -0.11     0.03   0.04   0.06    -0.25  -0.04  -0.06
  14   1    -0.02  -0.02   0.04    -0.01   0.02  -0.04     0.03  -0.04  -0.00
  15   8    -0.13   0.11   0.02    -0.19   0.31   0.06     0.00  -0.00   0.05
  16   6    -0.17   0.05  -0.04     0.05   0.00   0.03    -0.08   0.12   0.03
  17   1     0.12   0.01   0.09    -0.00   0.06   0.03     0.20   0.08   0.16
  18   1     0.08   0.10  -0.02     0.00   0.07  -0.03     0.17   0.23  -0.15
  19   1    -0.07   0.04   0.02     0.02  -0.06   0.02     0.06  -0.10  -0.02
  20   1    -0.02  -0.02  -0.05     0.01  -0.01   0.05     0.07  -0.06  -0.01
  21   1    -0.03  -0.03  -0.10    -0.00  -0.05  -0.04     0.06   0.05   0.04
  22   1    -0.04   0.01   0.02     0.04  -0.02  -0.02     0.07  -0.04   0.02
  23   1     0.11  -0.00  -0.04     0.03  -0.14   0.00    -0.07   0.10   0.01
  24   1     0.02  -0.04  -0.09     0.06  -0.05   0.09     0.02  -0.02  -0.07
  25   1     0.04  -0.07   0.02    -0.02  -0.01   0.00    -0.02   0.02   0.01
  26   1     0.07  -0.02   0.05    -0.23  -0.04  -0.08     0.00   0.04   0.01
  27   1     0.05   0.01   0.01    -0.13  -0.15   0.16    -0.02   0.05  -0.02
  28   1    -0.15   0.09   0.11    -0.07   0.05   0.04     0.05   0.01  -0.08
  29   1     0.14   0.11   0.19     0.10   0.07   0.08    -0.06  -0.02  -0.08
  30   1    -0.04  -0.03  -0.10    -0.00  -0.00   0.06    -0.04  -0.06  -0.06
  31   1    -0.11  -0.03  -0.02     0.02   0.01   0.02    -0.14  -0.01  -0.02
  32   1    -0.09   0.24  -0.05     0.03  -0.38   0.19     0.00   0.03  -0.01
  33   1    -0.09  -0.02  -0.03     0.04   0.04   0.06    -0.01   0.04   0.01
  34   1    -0.02   0.04   0.01     0.01  -0.05  -0.01     0.00   0.05   0.03
  35   1    -0.05   0.06  -0.05     0.02  -0.03   0.03    -0.01   0.02  -0.02
                     19                     20                     21
                        a                      a                      a 
 Frequencies --   471.9142               496.2259               511.3357
 Red. masses --     7.6656                 9.5762                11.7198
 Frc consts  --     0.0000                 0.0000                 0.0000
 IR Inten    --     0.0567                 6.6294                13.3058
 Raman Activ --     0.0000                 0.0000                 0.0000
 Depolar     --     0.0000                 0.0000                 0.0000
 Atom AN      X      Y      Z        X      Y      Z        X      Y      Z
   1   6     0.11   0.16  -0.08    -0.07   0.03  -0.26     0.04  -0.10  -0.02
   2   6     0.28   0.15   0.09    -0.02   0.01  -0.03     0.03  -0.03  -0.01
   3   6     0.04  -0.13   0.05    -0.06   0.00   0.01     0.05  -0.02   0.03
   4   6     0.03  -0.05   0.03    -0.02   0.08   0.03     0.01   0.08  -0.01
   5   6    -0.05  -0.02  -0.00     0.16   0.01   0.06     0.06   0.12   0.17
   6   6     0.02   0.01  -0.12     0.14   0.00  -0.18    -0.17  -0.17  -0.16
   7   6     0.02   0.01   0.14    -0.07  -0.10  -0.09     0.01   0.01   0.06
   8   6    -0.07   0.03  -0.03     0.12  -0.06   0.16     0.12  -0.03   0.40
   9   8    -0.03  -0.05  -0.10    -0.14   0.04   0.06    -0.37  -0.03  -0.43
  10   6    -0.06   0.04  -0.02    -0.13   0.15  -0.03     0.04  -0.08   0.09
  11   6    -0.08   0.01  -0.00     0.20  -0.01   0.02     0.29   0.03   0.06
  12   6     0.29   0.07   0.17    -0.04  -0.42   0.44     0.01   0.20  -0.18
  13   6    -0.05  -0.27  -0.25     0.03   0.11  -0.09    -0.03  -0.05   0.03
  14   1     0.09   0.06   0.02     0.03   0.07  -0.03    -0.00  -0.01  -0.01
  15   8    -0.01   0.01   0.02    -0.08   0.09   0.09    -0.05   0.08   0.00
  16   6    -0.25   0.16   0.12     0.03  -0.03  -0.07     0.01   0.05   0.04
  17   1    -0.09  -0.02  -0.08    -0.05  -0.00  -0.06     0.03  -0.02   0.01
  18   1     0.01  -0.16   0.07    -0.04  -0.05   0.04     0.01   0.01   0.00
  19   1    -0.00  -0.01   0.02    -0.02   0.07  -0.01    -0.03   0.09  -0.02
  20   1     0.02  -0.01  -0.01    -0.04  -0.02  -0.00    -0.03  -0.03  -0.05
  21   1     0.00  -0.02   0.01     0.07  -0.02   0.05     0.06   0.05   0.09
  22   1     0.03  -0.02  -0.06     0.05  -0.02  -0.08    -0.07  -0.05  -0.06
  23   1    -0.03  -0.14   0.03    -0.08  -0.01  -0.03    -0.07   0.11   0.02
  24   1     0.04   0.03   0.19     0.01  -0.03  -0.03     0.02  -0.02  -0.07
  25   1    -0.02   0.01  -0.04    -0.11  -0.06  -0.02    -0.07  -0.08  -0.07
  26   1    -0.07   0.02  -0.03    -0.05   0.06   0.01     0.02  -0.03   0.02
  27   1    -0.02  -0.03   0.03    -0.05   0.07   0.01     0.01  -0.02   0.02
  28   1    -0.03   0.00  -0.00     0.10  -0.03   0.01     0.16  -0.04   0.02
  29   1    -0.02   0.00   0.01     0.04   0.00  -0.04     0.04   0.01  -0.07
  30   1     0.07  -0.24  -0.18    -0.00   0.06  -0.01     0.00  -0.02  -0.01
  31   1    -0.23  -0.06  -0.09     0.05   0.09  -0.09    -0.04  -0.04   0.05
  32   1     0.01  -0.03   0.01    -0.01  -0.01   0.03    -0.02  -0.02   0.04
  33   1    -0.15  -0.04  -0.05    -0.02  -0.11  -0.19     0.01   0.06   0.09
  34   1    -0.13   0.01  -0.01     0.06   0.20   0.06    -0.01  -0.08  -0.02
  35   1    -0.12   0.18   0.12     0.01   0.05  -0.13     0.00  -0.01   0.05
                     22                     23                     24
                        a                      a                      a 
 Frequencies --   527.1208               565.1390               599.8126
 Red. masses --     8.6682                 9.9693                 9.7010
 Frc consts  --     0.0000                 0.0000                 0.0000
 IR Inten    --     3.1992                12.6603                 2.7493
 Raman Activ --     0.0000                 0.0000                 0.0000
 Depolar     --     0.0000                 0.0000                 0.0000
 Atom AN      X      Y      Z        X      Y      Z        X      Y      Z
   1   6     0.03  -0.07  -0.09     0.03  -0.20  -0.16     0.36   0.02   0.08
   2   6     0.02  -0.13  -0.10     0.07  -0.14  -0.04     0.02   0.02  -0.16
   3   6     0.09  -0.11   0.05     0.04  -0.16   0.24    -0.04   0.06  -0.02
   4   6    -0.05  -0.14   0.01    -0.03   0.21   0.10    -0.04   0.00   0.01
   5   6     0.16  -0.12   0.12     0.12   0.07  -0.13    -0.08   0.01  -0.05
   6   6     0.17  -0.17  -0.08     0.26   0.16  -0.20     0.09   0.06  -0.21
   7   6    -0.12   0.11   0.03    -0.18  -0.15  -0.17     0.17   0.20   0.20
   8   6     0.09   0.52  -0.28    -0.17  -0.15   0.05    -0.22  -0.01   0.06
   9   8    -0.07   0.06   0.01     0.10   0.05   0.25    -0.06  -0.10  -0.11
  10   6     0.01   0.01   0.09     0.07  -0.08   0.14     0.26  -0.28   0.24
  11   6    -0.03  -0.11   0.05    -0.15   0.01  -0.11    -0.23   0.04  -0.07
  12   6    -0.10   0.07  -0.05     0.02   0.18  -0.12    -0.13  -0.16   0.13
  13   6    -0.10   0.03   0.04    -0.05  -0.04   0.02    -0.07   0.09   0.00
  14   1     0.01  -0.02  -0.03     0.01   0.03  -0.04     0.01   0.02  -0.05
  15   8    -0.08   0.12   0.07    -0.09   0.14   0.04    -0.06   0.09  -0.04
  16   6     0.05   0.03   0.01     0.02   0.08   0.07     0.01  -0.06  -0.05
  17   1     0.05  -0.02   0.08     0.01  -0.08  -0.03     0.01   0.03   0.04
  18   1     0.05   0.03  -0.03    -0.04  -0.08   0.12    -0.00   0.07  -0.03
  19   1    -0.09   0.10  -0.03    -0.08   0.10   0.06     0.03  -0.06   0.01
  20   1    -0.08  -0.16  -0.08    -0.01   0.03  -0.06     0.02   0.06   0.04
  21   1     0.06  -0.07   0.06     0.07  -0.03   0.01     0.04  -0.00   0.05
  22   1     0.09  -0.07  -0.03     0.05   0.05  -0.06     0.02  -0.01  -0.10
  23   1    -0.02  -0.20  -0.00    -0.08   0.09  -0.05     0.05   0.07   0.06
  24   1    -0.17   0.11   0.23    -0.03  -0.08  -0.17     0.06   0.05   0.04
  25   1    -0.07  -0.05  -0.01    -0.09  -0.03   0.01    -0.04  -0.02  -0.05
  26   1     0.02   0.00   0.04     0.07  -0.03   0.06    -0.01  -0.09  -0.00
  27   1    -0.00   0.03   0.02     0.01   0.04   0.01     0.10  -0.20   0.10
  28   1     0.09  -0.02  -0.04    -0.06  -0.08   0.04    -0.07   0.03  -0.03
  29   1    -0.11  -0.17   0.06    -0.02   0.09  -0.13    -0.07   0.00  -0.01
  30   1    -0.03   0.02   0.01     0.01  -0.01  -0.06    -0.04  -0.03   0.12
  31   1    -0.03  -0.00   0.03    -0.07  -0.05   0.06     0.02   0.11  -0.10
  32   1    -0.04   0.04   0.04    -0.04   0.02   0.05    -0.06  -0.01   0.08
  33   1     0.04   0.04   0.05     0.02   0.07   0.09     0.01  -0.04  -0.09
  34   1     0.04   0.00   0.01    -0.00  -0.06  -0.01     0.04   0.11   0.04
  35   1     0.03  -0.04  -0.03     0.01  -0.01   0.05     0.02  -0.02  -0.10
                     25                     26                     27
                        a                      a                      a 
 Frequencies --   616.5059               688.3926               701.7402
 Red. masses --    10.2396                 7.3112                 2.3985
 Frc consts  --     0.0000                 0.0000                 0.0000
 IR Inten    --     5.4462                 1.4109                 0.4666
 Raman Activ --     0.0000                 0.0000                 0.0000
 Depolar     --     0.0000                 0.0000                 0.0000
 Atom AN      X      Y      Z        X      Y      Z        X      Y      Z
   1   6    -0.04  -0.19   0.09     0.09   0.22   0.09     0.03  -0.02  -0.06
   2   6    -0.12   0.24   0.21    -0.04   0.03   0.24    -0.06  -0.01   0.14
   3   6    -0.20   0.33  -0.24     0.09  -0.06   0.09    -0.05   0.07  -0.06
   4   6     0.04   0.10  -0.08     0.10   0.05  -0.01    -0.02   0.08  -0.05
   5   6     0.31  -0.11  -0.06     0.21  -0.08  -0.11    -0.04   0.02   0.01
   6   6     0.11  -0.33   0.10     0.12  -0.17  -0.03     0.06   0.12  -0.15
   7   6    -0.15  -0.05  -0.04     0.17   0.16   0.16     0.02  -0.02  -0.04
   8   6    -0.10   0.07  -0.03    -0.12  -0.07  -0.03    -0.02  -0.09   0.08
   9   8    -0.03   0.09  -0.02    -0.06  -0.01  -0.11     0.00  -0.02   0.02
  10   6     0.09  -0.14   0.13    -0.11   0.19  -0.14     0.05  -0.04   0.04
  11   6    -0.13  -0.02  -0.06    -0.15   0.01  -0.07     0.01   0.01  -0.01
  12   6     0.19  -0.01   0.01    -0.16  -0.04  -0.04     0.01  -0.05   0.05
  13   6     0.18  -0.07  -0.05    -0.12   0.05   0.06     0.01  -0.02   0.00
  14   1    -0.04   0.06   0.06    -0.03  -0.02   0.07    -0.00   0.03   0.03
  15   8    -0.05   0.07   0.03    -0.00  -0.04   0.04    -0.01   0.01  -0.01
  16   6    -0.02   0.00   0.02    -0.00  -0.15  -0.12    -0.01  -0.02  -0.01
  17   1    -0.08   0.08  -0.12    -0.01  -0.05  -0.11     0.02   0.00  -0.01
  18   1    -0.05   0.02  -0.04    -0.01  -0.13   0.10     0.01   0.02  -0.04
  19   1     0.06   0.03  -0.06    -0.06   0.11   0.01     0.08  -0.09  -0.01
  20   1    -0.07  -0.03   0.11    -0.03  -0.09  -0.07     0.04   0.11   0.08
  21   1     0.12   0.00   0.01     0.10  -0.01  -0.00     0.03   0.01   0.04
  22   1     0.03  -0.06   0.08     0.05  -0.07  -0.03     0.01   0.03  -0.05
  23   1    -0.01   0.04  -0.01     0.07   0.04   0.05    -0.01  -0.10  -0.02
  24   1    -0.09  -0.02  -0.08     0.14   0.02   0.04    -0.02   0.02   0.09
  25   1    -0.02  -0.03   0.00    -0.03  -0.03  -0.03    -0.05  -0.02  -0.02
  26   1     0.06  -0.06   0.04    -0.11   0.08  -0.06     0.01  -0.01   0.00
  27   1     0.02  -0.02   0.02    -0.03  -0.02   0.01     0.01  -0.01   0.02
  28   1     0.00  -0.06   0.01    -0.12  -0.13   0.12     0.11   0.33  -0.30
  29   1    -0.07   0.00  -0.08     0.02   0.15  -0.14    -0.10  -0.32   0.31
  30   1     0.06  -0.02  -0.02    -0.06   0.26  -0.16     0.01   0.29  -0.34
  31   1     0.04  -0.02  -0.01     0.04  -0.15   0.22     0.00  -0.26   0.31
  32   1    -0.03   0.01   0.04     0.02  -0.02  -0.02    -0.02   0.01   0.01
  33   1    -0.06  -0.04  -0.03     0.03   0.01   0.04     0.00   0.03   0.06
  34   1    -0.05  -0.03  -0.03     0.01  -0.09  -0.04    -0.02  -0.09  -0.03
  35   1    -0.04   0.08   0.07     0.01  -0.11  -0.03    -0.01  -0.03   0.05
                     28                     29                     30
                        a                      a                      a 
 Frequencies --   722.3977               792.6893               825.6137
 Red. masses --     4.1095                 7.5752                 8.9810
 Frc consts  --     0.0000                 0.0000                 0.0000
 IR Inten    --     3.1135                 3.5952                 7.0971
 Raman Activ --     0.0000                 0.0000                 0.0000
 Depolar     --     0.0000                 0.0000                 0.0000
 Atom AN      X      Y      Z        X      Y      Z        X      Y      Z
   1   6    -0.03   0.02   0.05    -0.02  -0.03   0.04    -0.03  -0.02   0.13
   2   6     0.03   0.05   0.06    -0.14  -0.05   0.49    -0.14  -0.37  -0.26
   3   6     0.15  -0.00   0.11    -0.10  -0.13   0.06    -0.15  -0.04  -0.07
   4   6     0.15   0.23   0.01    -0.12  -0.10  -0.12    -0.08   0.24   0.10
   5   6     0.14  -0.01  -0.03     0.08   0.00  -0.17     0.12  -0.00  -0.01
   6   6    -0.03  -0.13   0.10     0.20   0.14  -0.28     0.09  -0.10   0.01
   7   6     0.05  -0.05  -0.04    -0.02   0.09   0.08     0.18   0.06   0.20
   8   6    -0.10  -0.19   0.03     0.03   0.01   0.05    -0.05  -0.05  -0.07
   9   8    -0.03   0.02  -0.04    -0.01  -0.03   0.00    -0.06  -0.02  -0.07
  10   6    -0.06   0.05  -0.05    -0.11   0.08  -0.09    -0.16   0.14  -0.13
  11   6    -0.10  -0.00  -0.07     0.07   0.02   0.03    -0.09  -0.03  -0.06
  12   6    -0.07   0.07  -0.11     0.02   0.09  -0.14     0.12  -0.06   0.02
  13   6    -0.06   0.04   0.03     0.02  -0.02   0.02     0.17  -0.09  -0.05
  14   1    -0.02  -0.01   0.02    -0.05  -0.04   0.14    -0.05  -0.15  -0.05
  15   8     0.00  -0.01   0.02    -0.00   0.01   0.05     0.00  -0.01   0.04
  16   6     0.01  -0.05  -0.05    -0.01  -0.04  -0.07     0.02   0.25   0.22
  17   1    -0.01  -0.05  -0.18     0.09  -0.05   0.18     0.14  -0.07   0.09
  18   1    -0.05  -0.14   0.16     0.11   0.07  -0.13    -0.07   0.20  -0.07
  19   1    -0.10   0.18   0.04     0.14  -0.22  -0.04     0.02   0.07  -0.00
  20   1    -0.02  -0.05  -0.12     0.05   0.14   0.13    -0.04   0.06   0.07
  21   1     0.06   0.05  -0.00     0.09  -0.04   0.02     0.07  -0.06   0.04
  22   1    -0.02  -0.02   0.04     0.01   0.05  -0.08     0.01  -0.03  -0.01
  23   1     0.03  -0.08  -0.01    -0.01   0.01   0.02     0.17   0.10   0.07
  24   1     0.03  -0.01   0.05    -0.01   0.03   0.03     0.06  -0.01  -0.05
  25   1     0.02  -0.00   0.01    -0.11  -0.06  -0.06    -0.03  -0.03  -0.02
  26   1    -0.02   0.02  -0.01     0.00   0.03   0.01    -0.00   0.04   0.01
  27   1    -0.02   0.01  -0.02    -0.03   0.07  -0.05    -0.05   0.08  -0.06
  28   1     0.03   0.29  -0.28     0.05   0.00  -0.00    -0.08   0.07  -0.05
  29   1    -0.10  -0.27   0.26     0.00  -0.02   0.02     0.01  -0.02   0.07
  30   1    -0.04  -0.20   0.30    -0.02  -0.14   0.23     0.08  -0.06  -0.08
  31   1     0.02   0.21  -0.23     0.05   0.15  -0.19    -0.00  -0.02  -0.02
  32   1     0.01  -0.00  -0.02     0.03  -0.00  -0.03     0.05  -0.01  -0.06
  33   1     0.01  -0.02  -0.04    -0.01  -0.01  -0.01     0.00   0.06   0.03
  34   1     0.02   0.03   0.00    -0.02  -0.04  -0.03     0.01   0.09   0.07
  35   1     0.01  -0.02  -0.06    -0.02   0.02   0.01    -0.00   0.10   0.06
                     31                     32                     33
                        a                      a                      a 
 Frequencies --   877.5176               890.9697               901.0904
 Red. masses --     8.3651                 4.1124                 7.4703
 Frc consts  --     0.0000                 0.0000                 0.0000
 IR Inten    --     0.5227                26.0732                 9.2650
 Raman Activ --     0.0000                 0.0000                 0.0000
 Depolar     --     0.0000                 0.0000                 0.0000
 Atom AN      X      Y      Z        X      Y      Z        X      Y      Z
   1   6     0.07   0.05  -0.11    -0.03  -0.01   0.06    -0.03  -0.11  -0.06
   2   6     0.03  -0.05   0.18     0.01   0.04  -0.01     0.20  -0.04  -0.03
   3   6     0.03  -0.07  -0.16     0.04   0.04  -0.00     0.13   0.12  -0.12
   4   6    -0.06   0.29  -0.00     0.03  -0.05   0.01    -0.17   0.25  -0.00
   5   6    -0.19   0.09   0.48     0.01  -0.03  -0.01    -0.23  -0.14  -0.08
   6   6     0.03  -0.16   0.02     0.03   0.09  -0.07     0.11  -0.21   0.02
   7   6     0.15  -0.18  -0.28    -0.04  -0.07   0.13    -0.06   0.30   0.13
   8   6    -0.05   0.01  -0.06     0.04   0.11  -0.09     0.06  -0.08   0.03
   9   8     0.02   0.05   0.03    -0.02  -0.03  -0.02     0.05   0.03   0.04
  10   6     0.06   0.06  -0.01    -0.03   0.00  -0.01    -0.14  -0.17  -0.01
  11   6    -0.15  -0.09  -0.01    -0.10  -0.32   0.30     0.14  -0.07   0.00
  12   6    -0.01   0.04  -0.02    -0.00   0.00   0.00    -0.03   0.06  -0.01
  13   6    -0.03   0.02   0.01    -0.01   0.01  -0.00    -0.06  -0.03   0.13
  14   1     0.05  -0.04   0.07     0.00   0.01  -0.00     0.07  -0.02  -0.00
  15   8    -0.02  -0.00   0.01     0.01  -0.01  -0.00    -0.01   0.07   0.07
  16   6    -0.01  -0.05  -0.07     0.00  -0.01  -0.01    -0.02  -0.09  -0.06
  17   1     0.14  -0.05   0.05    -0.04   0.02  -0.05    -0.00   0.00  -0.18
  18   1     0.10   0.06  -0.15    -0.01  -0.04   0.04     0.02  -0.09   0.03
  19   1     0.14   0.07  -0.12    -0.03  -0.00   0.02    -0.00  -0.09   0.07
  20   1     0.03   0.16   0.06     0.00  -0.03  -0.02     0.03   0.19   0.07
  21   1    -0.01  -0.04   0.18     0.01  -0.01  -0.00    -0.12  -0.12  -0.06
  22   1     0.10  -0.09  -0.01    -0.01   0.02  -0.03     0.10  -0.08   0.02
  23   1     0.01  -0.17  -0.09     0.06   0.13   0.05    -0.09  -0.00   0.02
  24   1     0.09  -0.03   0.06    -0.03  -0.05  -0.13    -0.01   0.10   0.12
  25   1    -0.02  -0.01  -0.01    -0.03  -0.02  -0.02    -0.03  -0.00  -0.01
  26   1    -0.08   0.02  -0.06     0.01   0.00   0.01     0.19  -0.05   0.15
  27   1     0.01  -0.07   0.07    -0.00   0.01  -0.02    -0.03   0.19  -0.17
  28   1    -0.10   0.03  -0.02     0.16   0.44  -0.41    -0.07   0.02   0.02
  29   1     0.04   0.16  -0.13     0.13   0.37  -0.34     0.16   0.09   0.04
  30   1    -0.01  -0.03   0.05    -0.00   0.00   0.00     0.01   0.08  -0.13
  31   1    -0.00   0.03  -0.03    -0.00  -0.00   0.01    -0.06   0.11  -0.11
  32   1    -0.03   0.01   0.04     0.02  -0.00  -0.02     0.06  -0.00  -0.08
  33   1    -0.00  -0.00   0.00    -0.00  -0.00  -0.00     0.01  -0.02  -0.02
  34   1    -0.01  -0.05  -0.03    -0.00  -0.00  -0.00     0.01   0.00  -0.00
  35   1    -0.00  -0.01  -0.01     0.00  -0.01  -0.00     0.01  -0.06  -0.05
                     34                     35                     36
                        a                      a                      a 
 Frequencies --   905.0987               918.6296               931.9668
 Red. masses --     3.9969                 6.9845                 6.1029
 Frc consts  --     0.0000                 0.0000                 0.0000
 IR Inten    --    27.4048                 6.3629                 2.9779
 Raman Activ --     0.0000                 0.0000                 0.0000
 Depolar     --     0.0000                 0.0000                 0.0000
 Atom AN      X      Y      Z        X      Y      Z        X      Y      Z
   1   6    -0.01  -0.04  -0.01     0.13   0.12  -0.08    -0.03  -0.02  -0.12
   2   6     0.06  -0.00  -0.01    -0.10  -0.12  -0.02    -0.12   0.01  -0.00
   3   6     0.02   0.00  -0.02    -0.03  -0.11   0.10    -0.14  -0.05   0.12
   4   6    -0.05   0.08  -0.00    -0.09   0.15  -0.08     0.12  -0.11  -0.05
   5   6    -0.04  -0.03  -0.04    -0.01  -0.07  -0.31     0.17   0.10  -0.01
   6   6     0.03  -0.07   0.01    -0.03  -0.25   0.17    -0.12   0.03   0.06
   7   6    -0.02   0.07   0.06    -0.20   0.18  -0.09     0.17   0.30  -0.24
   8   6     0.02  -0.02   0.01     0.03  -0.06   0.11    -0.06  -0.17   0.09
   9   8     0.01   0.01   0.01     0.04   0.05   0.03     0.00   0.02   0.03
  10   6    -0.04  -0.02  -0.00     0.23   0.17  -0.00    -0.07  -0.21   0.07
  11   6     0.04  -0.01  -0.01     0.09  -0.03   0.12    -0.05  -0.11  -0.00
  12   6    -0.01  -0.07   0.11     0.01  -0.05  -0.03     0.00  -0.06  -0.01
  13   6    -0.00   0.30  -0.35     0.04  -0.04  -0.03     0.03  -0.05  -0.05
  14   1     0.04   0.00   0.00    -0.07  -0.03  -0.02    -0.07   0.06  -0.03
  15   8    -0.01   0.01   0.01    -0.01  -0.04  -0.02     0.00   0.05   0.01
  16   6    -0.00   0.00  -0.06    -0.00   0.09   0.08     0.01   0.08   0.07
  17   1     0.01  -0.01  -0.02     0.09  -0.09   0.03     0.01  -0.01   0.13
  18   1     0.01  -0.01  -0.00    -0.01   0.03   0.01    -0.03   0.08  -0.01
  19   1     0.01  -0.03   0.01    -0.00  -0.09   0.04     0.01   0.06  -0.05
  20   1     0.01   0.06   0.02     0.03   0.13   0.02    -0.02  -0.10  -0.04
  21   1    -0.03  -0.03  -0.02    -0.10  -0.00  -0.18     0.09   0.14   0.01
  22   1     0.02  -0.02   0.01     0.01  -0.06   0.06    -0.09   0.05   0.04
  23   1    -0.01   0.02   0.02    -0.24  -0.06  -0.05    -0.10  -0.29  -0.10
  24   1    -0.01   0.02   0.02    -0.04   0.08   0.11     0.15   0.15   0.33
  25   1    -0.01  -0.00  -0.00     0.07   0.04   0.04     0.05   0.02   0.03
  26   1     0.06  -0.01   0.04    -0.22   0.05  -0.19     0.17  -0.06   0.15
  27   1    -0.02   0.06  -0.04     0.03  -0.20   0.22    -0.01   0.14  -0.13
  28   1    -0.02   0.01   0.01     0.13   0.07  -0.07    -0.07   0.07  -0.05
  29   1     0.04   0.01   0.02     0.03   0.07  -0.09     0.10   0.18  -0.12
  30   1    -0.03  -0.36   0.45     0.00   0.00   0.01    -0.02   0.03   0.02
  31   1    -0.04  -0.37   0.46     0.04  -0.01  -0.02     0.08  -0.03   0.01
  32   1     0.02  -0.00  -0.02    -0.12   0.02   0.16     0.05  -0.00  -0.07
  33   1     0.01   0.04   0.07     0.01   0.03   0.02    -0.01   0.01   0.01
  34   1    -0.01  -0.09  -0.04     0.01   0.04   0.03    -0.00   0.03   0.02
  35   1     0.00  -0.04   0.02     0.00   0.03   0.02    -0.01   0.05   0.03
                     37                     38                     39
                        a                      a                      a 
 Frequencies --   942.9297               958.1859               964.4183
 Red. masses --     7.1089                 5.9146                 7.2154
 Frc consts  --     0.0000                 0.0000                 0.0000
 IR Inten    --     6.5412                 3.1070                11.4361
 Raman Activ --     0.0000                 0.0000                 0.0000
 Depolar     --     0.0000                 0.0000                 0.0000
 Atom AN      X      Y      Z        X      Y      Z        X      Y      Z
   1   6     0.08  -0.06  -0.02     0.03  -0.06  -0.08     0.07  -0.13  -0.13
   2   6     0.26   0.04  -0.14     0.03   0.17  -0.05    -0.10   0.19  -0.04
   3   6    -0.12  -0.12   0.13    -0.14  -0.18   0.19     0.04  -0.09   0.19
   4   6    -0.18   0.05  -0.06     0.06  -0.02  -0.12     0.04  -0.00  -0.21
   5   6     0.19   0.09  -0.18     0.06   0.19   0.05    -0.23   0.08  -0.00
   6   6    -0.08  -0.15   0.17     0.00  -0.15   0.08     0.07  -0.26   0.02
   7   6     0.16  -0.14  -0.05    -0.16   0.03   0.20     0.17  -0.12   0.12
   8   6    -0.06   0.06   0.07     0.04  -0.02  -0.10    -0.01   0.11   0.01
   9   8    -0.01   0.03  -0.00    -0.00   0.03  -0.00     0.06   0.06   0.05
  10   6    -0.12   0.02  -0.07     0.03   0.04  -0.03    -0.08  -0.06  -0.09
  11   6    -0.13   0.13   0.13     0.08  -0.22  -0.22    -0.04   0.08   0.06
  12   6     0.01   0.08   0.08     0.03   0.05   0.05    -0.04  -0.10  -0.06
  13   6    -0.02   0.13   0.12     0.01   0.06   0.07    -0.07  -0.17  -0.14
  14   1     0.08   0.08  -0.06     0.00   0.17  -0.06    -0.06   0.20  -0.08
  15   8    -0.02   0.03   0.05    -0.01   0.01   0.02    -0.05   0.07   0.11
  16   6    -0.06  -0.19  -0.14    -0.01  -0.11  -0.08     0.06   0.15   0.13
  17   1    -0.03   0.03   0.20    -0.02   0.01   0.23    -0.02  -0.01   0.04
  18   1     0.07   0.04  -0.08     0.05   0.07  -0.07     0.03  -0.05   0.04
  19   1     0.10  -0.12  -0.04     0.10   0.04  -0.12     0.04  -0.06  -0.04
  20   1     0.00   0.13   0.12     0.05   0.02  -0.06     0.13   0.12  -0.14
  21   1     0.06   0.04  -0.05     0.05   0.13   0.03    -0.10   0.11  -0.05
  22   1    -0.11   0.01   0.07    -0.02  -0.03   0.02     0.09  -0.09   0.01
  23   1     0.08  -0.03  -0.01    -0.07   0.16   0.06     0.12   0.08   0.04
  24   1     0.08  -0.05  -0.02    -0.10  -0.02  -0.10     0.03  -0.06  -0.10
  25   1     0.09   0.05   0.04     0.02   0.01   0.01    -0.03   0.00  -0.01
  26   1     0.03   0.02   0.05    -0.04   0.01  -0.04     0.04   0.01   0.05
  27   1    -0.02   0.06  -0.08    -0.01  -0.02   0.04    -0.01   0.06  -0.08
  28   1     0.24  -0.02  -0.05    -0.36   0.13  -0.04     0.09  -0.02   0.01
  29   1    -0.23  -0.07  -0.16     0.29   0.05   0.26    -0.11  -0.06  -0.03
  30   1     0.08  -0.07  -0.13     0.05  -0.03  -0.08    -0.15   0.21   0.13
  31   1    -0.22   0.03   0.04    -0.11   0.02   0.01     0.31  -0.06  -0.03
  32   1     0.05  -0.01  -0.06    -0.03   0.00   0.05     0.04  -0.01  -0.04
  33   1     0.02  -0.03  -0.03    -0.00  -0.04  -0.04    -0.03  -0.00  -0.00
  34   1     0.02  -0.02  -0.01    -0.00  -0.02  -0.02    -0.03   0.02   0.01
  35   1     0.01  -0.12  -0.10    -0.00  -0.03  -0.03    -0.02   0.14   0.10
                     40                     41                     42
                        a                      a                      a 
 Frequencies --   996.6939              1017.0014              1037.1030
 Red. masses --     6.3499                 4.9822                 5.6321
 Frc consts  --     0.0000                 0.0000                 0.0000
 IR Inten    --     8.2518                 5.7374                 8.6822
 Raman Activ --     0.0000                 0.0000                 0.0000
 Depolar     --     0.0000                 0.0000                 0.0000
 Atom AN      X      Y      Z        X      Y      Z        X      Y      Z
   1   6    -0.02  -0.05  -0.07     0.05   0.02  -0.08    -0.01   0.21   0.14
   2   6    -0.36  -0.02   0.08    -0.07  -0.02   0.00    -0.02   0.11   0.00
   3   6    -0.03   0.05   0.06    -0.12  -0.11  -0.13    -0.04  -0.14   0.02
   4   6     0.21  -0.07  -0.12     0.16   0.06   0.16     0.09   0.11   0.00
   5   6    -0.28   0.00   0.02    -0.07  -0.05  -0.09    -0.02  -0.08   0.00
   6   6     0.08  -0.09  -0.10    -0.05  -0.00  -0.03     0.10   0.03   0.03
   7   6     0.14   0.02   0.01    -0.01   0.02   0.08    -0.15  -0.04  -0.05
   8   6    -0.00   0.03   0.04     0.01  -0.03   0.00     0.03  -0.05  -0.04
   9   8     0.08   0.03   0.05     0.03   0.01   0.03    -0.03  -0.04  -0.06
  10   6     0.02  -0.03  -0.03    -0.00  -0.05  -0.02    -0.06  -0.05   0.17
  11   6    -0.00   0.06   0.06    -0.00   0.04   0.05     0.02   0.03   0.04
  12   6     0.06   0.02   0.02     0.05   0.09   0.17     0.02   0.18  -0.19
  13   6     0.25   0.16   0.13    -0.14   0.08   0.08    -0.01   0.02  -0.02
  14   1    -0.18   0.06  -0.03     0.11   0.01   0.02    -0.03  -0.03   0.02
  15   8    -0.02   0.02   0.04    -0.01   0.03   0.04     0.04  -0.04  -0.12
  16   6    -0.08  -0.05  -0.05     0.30  -0.10  -0.19    -0.00  -0.24   0.24
  17   1     0.04  -0.04  -0.06     0.15  -0.08   0.08     0.06  -0.04   0.11
  18   1    -0.11   0.03   0.09    -0.07   0.20  -0.08     0.02   0.09  -0.06
  19   1    -0.07   0.06   0.01    -0.08   0.18   0.03     0.03   0.10  -0.06
  20   1     0.07  -0.06  -0.20    -0.04  -0.12  -0.07     0.04   0.02  -0.08
  21   1    -0.13   0.10  -0.07    -0.14  -0.05  -0.13    -0.10  -0.10  -0.07
  22   1     0.14  -0.07  -0.03     0.05  -0.03  -0.02     0.10  -0.06  -0.04
  23   1     0.06  -0.01   0.01    -0.06   0.05   0.02    -0.05   0.00  -0.01
  24   1     0.03   0.01   0.02     0.05  -0.01  -0.01     0.02  -0.02  -0.02
  25   1    -0.09  -0.04  -0.04     0.03   0.02   0.02    -0.05  -0.03  -0.04
  26   1    -0.00  -0.01  -0.01     0.02   0.00   0.03     0.07  -0.02   0.09
  27   1    -0.01   0.01   0.00     0.02   0.00  -0.04     0.02   0.03  -0.05
  28   1     0.08  -0.03   0.02     0.08   0.01  -0.02     0.07  -0.01  -0.00
  29   1    -0.06  -0.01  -0.05    -0.06  -0.03  -0.02    -0.04  -0.03  -0.02
  30   1     0.24  -0.28  -0.18    -0.05   0.04   0.02    -0.01   0.03  -0.01
  31   1    -0.33   0.05   0.03    -0.06   0.07  -0.03    -0.01  -0.14   0.17
  32   1    -0.01   0.01   0.01     0.02  -0.01  -0.02     0.05  -0.02  -0.08
  33   1     0.05   0.05   0.04    -0.17  -0.18  -0.08    -0.01  -0.26  -0.36
  34   1     0.05   0.03   0.03    -0.17  -0.30  -0.24     0.00   0.38   0.17
  35   1     0.02  -0.13  -0.10    -0.06   0.28   0.27    -0.01   0.12  -0.13
                     43                     44                     45
                        a                      a                      a 
 Frequencies --  1044.8348              1050.8088              1066.4015
 Red. masses --     5.5517                10.5108                 7.4217
 Frc consts  --     0.0000                 0.0000                 0.0000
 IR Inten    --    31.6556               113.9212                10.9006
 Raman Activ --     0.0000                 0.0000                 0.0000
 Depolar     --     0.0000                 0.0000                 0.0000
 Atom AN      X      Y      Z        X      Y      Z        X      Y      Z
   1   6    -0.10  -0.28  -0.05     0.24  -0.08   0.01     0.02   0.20   0.28
   2   6    -0.04  -0.13  -0.06     0.03  -0.09   0.09    -0.18   0.03  -0.19
   3   6     0.10   0.14   0.03    -0.02   0.08  -0.10     0.14  -0.02   0.18
   4   6    -0.12  -0.11  -0.05     0.02  -0.08   0.11    -0.10   0.03  -0.22
   5   6    -0.02   0.09   0.01    -0.04   0.08  -0.01     0.06  -0.09   0.10
   6   6    -0.01  -0.05  -0.05    -0.07   0.03  -0.01     0.14   0.11   0.13
   7   6     0.20   0.08  -0.01    -0.05  -0.04  -0.05    -0.16  -0.03  -0.19
   8   6    -0.04   0.03   0.08    -0.00   0.03   0.02     0.01  -0.02  -0.02
   9   8     0.04   0.04   0.05     0.01   0.01   0.02    -0.13  -0.10  -0.13
  10   6     0.03   0.16  -0.05     0.13  -0.12  -0.51     0.03  -0.08  -0.07
  11   6    -0.01  -0.03  -0.03     0.00  -0.02  -0.02     0.03  -0.02  -0.01
  12   6     0.01   0.16  -0.09     0.00   0.07  -0.08    -0.01  -0.07   0.07
  13   6    -0.07   0.09   0.05     0.00  -0.00  -0.03     0.01   0.09   0.07
  14   1    -0.01  -0.02  -0.02     0.01  -0.08   0.05    -0.15   0.02  -0.07
  15   8     0.01  -0.05  -0.03    -0.17   0.21   0.47    -0.04   0.05   0.12
  16   6     0.19  -0.17   0.10    -0.04  -0.07   0.10     0.16   0.04  -0.05
  17   1    -0.07   0.04  -0.12    -0.01   0.02  -0.03    -0.00  -0.03  -0.07
  18   1    -0.03  -0.06   0.09    -0.03   0.03  -0.01     0.01  -0.09   0.10
  19   1    -0.06  -0.17   0.10    -0.06   0.03   0.04     0.04  -0.16   0.00
  20   1     0.02   0.06   0.04    -0.06  -0.10   0.03     0.13   0.20  -0.05
  21   1     0.15   0.12   0.12    -0.01   0.05  -0.01     0.13  -0.04   0.13
  22   1    -0.10   0.07   0.06    -0.07   0.04   0.01     0.03  -0.00  -0.01
  23   1     0.16  -0.08   0.00    -0.14   0.01  -0.02     0.07  -0.10  -0.05
  24   1    -0.07   0.06   0.07    -0.03  -0.01  -0.02    -0.14   0.02   0.00
  25   1    -0.04  -0.01  -0.01     0.05   0.03   0.03     0.01  -0.00  -0.01
  26   1    -0.08  -0.01  -0.14    -0.05   0.08  -0.03     0.02   0.03   0.06
  27   1    -0.11   0.05   0.17     0.14  -0.18  -0.20     0.15  -0.14  -0.16
  28   1    -0.06  -0.00   0.02    -0.04   0.02  -0.01    -0.02  -0.03   0.03
  29   1     0.05   0.05  -0.01     0.02   0.00   0.02     0.03   0.03  -0.01
  30   1    -0.01  -0.01   0.00    -0.00  -0.01   0.01     0.04  -0.04  -0.05
  31   1    -0.09  -0.04   0.10     0.01  -0.06   0.07    -0.12   0.04   0.01
  32   1    -0.12   0.05   0.14     0.10  -0.03  -0.06     0.12  -0.05  -0.13
  33   1    -0.11  -0.27  -0.28     0.02  -0.06  -0.11    -0.08  -0.05   0.00
  34   1    -0.10   0.10  -0.01     0.02   0.15   0.08    -0.07  -0.15  -0.11
  35   1    -0.03   0.25   0.09     0.01  -0.00  -0.08    -0.02   0.14   0.17
                     46                     47                     48
                        a                      a                      a 
 Frequencies --  1081.1936              1093.9200              1126.7120
 Red. masses --     6.5046                 5.9683                 6.8040
 Frc consts  --     0.0000                 0.0000                 0.0000
 IR Inten    --    12.2103                 2.0469                22.2198
 Raman Activ --     0.0000                 0.0000                 0.0000
 Depolar     --     0.0000                 0.0000                 0.0000
 Atom AN      X      Y      Z        X      Y      Z        X      Y      Z
   1   6     0.03  -0.13  -0.25     0.14   0.22  -0.16     0.18  -0.06   0.14
   2   6    -0.21   0.14   0.04    -0.11  -0.19   0.07    -0.04   0.19  -0.03
   3   6     0.17  -0.13  -0.03     0.08   0.09   0.02     0.01  -0.12  -0.13
   4   6    -0.02   0.11  -0.03    -0.15  -0.12  -0.02     0.02   0.01   0.10
   5   6     0.12  -0.31   0.09     0.04   0.11  -0.01    -0.10   0.00  -0.10
   6   6    -0.23   0.22   0.04    -0.12  -0.15  -0.03    -0.22  -0.22  -0.27
   7   6     0.07   0.06   0.17     0.02  -0.16   0.05    -0.05  -0.01  -0.07
   8   6     0.01   0.02  -0.06     0.02   0.20  -0.06    -0.03  -0.02   0.11
   9   8    -0.07  -0.02   0.03     0.06   0.07   0.07     0.17   0.14   0.16
  10   6     0.03  -0.05  -0.05    -0.09  -0.03   0.24    -0.11   0.16   0.15
  11   6    -0.03   0.02   0.00    -0.01  -0.04  -0.04     0.06  -0.02   0.00
  12   6     0.01   0.01  -0.05    -0.02  -0.01  -0.04     0.02   0.00   0.04
  13   6     0.07   0.01   0.01     0.01   0.04   0.03     0.02  -0.03  -0.02
  14   1    -0.09   0.30  -0.11    -0.08  -0.08   0.02     0.03   0.01   0.02
  15   8    -0.02   0.03   0.04     0.02  -0.01  -0.14     0.00  -0.02  -0.10
  16   6    -0.02  -0.02   0.04     0.06   0.00   0.04    -0.05  -0.01  -0.01
  17   1     0.24  -0.19  -0.15     0.06  -0.06  -0.16     0.13  -0.09   0.00
  18   1     0.07  -0.05  -0.03    -0.02  -0.07   0.07    -0.07   0.10  -0.02
  19   1     0.07  -0.01  -0.05    -0.04  -0.16   0.08    -0.14  -0.03   0.16
  20   1    -0.03   0.03   0.07    -0.07  -0.01   0.15     0.06   0.01  -0.12
  21   1     0.06  -0.30   0.11     0.10   0.21   0.03     0.21  -0.08   0.21
  22   1    -0.13   0.09   0.02     0.00  -0.08  -0.08    -0.16   0.03  -0.01
  23   1    -0.04   0.09   0.04    -0.33   0.14  -0.01     0.17  -0.09  -0.00
  24   1     0.05  -0.00  -0.02     0.31  -0.12  -0.09    -0.30   0.06  -0.00
  25   1     0.23   0.11   0.13     0.10   0.07   0.06     0.05   0.03   0.04
  26   1    -0.01   0.00  -0.01     0.00   0.07   0.16    -0.09   0.12   0.09
  27   1    -0.04   0.04   0.02     0.07  -0.01  -0.09     0.10  -0.09  -0.08
  28   1     0.01  -0.03   0.02    -0.07   0.04  -0.02     0.00  -0.00   0.01
  29   1    -0.03  -0.01  -0.01     0.02  -0.04   0.08     0.06   0.04   0.01
  30   1     0.04  -0.03  -0.02     0.02  -0.04  -0.00     0.00   0.02  -0.01
  31   1    -0.03  -0.01   0.02    -0.05   0.01   0.01     0.03  -0.01  -0.00
  32   1    -0.04   0.01   0.05     0.11  -0.06  -0.16     0.15  -0.08  -0.20
  33   1     0.01  -0.02  -0.04    -0.03  -0.04  -0.04     0.02   0.02   0.02
  34   1     0.01   0.06   0.03    -0.03   0.01  -0.01     0.02   0.03   0.02
  35   1     0.00   0.00  -0.03    -0.01   0.07   0.04     0.01  -0.06  -0.04
                     49                     50                     51
                        a                      a                      a 
 Frequencies --  1137.3910              1143.5510              1155.8933
 Red. masses --     5.9204                 8.3436                 4.7480
 Frc consts  --     0.0000                 0.0000                 0.0000
 IR Inten    --    86.5563                11.5194                42.0854
 Raman Activ --     0.0000                 0.0000                 0.0000
 Depolar     --     0.0000                 0.0000                 0.0000
 Atom AN      X      Y      Z        X      Y      Z        X      Y      Z
   1   6    -0.22   0.11   0.10    -0.32   0.21   0.04    -0.17   0.18  -0.05
   2   6     0.00   0.01  -0.07    -0.13   0.31  -0.09     0.02  -0.11  -0.02
   3   6    -0.00   0.01   0.09     0.18  -0.27  -0.17     0.06   0.02   0.12
   4   6     0.07   0.07  -0.07    -0.19  -0.06   0.23    -0.03   0.04  -0.02
   5   6     0.01  -0.08  -0.01     0.08   0.20  -0.07     0.07  -0.00   0.01
   6   6    -0.25  -0.16  -0.28     0.06  -0.11   0.02    -0.26  -0.08  -0.22
   7   6    -0.00   0.03   0.07     0.01  -0.03  -0.00    -0.08   0.06   0.05
   8   6     0.03  -0.01  -0.10    -0.00   0.03   0.00    -0.02  -0.11   0.03
   9   8     0.19   0.14   0.15     0.07   0.03  -0.01     0.15   0.10   0.12
  10   6     0.11  -0.10  -0.10     0.14  -0.20  -0.10     0.10  -0.07   0.00
  11   6     0.02   0.03   0.04     0.01  -0.01  -0.01     0.03   0.01   0.02
  12   6    -0.03  -0.04  -0.01     0.01  -0.01   0.02    -0.02  -0.01  -0.05
  13   6     0.00   0.03   0.02     0.04  -0.01  -0.00    -0.01   0.02   0.02
  14   1    -0.05  -0.22   0.06     0.02   0.01   0.01    -0.04   0.08  -0.06
  15   8    -0.01   0.01   0.08    -0.00   0.02   0.10    -0.02   0.02   0.04
  16   6     0.04   0.03   0.02    -0.03  -0.01  -0.01     0.03   0.01   0.03
  17   1    -0.27   0.19   0.14     0.21  -0.16  -0.05     0.01  -0.02  -0.04
  18   1     0.05  -0.05   0.00     0.05   0.01  -0.07     0.14  -0.14  -0.02
  19   1     0.08   0.07  -0.10    -0.15  -0.11   0.20     0.20   0.08  -0.22
  20   1     0.13   0.10  -0.18    -0.03   0.00   0.07    -0.24  -0.15   0.33
  21   1     0.14  -0.31   0.20     0.05   0.11  -0.00    -0.10   0.14  -0.14
  22   1    -0.13   0.03  -0.01    -0.04   0.02   0.04     0.15  -0.15  -0.16
  23   1    -0.17   0.07   0.01     0.07   0.00   0.01     0.38  -0.05   0.05
  24   1     0.27  -0.05   0.02     0.16  -0.04   0.01    -0.19   0.04  -0.01
  25   1    -0.04  -0.02  -0.01    -0.20  -0.09  -0.10     0.00   0.01   0.01
  26   1     0.05  -0.07  -0.06     0.10  -0.13  -0.06     0.01  -0.01   0.00
  27   1    -0.00  -0.02   0.02    -0.01  -0.00   0.02     0.09  -0.11  -0.05
  28   1     0.07  -0.01  -0.00    -0.01   0.02  -0.02     0.03  -0.01   0.00
  29   1    -0.03  -0.03   0.01     0.01  -0.01   0.02     0.01   0.02  -0.01
  30   1     0.02  -0.02  -0.02     0.02   0.00  -0.03     0.00  -0.02   0.01
  31   1    -0.04   0.01   0.01     0.01  -0.01   0.00    -0.03   0.00   0.01
  32   1    -0.05   0.03   0.07    -0.09   0.06   0.13     0.04  -0.01  -0.05
  33   1    -0.01  -0.01  -0.01     0.01   0.02   0.02    -0.01  -0.02  -0.03
  34   1    -0.01  -0.02  -0.01     0.01   0.02   0.01    -0.01   0.00  -0.00
  35   1    -0.01   0.04   0.04     0.00  -0.04  -0.02    -0.01   0.05   0.02
                     52                     53                     54
                        a                      a                      a 
 Frequencies --  1166.2392              1195.3742              1196.4678
 Red. masses --     3.7215                 5.9090                 5.7082
 Frc consts  --     0.0000                 0.0000                 0.0000
 IR Inten    --    33.3700                12.1597                32.2308
 Raman Activ --     0.0000                 0.0000                 0.0000
 Depolar     --     0.0000                 0.0000                 0.0000
 Atom AN      X      Y      Z        X      Y      Z        X      Y      Z
   1   6    -0.06   0.24  -0.04    -0.33  -0.01  -0.21     0.20  -0.03   0.35
   2   6     0.09  -0.10   0.07     0.12  -0.13   0.03     0.14   0.04  -0.10
   3   6    -0.16   0.05   0.04    -0.14   0.07   0.09    -0.09   0.05   0.14
   4   6     0.05   0.04  -0.12     0.04   0.06  -0.18     0.05   0.03  -0.16
   5   6    -0.04  -0.11  -0.04     0.05  -0.20   0.09    -0.10  -0.15   0.07
   6   6    -0.05   0.02  -0.02    -0.06   0.06   0.08    -0.16   0.03  -0.11
   7   6    -0.07  -0.07   0.00    -0.00   0.07   0.09    -0.04  -0.03  -0.06
   8   6     0.01   0.02  -0.03     0.02   0.02  -0.07     0.04  -0.03  -0.11
   9   8    -0.10  -0.01   0.03     0.06  -0.01  -0.02     0.16   0.03   0.02
  10   6     0.03  -0.17  -0.11     0.17   0.03   0.09    -0.11   0.06  -0.12
  11   6     0.05   0.00   0.02     0.01   0.01   0.01     0.01   0.03   0.03
  12   6     0.06   0.09   0.04     0.11   0.15   0.07     0.04   0.02   0.07
  13   6    -0.03  -0.04  -0.03    -0.05  -0.05  -0.04    -0.05  -0.01  -0.01
  14   1     0.12  -0.04   0.05     0.17   0.08  -0.01    -0.08   0.11  -0.09
  15   8     0.03   0.01   0.05    -0.06   0.03   0.02     0.03  -0.03   0.01
  16   6    -0.05  -0.04  -0.02    -0.06  -0.07  -0.04    -0.01  -0.02  -0.04
  17   1     0.08  -0.05   0.01     0.09  -0.07  -0.03     0.25  -0.19  -0.13
  18   1    -0.18   0.16   0.07    -0.19   0.16   0.10    -0.10   0.09   0.08
  19   1    -0.12  -0.09   0.14    -0.05  -0.08   0.06     0.07   0.00  -0.09
  20   1     0.08   0.07  -0.10     0.06   0.07  -0.06    -0.14  -0.10   0.18
  21   1     0.25   0.17   0.17     0.05   0.09   0.02     0.10   0.19   0.07
  22   1     0.20  -0.19  -0.21    -0.04   0.10   0.16     0.01   0.04   0.07
  23   1     0.18   0.00   0.02     0.10   0.03   0.04    -0.27   0.03  -0.04
  24   1    -0.07  -0.01  -0.02     0.17  -0.01   0.03     0.02  -0.01   0.01
  25   1     0.34   0.19   0.18    -0.23  -0.12  -0.12    -0.27  -0.14  -0.14
  26   1     0.14  -0.14  -0.06    -0.12   0.10   0.04     0.10  -0.11  -0.09
  27   1    -0.10   0.14   0.04     0.21  -0.28  -0.07    -0.13   0.14   0.05
  28   1     0.03  -0.02   0.02     0.02  -0.03   0.02     0.04  -0.03   0.02
  29   1     0.03   0.01   0.01     0.00   0.00   0.00    -0.02  -0.01  -0.02
  30   1    -0.03   0.03   0.03    -0.05   0.05   0.05    -0.04   0.05   0.02
  31   1     0.06  -0.01  -0.01     0.08  -0.01  -0.01     0.02  -0.00  -0.00
  32   1    -0.14   0.08   0.18     0.14  -0.07  -0.18    -0.08   0.03   0.12
  33   1     0.02   0.00  -0.00     0.02   0.00  -0.01     0.00   0.01   0.01
  34   1     0.01   0.02   0.01     0.02   0.01   0.01     0.01  -0.01  -0.00
  35   1     0.01  -0.06  -0.06     0.01  -0.07  -0.07     0.00  -0.02  -0.00
                     55                     56                     57
                        a                      a                      a 
 Frequencies --  1238.2483              1247.1764              1256.9112
 Red. masses --     5.6883                 9.0607                 5.3605
 Frc consts  --     0.0000                 0.0000                 0.0000
 IR Inten    --     9.6657                16.8488                20.9973
 Raman Activ --     0.0000                 0.0000                 0.0000
 Depolar     --     0.0000                 0.0000                 0.0000
 Atom AN      X      Y      Z        X      Y      Z        X      Y      Z
   1   6     0.12   0.16  -0.00     0.22   0.14  -0.16     0.05   0.11  -0.20
   2   6    -0.02  -0.05   0.01    -0.06  -0.10   0.07    -0.03   0.09   0.03
   3   6    -0.03   0.07   0.06     0.02   0.07  -0.02     0.01  -0.10  -0.01
   4   6    -0.05  -0.08  -0.15    -0.08  -0.13   0.04     0.00   0.17   0.00
   5   6     0.29   0.01   0.15     0.06   0.23   0.22     0.10  -0.28   0.04
   6   6    -0.14  -0.04  -0.07     0.03  -0.12   0.06    -0.19   0.12   0.07
   7   6     0.04  -0.12  -0.07    -0.24   0.13   0.13     0.27  -0.07   0.08
   8   6    -0.08   0.21   0.27     0.13  -0.41  -0.37     0.01  -0.00  -0.00
   9   8     0.10   0.07   0.02     0.03   0.05  -0.02     0.07  -0.01  -0.01
  10   6    -0.05  -0.08  -0.05    -0.03  -0.12  -0.01    -0.03  -0.13  -0.01
  11   6    -0.04  -0.09  -0.11    -0.03   0.11   0.10    -0.04   0.01  -0.01
  12   6     0.06   0.06   0.06     0.01   0.01  -0.00    -0.09  -0.09  -0.07
  13   6    -0.02  -0.02  -0.02     0.00  -0.00  -0.00     0.04   0.03   0.02
  14   1     0.02  -0.07   0.03     0.03  -0.00   0.01     0.03  -0.25   0.12
  15   8     0.04   0.00  -0.00     0.05   0.02  -0.04     0.06   0.03  -0.02
  16   6    -0.02  -0.03  -0.03    -0.00  -0.00  -0.00     0.03   0.03   0.03
  17   1     0.08  -0.06  -0.06     0.02  -0.01  -0.06    -0.11   0.08   0.11
  18   1    -0.17   0.10   0.12    -0.06   0.02   0.05     0.08  -0.04  -0.06
  19   1    -0.01  -0.12   0.02     0.01  -0.01  -0.03    -0.08  -0.04   0.12
  20   1     0.09   0.09  -0.09     0.09   0.07  -0.08     0.03   0.07  -0.02
  21   1    -0.37  -0.32  -0.29    -0.01   0.03   0.04     0.07   0.27  -0.04
  22   1    -0.17   0.02  -0.08    -0.27   0.09   0.01     0.09   0.01   0.10
  23   1     0.11  -0.03  -0.01     0.12   0.03   0.05    -0.18   0.08   0.00
  24   1    -0.08  -0.01  -0.02    -0.11   0.03  -0.03    -0.45   0.07  -0.06
  25   1    -0.09  -0.05  -0.05    -0.08  -0.04  -0.04    -0.19  -0.10  -0.10
  26   1     0.05  -0.03   0.02    -0.05   0.10   0.11    -0.05   0.09   0.11
  27   1    -0.06   0.10  -0.02    -0.06   0.11  -0.01    -0.00   0.05  -0.07
  28   1    -0.18   0.05  -0.01     0.15  -0.05   0.01    -0.04  -0.01   0.02
  29   1     0.04   0.02   0.03    -0.12  -0.04  -0.09    -0.03   0.00  -0.04
  30   1    -0.02   0.02   0.02     0.00  -0.01   0.00     0.04  -0.04  -0.04
  31   1     0.03  -0.00  -0.00     0.01   0.00  -0.00    -0.04   0.00   0.01
  32   1    -0.08   0.05   0.11    -0.08   0.05   0.10    -0.07   0.04   0.09
  33   1     0.00   0.00   0.00    -0.00   0.00   0.00    -0.01   0.00   0.01
  34   1     0.01  -0.00   0.00    -0.00   0.00  -0.00    -0.01   0.01   0.00
  35   1     0.00  -0.03  -0.02     0.00  -0.00  -0.00    -0.01   0.04   0.04
                     58                     59                     60
                        a                      a                      a 
 Frequencies --  1269.4646              1275.6798              1286.0382
 Red. masses --     6.5655                 6.4044                 4.7880
 Frc consts  --     0.0000                 0.0000                 0.0000
 IR Inten    --     9.8474                21.4995                10.4845
 Raman Activ --     0.0000                 0.0000                 0.0000
 Depolar     --     0.0000                 0.0000                 0.0000
 Atom AN      X      Y      Z        X      Y      Z        X      Y      Z
   1   6    -0.04  -0.26   0.15     0.20  -0.02   0.02    -0.03   0.14   0.05
   2   6    -0.06   0.12  -0.05     0.17  -0.08   0.14    -0.06  -0.33   0.09
   3   6     0.07  -0.06  -0.05    -0.11  -0.01  -0.14     0.01   0.04  -0.14
   4   6    -0.12   0.00   0.01     0.05   0.10   0.04     0.00  -0.06   0.09
   5   6     0.30   0.03   0.27     0.09  -0.17   0.08     0.06   0.17  -0.11
   6   6    -0.14   0.06  -0.17    -0.16   0.06   0.00    -0.15   0.02   0.16
   7   6     0.03   0.12   0.05    -0.29   0.01  -0.04     0.14  -0.03   0.00
   8   6     0.08  -0.18  -0.18    -0.02   0.08   0.03     0.01  -0.04  -0.00
   9   8    -0.00   0.03   0.04     0.07   0.01  -0.00     0.08   0.01  -0.03
  10   6     0.03   0.18   0.02    -0.02   0.03  -0.03    -0.04   0.01   0.01
  11   6    -0.07   0.04   0.02     0.04  -0.03  -0.02    -0.02   0.01   0.00
  12   6     0.04   0.04   0.05    -0.21  -0.24  -0.22     0.12   0.13   0.07
  13   6     0.00  -0.02  -0.01     0.05   0.06   0.05    -0.04  -0.03  -0.02
  14   1     0.02  -0.04   0.03    -0.05   0.25  -0.10    -0.07   0.48  -0.22
  15   8    -0.10  -0.03   0.04    -0.02  -0.01   0.01     0.02  -0.01   0.01
  16   6    -0.02  -0.02  -0.02     0.07   0.09   0.07    -0.03  -0.04  -0.03
  17   1    -0.04   0.03   0.01    -0.06   0.06   0.09    -0.13   0.10   0.03
  18   1    -0.03   0.03   0.01     0.10  -0.04  -0.13     0.10  -0.07  -0.09
  19   1    -0.09  -0.12   0.13    -0.17  -0.06   0.22    -0.08  -0.02   0.09
  20   1     0.11   0.14  -0.09     0.09   0.07  -0.11     0.07   0.03  -0.10
  21   1    -0.17   0.17  -0.20    -0.02   0.15  -0.07     0.10  -0.22   0.12
  22   1     0.20  -0.18  -0.22     0.00   0.00   0.01     0.20  -0.15  -0.07
  23   1    -0.19   0.00  -0.01     0.28  -0.06   0.02    -0.18   0.03  -0.02
  24   1     0.01   0.03   0.02     0.30  -0.07   0.00    -0.20   0.04  -0.02
  25   1     0.11   0.06   0.06    -0.11  -0.06  -0.06    -0.17  -0.09  -0.10
  26   1     0.07  -0.14  -0.17     0.03  -0.03  -0.03     0.07  -0.07  -0.04
  27   1     0.00  -0.05   0.08    -0.06   0.06   0.05     0.04  -0.05  -0.05
  28   1    -0.01  -0.01   0.00     0.00  -0.01   0.01    -0.01   0.01  -0.01
  29   1    -0.10  -0.03  -0.07     0.06   0.02   0.04    -0.03  -0.01  -0.02
  30   1    -0.00   0.01  -0.00     0.04  -0.06  -0.04    -0.04   0.03   0.06
  31   1     0.03  -0.00  -0.00    -0.12   0.02   0.01     0.03   0.00  -0.01
  32   1     0.13  -0.08  -0.18     0.00  -0.00  -0.01    -0.02   0.00   0.03
  33   1    -0.00   0.00   0.00    -0.03   0.01   0.04     0.01  -0.00  -0.01
  34   1     0.00   0.00   0.00    -0.03   0.04   0.00     0.01  -0.01  -0.00
  35   1     0.01  -0.03  -0.02    -0.01   0.10   0.08     0.01  -0.05  -0.04
                     61                     62                     63
                        a                      a                      a 
 Frequencies --  1297.9273              1314.5110              1321.5969
 Red. masses --     7.9393                 4.5370                 4.2735
 Frc consts  --     0.0000                 0.0000                 0.0000
 IR Inten    --    10.6035                29.5274                43.2193
 Raman Activ --     0.0000                 0.0000                 0.0000
 Depolar     --     0.0000                 0.0000                 0.0000
 Atom AN      X      Y      Z        X      Y      Z        X      Y      Z
   1   6    -0.20   0.05  -0.05    -0.22  -0.08   0.19     0.09  -0.22   0.03
   2   6     0.37   0.09   0.13     0.15  -0.02   0.01    -0.06   0.12  -0.03
   3   6    -0.15   0.07   0.02    -0.05  -0.02  -0.05     0.07  -0.01   0.04
   4   6     0.02  -0.12  -0.06     0.03   0.04  -0.00    -0.05  -0.06  -0.05
   5   6     0.01   0.20  -0.01     0.02  -0.07   0.12     0.07   0.21  -0.06
   6   6     0.05  -0.04   0.05     0.15  -0.07  -0.19    -0.23   0.11   0.06
   7   6     0.16  -0.02   0.05     0.08   0.02  -0.01    -0.11   0.05  -0.01
   8   6     0.03  -0.08  -0.04     0.02  -0.02  -0.03    -0.00  -0.03  -0.02
   9   8    -0.01   0.01  -0.00    -0.04   0.03   0.04     0.01  -0.05  -0.01
  10   6     0.04   0.05   0.03    -0.16  -0.02  -0.03    -0.13  -0.01  -0.03
  11   6    -0.03   0.02   0.01    -0.02   0.01   0.00     0.00   0.00   0.00
  12   6    -0.28  -0.31  -0.28     0.00  -0.02  -0.01    -0.09  -0.05  -0.05
  13   6     0.05   0.08   0.07    -0.02   0.01   0.00     0.04   0.01   0.01
  14   1     0.00   0.03   0.00    -0.18   0.17  -0.11     0.26  -0.07   0.09
  15   8    -0.04  -0.01   0.03     0.22   0.02  -0.07     0.13   0.02  -0.05
  16   6     0.08   0.09   0.08     0.01   0.01   0.01     0.01   0.01   0.01
  17   1     0.21  -0.15  -0.08     0.00  -0.00   0.01     0.01  -0.01  -0.00
  18   1    -0.15   0.13   0.07     0.03   0.01  -0.06    -0.13   0.07   0.11
  19   1    -0.01  -0.03  -0.01    -0.07  -0.02   0.09     0.03  -0.05  -0.03
  20   1     0.01  -0.02  -0.02     0.01   0.02  -0.01    -0.03  -0.02   0.04
  21   1    -0.01  -0.22   0.06    -0.10   0.13  -0.11     0.05  -0.21   0.08
  22   1     0.00  -0.04  -0.06    -0.16   0.03  -0.12     0.50  -0.17   0.11
  23   1    -0.14   0.04  -0.00    -0.12   0.01  -0.01     0.07  -0.02   0.00
  24   1    -0.22   0.04  -0.01     0.03   0.01   0.03     0.17  -0.02   0.04
  25   1     0.01   0.01   0.01     0.16   0.09   0.09    -0.07  -0.04  -0.04
  26   1     0.08  -0.11  -0.09    -0.13   0.21   0.20    -0.13   0.19   0.17
  27   1     0.05  -0.08   0.00     0.20  -0.25  -0.26     0.09  -0.10  -0.14
  28   1    -0.01   0.01  -0.01    -0.02   0.00   0.01     0.02   0.00  -0.01
  29   1    -0.05  -0.02  -0.04    -0.03  -0.01  -0.02     0.01  -0.00   0.01
  30   1     0.05  -0.06  -0.05    -0.02   0.02   0.02     0.05  -0.06  -0.06
  31   1    -0.15   0.02   0.02    -0.03  -0.00   0.01     0.03  -0.01   0.01
  32   1     0.06  -0.03  -0.07    -0.24   0.14   0.34    -0.15   0.09   0.21
  33   1    -0.02   0.02   0.05    -0.00  -0.00  -0.01    -0.00   0.00   0.01
  34   1    -0.02   0.06   0.01    -0.00  -0.00  -0.00    -0.00   0.02   0.00
  35   1    -0.02   0.13   0.11     0.00  -0.01  -0.01    -0.01   0.03   0.02
                     64                     65                     66
                        a                      a                      a 
 Frequencies --  1332.7715              1340.1913              1348.2448
 Red. masses --     3.8372                 3.7831                 3.9240
 Frc consts  --     0.0000                 0.0000                 0.0000
 IR Inten    --    25.2353                 0.4688                31.2797
 Raman Activ --     0.0000                 0.0000                 0.0000
 Depolar     --     0.0000                 0.0000                 0.0000
 Atom AN      X      Y      Z        X      Y      Z        X      Y      Z
   1   6    -0.03  -0.01  -0.03     0.04   0.06   0.05     0.15  -0.03  -0.26
   2   6     0.12   0.04   0.02    -0.21  -0.05   0.01     0.01   0.04   0.00
   3   6     0.04  -0.15  -0.05     0.13  -0.12   0.01    -0.05   0.01   0.03
   4   6     0.19   0.13  -0.27     0.14   0.16  -0.23     0.06   0.01  -0.04
   5   6    -0.02   0.16   0.09    -0.08  -0.01   0.08    -0.01   0.05   0.02
   6   6    -0.00  -0.00  -0.01     0.11  -0.05   0.00    -0.03   0.02   0.06
   7   6    -0.03   0.02   0.03     0.00  -0.01  -0.01    -0.07   0.03   0.04
   8   6     0.04  -0.06  -0.05     0.03  -0.02  -0.03     0.00  -0.03  -0.03
   9   8    -0.03  -0.02  -0.00     0.01   0.03  -0.00    -0.01  -0.02  -0.01
  10   6     0.12  -0.09  -0.03    -0.09   0.07   0.03    -0.25   0.22   0.11
  11   6    -0.01   0.01   0.01    -0.01   0.01   0.01    -0.00   0.01   0.01
  12   6     0.09   0.02   0.06    -0.12  -0.02  -0.07     0.08   0.04   0.07
  13   6    -0.04   0.00  -0.00     0.06  -0.00   0.00    -0.03  -0.00  -0.00
  14   1    -0.44  -0.10  -0.05     0.51   0.18   0.04    -0.28  -0.25   0.04
  15   8    -0.05   0.01  -0.02     0.02  -0.02   0.02     0.07  -0.02   0.05
  16   6    -0.00  -0.01  -0.02     0.01  -0.00   0.01    -0.01   0.00  -0.00
  17   1    -0.12   0.08   0.13    -0.19   0.14   0.15     0.02  -0.02  -0.01
  18   1    -0.08   0.08   0.02    -0.09   0.04   0.09     0.09  -0.06  -0.06
  19   1    -0.22  -0.18   0.28    -0.11  -0.10   0.15    -0.06  -0.04   0.07
  20   1    -0.21  -0.15   0.28    -0.20  -0.13   0.28    -0.03  -0.03   0.03
  21   1    -0.05  -0.21   0.05    -0.04  -0.05   0.01     0.01  -0.06   0.03
  22   1     0.10  -0.01   0.08    -0.23   0.05  -0.09     0.01   0.05   0.12
  23   1     0.04  -0.02   0.01    -0.06   0.03  -0.00     0.13  -0.01   0.02
  24   1     0.00  -0.01  -0.03    -0.02   0.01   0.03     0.02  -0.01  -0.03
  25   1     0.02   0.01   0.01     0.01   0.01   0.00    -0.03  -0.01  -0.01
  26   1    -0.13   0.15   0.09     0.14  -0.15  -0.10     0.32  -0.37  -0.24
  27   1    -0.10   0.13   0.11     0.06  -0.08  -0.06     0.23  -0.28  -0.24
  28   1    -0.02   0.01  -0.00    -0.02   0.00   0.01     0.02  -0.01  -0.00
  29   1    -0.04  -0.02  -0.03    -0.03  -0.01  -0.03     0.00   0.00   0.00
  30   1    -0.06   0.08   0.06     0.08  -0.11  -0.08    -0.03   0.05   0.03
  31   1    -0.06   0.01   0.00     0.08  -0.01  -0.01    -0.02  -0.00   0.01
  32   1     0.05  -0.03  -0.08    -0.02   0.01   0.03    -0.09   0.05   0.14
  33   1    -0.01  -0.00   0.01    -0.01   0.01   0.03     0.00  -0.01  -0.03
  34   1     0.00   0.00  -0.00    -0.02   0.04   0.00     0.01  -0.03  -0.01
  35   1     0.01  -0.03  -0.00    -0.01   0.03   0.02     0.01  -0.04  -0.02
                     67                     68                     69
                        a                      a                      a 
 Frequencies --  1354.6601              1377.1894              1390.4538
 Red. masses --     4.3281                 3.7794                 3.1883
 Frc consts  --     0.0000                 0.0000                 0.0000
 IR Inten    --     4.3444                21.1038                11.2624
 Raman Activ --     0.0000                 0.0000                 0.0000
 Depolar     --     0.0000                 0.0000                 0.0000
 Atom AN      X      Y      Z        X      Y      Z        X      Y      Z
   1   6     0.03   0.03  -0.05     0.00   0.18   0.06     0.00   0.03   0.01
   2   6     0.06   0.00   0.14    -0.01  -0.09   0.02    -0.05  -0.03  -0.02
   3   6     0.34  -0.20  -0.22    -0.01   0.02  -0.01    -0.01   0.02  -0.01
   4   6    -0.19  -0.00   0.10    -0.02  -0.02   0.01    -0.00   0.00   0.01
   5   6    -0.00  -0.10  -0.06     0.06   0.06   0.07     0.01   0.01   0.01
   6   6    -0.01   0.01  -0.00     0.01  -0.11  -0.36     0.00  -0.02  -0.08
   7   6    -0.00  -0.03  -0.01     0.01  -0.04  -0.01    -0.00  -0.00  -0.00
   8   6    -0.03   0.04   0.02     0.04  -0.03  -0.00     0.01  -0.01  -0.00
   9   8     0.00  -0.00   0.00    -0.12  -0.09   0.04    -0.03  -0.02   0.01
  10   6    -0.04   0.03   0.02     0.01  -0.02   0.01    -0.01   0.00   0.00
  11   6     0.01  -0.01  -0.00     0.00   0.00   0.00     0.00   0.00   0.00
  12   6     0.01  -0.05  -0.03    -0.04  -0.01  -0.03     0.10   0.03   0.02
  13   6    -0.00   0.01   0.01     0.01   0.01   0.01     0.01  -0.03  -0.02
  14   1    -0.23   0.11  -0.06     0.09   0.14  -0.04     0.04   0.01   0.00
  15   8     0.01  -0.00   0.01    -0.01  -0.01   0.01     0.00  -0.00   0.00
  16   6    -0.01   0.01   0.01     0.00   0.06   0.07    -0.00  -0.30  -0.27
  17   1    -0.21   0.17   0.11    -0.01   0.00  -0.01     0.01   0.01   0.03
  18   1    -0.46   0.33   0.27     0.01  -0.01  -0.01     0.02  -0.07   0.01
  19   1     0.17   0.11  -0.22    -0.01  -0.01   0.02     0.01  -0.00  -0.01
  20   1     0.00   0.07   0.02     0.03   0.03  -0.03     0.01  -0.00  -0.02
  21   1     0.04   0.14  -0.02    -0.07   0.02  -0.07    -0.01   0.01  -0.01
  22   1    -0.00   0.02   0.04     0.25   0.27   0.68     0.06   0.06   0.14
  23   1     0.03   0.02   0.00    -0.02   0.08   0.00    -0.00   0.01   0.00
  24   1    -0.01   0.00   0.02    -0.07   0.02   0.04    -0.00   0.00   0.01
  25   1    -0.00  -0.01  -0.00     0.17   0.08   0.10     0.05   0.02   0.03
  26   1     0.07  -0.07  -0.04     0.05  -0.06  -0.05     0.02  -0.02  -0.01
  27   1     0.03  -0.04  -0.03    -0.01   0.03   0.00     0.01  -0.01  -0.01
  28   1     0.03  -0.01  -0.00    -0.07   0.03   0.00    -0.02   0.01   0.00
  29   1     0.04   0.02   0.03    -0.06  -0.03  -0.05    -0.02  -0.01  -0.01
  30   1    -0.03   0.05   0.04     0.03  -0.04  -0.03    -0.08   0.13   0.10
  31   1    -0.08   0.01   0.00     0.04  -0.00  -0.00    -0.16   0.01  -0.00
  32   1    -0.01   0.00   0.02     0.02  -0.01  -0.02    -0.01   0.00   0.01
  33   1     0.02   0.02   0.00     0.00  -0.04  -0.09     0.02   0.21   0.44
  34   1     0.02  -0.01   0.01    -0.03  -0.09  -0.03     0.08   0.49   0.15
  35   1    -0.01   0.03   0.01     0.03  -0.05  -0.08    -0.13   0.28   0.31
                     70                     71                     72
                        a                      a                      a 
 Frequencies --  1411.9832              1430.5976              1461.1339
 Red. masses --     2.3949                 2.4776                 1.8634
 Frc consts  --     0.0000                 0.0000                 0.0000
 IR Inten    --     4.2826                 9.0318                 0.3620
 Raman Activ --     0.0000                 0.0000                 0.0000
 Depolar     --     0.0000                 0.0000                 0.0000
 Atom AN      X      Y      Z        X      Y      Z        X      Y      Z
   1   6    -0.01   0.02   0.02    -0.01   0.01  -0.02    -0.02   0.03   0.02
   2   6     0.00  -0.01  -0.00     0.11  -0.01   0.03    -0.01  -0.00  -0.00
   3   6    -0.01   0.00   0.00     0.01  -0.01  -0.03    -0.00   0.02  -0.05
   4   6     0.01  -0.01  -0.03    -0.01  -0.03   0.01     0.01  -0.06  -0.04
   5   6     0.07   0.06   0.08    -0.00  -0.01  -0.01    -0.00  -0.02  -0.01
   6   6     0.02  -0.01  -0.04    -0.00   0.00  -0.00     0.00  -0.01  -0.03
   7   6     0.09  -0.04  -0.00    -0.00   0.01   0.01     0.03   0.17   0.15
   8   6    -0.24  -0.01  -0.10     0.00   0.01   0.01     0.00   0.02   0.02
   9   8    -0.02  -0.01   0.00    -0.00  -0.00   0.00    -0.00  -0.00   0.00
  10   6     0.00  -0.00   0.00     0.01  -0.00   0.02     0.04  -0.04   0.08
  11   6    -0.16   0.00  -0.05     0.01  -0.00   0.00     0.01  -0.00   0.00
  12   6    -0.01   0.01   0.00    -0.20   0.15   0.13     0.01  -0.01  -0.01
  13   6     0.00  -0.00  -0.00    -0.09   0.04   0.02     0.02  -0.01  -0.01
  14   1     0.01   0.02  -0.00    -0.23  -0.00  -0.04     0.06   0.02   0.00
  15   8    -0.00  -0.00   0.00    -0.00   0.00   0.00     0.00  -0.00   0.01
  16   6     0.01  -0.01  -0.00     0.09  -0.10  -0.10     0.01  -0.02   0.05
  17   1     0.01  -0.00   0.01    -0.00   0.00  -0.00     0.08   0.00   0.13
  18   1     0.01  -0.01  -0.00    -0.02   0.03   0.00    -0.06  -0.10   0.09
  19   1    -0.04  -0.01   0.04    -0.01   0.06  -0.03    -0.10   0.14  -0.02
  20   1     0.00   0.02   0.03     0.03   0.04   0.02     0.06   0.12   0.12
  21   1    -0.07  -0.03  -0.05     0.01   0.01   0.00     0.00   0.01  -0.00
  22   1     0.02   0.03   0.06     0.01   0.00   0.01     0.01   0.02   0.04
  23   1    -0.07   0.02  -0.01     0.00  -0.04  -0.00    -0.10  -0.55  -0.04
  24   1    -0.06   0.01   0.00    -0.00  -0.01  -0.04     0.02  -0.14  -0.54
  25   1     0.02   0.01   0.01     0.00   0.00   0.00     0.01   0.00   0.00
  26   1    -0.00  -0.00  -0.01    -0.03  -0.01  -0.03    -0.17  -0.04  -0.18
  27   1    -0.00   0.01  -0.00     0.01   0.02  -0.02     0.05   0.15  -0.20
  28   1     0.60  -0.25  -0.05    -0.02   0.01   0.00    -0.00   0.00   0.00
  29   1     0.44   0.23   0.41    -0.01  -0.01  -0.01    -0.00  -0.00  -0.00
  30   1     0.01  -0.01  -0.01     0.24  -0.40  -0.31    -0.02   0.04   0.03
  31   1     0.02  -0.00  -0.00     0.60  -0.04   0.01    -0.05  -0.00  -0.00
  32   1     0.01  -0.00  -0.01     0.00  -0.00  -0.00    -0.02   0.01   0.02
  33   1    -0.01   0.00   0.01    -0.17  -0.02   0.19     0.06   0.05   0.03
  34   1    -0.01   0.02  -0.00    -0.12   0.20  -0.02    -0.10  -0.02  -0.05
  35   1     0.00   0.00  -0.00    -0.01   0.00   0.06     0.01   0.08  -0.14
                     73                     74                     75
                        a                      a                      a 
 Frequencies --  1465.3381              1472.2867              1479.2571
 Red. masses --     1.8425                 1.8226                 1.7509
 Frc consts  --     0.0000                 0.0000                 0.0000
 IR Inten    --     6.8797                 6.0744                 1.9774
 Raman Activ --     0.0000                 0.0000                 0.0000
 Depolar     --     0.0000                 0.0000                 0.0000
 Atom AN      X      Y      Z        X      Y      Z        X      Y      Z
   1   6    -0.01   0.01   0.01     0.01  -0.03   0.03    -0.00   0.01  -0.00
   2   6     0.01  -0.02   0.02     0.00   0.01  -0.01    -0.02  -0.00   0.01
   3   6     0.01  -0.01   0.02     0.00  -0.02   0.03     0.02  -0.04   0.08
   4   6    -0.04   0.20   0.09     0.01  -0.03  -0.01     0.01  -0.08  -0.03
   5   6    -0.00   0.02   0.02     0.00   0.00  -0.01    -0.00  -0.01  -0.01
   6   6     0.02  -0.01  -0.01    -0.01   0.01   0.01    -0.00  -0.00  -0.01
   7   6     0.01   0.06   0.05    -0.03  -0.08  -0.08     0.01   0.04   0.03
   8   6     0.00  -0.00  -0.01    -0.00  -0.00  -0.00    -0.00   0.01   0.01
   9   8    -0.01  -0.00  -0.00     0.01   0.00   0.00    -0.01  -0.00   0.00
  10   6     0.03  -0.02   0.06     0.09  -0.07   0.20    -0.01   0.01  -0.02
  11   6    -0.01   0.00  -0.00     0.01  -0.00   0.00     0.01  -0.00   0.00
  12   6    -0.02   0.01  -0.01    -0.00  -0.01  -0.00     0.01  -0.01  -0.05
  13   6    -0.03   0.02   0.01     0.02  -0.01  -0.01     0.04  -0.02  -0.01
  14   1     0.01   0.02  -0.01     0.00  -0.01  -0.00     0.06   0.01   0.01
  15   8    -0.00  -0.00   0.01    -0.00   0.00   0.03     0.00  -0.00  -0.00
  16   6    -0.06   0.04  -0.08     0.02   0.02  -0.00     0.07   0.17  -0.10
  17   1    -0.05   0.01  -0.07    -0.03  -0.01  -0.06    -0.10  -0.00  -0.15
  18   1     0.00   0.10  -0.04     0.03   0.05  -0.04     0.05   0.16  -0.10
  19   1     0.30  -0.41   0.03    -0.05   0.07  -0.01    -0.10   0.18  -0.03
  20   1    -0.17  -0.34  -0.36     0.03   0.06   0.06     0.07   0.13   0.14
  21   1    -0.01   0.01  -0.00     0.00  -0.01   0.00     0.00  -0.00  -0.00
  22   1    -0.00   0.01   0.02    -0.00  -0.02  -0.05     0.01   0.01   0.02
  23   1    -0.04  -0.19  -0.01     0.05   0.27   0.02    -0.02  -0.13  -0.01
  24   1     0.01  -0.05  -0.18     0.02   0.06   0.27     0.00  -0.03  -0.12
  25   1     0.01   0.01   0.00    -0.01  -0.00  -0.00     0.01   0.00   0.01
  26   1    -0.12  -0.03  -0.13    -0.43  -0.08  -0.42     0.05   0.01   0.04
  27   1     0.03   0.11  -0.13     0.12   0.38  -0.45    -0.01  -0.04   0.04
  28   1     0.03  -0.01  -0.00    -0.01   0.01   0.00    -0.01   0.00   0.00
  29   1     0.01   0.01   0.01    -0.01  -0.00  -0.01    -0.00  -0.00  -0.00
  30   1     0.03  -0.05  -0.04    -0.02   0.04   0.03    -0.04   0.07   0.06
  31   1     0.07  -0.00   0.01    -0.05  -0.00   0.00    -0.11   0.00  -0.00
  32   1    -0.00   0.00   0.01    -0.00   0.00   0.01    -0.00   0.00   0.00
  33   1     0.01  -0.05  -0.14    -0.07  -0.02   0.03    -0.48  -0.25   0.01
  34   1     0.30  -0.05   0.13    -0.04   0.04  -0.01     0.13   0.17   0.10
  35   1    -0.04  -0.07   0.29     0.02  -0.06  -0.00     0.06  -0.50   0.33
                     76                     77                     78
                        a                      a                      a 
 Frequencies --  1489.9916              1505.7332              1704.3021
 Red. masses --     1.7004                 1.8500                11.2200
 Frc consts  --     0.0000                 0.0000                 0.0000
 IR Inten    --     4.3935                 0.8353                26.4882
 Raman Activ --     0.0000                 0.0000                 0.0000
 Depolar     --     0.0000                 0.0000                 0.0000
 Atom AN      X      Y      Z        X      Y      Z        X      Y      Z
   1   6    -0.00  -0.00  -0.00    -0.00  -0.01   0.00     0.00   0.01  -0.00
   2   6     0.01   0.00  -0.00    -0.01   0.00  -0.02     0.07  -0.02   0.00
   3   6    -0.01   0.01  -0.03    -0.03   0.13  -0.22     0.01   0.01   0.00
   4   6     0.03  -0.11  -0.06    -0.02   0.04   0.01    -0.00   0.00   0.00
   5   6     0.00  -0.01  -0.00    -0.00  -0.01   0.00     0.00   0.00   0.00
   6   6    -0.01  -0.00  -0.00     0.00   0.00   0.00    -0.00  -0.00   0.00
   7   6    -0.00  -0.01  -0.01    -0.00  -0.02  -0.02    -0.00  -0.00   0.00
   8   6    -0.00   0.00   0.00     0.01  -0.00  -0.01    -0.00   0.00  -0.00
   9   8    -0.00   0.00   0.00    -0.00   0.00   0.00     0.00  -0.00  -0.00
  10   6     0.01  -0.00   0.01     0.00   0.00   0.00    -0.00   0.00  -0.00
  11   6     0.01   0.00   0.00    -0.00   0.00   0.00     0.00  -0.00   0.00
  12   6    -0.01   0.01   0.00     0.01   0.02  -0.00    -0.59   0.34   0.26
  13   6    -0.06   0.04   0.03     0.00  -0.01  -0.00     0.52  -0.28  -0.21
  14   1    -0.03   0.00  -0.01    -0.01  -0.00  -0.01    -0.06  -0.00  -0.01
  15   8    -0.00   0.00   0.00     0.00  -0.00   0.00     0.00  -0.00  -0.00
  16   6    -0.17  -0.01  -0.09     0.04   0.08  -0.02     0.03  -0.06  -0.04
  17   1     0.05  -0.01   0.07     0.32   0.01   0.53     0.00   0.00   0.00
  18   1    -0.01  -0.08   0.04    -0.16  -0.50   0.32     0.00  -0.01   0.00
  19   1    -0.21   0.24   0.01     0.07  -0.06  -0.02     0.00  -0.00   0.00
  20   1     0.10   0.20   0.21    -0.02  -0.05  -0.07    -0.00  -0.00  -0.00
  21   1     0.00  -0.01  -0.00     0.00   0.01  -0.00     0.00  -0.00  -0.00
  22   1     0.00  -0.00   0.00    -0.00  -0.00  -0.01    -0.00   0.00   0.00
  23   1     0.01   0.04   0.00     0.01   0.10   0.01     0.00   0.00   0.00
  24   1    -0.00   0.01   0.04    -0.00   0.02   0.08    -0.00   0.00   0.00
  25   1     0.01  -0.01   0.00     0.00   0.00   0.00    -0.00  -0.00  -0.00
  26   1    -0.02  -0.00  -0.01    -0.01   0.00  -0.01     0.01   0.00   0.01
  27   1     0.00   0.01  -0.01     0.00   0.00  -0.01    -0.00  -0.01   0.01
  28   1    -0.01   0.00   0.00    -0.00   0.00   0.00    -0.00   0.00   0.00
  29   1    -0.00  -0.00  -0.00    -0.00  -0.00  -0.00    -0.00  -0.00  -0.00
  30   1     0.05  -0.10  -0.07    -0.01   0.02   0.01     0.04   0.12   0.10
  31   1     0.12  -0.00   0.01    -0.01  -0.00   0.00    -0.13  -0.07  -0.07
  32   1     0.00  -0.00  -0.00     0.00  -0.00  -0.00    -0.00   0.00   0.00
  33   1     0.29   0.03  -0.29    -0.22  -0.13  -0.03     0.02  -0.03  -0.07
  34   1     0.53  -0.20   0.21     0.02   0.05   0.02     0.02  -0.07  -0.01
  35   1    -0.11   0.13   0.36     0.04  -0.22   0.10    -0.02   0.05   0.04
                     79                     80                     81
                        a                      a                      a 
 Frequencies --  1738.9768              2808.5238              2862.1866
 Red. masses --    11.5820                 1.7138                 1.7274
 Frc consts  --     0.0000                 0.0000                 0.0000
 IR Inten    --    30.9596               138.6146               114.6920
 Raman Activ --     0.0000                 0.0000                 0.0000
 Depolar     --     0.0000                 0.0000                 0.0000
 Atom AN      X      Y      Z        X      Y      Z        X      Y      Z
   1   6    -0.02   0.01   0.00     0.00   0.01  -0.01    -0.00  -0.01   0.01
   2   6     0.00   0.00  -0.00     0.00  -0.00  -0.00     0.00  -0.00  -0.00
   3   6     0.00  -0.00   0.00    -0.00  -0.00   0.00    -0.00  -0.00   0.00
   4   6    -0.00  -0.01   0.00    -0.00  -0.00   0.00     0.00  -0.00  -0.00
   5   6    -0.06  -0.03  -0.06    -0.00   0.01  -0.00     0.00  -0.00  -0.00
   6   6    -0.01  -0.01  -0.01     0.08   0.21  -0.12    -0.00  -0.01   0.01
   7   6    -0.08   0.03   0.00    -0.00  -0.01   0.00     0.00   0.01  -0.00
   8   6     0.71  -0.01   0.25    -0.00   0.00   0.00     0.00   0.00  -0.00
   9   8     0.00   0.00   0.00     0.01   0.01   0.01    -0.00  -0.00  -0.00
  10   6     0.00  -0.00   0.00    -0.01  -0.01   0.01    -0.12  -0.19   0.12
  11   6    -0.58   0.01  -0.20    -0.00  -0.00  -0.00     0.00   0.00   0.00
  12   6    -0.00   0.00   0.00    -0.00   0.00   0.00     0.00   0.00   0.00
  13   6     0.00  -0.00  -0.00     0.00  -0.00   0.00    -0.00  -0.00  -0.00
  14   1    -0.00  -0.00  -0.00    -0.00   0.00   0.01    -0.00   0.00   0.01
  15   8     0.00  -0.00  -0.00    -0.00  -0.00   0.00    -0.01   0.00   0.02
  16   6     0.00  -0.00  -0.00     0.00  -0.00   0.00    -0.00  -0.00   0.00
  17   1     0.00  -0.00  -0.00     0.00   0.00  -0.00     0.00  -0.00   0.00
  18   1     0.00  -0.00  -0.00     0.00   0.00   0.00    -0.00  -0.00  -0.00
  19   1    -0.00   0.01  -0.01     0.00  -0.00   0.00     0.00   0.00   0.00
  20   1     0.00   0.00   0.01     0.00  -0.00  -0.00    -0.00   0.00  -0.00
  21   1     0.03   0.01   0.02     0.02  -0.01  -0.02    -0.00   0.00   0.00
  22   1     0.00  -0.00   0.00    -0.35  -0.80   0.41     0.02   0.04  -0.02
  23   1     0.02   0.00   0.00     0.00  -0.00  -0.00    -0.00   0.00   0.00
  24   1     0.01   0.00   0.01     0.00   0.02  -0.01    -0.00  -0.02   0.01
  25   1    -0.00   0.00  -0.00     0.00  -0.00   0.00     0.00  -0.00  -0.00
  26   1    -0.00  -0.00  -0.00     0.02   0.03  -0.03     0.41   0.69  -0.53
  27   1    -0.00   0.00  -0.00    -0.00  -0.00   0.00     0.03  -0.01   0.05
  28   1     0.05  -0.09  -0.08     0.00   0.00   0.00    -0.00  -0.00  -0.00
  29   1    -0.01   0.09   0.10     0.00   0.00   0.00    -0.00   0.00   0.00
  30   1     0.00   0.00   0.00    -0.00  -0.00  -0.00     0.00   0.00   0.00
  31   1    -0.00  -0.00  -0.00     0.00   0.00   0.00     0.00   0.00   0.00
  32   1    -0.00   0.00   0.00    -0.00   0.00  -0.00     0.00   0.00  -0.00
  33   1    -0.00  -0.00  -0.00    -0.00   0.00  -0.00    -0.00   0.00   0.00
  34   1    -0.00  -0.00  -0.00     0.00  -0.00  -0.00     0.00   0.00  -0.00
  35   1    -0.00   0.00   0.00    -0.00  -0.00  -0.00    -0.00   0.00   0.00
                     82                     83                     84
                        a                      a                      a 
 Frequencies --  2905.0726              2933.4766              2945.1630
 Red. masses --     1.7523                 1.8193                 1.7709
 Frc consts  --     0.0000                 0.0000                 0.0000
 IR Inten    --    61.9832                56.9068                92.2425
 Raman Activ --     0.0000                 0.0000                 0.0000
 Depolar     --     0.0000                 0.0000                 0.0000
 Atom AN      X      Y      Z        X      Y      Z        X      Y      Z
   1   6     0.00   0.00  -0.01     0.00   0.01  -0.00    -0.00  -0.00   0.00
   2   6     0.05  -0.10  -0.23     0.00  -0.00  -0.00     0.00  -0.00  -0.00
   3   6     0.02   0.00   0.01     0.00   0.00   0.00     0.00   0.00   0.01
   4   6     0.00  -0.00   0.00     0.00  -0.00   0.00    -0.02   0.02  -0.01
   5   6    -0.00   0.00   0.00    -0.01   0.00   0.00     0.17  -0.05  -0.19
   6   6    -0.00  -0.00   0.00     0.00   0.00  -0.00     0.00   0.00  -0.01
   7   6    -0.00  -0.00   0.01     0.06   0.24  -0.11     0.00   0.01  -0.00
   8   6     0.00  -0.00  -0.00    -0.00   0.01  -0.00     0.01  -0.00  -0.00
   9   8    -0.00   0.00   0.00     0.00  -0.00   0.00     0.00   0.00   0.00
  10   6     0.00   0.00  -0.00     0.00   0.00  -0.00     0.00   0.00  -0.00
  11   6    -0.00   0.00   0.00     0.00  -0.00  -0.00    -0.00   0.00   0.00
  12   6    -0.00  -0.01  -0.01    -0.00   0.00  -0.00    -0.00  -0.00  -0.00
  13   6     0.00   0.00   0.00     0.00   0.00   0.00     0.00   0.00   0.00
  14   1    -0.18   0.35   0.88    -0.00   0.00   0.01    -0.00   0.00   0.01
  15   8     0.00  -0.00   0.00     0.00  -0.00  -0.00     0.00  -0.00  -0.00
  16   6    -0.00   0.00   0.00     0.00  -0.00   0.00     0.00   0.00  -0.00
  17   1     0.00   0.00   0.00     0.00   0.00  -0.00    -0.00  -0.00   0.00
  18   1    -0.05  -0.02  -0.05    -0.01  -0.01  -0.01    -0.01  -0.01  -0.02
  19   1    -0.00  -0.00  -0.00     0.00  -0.00   0.00    -0.01  -0.00  -0.01
  20   1    -0.00   0.00  -0.00    -0.00   0.00  -0.00     0.09  -0.07   0.03
  21   1     0.01  -0.00  -0.01     0.02  -0.01  -0.02    -0.64   0.18   0.69
  22   1     0.00   0.01  -0.00    -0.01  -0.01   0.01    -0.01  -0.02   0.01
  23   1     0.00   0.00  -0.02    -0.01   0.03   0.16     0.00   0.00  -0.00
  24   1     0.00   0.01  -0.00    -0.19  -0.90   0.23    -0.01  -0.03   0.01
  25   1     0.00  -0.00  -0.00    -0.00   0.00   0.00     0.00  -0.00   0.00
  26   1    -0.00  -0.01   0.00    -0.01  -0.02   0.01    -0.00  -0.00   0.00
  27   1     0.00   0.00   0.00     0.00   0.00   0.00     0.00   0.00  -0.00
  28   1    -0.00  -0.00  -0.00     0.00   0.00   0.00    -0.00   0.00   0.00
  29   1     0.00  -0.00  -0.00    -0.00  -0.00  -0.00     0.00  -0.00  -0.00
  30   1    -0.00  -0.00   0.00    -0.00  -0.00  -0.00    -0.00  -0.00  -0.00
  31   1    -0.00  -0.01  -0.01     0.00  -0.00  -0.00    -0.00  -0.00  -0.00
  32   1    -0.00   0.00  -0.00     0.00  -0.00  -0.00    -0.00   0.00  -0.00
  33   1     0.00  -0.00   0.00    -0.00   0.00  -0.00     0.00  -0.00   0.00
  34   1     0.00   0.00  -0.00    -0.00  -0.00   0.00    -0.00  -0.00   0.00
  35   1     0.01   0.00   0.00    -0.00  -0.00  -0.00     0.00   0.00   0.00
                     85                     86                     87
                        a                      a                      a 
 Frequencies --  2965.6946              2973.2449              2985.6268
 Red. masses --     1.9081                 1.8487                 1.6629
 Frc consts  --     0.0000                 0.0000                 0.0000
 IR Inten    --    44.0659                86.6236                43.5070
 Raman Activ --     0.0000                 0.0000                 0.0000
 Depolar     --     0.0000                 0.0000                 0.0000
 Atom AN      X      Y      Z        X      Y      Z        X      Y      Z
   1   6    -0.00  -0.00   0.00    -0.00  -0.00   0.00     0.00  -0.00  -0.01
   2   6     0.00   0.01   0.02     0.00   0.01   0.00     0.00  -0.00  -0.00
   3   6     0.18   0.15   0.12     0.09   0.09   0.03    -0.01  -0.01  -0.00
   4   6    -0.10   0.05  -0.05     0.19  -0.12   0.08    -0.00   0.01   0.00
   5   6    -0.01   0.00   0.01     0.02  -0.01  -0.02     0.00   0.00  -0.00
   6   6     0.00  -0.00   0.00    -0.00   0.00  -0.00    -0.00   0.00   0.00
   7   6     0.00  -0.00  -0.01     0.00  -0.00  -0.01     0.01  -0.02  -0.24
   8   6    -0.00  -0.00  -0.00     0.00  -0.00  -0.00     0.00  -0.00  -0.01
   9   8    -0.00  -0.00  -0.00     0.00  -0.00  -0.00    -0.00  -0.00   0.00
  10   6     0.00   0.00   0.00    -0.00   0.00  -0.00     0.01   0.00   0.00
  11   6     0.00   0.00  -0.00    -0.00   0.00   0.00    -0.00   0.00   0.00
  12   6    -0.00  -0.00   0.00    -0.00  -0.00   0.00    -0.00  -0.00  -0.00
  13   6    -0.00  -0.00  -0.00     0.00   0.00   0.00     0.00   0.00   0.00
  14   1     0.01  -0.02  -0.05     0.00  -0.01  -0.02    -0.00   0.01   0.02
  15   8    -0.00   0.00  -0.00     0.00  -0.00  -0.00     0.00   0.00   0.00
  16   6     0.00  -0.00   0.00     0.01  -0.01   0.00    -0.00   0.00  -0.00
  17   1    -0.16  -0.31   0.13    -0.15  -0.28   0.10     0.02   0.05  -0.02
  18   1    -0.48  -0.21  -0.57    -0.17  -0.07  -0.20     0.03   0.01   0.03
  19   1     0.08   0.08   0.11    -0.04  -0.07  -0.07    -0.01  -0.01  -0.02
  20   1     0.28  -0.23   0.09    -0.65   0.51  -0.21     0.02  -0.01   0.01
  21   1     0.04  -0.01  -0.04    -0.06   0.02   0.07    -0.00   0.00   0.00
  22   1    -0.00   0.00  -0.00    -0.00  -0.01   0.00     0.00   0.00   0.00
  23   1    -0.01  -0.00   0.05    -0.00  -0.00   0.04    -0.09  -0.08   0.94
  24   1     0.00   0.02  -0.01     0.00   0.01  -0.01     0.04   0.16  -0.08
  25   1    -0.00   0.00   0.00    -0.00   0.00   0.00     0.00  -0.00  -0.00
  26   1     0.00   0.00  -0.00    -0.00  -0.00   0.00     0.00   0.00   0.00
  27   1    -0.00  -0.00  -0.00     0.00   0.00   0.00    -0.03  -0.01  -0.02
  28   1    -0.00  -0.00  -0.00    -0.00  -0.00  -0.00    -0.00  -0.01  -0.01
  29   1    -0.00   0.00   0.00     0.00  -0.00  -0.00     0.00   0.00   0.00
  30   1     0.00   0.00  -0.00    -0.00  -0.00  -0.00    -0.00  -0.00  -0.00
  31   1     0.00   0.00   0.00     0.00   0.00   0.00    -0.00  -0.00  -0.00
  32   1     0.00   0.00   0.00    -0.00   0.00   0.00    -0.00   0.00   0.00
  33   1    -0.01   0.01  -0.01    -0.01   0.02  -0.01     0.00  -0.00   0.00
  34   1    -0.00  -0.00   0.00    -0.00  -0.00   0.01    -0.00  -0.00   0.00
  35   1     0.00  -0.00   0.00    -0.00  -0.00  -0.00     0.00   0.00   0.00
                     88                     89                     90
                        a                      a                      a 
 Frequencies --  2994.4443              2998.8770              3006.8794
 Red. masses --     1.5471                 1.6975                 1.6490
 Frc consts  --     0.0000                 0.0000                 0.0000
 IR Inten    --    72.3345                26.7236                61.3385
 Raman Activ --     0.0000                 0.0000                 0.0000
 Depolar     --     0.0000                 0.0000                 0.0000
 Atom AN      X      Y      Z        X      Y      Z        X      Y      Z
   1   6    -0.00  -0.00   0.00    -0.01  -0.00  -0.00    -0.00   0.00   0.00
   2   6     0.00   0.00  -0.01    -0.00   0.00   0.00     0.00   0.00   0.00
   3   6     0.02   0.14  -0.15     0.00   0.00  -0.00     0.02   0.03   0.01
   4   6    -0.04   0.01  -0.03     0.00   0.00   0.00     0.10   0.14   0.16
   5   6    -0.00  -0.00   0.00    -0.00   0.00   0.00    -0.00   0.01   0.01
   6   6     0.00   0.00   0.00    -0.00   0.00  -0.00     0.00   0.00   0.00
   7   6     0.00   0.00  -0.01     0.00  -0.00  -0.01    -0.00   0.00   0.00
   8   6    -0.00   0.00  -0.00    -0.00  -0.00  -0.00    -0.00  -0.00  -0.00
   9   8    -0.00   0.00   0.00     0.00  -0.00  -0.00    -0.00  -0.00  -0.00
  10   6     0.00   0.00   0.00    -0.20  -0.08  -0.12     0.01   0.00   0.00
  11   6     0.00  -0.00  -0.00    -0.00   0.00   0.00    -0.00  -0.00  -0.00
  12   6     0.00  -0.00   0.00     0.00  -0.00   0.00    -0.00   0.00   0.00
  13   6    -0.00   0.00   0.00    -0.00  -0.00  -0.00    -0.00  -0.00  -0.00
  14   1    -0.01   0.02   0.04     0.00  -0.00  -0.00     0.00  -0.00  -0.01
  15   8    -0.00   0.00   0.00     0.00  -0.00  -0.01    -0.00   0.00   0.00
  16   6     0.01  -0.02   0.01    -0.00   0.00  -0.00     0.01   0.01  -0.01
  17   1    -0.39  -0.68   0.21    -0.01  -0.01   0.00    -0.05  -0.09   0.03
  18   1     0.32   0.17   0.34     0.00   0.00   0.00    -0.03  -0.01  -0.04
  19   1     0.05   0.05   0.07    -0.01  -0.01  -0.02    -0.54  -0.40  -0.66
  20   1     0.11  -0.09   0.03     0.01  -0.01   0.00     0.16  -0.09   0.07
  21   1     0.01  -0.00  -0.01     0.00  -0.00  -0.00     0.03  -0.01  -0.03
  22   1    -0.00   0.00   0.00    -0.00  -0.00   0.00     0.00   0.00  -0.00
  23   1    -0.00  -0.00   0.02    -0.00  -0.00   0.03     0.00   0.00  -0.02
  24   1    -0.00  -0.01   0.00     0.00   0.01  -0.00    -0.00  -0.00   0.00
  25   1     0.00  -0.00  -0.00    -0.00   0.00   0.00    -0.00  -0.00  -0.00
  26   1     0.00   0.00  -0.00    -0.05  -0.05   0.02     0.00   0.00  -0.00
  27   1    -0.01  -0.00  -0.01     0.78   0.34   0.45    -0.02  -0.01  -0.01
  28   1     0.00   0.00   0.00    -0.00  -0.00  -0.00     0.00   0.00   0.00
  29   1    -0.00   0.00   0.00     0.00  -0.00  -0.00     0.00  -0.00  -0.00
  30   1     0.00   0.00   0.00     0.01   0.00   0.00     0.00   0.00   0.00
  31   1    -0.00  -0.00  -0.00     0.00   0.00   0.00    -0.00  -0.00  -0.00
  32   1     0.00  -0.00  -0.00    -0.01  -0.00  -0.01     0.00  -0.00   0.00
  33   1    -0.04   0.06  -0.03     0.00  -0.00   0.00     0.01  -0.02   0.01
  34   1     0.00  -0.00  -0.00    -0.00   0.00   0.00    -0.01  -0.01   0.02
  35   1    -0.01  -0.00  -0.00     0.01   0.00   0.00    -0.03  -0.01  -0.01
                     91                     92                     93
                        a                      a                      a 
 Frequencies --  3017.1746              3036.5738              3057.8746
 Red. masses --     1.8132                 1.6911                 1.6172
 Frc consts  --     0.0000                 0.0000                 0.0000
 IR Inten    --    49.3318                53.7381                 9.4605
 Raman Activ --     0.0000                 0.0000                 0.0000
 Depolar     --     0.0000                 0.0000                 0.0000
 Atom AN      X      Y      Z        X      Y      Z        X      Y      Z
   1   6    -0.00   0.00   0.00    -0.00   0.00  -0.00     0.00   0.00   0.00
   2   6     0.00   0.00  -0.00     0.00   0.00   0.00    -0.00   0.00   0.00
   3   6     0.01   0.02  -0.01     0.00  -0.00   0.00     0.00   0.00   0.00
   4   6    -0.00  -0.00  -0.00     0.00   0.01   0.01     0.00   0.00   0.00
   5   6     0.00  -0.00  -0.00    -0.00   0.00   0.00     0.00  -0.00  -0.00
   6   6     0.00   0.00  -0.00     0.00   0.00  -0.00    -0.00  -0.00  -0.00
   7   6     0.00   0.00  -0.00     0.00   0.00   0.00     0.00   0.00  -0.00
   8   6     0.00   0.00   0.00     0.00   0.00   0.00    -0.00  -0.00  -0.00
   9   8     0.00  -0.00  -0.00    -0.00  -0.00   0.00    -0.00  -0.00   0.00
  10   6     0.00   0.00   0.00     0.00   0.00   0.00     0.00   0.00  -0.00
  11   6     0.00  -0.00  -0.00    -0.00  -0.00  -0.00     0.00   0.00   0.00
  12   6    -0.01   0.01  -0.00    -0.01  -0.00  -0.00    -0.00   0.00   0.01
  13   6     0.00   0.00   0.00     0.01   0.01   0.01     0.00  -0.00  -0.00
  14   1    -0.00   0.00  -0.00     0.00  -0.00  -0.01     0.00  -0.00  -0.00
  15   8     0.00   0.00   0.00     0.00   0.00   0.00    -0.00  -0.00  -0.00
  16   6    -0.15   0.19  -0.12    -0.23  -0.09  -0.00    -0.10  -0.04   0.21
  17   1    -0.04  -0.07   0.02     0.00   0.00   0.00    -0.01  -0.01   0.00
  18   1     0.01   0.01   0.01     0.00   0.00   0.00    -0.00  -0.00  -0.00
  19   1     0.02   0.01   0.02    -0.02  -0.01  -0.02    -0.01  -0.01  -0.02
  20   1    -0.01   0.01  -0.00     0.01  -0.00   0.00    -0.00   0.00  -0.00
  21   1    -0.00   0.00   0.00     0.00  -0.00  -0.00    -0.00   0.00   0.00
  22   1    -0.00  -0.00   0.00    -0.00  -0.00   0.00     0.00   0.00   0.00
  23   1    -0.00  -0.00   0.00     0.00   0.00  -0.00    -0.00  -0.00   0.00
  24   1    -0.00  -0.00   0.00    -0.00  -0.00   0.00    -0.00  -0.00  -0.00
  25   1    -0.00   0.00   0.00    -0.00  -0.00  -0.00     0.00  -0.00  -0.01
  26   1     0.00   0.00  -0.00     0.00   0.00  -0.00    -0.00  -0.00   0.00
  27   1    -0.00  -0.00  -0.00    -0.01  -0.00  -0.00     0.00   0.00   0.00
  28   1     0.00   0.00   0.00     0.00   0.00   0.00    -0.00  -0.00  -0.00
  29   1    -0.00   0.00   0.00     0.00  -0.00  -0.00    -0.00   0.00   0.00
  30   1    -0.00  -0.00  -0.00    -0.04  -0.01  -0.01     0.01   0.00   0.00
  31   1    -0.00  -0.01  -0.00     0.00  -0.01  -0.01    -0.00  -0.00  -0.00
  32   1    -0.00  -0.00  -0.00    -0.00   0.00  -0.00     0.00   0.00   0.00
  33   1     0.43  -0.75   0.37    -0.11   0.12  -0.06     0.03  -0.08   0.06
  34   1    -0.06   0.01   0.05     0.01   0.01  -0.09     0.42   0.23  -0.83
  35   1     0.15   0.06   0.01     0.91   0.19   0.16    -0.10  -0.02   0.01
                     94                     95                     96
                        a                      a                      a 
 Frequencies --  3092.5607              3099.3810              3118.6217
 Red. masses --     1.5835                 1.5265                 2.0204
 Frc consts  --     0.0000                 0.0000                 0.0000
 IR Inten    --    65.4042                37.9533                58.6285
 Raman Activ --     0.0000                 0.0000                 0.0000
 Depolar     --     0.0000                 0.0000                 0.0000
 Atom AN      X      Y      Z        X      Y      Z        X      Y      Z
   1   6     0.00  -0.00   0.00    -0.00   0.00  -0.00    -0.00  -0.00   0.00
   2   6    -0.00  -0.00  -0.00     0.00  -0.00  -0.00    -0.00  -0.00   0.00
   3   6     0.00   0.00  -0.00     0.00  -0.00   0.00     0.00   0.00   0.00
   4   6    -0.00   0.00   0.00    -0.00  -0.00  -0.00    -0.00  -0.00  -0.00
   5   6    -0.00   0.00   0.00    -0.00   0.00   0.00    -0.00   0.00   0.00
   6   6    -0.00  -0.00   0.00    -0.00  -0.00   0.00     0.00   0.00   0.00
   7   6    -0.00  -0.00   0.00     0.00  -0.00  -0.00     0.00  -0.00   0.00
   8   6    -0.00   0.00  -0.00     0.01  -0.00   0.00    -0.00  -0.00  -0.00
   9   8    -0.00   0.00  -0.00    -0.00   0.00  -0.00    -0.00  -0.00  -0.00
  10   6    -0.00  -0.00  -0.00     0.00  -0.00   0.00    -0.00  -0.00  -0.00
  11   6     0.00   0.00   0.00    -0.19  -0.03  -0.10     0.00  -0.01  -0.01
  12   6    -0.01   0.01   0.01     0.00   0.00   0.00     0.01   0.01   0.01
  13   6     0.23  -0.02  -0.01     0.00  -0.00  -0.00     0.10   0.22   0.18
  14   1    -0.00   0.00   0.00    -0.00   0.00   0.00    -0.00  -0.00  -0.01
  15   8    -0.00  -0.00  -0.00    -0.00   0.00   0.00     0.00   0.00  -0.00
  16   6     0.01   0.00   0.00     0.00   0.00   0.00     0.00  -0.00   0.00
  17   1    -0.00  -0.00   0.00     0.00   0.00   0.00     0.00   0.00   0.00
  18   1     0.00   0.00   0.00    -0.00  -0.00  -0.00    -0.00  -0.00  -0.00
  19   1    -0.00  -0.00  -0.00     0.00   0.00   0.00     0.00   0.00   0.00
  20   1     0.00  -0.00   0.00     0.00  -0.00   0.00     0.00  -0.00  -0.00
  21   1     0.00  -0.00  -0.00     0.00  -0.00  -0.00     0.00  -0.00  -0.00
  22   1     0.00   0.00  -0.00     0.00   0.00  -0.00    -0.00  -0.00  -0.00
  23   1    -0.00  -0.00  -0.00    -0.00  -0.00   0.01    -0.00  -0.00  -0.00
  24   1     0.00   0.00  -0.00     0.00   0.01  -0.00     0.00   0.00  -0.00
  25   1     0.00  -0.00   0.00     0.00  -0.00  -0.00    -0.00   0.00   0.00
  26   1    -0.00  -0.00  -0.00     0.00   0.00  -0.00     0.00   0.00  -0.00
  27   1     0.00   0.00   0.00    -0.00  -0.00  -0.00     0.01   0.00   0.01
  28   1    -0.00  -0.00  -0.01     0.22   0.47   0.59     0.01   0.01   0.01
  29   1    -0.00   0.00   0.00     0.38  -0.36  -0.25    -0.01   0.01   0.01
  30   1    -0.79  -0.27  -0.27    -0.01  -0.00  -0.00    -0.37  -0.10  -0.10
  31   1     0.04   0.32   0.26     0.00   0.00   0.00    -0.01  -0.67  -0.55
  32   1     0.00   0.00   0.00    -0.00  -0.00  -0.00    -0.00  -0.00  -0.00
  33   1     0.00  -0.00   0.00     0.00  -0.00   0.00    -0.00   0.00  -0.00
  34   1     0.00   0.00  -0.00     0.00   0.00  -0.00     0.00   0.00   0.00
  35   1    -0.03  -0.01  -0.01    -0.00  -0.00  -0.00    -0.02  -0.01  -0.01
                     97                     98                     99
                        a                      a                      a 
 Frequencies --  3121.0444              3508.7605              3516.5870
 Red. masses --     2.0810                 1.8724                 1.8744
 Frc consts  --     0.0000                 0.0000                 0.0000
 IR Inten    --    59.8451                30.7469                27.8590
 Raman Activ --     0.0000                 0.0000                 0.0000
 Depolar     --     0.0000                 0.0000                 0.0000
 Atom AN      X      Y      Z        X      Y      Z        X      Y      Z
   1   6    -0.00   0.00   0.00    -0.00  -0.00  -0.00     0.00   0.00  -0.00
   2   6    -0.00   0.00   0.00     0.00  -0.00   0.00    -0.00   0.00   0.00
   3   6    -0.00  -0.00  -0.00     0.00   0.00   0.00    -0.00   0.00   0.00
   4   6    -0.00   0.00  -0.00     0.00   0.00   0.00    -0.00  -0.00   0.00
   5   6    -0.00  -0.00   0.00    -0.00   0.00   0.00     0.00  -0.00  -0.00
   6   6     0.00   0.00   0.00     0.00  -0.00   0.00    -0.00   0.00   0.01
   7   6     0.00  -0.00  -0.00    -0.00   0.00   0.00    -0.00   0.00   0.00
   8   6    -0.00   0.01   0.01    -0.00  -0.00  -0.00    -0.00   0.00   0.00
   9   8     0.00  -0.00  -0.00    -0.00   0.00   0.00    -0.12   0.05   0.20
  10   6     0.00  -0.00   0.00     0.00   0.00   0.01    -0.00  -0.00  -0.00
  11   6    -0.10   0.22   0.20     0.00   0.00   0.00    -0.00   0.00   0.00
  12   6     0.00   0.00   0.00     0.00  -0.00   0.00     0.00   0.00  -0.00
  13   6     0.00   0.01   0.01     0.00  -0.00  -0.00     0.00   0.00   0.00
  14   1     0.00  -0.00  -0.00     0.00   0.00  -0.00     0.00  -0.00  -0.00
  15   8     0.00   0.00  -0.00     0.19   0.08   0.12    -0.00  -0.00  -0.00
  16   6    -0.00   0.00  -0.00     0.00  -0.00   0.00     0.00   0.00  -0.00
  17   1    -0.00  -0.00   0.00    -0.00  -0.00   0.00     0.00   0.00  -0.00
  18   1     0.00   0.00   0.00    -0.00  -0.00  -0.00    -0.00  -0.00  -0.00
  19   1     0.00   0.00   0.00    -0.00  -0.00  -0.00     0.00  -0.00   0.00
  20   1     0.00  -0.00   0.00     0.00  -0.00  -0.00    -0.00   0.00  -0.00
  21   1     0.00  -0.00  -0.01     0.00  -0.00  -0.00     0.00  -0.00   0.00
  22   1    -0.00  -0.00   0.00    -0.00   0.00  -0.00     0.00  -0.00  -0.00
  23   1     0.00   0.00  -0.01     0.00  -0.00  -0.00     0.00   0.00  -0.00
  24   1     0.00  -0.00   0.00     0.00   0.00  -0.00     0.00  -0.00   0.00
  25   1    -0.00   0.00   0.00     0.00  -0.00  -0.00     0.49  -0.22  -0.81
  26   1     0.00   0.00   0.00     0.00   0.00  -0.00    -0.00  -0.00   0.00
  27   1    -0.00  -0.00  -0.00    -0.01  -0.00  -0.00     0.00   0.00   0.00
  28   1    -0.19  -0.32  -0.42     0.00  -0.00  -0.00    -0.00  -0.00  -0.00
  29   1     0.54  -0.46  -0.29    -0.00   0.00   0.00     0.00  -0.00  -0.00
  30   1    -0.01  -0.00  -0.00    -0.00  -0.00  -0.00    -0.00  -0.00  -0.00
  31   1    -0.00  -0.02  -0.01     0.00   0.00   0.00     0.00  -0.00  -0.00
  32   1     0.00  -0.00  -0.00    -0.77  -0.32  -0.50     0.00   0.00   0.00
  33   1     0.00  -0.00   0.00    -0.00   0.00  -0.00    -0.00   0.00  -0.00
  34   1    -0.00   0.00  -0.00     0.00  -0.00  -0.00    -0.00  -0.00   0.01
  35   1    -0.00  -0.00  -0.00    -0.00  -0.00  -0.00     0.00   0.00  -0.00
