      -----------------------------------------------------------      
     |                   =====================                   |     
     |                           x T B                           |     
     |                   =====================                   |     
     |                         S. Grimme                         |     
     |          Mulliken Center for Theoretical Chemistry        |     
     |                    University of Bonn                     |     
      -----------------------------------------------------------      

   * xtb version 6.7.1 (edcfbbe) compiled by 'albert@albert-system' on 2024-07-22

   xtb is free software: you can redistribute it and/or modify it under
   the terms of the GNU Lesser General Public License as published by
   the Free Software Foundation, either version 3 of the License, or
   (at your option) any later version.
   
   xtb is distributed in the hope that it will be useful,
   but WITHOUT ANY WARRANTY; without even the implied warranty of
   MERCHANTABILITY or FITNESS FOR A PARTICULAR PURPOSE.  See the
   GNU Lesser General Public License for more details.
   
   Cite this work as:
   * C. Bannwarth, E. Caldeweyher, S. Ehlert, A. Hansen, P. Pracht,
     J. Seibert, S. Spicher, S. Grimme, WIREs Comput. Mol. Sci., 2020, 11,
     e01493. DOI: 10.1002/wcms.1493
   
   for GFN2-xTB:
   * C. Bannwarth, S. Ehlert and S. Grimme., J. Chem. Theory Comput., 2019,
     15, 1652-1671. DOI: 10.1021/acs.jctc.8b01176
   for GFN1-xTB:
   * S. Grimme, C. Bannwarth, P. Shushkov, J. Chem. Theory Comput., 2017,
     13, 1989-2009. DOI: 10.1021/acs.jctc.7b00118
   for GFN0-xTB:
   * P. Pracht, E. Caldeweyher, S. Ehlert, S. Grimme, ChemRxiv, 2019, preprint.
     DOI: 10.26434/chemrxiv.8326202.v1
   for GFN-FF:
   * S. Spicher and S. Grimme, Angew. Chem. Int. Ed., 2020, 59, 15665-15673.
     DOI: 10.1002/anie.202004239
   
   for ALPB and GBSA implicit solvation:
   * S. Ehlert, M. Stahn, S. Spicher, S. Grimme, J. Chem. Theory Comput.,
     2021, 17, 4250-4261. DOI: 10.1021/acs.jctc.1c00471
   
   for ddCOSMO and CPCM-X implicit solvation:
   * M. Stahn, S. Ehlert, S. Grimme, J. Phys. Chem. A,
     2023, XX, XXXX-XXXX. DOI: 10.1021/acs.jpca.3c04382
   
   for DFT-D4:
   * E. Caldeweyher, C. Bannwarth and S. Grimme, J. Chem. Phys., 2017,
     147, 034112. DOI: 10.1063/1.4993215
   * E. Caldeweyher, S. Ehlert, A. Hansen, H. Neugebauer, S. Spicher,
     C. Bannwarth and S. Grimme, J. Chem. Phys., 2019, 150, 154122.
     DOI: 10.1063/1.5090222
   * E. Caldeweyher, J.-M. Mewes, S. Ehlert and S. Grimme, Phys. Chem. Chem. Phys.
     2020, 22, 8499-8512. DOI: 10.1039/D0CP00502A
   
   for sTDA-xTB:
   * S. Grimme and C. Bannwarth, J. Chem. Phys., 2016, 145, 054103.
     DOI: 10.1063/1.4959605
   
   in the mass-spec context:
   * V. Asgeirsson, C. Bauer and S. Grimme, Chem. Sci., 2017, 8, 4879.
     DOI: 10.1039/c7sc00601b
   * J. Koopman and S. Grimme, ACS Omega 2019, 4, 12, 15120-15133.
     DOI: 10.1021/acsomega.9b02011
   
   for metadynamics refer to:
   * S. Grimme, J. Chem. Theory Comput., 2019, 155, 2847-2862
     DOI: 10.1021/acs.jctc.9b00143
   
   for SPH calculations refer to:
   * S. Spicher and S. Grimme, J. Chem. Theory Comput., 2021, 17, 1701-1714
     DOI: 10.1021/acs.jctc.0c01306
   
   for ONIOM refer to:
   * C. Plett, A. Katbashev, S. Ehlert, S. Grimme, M. Bursch,
     Phys. Chem. Chem. Phys., 2023, 25, 17860-17868. DOI: 10.1039/D3CP02178E
   
   for DIPRO refer to:
   * J. Kohn, N. Gildemeister, S. Grimme, D. Fazzi, A. Hansen,
     J. Chem. Phys., 2023, just accepted.
   
   for PTB refer to:
   * S. Grimme, M. Mueller, A. Hansen, J. Chem. Phys., 2023, 158, 124111.
     DOI: 10.1063/5.0137838
   
   with help from (in alphabetical order)
   P. Atkinson, C. Bannwarth, F. Bohle, G. Brandenburg, E. Caldeweyher
   M. Checinski, S. Dohm, S. Ehlert, S. Ehrlich, I. Gerasimov, C. Hölzer
   A. Katbashev, J. Kohn, J. Koopman, C. Lavigne, S. Lehtola, F. März, M. Müller,
   F. Musil, H. Neugebauer, J. Pisarek, C. Plett, P. Pracht, F. Pultar,
   J. Seibert, P. Shushkov, S. Spicher, M. Stahn, M. Steiner, T. Strunk,
   J. Stückrath, T. Rose, and J. Unsleber
   
 * started run on 2026/08/09 at 00:33:22.300     
   ID    Z sym.   atoms
    1    6 c      1-10, 12, 16-19
    2    8 o      11
    3    1 h      13-15, 20-42

           -------------------------------------------------
          |                Calculation Setup                |
           -------------------------------------------------

          program call               : /home/dinglab/software/xtb_6.7.1/xtb_dist/bin/xtb coord --gfn2 --sp --chrg 0 --norestart --parallel 12
          hostname                   : localhost
          coordinate file            : coord
          omp threads                :                    12


           -------------------------------------------------
          |                 G F N 2 - x T B                 |
           -------------------------------------------------

        Reference                      10.1021/acs.jctc.8b01176
      * Hamiltonian:
        H0-scaling (s, p, d)           1.850000    2.230000    2.230000
        zeta-weighting                 0.500000
      * Dispersion:
        s8                             2.700000
        a1                             0.520000
        a2                             5.000000
        s9                             5.000000
      * Repulsion:
        kExp                           1.500000    1.000000
        rExp                           1.000000
      * Coulomb:
        alpha                          2.000000
        third order                    shell-resolved
        anisotropic                    true
        a3                             3.000000
        a5                             4.000000
        cn-shift                       1.200000
        cn-exp                         4.000000
        max-rad                        5.000000


          ...................................................
          :                      SETUP                      :
          :.................................................:
          :  # basis functions                  90          :
          :  # atomic orbitals                  90          :
          :  # shells                           58          :
          :  # electrons                        92          :
          :  max. iterations                   250          :
          :  Hamiltonian                  GFN2-xTB          :
          :  restarted?                      false          :
          :  GBSA solvation                  false          :
          :  PC potential                    false          :
          :  electronic temp.          300.0000000     K    :
          :  accuracy                    1.0000000          :
          :  -> integral cutoff          0.2500000E+02      :
          :  -> integral neglect         0.1000000E-07      :
          :  -> SCF convergence          0.1000000E-05 Eh   :
          :  -> wf. convergence          0.1000000E-03 e    :
          :  Broyden damping             0.4000000          :
          :  net charge                          0          :
          :  unpaired electrons                  0          :
          ...................................................

 iter      E             dE          RMSdq      gap      omega  full diag
   1    -50.0753078 -0.500753E+02  0.273E+00   10.48       0.0  T
   2    -50.1714730 -0.961653E-01  0.150E+00    9.96       1.0  T
   3    -50.1731633 -0.169022E-02  0.707E-01   10.07       1.0  T
   4    -50.1736016 -0.438294E-03  0.169E-01   10.06       1.0  T
   5    -50.1740713 -0.469781E-03  0.586E-02   10.10       1.0  T
   6    -50.1740710  0.290590E-06  0.138E-02   10.10       1.1  T
   7    -50.1740733 -0.227444E-05  0.264E-03   10.10       5.9  T
   8    -50.1740733 -0.253050E-07  0.115E-03   10.10      13.5  T
   9    -50.1740733 -0.397828E-08  0.354E-04   10.10      43.5  T
  10    -50.1740733 -0.366008E-09  0.137E-04   10.10     112.5  T

   *** convergence criteria satisfied after 10 iterations ***

         #    Occupation            Energy/Eh            Energy/eV
      -------------------------------------------------------------
         1        2.0000           -0.6800040             -18.5039
       ...           ...                  ...                  ...
        40        2.0000           -0.4223295             -11.4922
        41        2.0000           -0.4182881             -11.3822
        42        2.0000           -0.4175549             -11.3622
        43        2.0000           -0.4138509             -11.2615
        44        2.0000           -0.4119552             -11.2099
        45        2.0000           -0.4068470             -11.0709
        46        2.0000           -0.3739500             -10.1757 (HOMO)
        47                         -0.0026488              -0.0721 (LUMO)
        48                          0.0195121               0.5310
        49                          0.0243115               0.6615
        50                          0.0567867               1.5452
        51                          0.0734030               1.9974
       ...                                ...                  ...
        90                          0.3558893               9.6842
      -------------------------------------------------------------
                  HL-Gap            0.3713012 Eh           10.1036 eV
             Fermi-level           -0.1882994 Eh           -5.1239 eV

 SCC (total)                   0 d,  0 h,  0 min,  0.040 sec
 SCC setup                      ...        0 min,  0.000 sec (  0.479%)
 Dispersion                     ...        0 min,  0.000 sec (  1.144%)
 classical contributions        ...        0 min,  0.000 sec (  0.080%)
 integral evaluation            ...        0 min,  0.002 sec (  4.376%)
 iterations                     ...        0 min,  0.033 sec ( 82.856%)
 molecular gradient             ...        0 min,  0.004 sec ( 10.544%)
 printout                       ...        0 min,  0.000 sec (  0.398%)

         :::::::::::::::::::::::::::::::::::::::::::::::::::::
         ::                     SUMMARY                     ::
         :::::::::::::::::::::::::::::::::::::::::::::::::::::
         :: total energy             -49.511886829472 Eh    ::
         :: gradient norm              0.000103352789 Eh/a0 ::
         :: HOMO-LUMO gap             10.103620063597 eV    ::
         ::.................................................::
         :: SCC energy               -50.173136735052 Eh    ::
         :: -> isotropic ES            0.027415632376 Eh    ::
         :: -> anisotropic ES          0.012361767251 Eh    ::
         :: -> anisotropic XC          0.020445074036 Eh    ::
         :: -> dispersion             -0.041924455176 Eh    ::
         :: repulsion energy           0.661249905581 Eh    ::
         :: add. restraining           0.000000000000 Eh    ::
         :: total charge              -0.000000000000 e     ::
         :::::::::::::::::::::::::::::::::::::::::::::::::::::

           -------------------------------------------------
          |                Property Printout                |
           -------------------------------------------------

    * Orbital Energies and Occupations

         #    Occupation            Energy/Eh            Energy/eV
      -------------------------------------------------------------
         1        2.0000           -0.6800040             -18.5039
       ...           ...                  ...                  ...
        34        2.0000           -0.4493956             -12.2287
        35        2.0000           -0.4481439             -12.1946
        36        2.0000           -0.4423785             -12.0377
        37        2.0000           -0.4356291             -11.8541
        38        2.0000           -0.4285453             -11.6613
        39        2.0000           -0.4245112             -11.5515
        40        2.0000           -0.4223295             -11.4922
        41        2.0000           -0.4182881             -11.3822
        42        2.0000           -0.4175549             -11.3622
        43        2.0000           -0.4138509             -11.2615
        44        2.0000           -0.4119552             -11.2099
        45        2.0000           -0.4068470             -11.0709
        46        2.0000           -0.3739500             -10.1757 (HOMO)
        47                         -0.0026488              -0.0721 (LUMO)
        48                          0.0195121               0.5310
        49                          0.0243115               0.6615
        50                          0.0567867               1.5452
        51                          0.0734030               1.9974
        52                          0.0770912               2.0978
        53                          0.0827501               2.2517
        54                          0.0903211               2.4578
        55                          0.0988705               2.6904
        56                          0.1037858               2.8242
        57                          0.1068478               2.9075
       ...                                ...                  ...
        90                          0.3558893               9.6842
      -------------------------------------------------------------
                  HL-Gap            0.3713012 Eh           10.1036 eV
             Fermi-level           -0.1882994 Eh           -5.1239 eV

     #   Z          covCN         q      C6AA      α(0)
     1   6 c        3.909     0.014    20.285     6.402
     2   6 c        3.805    -0.065    21.749     6.639
     3   6 c        3.799    -0.059    21.633     6.622
     4   6 c        3.806    -0.064    21.727     6.636
     5   6 c        3.850    -0.020    20.890     6.501
     6   6 c        3.782     0.112    18.766     6.171
     7   6 c        3.901    -0.028    21.021     6.517
     8   6 c        3.822    -0.067    21.774     6.640
     9   6 c        3.823    -0.059    21.608     6.615
    10   6 c        3.897    -0.029    21.042     6.521
    11   8 o        1.700    -0.341    19.718     5.995
    12   6 c        3.817     0.142    18.281     6.085
    13   1 h        0.924     0.026     2.638     2.540
    14   1 h        0.924     0.025     2.657     2.549
    15   1 h        0.923     0.020     2.732     2.585
    16   6 c        3.757    -0.106    22.572     6.774
    17   6 c        3.756    -0.114    22.733     6.798
    18   6 c        3.755    -0.114    22.739     6.799
    19   6 c        3.760    -0.106    22.575     6.773
    20   1 h        0.924     0.032     2.551     2.498
    21   1 h        0.924     0.034     2.532     2.488
    22   1 h        0.924     0.034     2.529     2.487
    23   1 h        0.924     0.031     2.574     2.509
    24   1 h        0.924     0.032     2.558     2.501
    25   1 h        0.924     0.033     2.550     2.497
    26   1 h        0.924     0.029     2.604     2.524
    27   1 h        0.924     0.035     2.511     2.478
    28   1 h        0.925     0.031     2.577     2.510
    29   1 h        0.925     0.036     2.497     2.471
    30   1 h        0.925     0.028     2.608     2.526
    31   1 h        0.925     0.035     2.518     2.482
    32   1 h        0.925     0.056     2.251     2.346
    33   1 h        0.925     0.031     2.570     2.507
    34   1 h        0.925     0.039     2.459     2.452
    35   1 h        0.925     0.034     2.530     2.487
    36   1 h        0.925     0.048     2.348     2.396
    37   1 h        0.925     0.046     2.369     2.407
    38   1 h        0.925     0.036     2.498     2.472
    39   1 h        0.925     0.049     2.338     2.391
    40   1 h        0.925     0.034     2.536     2.490
    41   1 h        0.925     0.034     2.530     2.487
    42   1 h        0.925     0.035     2.510     2.478

 Mol. C6AA /au·bohr⁶  :      13158.832148
 Mol. C8AA /au·bohr⁸  :     285979.210919
 Mol. α(0) /au        :        169.049137


Wiberg/Mayer (AO) data.
largest (>0.10) Wiberg bond orders for each atom

 ---------------------------------------------------------------------------
     #   Z sym  total        # sym  WBO       # sym  WBO       # sym  WBO
 ---------------------------------------------------------------------------
     1   6 c    3.990 --    19 c    1.001     2 c    0.989     8 c    0.978
                             7 c    0.976
     2   6 c    3.996 --     3 c    1.005     1 c    0.989    20 h    0.976
                            21 h    0.972
     3   6 c    3.997 --     4 c    1.008     2 c    1.005    23 h    0.978
                            22 h    0.973
     4   6 c    3.996 --     3 c    1.008     5 c    0.997    25 h    0.976
                            24 h    0.975
     5   6 c    3.995 --    16 c    1.007     4 c    0.997     6 c    0.979
                            26 h    0.967
     6   6 c    3.953 --     5 c    0.979     7 c    0.977    11 o    0.968
                            15 h    0.956
     7   6 c    3.993 --    10 c    0.982     6 c    0.977     1 c    0.976
                            13 h    0.965
     8   6 c    3.996 --     9 c    1.005    27 h    0.980    28 h    0.980
                             1 c    0.978
     9   6 c    3.997 --     8 c    1.005    10 c    0.995    30 h    0.981
                            29 h    0.975
    10   6 c    3.994 --     9 c    0.995     7 c    0.982    14 h    0.970
                            12 c    0.970
    11   8 o    2.059 --     6 c    0.968    12 c    0.954
    12   6 c    3.951 --    18 c    0.993    17 c    0.989    10 c    0.970
                            11 o    0.954
    13   1 h    0.999 --     7 c    0.965
    14   1 h    0.999 --    10 c    0.970
    15   1 h    1.000 --     6 c    0.956
    16   6 c    3.995 --     5 c    1.007    31 h    0.987    33 h    0.987
                            32 h    0.983
    17   6 c    3.996 --    12 c    0.989    35 h    0.986    34 h    0.985
                            36 h    0.985
    18   6 c    3.995 --    12 c    0.993    38 h    0.986    39 h    0.984
                            37 h    0.982
    19   6 c    3.996 --     1 c    1.001    42 h    0.985    40 h    0.985
                            41 h    0.981
    20   1 h    0.999 --     2 c    0.976
    21   1 h    0.999 --     2 c    0.972
    22   1 h    0.999 --     3 c    0.973
    23   1 h    0.999 --     3 c    0.978
    24   1 h    0.999 --     4 c    0.975
    25   1 h    0.998 --     4 c    0.976
    26   1 h    0.999 --     5 c    0.967
    27   1 h    0.999 --     8 c    0.980
    28   1 h    0.999 --     8 c    0.980
    29   1 h    0.999 --     9 c    0.975
    30   1 h    0.999 --     9 c    0.981
    31   1 h    0.999 --    16 c    0.987
    32   1 h    0.997 --    16 c    0.983
    33   1 h    0.999 --    16 c    0.987
    34   1 h    0.998 --    17 c    0.985
    35   1 h    0.999 --    17 c    0.986
    36   1 h    0.997 --    17 c    0.985
    37   1 h    0.998 --    18 c    0.982
    38   1 h    0.998 --    18 c    0.986
    39   1 h    0.997 --    18 c    0.984
    40   1 h    0.998 --    19 c    0.985
    41   1 h    0.999 --    19 c    0.981
    42   1 h    0.999 --    19 c    0.985
 ---------------------------------------------------------------------------

Topologies differ in total number of bonds
Writing topology from bond orders to xtbtopo.mol

molecular dipole:
                 x           y           z       tot (Debye)
 q only:        0.145       0.441      -0.102
   full:        0.170       0.599      -0.149       1.628
molecular quadrupole (traceless):
                xx          xy          yy          xz          yz          zz
 q only:        2.473      -1.760      -1.847       0.393       0.706      -0.626
  q+dip:        1.172      -2.938      -3.357       1.274       0.801       2.184
   full:        1.953      -2.741      -2.979       0.993       0.793       1.026


           -------------------------------------------------
          | TOTAL ENERGY              -49.511886829472 Eh   |
          | GRADIENT NORM               0.000103352789 Eh/α |
          | HOMO-LUMO GAP              10.103620063597 eV   |
           -------------------------------------------------

------------------------------------------------------------------------
 * finished run on 2026/08/09 at 00:33:22.359     
------------------------------------------------------------------------
 total:
 * wall-time:     0 d,  0 h,  0 min,  0.058 sec
 *  cpu-time:     0 d,  0 h,  0 min,  0.595 sec
 * ratio c/w:    10.240 speedup
 SCF:
 * wall-time:     0 d,  0 h,  0 min,  0.040 sec
 *  cpu-time:     0 d,  0 h,  0 min,  0.443 sec
 * ratio c/w:    11.126 speedup

normal termination of xtb
