      -----------------------------------------------------------      
     |                   =====================                   |     
     |                           x T B                           |     
     |                   =====================                   |     
     |                         S. Grimme                         |     
     |          Mulliken Center for Theoretical Chemistry        |     
     |                    University of Bonn                     |     
      -----------------------------------------------------------      

   * xtb version 6.7.1 (edcfbbe) compiled by 'albert@albert-system' on 2024-07-22

   xtb is free software: you can redistribute it and/or modify it under
   the terms of the GNU Lesser General Public License as published by
   the Free Software Foundation, either version 3 of the License, or
   (at your option) any later version.
   
   xtb is distributed in the hope that it will be useful,
   but WITHOUT ANY WARRANTY; without even the implied warranty of
   MERCHANTABILITY or FITNESS FOR A PARTICULAR PURPOSE.  See the
   GNU Lesser General Public License for more details.
   
   Cite this work as:
   * C. Bannwarth, E. Caldeweyher, S. Ehlert, A. Hansen, P. Pracht,
     J. Seibert, S. Spicher, S. Grimme, WIREs Comput. Mol. Sci., 2020, 11,
     e01493. DOI: 10.1002/wcms.1493
   
   for GFN2-xTB:
   * C. Bannwarth, S. Ehlert and S. Grimme., J. Chem. Theory Comput., 2019,
     15, 1652-1671. DOI: 10.1021/acs.jctc.8b01176
   for GFN1-xTB:
   * S. Grimme, C. Bannwarth, P. Shushkov, J. Chem. Theory Comput., 2017,
     13, 1989-2009. DOI: 10.1021/acs.jctc.7b00118
   for GFN0-xTB:
   * P. Pracht, E. Caldeweyher, S. Ehlert, S. Grimme, ChemRxiv, 2019, preprint.
     DOI: 10.26434/chemrxiv.8326202.v1
   for GFN-FF:
   * S. Spicher and S. Grimme, Angew. Chem. Int. Ed., 2020, 59, 15665-15673.
     DOI: 10.1002/anie.202004239
   
   for ALPB and GBSA implicit solvation:
   * S. Ehlert, M. Stahn, S. Spicher, S. Grimme, J. Chem. Theory Comput.,
     2021, 17, 4250-4261. DOI: 10.1021/acs.jctc.1c00471
   
   for ddCOSMO and CPCM-X implicit solvation:
   * M. Stahn, S. Ehlert, S. Grimme, J. Phys. Chem. A,
     2023, XX, XXXX-XXXX. DOI: 10.1021/acs.jpca.3c04382
   
   for DFT-D4:
   * E. Caldeweyher, C. Bannwarth and S. Grimme, J. Chem. Phys., 2017,
     147, 034112. DOI: 10.1063/1.4993215
   * E. Caldeweyher, S. Ehlert, A. Hansen, H. Neugebauer, S. Spicher,
     C. Bannwarth and S. Grimme, J. Chem. Phys., 2019, 150, 154122.
     DOI: 10.1063/1.5090222
   * E. Caldeweyher, J.-M. Mewes, S. Ehlert and S. Grimme, Phys. Chem. Chem. Phys.
     2020, 22, 8499-8512. DOI: 10.1039/D0CP00502A
   
   for sTDA-xTB:
   * S. Grimme and C. Bannwarth, J. Chem. Phys., 2016, 145, 054103.
     DOI: 10.1063/1.4959605
   
   in the mass-spec context:
   * V. Asgeirsson, C. Bauer and S. Grimme, Chem. Sci., 2017, 8, 4879.
     DOI: 10.1039/c7sc00601b
   * J. Koopman and S. Grimme, ACS Omega 2019, 4, 12, 15120-15133.
     DOI: 10.1021/acsomega.9b02011
   
   for metadynamics refer to:
   * S. Grimme, J. Chem. Theory Comput., 2019, 155, 2847-2862
     DOI: 10.1021/acs.jctc.9b00143
   
   for SPH calculations refer to:
   * S. Spicher and S. Grimme, J. Chem. Theory Comput., 2021, 17, 1701-1714
     DOI: 10.1021/acs.jctc.0c01306
   
   for ONIOM refer to:
   * C. Plett, A. Katbashev, S. Ehlert, S. Grimme, M. Bursch,
     Phys. Chem. Chem. Phys., 2023, 25, 17860-17868. DOI: 10.1039/D3CP02178E
   
   for DIPRO refer to:
   * J. Kohn, N. Gildemeister, S. Grimme, D. Fazzi, A. Hansen,
     J. Chem. Phys., 2023, just accepted.
   
   for PTB refer to:
   * S. Grimme, M. Mueller, A. Hansen, J. Chem. Phys., 2023, 158, 124111.
     DOI: 10.1063/5.0137838
   
   with help from (in alphabetical order)
   P. Atkinson, C. Bannwarth, F. Bohle, G. Brandenburg, E. Caldeweyher
   M. Checinski, S. Dohm, S. Ehlert, S. Ehrlich, I. Gerasimov, C. Hölzer
   A. Katbashev, J. Kohn, J. Koopman, C. Lavigne, S. Lehtola, F. März, M. Müller,
   F. Musil, H. Neugebauer, J. Pisarek, C. Plett, P. Pracht, F. Pultar,
   J. Seibert, P. Shushkov, S. Spicher, M. Stahn, M. Steiner, T. Strunk,
   J. Stückrath, T. Rose, and J. Unsleber
   
 * started run on 2026/08/09 at 17:48:09.653     
   ID    Z sym.   atoms
    1    6 c      1-8, 10-13, 16
    2    8 o      9, 15
    3    1 h      14, 17-35

           -------------------------------------------------
          |                Calculation Setup                |
           -------------------------------------------------

          program call               : /home/dinglab/software/xtb_6.7.1/xtb_dist/bin/xtb coord --gfn2 --sp --chrg 0 --norestart --parallel 12 --alpb chcl3 reference -I xcontrol-inp
          hostname                   : localhost
          coordinate file            : coord
          omp threads                :                    12


           -------------------------------------------------
          |                 G F N 2 - x T B                 |
           -------------------------------------------------

        Reference                      10.1021/acs.jctc.8b01176
      * Hamiltonian:
        H0-scaling (s, p, d)           1.850000    2.230000    2.230000
        zeta-weighting                 0.500000
      * Dispersion:
        s8                             2.700000
        a1                             0.520000
        a2                             5.000000
        s9                             5.000000
      * Repulsion:
        kExp                           1.500000    1.000000
        rExp                           1.000000
      * Coulomb:
        alpha                          2.000000
        third order                    shell-resolved
        anisotropic                    true
        a3                             3.000000
        a5                             4.000000
        cn-shift                       1.200000
        cn-exp                         4.000000
        max-rad                        5.000000

      * Solvation model:               ALPB
        Solvent                        chcl3
        Parameter file                 internal GFN2-xTB/ALPB
        Dielectric constant                4.8100E+00
        Reference state                gsolv=reference [X=1]
        Free energy shift                  2.5086E-03 Eh       1.5742E+00 kcal/mol
        Temperature                        2.9815E+02 K
        Density                            1.4900E+00 kg/L
        Solvent mass                       1.1938E+02 g/mol
        Interaction kernel             P16
        Born radius scaling (c1)           1.3274E+00
        Born radii integrator          GBOBC
        Born offset                        0.0000E+00 a0       0.0000E+00 AA
        H-bond correction              false
        Ion screening                  false
        Surface tension                    1.0000E-05 Eh       1.5569E+01 dyn/cm
        Grid points                               974 per atom

          ...................................................
          :                      SETUP                      :
          :.................................................:
          :  # basis functions                  80          :
          :  # atomic orbitals                  80          :
          :  # shells                           50          :
          :  # electrons                        84          :
          :  max. iterations                   250          :
          :  Hamiltonian                  GFN2-xTB          :
          :  restarted?                      false          :
          :  GBSA solvation                   true          :
          :  PC potential                    false          :
          :  electronic temp.          300.0000000     K    :
          :  accuracy                    1.0000000          :
          :  -> integral cutoff          0.2500000E+02      :
          :  -> integral neglect         0.1000000E-07      :
          :  -> SCF convergence          0.1000000E-05 Eh   :
          :  -> wf. convergence          0.1000000E-03 e    :
          :  Broyden damping             0.4000000          :
          :  net charge                          0          :
          :  unpaired electrons                  0          :
          ...................................................

 iter      E             dE          RMSdq      gap      omega  full diag
   1    -46.7349827 -0.467350E+02  0.347E+00    5.22       0.0  T
   2    -46.7742272 -0.392444E-01  0.198E+00    5.10       1.0  T
   3    -46.7692883  0.493890E-02  0.782E-01    5.05       1.0  T
   4    -46.7764402 -0.715196E-02  0.330E-01    5.00       1.0  T
   5    -46.7783799 -0.193963E-02  0.752E-02    5.03       1.0  T
   6    -46.7784159 -0.360281E-04  0.414E-02    5.03       1.0  T
   7    -46.7784212 -0.533473E-05  0.120E-02    5.03       1.4  T
   8    -46.7784225 -0.128323E-05  0.474E-03    5.03       3.6  T
   9    -46.7784229 -0.358206E-06  0.205E-03    5.03       8.2  T
  10    -46.7784229 -0.223419E-07  0.748E-04    5.03      22.6  T
  11    -46.7784229 -0.232568E-08  0.283E-04    5.03      59.7  T

   *** convergence criteria satisfied after 11 iterations ***

         #    Occupation            Energy/Eh            Energy/eV
      -------------------------------------------------------------
         1        2.0000           -0.7020280             -19.1032
       ...           ...                  ...                  ...
        36        2.0000           -0.4246166             -11.5544
        37        2.0000           -0.4212549             -11.4629
        38        2.0000           -0.4156968             -11.3117
        39        2.0000           -0.4113333             -11.1929
        40        2.0000           -0.4043901             -11.0040
        41        2.0000           -0.3913585             -10.6494
        42        2.0000           -0.3862851             -10.5114 (HOMO)
        43                         -0.2013592              -5.4793 (LUMO)
        44                         -0.1994320              -5.4268
        45                          0.0165929               0.4515
        46                          0.0184114               0.5010
        47                          0.0415029               1.1294
       ...                                ...                  ...
        80                          0.6487819              17.6543
      -------------------------------------------------------------
                  HL-Gap            0.1849259 Eh            5.0321 eV
             Fermi-level           -0.2938222 Eh           -7.9953 eV

 SCC (total)                   0 d,  0 h,  0 min,  0.036 sec
 SCC setup                      ...        0 min,  0.001 sec (  1.746%)
 Dispersion                     ...        0 min,  0.000 sec (  1.016%)
 classical contributions        ...        0 min,  0.000 sec (  0.071%)
 integral evaluation            ...        0 min,  0.001 sec (  3.841%)
 iterations                     ...        0 min,  0.031 sec ( 84.134%)
 molecular gradient             ...        0 min,  0.003 sec (  8.623%)
 printout                       ...        0 min,  0.000 sec (  0.467%)

         :::::::::::::::::::::::::::::::::::::::::::::::::::::
         ::                     SUMMARY                     ::
         :::::::::::::::::::::::::::::::::::::::::::::::::::::
         :: total energy             -46.158081644238 Eh    ::
         :: total w/o Gsasa/hb       -46.144561536169 Eh    ::
         :: gradient norm              0.006990127075 Eh/a0 ::
         :: HOMO-LUMO gap              5.032090866841 eV    ::
         ::.................................................::
         :: SCC energy               -46.777743746912 Eh    ::
         :: -> isotropic ES            0.060161617675 Eh    ::
         :: -> anisotropic ES          0.005372037877 Eh    ::
         :: -> anisotropic XC          0.017004588421 Eh    ::
         :: -> dispersion             -0.036568748393 Eh    ::
         :: -> Gsolv                  -0.020745540374 Eh    ::
         ::    -> Gelec               -0.007225432305 Eh    ::
         ::    -> Gsasa               -0.016028756070 Eh    ::
         ::    -> Ghb                  0.000000000000 Eh    ::
         ::    -> Gshift               0.002508648001 Eh    ::
         :: repulsion energy           0.619662102674 Eh    ::
         :: add. restraining           0.000000000000 Eh    ::
         :: total charge              -0.000000000000 e     ::
         :::::::::::::::::::::::::::::::::::::::::::::::::::::

           -------------------------------------------------
          |                Property Printout                |
           -------------------------------------------------

    * Orbital Energies and Occupations

         #    Occupation            Energy/Eh            Energy/eV
      -------------------------------------------------------------
         1        2.0000           -0.7020280             -19.1032
       ...           ...                  ...                  ...
        30        2.0000           -0.4623726             -12.5818
        31        2.0000           -0.4590330             -12.4909
        32        2.0000           -0.4504884             -12.2584
        33        2.0000           -0.4452022             -12.1146
        34        2.0000           -0.4366109             -11.8808
        35        2.0000           -0.4336491             -11.8002
        36        2.0000           -0.4246166             -11.5544
        37        2.0000           -0.4212549             -11.4629
        38        2.0000           -0.4156968             -11.3117
        39        2.0000           -0.4113333             -11.1929
        40        2.0000           -0.4043901             -11.0040
        41        2.0000           -0.3913585             -10.6494
        42        2.0000           -0.3862851             -10.5114 (HOMO)
        43                         -0.2013592              -5.4793 (LUMO)
        44                         -0.1994320              -5.4268
        45                          0.0165929               0.4515
        46                          0.0184114               0.5010
        47                          0.0415029               1.1294
        48                          0.0500407               1.3617
        49                          0.0669624               1.8221
        50                          0.0793858               2.1602
        51                          0.0852132               2.3188
        52                          0.0947725               2.5789
        53                          0.1003020               2.7294
       ...                                ...                  ...
        80                          0.6487819              17.6543
      -------------------------------------------------------------
                  HL-Gap            0.1849259 Eh            5.0321 eV
             Fermi-level           -0.2938222 Eh           -7.9953 eV

     #   Z          covCN         q      C6AA      α(0)
     1   6 c        3.933    -0.000    20.521     6.438
     2   6 c        3.860    -0.028    21.035     6.522
     3   6 c        3.804    -0.057    21.595     6.616
     4   6 c        3.808    -0.056    21.581     6.613
     5   6 c        3.889    -0.036    21.171     6.541
     6   6 c        3.796     0.118    18.659     6.151
     7   6 c        3.852    -0.073    21.856     6.649
     8   6 c        2.982     0.010    27.789     8.647
     9   8 o        1.656    -0.470    22.257     6.369
    10   6 c        3.678     0.082    19.428     6.314
    11   6 c        2.838    -0.112    30.829     9.099
    12   6 c        2.936     0.017    27.625     8.620
    13   6 c        2.848    -0.119    31.014     9.127
    14   1 h        0.923     0.044     2.397     2.421
    15   8 o        1.656    -0.480    22.474     6.400
    16   6 c        3.761    -0.119    22.830     6.811
    17   1 h        0.924     0.038     2.481     2.463
    18   1 h        0.924     0.037     2.485     2.465
    19   1 h        0.924     0.050     2.314     2.379
    20   1 h        0.924     0.035     2.521     2.483
    21   1 h        0.924     0.032     2.559     2.502
    22   1 h        0.923     0.006     2.953     2.688
    23   1 h        0.925     0.055     2.261     2.352
    24   1 h        0.924     0.050     2.316     2.380
    25   1 h        0.805     0.311     0.688     1.303
    26   1 h        0.924     0.040     2.448     2.447
    27   1 h        0.923     0.028     2.614     2.528
    28   1 h        0.926     0.037     2.495     2.470
    29   1 h        0.926     0.037     2.487     2.466
    30   1 h        0.926     0.029     2.602     2.522
    31   1 h        0.926     0.021     2.718     2.578
    32   1 h        0.805     0.313     0.684     1.299
    33   1 h        0.925     0.050     2.315     2.379
    34   1 h        0.925     0.075     2.029     2.228
    35   1 h        0.925     0.036     2.500     2.473

 Mol. C6AA /au·bohr⁶  :      10406.242461
 Mol. C8AA /au·bohr⁸  :     233793.199826
 Mol. α(0) /au        :        153.743504


Wiberg/Mayer (AO) data.
largest (>0.10) Wiberg bond orders for each atom

 ---------------------------------------------------------------------------
     #   Z sym  total        # sym  WBO       # sym  WBO       # sym  WBO
 ---------------------------------------------------------------------------
     1   6 c    3.988 --     7 c    0.980    10 c    0.976     6 c    0.966
                             2 c    0.961
     2   6 c    3.992 --    12 c    0.998     3 c    0.982     1 c    0.961
                            14 h    0.959
     3   6 c    3.997 --     4 c    1.010     2 c    0.982    18 h    0.976
                            17 h    0.975
     4   6 c    3.996 --     3 c    1.010     5 c    0.980    20 h    0.976
                            19 h    0.970
     5   6 c    3.995 --     8 c    0.994     4 c    0.980     6 c    0.968
                            21 h    0.965
     6   6 c    3.949 --     9 o    0.984     5 c    0.968     1 c    0.966
                            22 h    0.959
     7   6 c    3.995 --     8 c    1.006     1 c    0.980    23 h    0.965
                            24 h    0.957
     8   6 c    3.986 --    11 c    1.936     7 c    1.006     5 c    0.994
     9   8 o    1.960 --     6 c    0.984    25 h    0.885
    10   6 c    3.953 --    15 o    0.999     1 c    0.976    26 h    0.970
                            27 h    0.968
    11   6 c    3.988 --     8 c    1.936    28 h    0.975    29 h    0.975
    12   6 c    3.986 --    13 c    1.915    16 c    1.032     2 c    0.998
    13   6 c    3.984 --    12 c    1.915    30 h    0.975    31 h    0.969
    14   1 h    0.998 --     2 c    0.959
    15   8 o    1.941 --    10 c    0.999    32 h    0.874
    16   6 c    3.994 --    12 c    1.032    35 h    0.984    33 h    0.964
                            34 h    0.956
    17   1 h    0.998 --     3 c    0.975
    18   1 h    0.999 --     3 c    0.976
    19   1 h    0.997 --     4 c    0.970
    20   1 h    0.998 --     4 c    0.976
    21   1 h    0.999 --     5 c    0.965
    22   1 h    0.999 --     6 c    0.959
    23   1 h    0.997 --     7 c    0.965
    24   1 h    0.997 --     7 c    0.957
    25   1 h    0.903 --     9 o    0.885
    26   1 h    0.998 --    10 c    0.970
    27   1 h    0.999 --    10 c    0.968
    28   1 h    0.998 --    11 c    0.975
    29   1 h    0.998 --    11 c    0.975
    30   1 h    0.999 --    13 c    0.975
    31   1 h    1.000 --    13 c    0.969
    32   1 h    0.902 --    15 o    0.874
    33   1 h    0.997 --    16 c    0.964
    34   1 h    0.994 --    16 c    0.956
    35   1 h    0.998 --    16 c    0.984
 ---------------------------------------------------------------------------

Topologies differ in total number of bonds
Writing topology from bond orders to xtbtopo.mol

molecular dipole:
                 x           y           z       tot (Debye)
 q only:       -0.554       0.762       0.443
   full:       -0.647       0.857       0.596       3.123
molecular quadrupole (traceless):
                xx          xy          yy          xz          yz          zz
 q only:       -0.727       2.162      -4.201      -2.082      -0.907       4.928
  q+dip:        1.033       3.114      -7.000      -3.658      -1.562       5.967
   full:        0.169       3.134      -6.462      -3.941      -1.943       6.293


           -------------------------------------------------
          | TOTAL ENERGY              -46.158081644238 Eh   |
          | GRADIENT NORM               0.006990127075 Eh/α |
          | HOMO-LUMO GAP               5.032090866841 eV   |
           -------------------------------------------------

------------------------------------------------------------------------
 * finished run on 2026/08/09 at 17:48:09.708     
------------------------------------------------------------------------
 total:
 * wall-time:     0 d,  0 h,  0 min,  0.054 sec
 *  cpu-time:     0 d,  0 h,  0 min,  0.576 sec
 * ratio c/w:    10.716 speedup
 SCF:
 * wall-time:     0 d,  0 h,  0 min,  0.037 sec
 *  cpu-time:     0 d,  0 h,  0 min,  0.430 sec
 * ratio c/w:    11.691 speedup

normal termination of xtb
