 Entering Gaussian System
 *********************************************
 Gaussian 98:
 frequency output generated by the xtb code
 *********************************************
                         Standard orientation:
 --------------------------------------------------------------------
  Center     Atomic     Atomic              Coordinates (Angstroms)
  Number     Number      Type              X           Y           Z
 --------------------------------------------------------------------
    1          6             0        0.099442   -0.633334    0.097223
    2          6             0       -0.921856    0.374644    0.683176
    3          6             0       -0.348313    1.809645    0.717831
    4          6             0        0.548615    2.193556   -0.459750
    5          6             0        1.503637    1.048203   -0.810307
    6          6             0        0.657201   -0.146663   -1.257264
    7          6             0        1.365076   -0.608455    0.978978
    8          6             0        2.190491    0.526312    0.427424
    9          8             0        1.410709   -1.128668   -1.939789
   10          6             0       -0.510508   -2.037986   -0.017598
   11          6             0        3.324238    0.980116    0.930863
   12          6             0       -2.314933    0.308546    0.090454
   13          6             0       -3.323607   -0.116647    0.841550
   14          1             0       -1.047344    0.081867    1.733292
   15          8             0       -0.920284   -2.581833    1.217916
   16          6             0       -2.569500    0.760833   -1.315916
   17          1             0       -1.175844    2.517573    0.797525
   18          1             0        0.246299    1.907091    1.628217
   19          1             0       -0.039417    2.438552   -1.345584
   20          1             0        1.122612    3.081706   -0.187781
   21          1             0        2.208891    1.364169   -1.582526
   22          1             0       -0.118457    0.132804   -1.967538
   23          1             0        1.903906   -1.556252    0.895630
   24          1             0        1.133559   -0.472577    2.035265
   25          1             0        2.182462   -1.343590   -1.399619
   26          1             0        0.237505   -2.731390   -0.410306
   27          1             0       -1.351603   -2.015155   -0.722158
   28          1             0        3.754527    0.563423    1.826399
   29          1             0        3.865329    1.789355    0.470005
   30          1             0       -4.332666   -0.159318    0.465967
   31          1             0       -3.197574   -0.428535    1.866314
   32          1             0       -1.680197   -2.071787    1.526899
   33          1             0       -2.081358    1.710797   -1.515071
   34          1             0       -2.199673    0.028535   -2.032601
   35          1             0       -3.638138    0.878829   -1.482137
 --------------------------------------------------------------------
     1 basis functions        1 primitive gaussians
     1 alpha electrons        1 beta electrons
 
 Harmonic frequencies (cm**-1), IR intensities (km*mol⁻¹),
 Raman scattering activities (A**4/amu), Raman depolarization ratios,
 reduced masses (AMU), force constants (mDyne/A) and normal coordinates:
                      1                      2                      3
                        a                      a                      a 
 Frequencies --    55.0747                75.0878                79.4659
 Red. masses --    11.1377                10.3524                 9.5312
 Frc consts  --     0.0000                 0.0000                 0.0000
 IR Inten    --     1.5238                 1.4968                 0.1351
 Raman Activ --     0.0000                 0.0000                 0.0000
 Depolar     --     0.0000                 0.0000                 0.0000
 Atom AN      X      Y      Z        X      Y      Z        X      Y      Z
   1   6     0.07  -0.02  -0.04    -0.05  -0.01  -0.06     0.00  -0.05  -0.07
   2   6     0.09  -0.05   0.02    -0.03  -0.02  -0.03     0.09   0.04  -0.03
   3   6     0.02  -0.02  -0.01    -0.01  -0.02   0.02     0.12   0.03  -0.15
   4   6    -0.01  -0.00  -0.03     0.00   0.01   0.05     0.08  -0.06  -0.21
   5   6     0.03   0.03  -0.00    -0.01   0.00   0.03     0.07  -0.11  -0.07
   6   6     0.07   0.01  -0.02    -0.01   0.03  -0.04     0.03  -0.09  -0.07
   7   6     0.08  -0.03  -0.05    -0.05  -0.08  -0.05     0.01  -0.13  -0.09
   8   6     0.02   0.05   0.02    -0.05  -0.04   0.04    -0.08   0.01   0.07
   9   8     0.10   0.04  -0.04    -0.01   0.06  -0.07    -0.02  -0.15  -0.07
  10   6     0.04  -0.01  -0.10    -0.05  -0.01  -0.06    -0.09  -0.00  -0.07
  11   6    -0.05   0.14   0.09    -0.10  -0.02   0.14    -0.35   0.33   0.39
  12   6     0.05  -0.08   0.12    -0.04   0.08  -0.01     0.04   0.06   0.09
  13   6     0.06   0.19   0.30    -0.12   0.52   0.14     0.12  -0.07   0.12
  14   1     0.05  -0.01   0.01    -0.01  -0.01  -0.01     0.05   0.03  -0.00
  15   8    -0.54   0.16  -0.24     0.46  -0.20   0.02     0.08  -0.08  -0.05
  16   6     0.01  -0.40   0.03     0.04  -0.29  -0.14    -0.08   0.24   0.17
  17   1    -0.00  -0.02  -0.01    -0.00  -0.01   0.01     0.04   0.01  -0.04
  18   1     0.01   0.01  -0.01    -0.01  -0.02   0.01     0.05   0.02  -0.05
  19   1    -0.01  -0.01  -0.01     0.00   0.01   0.01     0.02  -0.05  -0.07
  20   1    -0.01   0.01  -0.01     0.00  -0.00   0.02     0.02  -0.01  -0.09
  21   1     0.01   0.01   0.00     0.01   0.01   0.02     0.04  -0.06  -0.01
  22   1     0.02   0.00  -0.01     0.00   0.02  -0.01     0.01  -0.02  -0.02
  23   1     0.04   0.00  -0.04    -0.02  -0.02  -0.03     0.02  -0.03  -0.08
  24   1     0.03  -0.04  -0.01    -0.02  -0.05  -0.01     0.01  -0.10  -0.02
  25   1     0.03   0.01  -0.01    -0.01   0.01  -0.02    -0.01  -0.05  -0.02
  26   1     0.04  -0.03   0.07    -0.05   0.02  -0.12    -0.05  -0.00  -0.07
  27   1     0.09  -0.01  -0.12    -0.09   0.01   0.07    -0.06   0.03   0.02
  28   1    -0.02   0.04   0.03    -0.04  -0.02   0.04    -0.14   0.13   0.15
  29   1    -0.03   0.06   0.04    -0.03   0.00   0.06    -0.12   0.13   0.15
  30   1     0.01   0.06   0.11    -0.04   0.19   0.05     0.03  -0.02   0.06
  31   1     0.03   0.13   0.11    -0.04   0.21   0.06     0.06  -0.05   0.02
  32   1    -0.17   0.05  -0.17     0.17  -0.04   0.12     0.05  -0.01   0.03
  33   1     0.00  -0.13  -0.06     0.05  -0.12  -0.12    -0.07   0.10   0.09
  34   1    -0.00  -0.16   0.05    -0.02  -0.16   0.02     0.01   0.12   0.01
  35   1     0.00  -0.13   0.01     0.02  -0.05  -0.05    -0.03   0.03   0.06
                      4                      5                      6
                        a                      a                      a 
 Frequencies --   120.6997               125.9230               171.8865
 Red. masses --    10.5723                10.4478                11.1066
 Frc consts  --     0.0000                 0.0000                 0.0000
 IR Inten    --     2.0894                 0.9625                 2.3240
 Raman Activ --     0.0000                 0.0000                 0.0000
 Depolar     --     0.0000                 0.0000                 0.0000
 Atom AN      X      Y      Z        X      Y      Z        X      Y      Z
   1   6    -0.05   0.09  -0.04    -0.03   0.10  -0.01     0.00  -0.05  -0.19
   2   6    -0.05   0.10  -0.06     0.02   0.15  -0.03    -0.00  -0.10  -0.09
   3   6    -0.10   0.13  -0.19    -0.02   0.18  -0.16    -0.02  -0.12   0.08
   4   6    -0.02   0.02  -0.17     0.22   0.10  -0.02    -0.11  -0.03   0.06
   5   6     0.06   0.03   0.03     0.14   0.00   0.07    -0.02   0.05   0.02
   6   6     0.13   0.00  -0.00    -0.04   0.14  -0.00     0.09   0.02  -0.13
   7   6    -0.14   0.08   0.08    -0.06  -0.04   0.00    -0.00  -0.15  -0.19
   8   6    -0.01  -0.02   0.05     0.03  -0.08   0.10    -0.03  -0.06  -0.02
   9   8     0.34  -0.05   0.28    -0.31   0.13  -0.23     0.31   0.15  -0.12
  10   6    -0.06   0.10  -0.17    -0.10   0.13   0.02    -0.07  -0.03   0.08
  11   6     0.14  -0.29  -0.04     0.03  -0.20   0.21    -0.04  -0.16   0.08
  12   6    -0.11   0.00   0.10     0.02  -0.10   0.01    -0.04  -0.05  -0.04
  13   6     0.00  -0.05   0.24     0.12  -0.33   0.01    -0.02   0.01   0.02
  14   1     0.01   0.05  -0.01     0.02   0.07   0.00     0.01  -0.06  -0.03
  15   8     0.10  -0.12  -0.24     0.07   0.19   0.10     0.05   0.47   0.37
  16   6    -0.25  -0.02   0.13    -0.04  -0.30  -0.05    -0.10   0.02  -0.00
  17   1    -0.03   0.03  -0.10    -0.02   0.05  -0.12    -0.00  -0.04   0.06
  18   1    -0.05   0.07  -0.05    -0.06   0.09  -0.02     0.02  -0.07   0.01
  19   1     0.01  -0.04  -0.07     0.11   0.05  -0.03    -0.05  -0.03   0.02
  20   1    -0.03   0.03  -0.07     0.08   0.01   0.03    -0.05   0.01   0.01
  21   1     0.04   0.00   0.02     0.06  -0.02   0.03    -0.00   0.05   0.02
  22   1     0.07  -0.03  -0.04    -0.02   0.10   0.03     0.04   0.00  -0.06
  23   1    -0.06   0.01   0.07    -0.03  -0.02  -0.01     0.00  -0.04  -0.10
  24   1    -0.06   0.06   0.01    -0.02  -0.03   0.00    -0.00  -0.10  -0.05
  25   1     0.06   0.02   0.12    -0.08  -0.04  -0.08     0.06   0.05  -0.01
  26   1    -0.03   0.05  -0.11    -0.05   0.03  -0.02    -0.04  -0.05   0.06
  27   1    -0.04   0.06  -0.02    -0.06   0.04   0.04    -0.04  -0.05   0.05
  28   1     0.03  -0.12  -0.02    -0.02  -0.09   0.06    -0.03  -0.09   0.01
  29   1     0.08  -0.11  -0.02     0.04  -0.06   0.09    -0.00  -0.03   0.07
  30   1    -0.01  -0.04   0.11     0.04  -0.18  -0.00    -0.01   0.02   0.02
  31   1     0.05  -0.00   0.07     0.05  -0.06   0.01     0.00   0.01   0.01
  32   1     0.05  -0.03   0.00     0.03   0.05   0.05    -0.00   0.12   0.04
  33   1    -0.19   0.06   0.07     0.03  -0.12  -0.08    -0.21   0.12   0.09
  34   1     0.04   0.06   0.03    -0.06  -0.14   0.02     0.16   0.13  -0.03
  35   1    -0.08  -0.14   0.02    -0.01  -0.05   0.01    -0.04  -0.20  -0.05
                      7                      8                      9
                        a                      a                      a 
 Frequencies --   187.3937               202.0772               251.6891
 Red. masses --     9.0253                 4.7374                10.0197
 Frc consts  --     0.0000                 0.0000                 0.0000
 IR Inten    --     2.6649                 0.6403                 1.1632
 Raman Activ --     0.0000                 0.0000                 0.0000
 Depolar     --     0.0000                 0.0000                 0.0000
 Atom AN      X      Y      Z        X      Y      Z        X      Y      Z
   1   6    -0.09   0.04  -0.04    -0.02   0.06   0.08    -0.04   0.10  -0.10
   2   6     0.06   0.09   0.10     0.03   0.09   0.10    -0.11   0.00  -0.08
   3   6     0.09   0.07   0.15     0.15   0.03   0.15     0.23  -0.15   0.23
   4   6    -0.05   0.07   0.05    -0.03  -0.00   0.01     0.23  -0.06   0.25
   5   6    -0.13   0.05  -0.06    -0.01   0.00   0.00     0.13  -0.06  -0.10
   6   6    -0.04  -0.02  -0.04    -0.05   0.02   0.06     0.04   0.00  -0.08
   7   6     0.01  -0.14  -0.19     0.03   0.01   0.01    -0.08   0.15  -0.00
   8   6    -0.08  -0.03  -0.12     0.02   0.02  -0.01     0.11  -0.03  -0.09
   9   8     0.27  -0.05   0.32    -0.24  -0.09   0.04    -0.05  -0.26   0.16
  10   6    -0.35   0.16  -0.06    -0.13   0.11  -0.03     0.06   0.08  -0.11
  11   6    -0.11   0.04  -0.12     0.02   0.08  -0.05    -0.02   0.16   0.02
  12   6     0.10   0.02   0.06     0.08   0.02  -0.03    -0.16   0.04  -0.06
  13   6     0.10  -0.19  -0.07     0.05  -0.01  -0.09    -0.07  -0.08   0.00
  14   1     0.02   0.01   0.03    -0.01   0.02   0.02    -0.05  -0.04  -0.04
  15   8    -0.03   0.05  -0.01    -0.03  -0.13  -0.11     0.11   0.21  -0.07
  16   6     0.21  -0.13  -0.01     0.15  -0.18  -0.11    -0.36  -0.09  -0.07
  17   1     0.03   0.02   0.08     0.07   0.03   0.10     0.12   0.02   0.13
  18   1     0.06  -0.00   0.02     0.09  -0.03   0.01     0.09  -0.16   0.06
  19   1    -0.04   0.04   0.04    -0.05  -0.04   0.02     0.05   0.06   0.10
  20   1     0.01   0.01  -0.00    -0.02   0.02  -0.04     0.10  -0.06   0.12
  21   1    -0.04   0.02  -0.02    -0.01  -0.00  -0.01     0.02   0.01  -0.03
  22   1     0.01  -0.06  -0.06    -0.00   0.03   0.02     0.03   0.01  -0.05
  23   1    -0.00  -0.04  -0.12     0.00   0.00  -0.01    -0.05   0.02   0.06
  24   1     0.04  -0.09  -0.04     0.03  -0.00   0.01    -0.05   0.10  -0.01
  25   1     0.06   0.07   0.12    -0.06  -0.06   0.00    -0.05  -0.08   0.08
  26   1    -0.17   0.03  -0.12    -0.06   0.04  -0.07     0.03   0.03  -0.02
  27   1    -0.17   0.12   0.07    -0.06   0.08   0.02     0.02   0.00  -0.03
  28   1    -0.01   0.00  -0.05     0.02   0.04  -0.02    -0.03   0.10   0.04
  29   1    -0.06   0.04  -0.02    -0.01   0.03  -0.03    -0.00   0.03  -0.02
  30   1     0.04  -0.10  -0.05     0.03  -0.05  -0.05    -0.03  -0.05   0.02
  31   1     0.01  -0.05  -0.02    -0.01   0.04  -0.01     0.00  -0.02   0.00
  32   1     0.05   0.04   0.10     0.02  -0.02   0.04     0.01   0.03  -0.04
  33   1     0.21  -0.13  -0.09    -0.32   0.17   0.09    -0.09  -0.04  -0.07
  34   1    -0.08  -0.15   0.04     0.44   0.14  -0.02    -0.15  -0.06  -0.01
  35   1     0.07   0.12   0.02     0.02  -0.48  -0.17    -0.11  -0.01   0.03
                     10                     11                     12
                        a                      a                      a 
 Frequencies --   273.0073               279.6889               304.3387
 Red. masses --     7.2267                10.6207                 7.4374
 Frc consts  --     0.0000                 0.0000                 0.0000
 IR Inten    --     2.0129                 0.5038                 9.8472
 Raman Activ --     0.0000                 0.0000                 0.0000
 Depolar     --     0.0000                 0.0000                 0.0000
 Atom AN      X      Y      Z        X      Y      Z        X      Y      Z
   1   6     0.03  -0.01  -0.01     0.00  -0.11   0.09    -0.15   0.02  -0.08
   2   6    -0.06  -0.10  -0.00     0.04   0.08  -0.13    -0.00   0.10   0.00
   3   6    -0.34   0.03  -0.16     0.11   0.06  -0.01     0.02   0.13  -0.04
   4   6     0.24   0.01   0.23     0.20   0.10   0.09     0.23   0.19   0.12
   5   6     0.09  -0.06   0.03    -0.04  -0.05   0.06    -0.12  -0.00  -0.14
   6   6     0.04  -0.01   0.00    -0.04  -0.05   0.08    -0.16   0.01  -0.09
   7   6     0.13  -0.11  -0.08     0.02  -0.08   0.09    -0.17   0.01  -0.11
   8   6     0.15  -0.09  -0.04    -0.02  -0.07   0.04    -0.15  -0.08  -0.17
   9   8     0.01  -0.08   0.05     0.22   0.28  -0.11     0.04  -0.01   0.16
  10   6    -0.12   0.06  -0.04    -0.16  -0.09   0.16     0.23  -0.18   0.05
  11   6     0.06   0.25  -0.14    -0.01   0.13  -0.15    -0.23  -0.11   0.00
  12   6    -0.09  -0.16   0.05     0.03   0.07  -0.18     0.02   0.06   0.07
  13   6    -0.20   0.04   0.02     0.19   0.02   0.01     0.06  -0.02   0.07
  14   1     0.01  -0.02   0.01    -0.03   0.04  -0.04     0.02   0.03   0.00
  15   8    -0.02   0.05  -0.01    -0.18  -0.32   0.12     0.07  -0.06   0.07
  16   6     0.09   0.04   0.09    -0.35  -0.01  -0.16     0.19  -0.01   0.03
  17   1    -0.15  -0.03  -0.24     0.03   0.02  -0.00    -0.01   0.03  -0.06
  18   1    -0.26   0.12   0.05     0.01  -0.01   0.01    -0.05   0.05   0.02
  19   1     0.17   0.14   0.04     0.07   0.09   0.03     0.10   0.20   0.05
  20   1     0.13  -0.08   0.21     0.11  -0.01   0.06     0.16  -0.03   0.13
  21   1     0.01  -0.00   0.00    -0.01  -0.05   0.01    -0.04  -0.03  -0.05
  22   1     0.02   0.01  -0.01    -0.04  -0.03   0.04    -0.02  -0.03  -0.06
  23   1     0.02  -0.04  -0.06     0.01  -0.02   0.02    -0.06  -0.00  -0.01
  24   1     0.06  -0.05  -0.01     0.01  -0.02   0.03    -0.05   0.03  -0.04
  25   1    -0.01  -0.04   0.03     0.11   0.15  -0.07     0.06   0.14   0.03
  26   1    -0.08  -0.01  -0.06    -0.07  -0.03   0.01     0.18   0.00   0.13
  27   1    -0.07   0.07   0.03    -0.06   0.01   0.07     0.13  -0.19  -0.07
  28   1     0.08   0.14  -0.04     0.06   0.10  -0.05    -0.12  -0.05   0.02
  29   1    -0.06   0.09  -0.10    -0.07   0.05  -0.11    -0.03  -0.04   0.03
  30   1    -0.05   0.06  -0.01     0.04  -0.03   0.06     0.02  -0.04   0.02
  31   1    -0.09  -0.00   0.01     0.12   0.03   0.00     0.04   0.02   0.03
  32   1     0.06   0.07   0.06    -0.02  -0.07   0.07    -0.18  -0.20  -0.17
  33   1    -0.02   0.05   0.12    -0.16   0.02  -0.09    -0.01   0.04   0.05
  34   1     0.12   0.08   0.00    -0.11   0.01  -0.07     0.17   0.03   0.04
  35   1     0.03  -0.05  -0.04    -0.12  -0.06   0.03     0.06  -0.10  -0.07
                     13                     14                     15
                        a                      a                      a 
 Frequencies --   315.2237               337.1511               363.3505
 Red. masses --     9.4225                 7.9412                 6.6593
 Frc consts  --     0.0000                 0.0000                 0.0000
 IR Inten    --     2.0535                29.2138               101.6696
 Raman Activ --     0.0000                 0.0000                 0.0000
 Depolar     --     0.0000                 0.0000                 0.0000
 Atom AN      X      Y      Z        X      Y      Z        X      Y      Z
   1   6     0.06   0.04   0.08    -0.04   0.06   0.10     0.00   0.00   0.05
   2   6     0.03   0.04  -0.02    -0.12   0.07   0.12     0.02   0.03   0.03
   3   6    -0.11   0.09  -0.02     0.18  -0.00  -0.06    -0.03   0.04   0.02
   4   6    -0.09   0.10   0.01     0.11  -0.05  -0.15    -0.04  -0.07  -0.00
   5   6    -0.04   0.12   0.04     0.12  -0.03  -0.10    -0.06  -0.12   0.12
   6   6    -0.06   0.07   0.10    -0.01   0.04   0.04    -0.04  -0.03   0.07
   7   6     0.31  -0.23  -0.28     0.12  -0.02  -0.11    -0.07  -0.18   0.14
   8   6     0.11   0.03  -0.05     0.15  -0.02  -0.10    -0.13  -0.15   0.17
   9   8    -0.20  -0.16   0.35     0.08   0.14  -0.00    -0.15  -0.13   0.09
  10   6     0.14  -0.00   0.05     0.04   0.02   0.10     0.15   0.05  -0.16
  11   6     0.08  -0.09   0.12     0.06   0.00   0.10    -0.07   0.03  -0.15
  12   6     0.04   0.02  -0.15    -0.21   0.03   0.18     0.06   0.03  -0.04
  13   6     0.08   0.08  -0.07    -0.44  -0.05  -0.15     0.10   0.02   0.00
  14   1    -0.02   0.02  -0.01    -0.02   0.05   0.05    -0.01   0.02   0.01
  15   8     0.02  -0.04  -0.01    -0.07  -0.13   0.02     0.14   0.29  -0.15
  16   6    -0.27   0.03  -0.12    -0.06  -0.09   0.12    -0.02   0.01  -0.04
  17   1    -0.05   0.00  -0.03     0.10   0.05   0.03    -0.02   0.00  -0.01
  18   1    -0.05   0.05   0.00     0.11  -0.04  -0.05    -0.01   0.03   0.01
  19   1    -0.03   0.01  -0.00     0.02  -0.04  -0.04    -0.01  -0.05  -0.01
  20   1    -0.04   0.04  -0.01     0.02   0.00  -0.07    -0.01  -0.01  -0.03
  21   1    -0.03   0.04  -0.00     0.02  -0.03  -0.05     0.01  -0.03   0.06
  22   1    -0.02   0.01   0.03    -0.01   0.00   0.02    -0.04  -0.02   0.04
  23   1     0.09  -0.05  -0.27     0.01  -0.01  -0.12    -0.03  -0.05  -0.01
  24   1     0.19  -0.22  -0.04     0.11  -0.05  -0.01    -0.03  -0.09   0.04
  25   1    -0.04  -0.00   0.08     0.23   0.33  -0.18     0.32   0.45  -0.30
  26   1     0.07   0.01   0.04     0.04   0.03   0.04     0.08   0.03  -0.01
  27   1     0.07  -0.02  -0.02     0.03  -0.00   0.01     0.07  -0.02  -0.08
  28   1     0.01  -0.12  -0.00    -0.03  -0.01   0.05     0.07   0.08  -0.05
  29   1     0.03   0.03   0.13     0.04   0.01   0.07    -0.10   0.02  -0.13
  30   1     0.01   0.03   0.00    -0.09  -0.00  -0.16     0.03  -0.01   0.01
  31   1     0.04   0.02  -0.02    -0.24  -0.04  -0.04     0.04   0.01   0.00
  32   1    -0.07  -0.08  -0.07     0.02   0.00   0.04     0.13   0.20  -0.00
  33   1    -0.11   0.02  -0.07    -0.01  -0.03   0.02    -0.02   0.01  -0.03
  34   1    -0.13   0.02  -0.07     0.01  -0.05   0.07    -0.01   0.00  -0.02
  35   1    -0.09  -0.00   0.05    -0.01  -0.03  -0.02    -0.01  -0.01   0.01
                     16                     17                     18
                        a                      a                      a 
 Frequencies --   367.2411               376.0519               423.6562
 Red. masses --     4.4568                 5.8976                10.2276
 Frc consts  --     0.0000                 0.0000                 0.0000
 IR Inten    --   159.3454                24.4732                 3.6188
 Raman Activ --     0.0000                 0.0000                 0.0000
 Depolar     --     0.0000                 0.0000                 0.0000
 Atom AN      X      Y      Z        X      Y      Z        X      Y      Z
   1   6    -0.05   0.06  -0.02     0.06   0.07   0.01    -0.01  -0.09  -0.01
   2   6    -0.04   0.06   0.04     0.00  -0.05  -0.00    -0.02  -0.23  -0.13
   3   6     0.03   0.03   0.00    -0.17  -0.04   0.09     0.18  -0.30  -0.23
   4   6    -0.03  -0.09  -0.08    -0.09  -0.11   0.12     0.12   0.13  -0.16
   5   6     0.09  -0.06   0.15     0.01  -0.01  -0.12     0.06   0.11  -0.02
   6   6     0.07   0.03   0.02     0.06  -0.08  -0.08    -0.11   0.20   0.13
   7   6    -0.04  -0.17   0.01     0.04   0.22   0.01    -0.03   0.05   0.02
   8   6    -0.02  -0.09   0.19     0.14   0.08  -0.15    -0.05   0.12   0.06
   9   8     0.03   0.05  -0.06    -0.04  -0.21  -0.10    -0.20   0.14   0.33
  10   6    -0.06   0.07  -0.04    -0.20   0.17   0.06    -0.15  -0.04  -0.07
  11   6     0.06   0.12  -0.16     0.05  -0.04   0.18     0.04   0.00  -0.02
  12   6    -0.06   0.08   0.05     0.06  -0.05  -0.08    -0.01  -0.32  -0.11
  13   6    -0.08  -0.02  -0.03     0.13   0.03   0.06     0.00   0.04   0.11
  14   1    -0.00  -0.01   0.00    -0.01  -0.06  -0.02    -0.01  -0.02  -0.03
  15   8     0.20   0.12   0.09     0.00  -0.05   0.06     0.03   0.07   0.05
  16   6    -0.00  -0.02   0.01     0.03   0.03  -0.05     0.09   0.03  -0.01
  17   1     0.02   0.03   0.01    -0.07  -0.03  -0.04     0.08  -0.07   0.06
  18   1     0.03   0.00  -0.01    -0.10   0.03   0.05     0.12  -0.18  -0.10
  19   1    -0.02  -0.11  -0.04    -0.03  -0.01   0.04     0.06   0.08  -0.05
  20   1    -0.05   0.01  -0.08    -0.02  -0.04   0.04     0.01   0.03   0.04
  21   1     0.06  -0.02   0.07    -0.04   0.06  -0.05     0.04  -0.04  -0.01
  22   1     0.04   0.04  -0.01    -0.00  -0.04  -0.01    -0.03   0.06   0.04
  23   1    -0.02  -0.05  -0.07    -0.00   0.05   0.06     0.02   0.03   0.01
  24   1    -0.01  -0.13   0.01     0.01   0.14  -0.01    -0.03   0.00   0.00
  25   1    -0.05  -0.09   0.03     0.27   0.31  -0.28     0.03   0.19   0.02
  26   1    -0.01   0.04  -0.04    -0.11   0.04  -0.08    -0.09  -0.04  -0.07
  27   1    -0.03   0.00   0.01    -0.10   0.13   0.08    -0.08   0.04   0.03
  28   1     0.14   0.12  -0.07    -0.10  -0.06   0.09     0.02  -0.01  -0.01
  29   1    -0.09   0.05  -0.14     0.11  -0.04   0.12     0.02  -0.01  -0.01
  30   1    -0.02  -0.01  -0.03     0.02   0.01   0.06    -0.02   0.05   0.09
  31   1    -0.03  -0.01  -0.01     0.09   0.02   0.01     0.04   0.03   0.03
  32   1    -0.45  -0.50  -0.33    -0.23  -0.29  -0.10    -0.08  -0.08  -0.04
  33   1     0.02  -0.02  -0.02     0.01   0.01   0.00     0.06   0.02   0.12
  34   1    -0.01  -0.04   0.03    -0.01   0.02  -0.04     0.02   0.08  -0.07
  35   1     0.00   0.02  -0.01     0.01   0.02   0.00     0.03   0.07  -0.01
                     19                     20                     21
                        a                      a                      a 
 Frequencies --   441.0533               467.8610               513.4987
 Red. masses --    10.1217                 9.0188                 8.5973
 Frc consts  --     0.0000                 0.0000                 0.0000
 IR Inten    --    32.8169                 3.4790                10.6881
 Raman Activ --     0.0000                 0.0000                 0.0000
 Depolar     --     0.0000                 0.0000                 0.0000
 Atom AN      X      Y      Z        X      Y      Z        X      Y      Z
   1   6     0.08  -0.02   0.18    -0.16   0.12  -0.04    -0.05  -0.09  -0.25
   2   6     0.06  -0.05   0.15    -0.22   0.05  -0.05     0.20  -0.11   0.06
   3   6    -0.02  -0.02  -0.03    -0.09  -0.07   0.01    -0.03  -0.02  -0.02
   4   6    -0.01  -0.14  -0.05    -0.09  -0.24  -0.01    -0.04  -0.01  -0.00
   5   6    -0.09  -0.14  -0.12     0.15  -0.06   0.04     0.16   0.12   0.06
   6   6    -0.21  -0.01   0.14    -0.04   0.15  -0.00     0.02   0.23  -0.11
   7   6     0.08  -0.05   0.15    -0.05  -0.03  -0.12    -0.14   0.04  -0.07
   8   6     0.14  -0.31  -0.30     0.28  -0.24  -0.12     0.14  -0.11  -0.03
   9   8     0.08   0.35   0.08    -0.03   0.18   0.11    -0.15  -0.01   0.19
  10   6     0.03   0.13  -0.09     0.04  -0.02   0.08    -0.10  -0.24  -0.05
  11   6    -0.16  -0.02   0.07     0.07   0.12   0.05     0.05   0.09   0.02
  12   6     0.14  -0.10  -0.04    -0.18   0.13  -0.09     0.23   0.19   0.14
  13   6     0.02   0.08  -0.10     0.15  -0.09   0.23     0.06   0.04  -0.21
  14   1    -0.01   0.01   0.04    -0.07   0.00  -0.02     0.08  -0.06   0.01
  15   8     0.12   0.21  -0.10    -0.07  -0.11   0.03    -0.06  -0.09   0.12
  16   6    -0.08  -0.02   0.01     0.17   0.09  -0.18    -0.09  -0.06   0.14
  17   1    -0.02  -0.02  -0.06     0.01   0.02  -0.00    -0.07  -0.07  -0.10
  18   1    -0.03   0.06  -0.00    -0.02  -0.04   0.00    -0.07   0.10   0.02
  19   1    -0.01  -0.06  -0.02    -0.04  -0.18  -0.03    -0.03  -0.10  -0.02
  20   1    -0.00  -0.03  -0.04    -0.11   0.00  -0.07    -0.09   0.06  -0.05
  21   1    -0.07  -0.07  -0.09     0.01   0.01  -0.01     0.05   0.07   0.03
  22   1    -0.10  -0.05   0.07     0.03   0.08  -0.03     0.04   0.12  -0.05
  23   1    -0.04  -0.06   0.20    -0.10  -0.06  -0.01    -0.07  -0.01   0.16
  24   1     0.03   0.18   0.02     0.01   0.04  -0.03    -0.14   0.15  -0.06
  25   1    -0.11  -0.04   0.15    -0.02   0.06   0.05     0.03   0.13   0.01
  26   1    -0.02   0.03  -0.06     0.06   0.02   0.07    -0.03  -0.08   0.01
  27   1    -0.00   0.09  -0.01     0.04  -0.08  -0.01    -0.04  -0.11   0.01
  28   1    -0.10  -0.01   0.05     0.04   0.09   0.03     0.06   0.06   0.00
  29   1    -0.03   0.02   0.07    -0.03   0.06  -0.00    -0.03   0.05  -0.02
  30   1     0.02   0.05  -0.06    -0.01  -0.11   0.21     0.05   0.09  -0.16
  31   1    -0.04   0.02  -0.02     0.21   0.02   0.06    -0.09  -0.08  -0.07
  32   1    -0.06  -0.04  -0.09     0.07   0.07   0.07     0.00   0.00   0.03
  33   1    -0.07   0.02   0.00     0.11   0.00  -0.02    -0.10  -0.01  -0.10
  34   1    -0.06   0.03  -0.05     0.09  -0.01   0.00    -0.06  -0.07   0.08
  35   1    -0.04  -0.03   0.08     0.07   0.06  -0.15    -0.05  -0.09   0.13
                     22                     23                     24
                        a                      a                      a 
 Frequencies --   539.7265               560.6660               606.7819
 Red. masses --     9.2736                 8.5530                 9.8973
 Frc consts  --     0.0000                 0.0000                 0.0000
 IR Inten    --    12.8181                 0.8751                 4.1406
 Raman Activ --     0.0000                 0.0000                 0.0000
 Depolar     --     0.0000                 0.0000                 0.0000
 Atom AN      X      Y      Z        X      Y      Z        X      Y      Z
   1   6     0.01  -0.18   0.06    -0.15   0.15  -0.02     0.17   0.17   0.09
   2   6    -0.04  -0.13   0.02    -0.01  -0.04   0.21     0.01  -0.16   0.01
   3   6    -0.04  -0.18  -0.11    -0.02  -0.10   0.05    -0.05  -0.28  -0.12
   4   6     0.05  -0.08  -0.01     0.12  -0.37   0.03     0.00  -0.01  -0.02
   5   6    -0.08  -0.09  -0.05     0.13  -0.18  -0.11     0.15   0.16  -0.10
   6   6    -0.12  -0.11   0.14    -0.10   0.06  -0.07     0.21   0.18  -0.05
   7   6     0.12   0.08   0.01    -0.14   0.14  -0.15     0.02  -0.10   0.10
   8   6    -0.02   0.25   0.06    -0.18   0.26   0.16    -0.24  -0.13  -0.09
   9   8     0.00   0.11   0.04     0.04   0.17   0.06    -0.04  -0.03   0.02
  10   6    -0.07  -0.13  -0.16     0.03   0.10   0.07     0.13   0.33   0.23
  11   6     0.11  -0.01   0.04     0.03  -0.05  -0.06    -0.31  -0.12  -0.14
  12   6    -0.12   0.56   0.14     0.20  -0.13  -0.06    -0.01   0.20   0.06
  13   6     0.07  -0.12   0.00     0.12   0.09  -0.08     0.04  -0.04  -0.02
  14   1    -0.01  -0.03   0.01    -0.01  -0.03   0.05    -0.00  -0.06  -0.00
  15   8     0.07   0.16  -0.04    -0.02  -0.05  -0.01    -0.08  -0.11   0.00
  16   6     0.02   0.02  -0.08    -0.04  -0.01   0.02    -0.01   0.01  -0.00
  17   1    -0.04  -0.07  -0.09    -0.01  -0.02  -0.14    -0.02  -0.08  -0.03
  18   1    -0.06   0.01  -0.01    -0.09   0.07   0.06    -0.01  -0.07  -0.03
  19   1     0.04   0.06   0.00     0.01  -0.11   0.02     0.03   0.05  -0.01
  20   1     0.04  -0.06   0.07     0.03  -0.10  -0.01    -0.04  -0.01   0.09
  21   1    -0.05  -0.07  -0.06     0.04  -0.07  -0.03     0.10   0.08   0.04
  22   1    -0.05  -0.04   0.06     0.00   0.04  -0.04     0.04   0.05   0.00
  23   1     0.10   0.07  -0.06     0.03   0.09  -0.25    -0.01  -0.03  -0.01
  24   1     0.05  -0.04   0.02     0.00  -0.19  -0.01     0.04  -0.03   0.04
  25   1    -0.01   0.01   0.02    -0.04   0.02   0.08    -0.00  -0.04  -0.02
  26   1    -0.06  -0.06  -0.08     0.05   0.06   0.05     0.02   0.09   0.04
  27   1    -0.05   0.01  -0.01     0.03  -0.02  -0.01     0.05   0.14   0.05
  28   1    -0.04  -0.03   0.03    -0.09   0.10   0.08    -0.07  -0.03  -0.05
  29   1     0.11  -0.04   0.03     0.13  -0.16  -0.13    -0.12  -0.02  -0.05
  30   1    -0.00   0.00   0.06     0.05   0.01  -0.06    -0.01   0.12   0.04
  31   1     0.09  -0.15  -0.04    -0.00   0.06  -0.01     0.04  -0.16  -0.05
  32   1    -0.02   0.02  -0.07     0.03   0.01   0.04     0.00  -0.03   0.06
  33   1    -0.03  -0.01  -0.20    -0.05   0.02   0.01    -0.03  -0.01  -0.11
  34   1     0.09  -0.13   0.16    -0.07   0.04  -0.07     0.03  -0.07   0.09
  35   1     0.01  -0.10  -0.11    -0.03  -0.01   0.11    -0.01  -0.06  -0.03
                     25                     26                     27
                        a                      a                      a 
 Frequencies --   676.5957               698.1537               715.6790
 Red. masses --     8.4846                 5.5657                 5.5142
 Frc consts  --     0.0000                 0.0000                 0.0000
 IR Inten    --     9.7692                 0.6045                 2.5903
 Raman Activ --     0.0000                 0.0000                 0.0000
 Depolar     --     0.0000                 0.0000                 0.0000
 Atom AN      X      Y      Z        X      Y      Z        X      Y      Z
   1   6     0.05  -0.17   0.12    -0.21   0.03   0.12     0.15  -0.02  -0.11
   2   6    -0.03   0.03   0.17    -0.16  -0.04   0.35     0.11   0.02  -0.11
   3   6     0.04   0.13   0.14    -0.03  -0.22  -0.13     0.12   0.11   0.15
   4   6     0.07  -0.01   0.04     0.02  -0.00  -0.07     0.16  -0.26   0.05
   5   6     0.28   0.18  -0.13     0.05   0.09   0.01     0.00  -0.10  -0.00
   6   6     0.28   0.11   0.17     0.11  -0.05   0.10    -0.07   0.05  -0.10
   7   6     0.07  -0.02   0.06    -0.09   0.05  -0.08     0.13   0.04  -0.02
   8   6    -0.16   0.02  -0.18     0.01   0.05  -0.03    -0.19   0.18   0.08
   9   8    -0.05   0.00   0.02     0.07  -0.07  -0.12    -0.06   0.08   0.10
  10   6    -0.08  -0.30  -0.16    -0.04  -0.04  -0.05     0.03   0.02   0.03
  11   6    -0.22  -0.07  -0.13     0.01   0.02  -0.01    -0.07  -0.05  -0.07
  12   6    -0.11  -0.02  -0.04     0.10   0.07  -0.01    -0.12  -0.04  -0.01
  13   6    -0.07  -0.02   0.06     0.11   0.05  -0.05    -0.11  -0.04   0.06
  14   1    -0.03   0.02   0.05    -0.06   0.02   0.11     0.03  -0.04  -0.04
  15   8     0.02   0.05   0.06     0.03   0.03  -0.01    -0.03  -0.03   0.01
  16   6    -0.03   0.04  -0.14    -0.03   0.01  -0.02    -0.01   0.02  -0.07
  17   1    -0.02   0.02  -0.11     0.01  -0.04  -0.02     0.01   0.02  -0.15
  18   1    -0.08   0.14   0.09     0.03  -0.03  -0.06    -0.10   0.13   0.12
  19   1    -0.06  -0.13   0.03     0.08   0.12  -0.03    -0.05  -0.17   0.05
  20   1    -0.06   0.08  -0.10     0.01  -0.05   0.13     0.05  -0.03  -0.13
  21   1     0.08   0.07  -0.02     0.03   0.01   0.01     0.04  -0.05   0.03
  22   1     0.05   0.04   0.08     0.05   0.00   0.01    -0.02   0.04  -0.02
  23   1     0.09   0.04  -0.01    -0.08  -0.02  -0.00     0.07   0.02   0.13
  24   1     0.08  -0.00   0.03     0.03   0.07  -0.02    -0.04   0.11  -0.03
  25   1     0.03  -0.06  -0.08     0.04  -0.07  -0.08    -0.02   0.08   0.06
  26   1    -0.07  -0.12  -0.06     0.04   0.03   0.02    -0.03  -0.02  -0.02
  27   1    -0.05  -0.05  -0.01     0.00  -0.06  -0.03    -0.01   0.05   0.03
  28   1    -0.19   0.06   0.06     0.20  -0.25  -0.22     0.16  -0.34  -0.26
  29   1     0.05  -0.14  -0.11    -0.19   0.26   0.22    -0.22   0.28   0.26
  30   1    -0.01  -0.18   0.02     0.07  -0.27  -0.10    -0.04   0.01   0.05
  31   1     0.01   0.16   0.06     0.00   0.28   0.07    -0.01  -0.03   0.01
  32   1    -0.01   0.03  -0.05     0.01   0.01  -0.00    -0.01  -0.01   0.00
  33   1     0.02   0.01   0.02    -0.04   0.02  -0.00     0.03  -0.00   0.02
  34   1    -0.01   0.04  -0.07    -0.06   0.04  -0.07     0.02   0.01  -0.01
  35   1    -0.00   0.06  -0.05    -0.02   0.01   0.09     0.01   0.03  -0.08
                     28                     29                     30
                        a                      a                      a 
 Frequencies --   730.3165               778.2514               822.0606
 Red. masses --     4.1981                 9.8694                 7.5467
 Frc consts  --     0.0000                 0.0000                 0.0000
 IR Inten    --     1.6289                13.8248                 6.4461
 Raman Activ --     0.0000                 0.0000                 0.0000
 Depolar     --     0.0000                 0.0000                 0.0000
 Atom AN      X      Y      Z        X      Y      Z        X      Y      Z
   1   6    -0.19   0.01   0.12    -0.06  -0.01   0.03    -0.05  -0.03  -0.01
   2   6    -0.09   0.00   0.18     0.01   0.14  -0.53     0.19  -0.24   0.01
   3   6     0.03   0.11   0.06    -0.04  -0.03  -0.05     0.23  -0.12   0.05
   4   6     0.06   0.04  -0.02    -0.00  -0.16   0.15     0.12   0.29   0.01
   5   6     0.08   0.05  -0.01     0.04  -0.01   0.11    -0.05   0.09   0.07
   6   6     0.10  -0.06   0.18     0.18  -0.12   0.40    -0.07  -0.18   0.21
   7   6    -0.13   0.07  -0.09    -0.10   0.14  -0.12    -0.25   0.06  -0.19
   8   6     0.01   0.03  -0.07    -0.02   0.01  -0.16     0.07  -0.05  -0.01
   9   8     0.04  -0.02  -0.07    -0.07   0.11   0.05     0.03  -0.03  -0.05
  10   6    -0.08  -0.09  -0.07    -0.03   0.01   0.00     0.06   0.21   0.13
  11   6    -0.01   0.02  -0.02    -0.12  -0.00  -0.07     0.04   0.02   0.06
  12   6     0.05  -0.19  -0.09     0.09   0.04   0.03    -0.08   0.02   0.04
  13   6     0.04   0.02   0.00     0.08   0.04  -0.06    -0.09  -0.06   0.05
  14   1    -0.05   0.05   0.06     0.00   0.03  -0.15     0.07  -0.11  -0.01
  15   8     0.03   0.05  -0.01     0.02   0.02  -0.03     0.01   0.01  -0.07
  16   6     0.01  -0.01  -0.03     0.04  -0.08   0.28    -0.02   0.04  -0.14
  17   1     0.03   0.05   0.00     0.02   0.03   0.02    -0.10  -0.19  -0.23
  18   1     0.01   0.03   0.02    -0.04  -0.12   0.01    -0.14   0.19   0.12
  19   1    -0.00  -0.02  -0.00    -0.01  -0.11   0.03    -0.12  -0.14   0.04
  20   1     0.01   0.03  -0.04    -0.03  -0.01  -0.01    -0.08   0.20  -0.18
  21   1     0.01  -0.01  -0.02    -0.05   0.01  -0.02    -0.05  -0.08  -0.06
  22   1     0.04  -0.01   0.04     0.03  -0.02   0.14    -0.05  -0.11   0.07
  23   1    -0.06   0.01  -0.07    -0.05   0.04  -0.14    -0.11  -0.01  -0.08
  24   1     0.04   0.02  -0.01     0.07  -0.02  -0.01    -0.07  -0.01  -0.05
  25   1     0.03  -0.07  -0.08     0.03  -0.09  -0.11     0.02  -0.06  -0.06
  26   1     0.03   0.01   0.02     0.02   0.02   0.02     0.03   0.07   0.04
  27   1    -0.00  -0.09  -0.04     0.01  -0.02  -0.02     0.04   0.06   0.01
  28   1     0.05  -0.09  -0.08    -0.04  -0.09  -0.06     0.06   0.05   0.01
  29   1    -0.06   0.08   0.07    -0.03   0.03   0.04    -0.01  -0.02  -0.06
  30   1    -0.09   0.52   0.21     0.07  -0.02  -0.14    -0.03  -0.06   0.02
  31   1     0.12  -0.51  -0.17    -0.08   0.05   0.00    -0.03   0.07   0.04
  32   1     0.01   0.02  -0.01     0.00  -0.01   0.00     0.01  -0.02   0.03
  33   1    -0.02  -0.01  -0.07     0.03  -0.03   0.07     0.00   0.01  -0.02
  34   1     0.00  -0.04   0.02     0.02  -0.03   0.09     0.00   0.02  -0.04
  35   1    -0.01  -0.05  -0.00     0.02  -0.01   0.07    -0.00   0.03  -0.07
                     31                     32                     33
                        a                      a                      a 
 Frequencies --   871.5162               889.2592               895.0048
 Red. masses --     8.6879                 6.1694                 5.7657
 Frc consts  --     0.0000                 0.0000                 0.0000
 IR Inten    --     0.7210                 5.0796                19.4776
 Raman Activ --     0.0000                 0.0000                 0.0000
 Depolar     --     0.0000                 0.0000                 0.0000
 Atom AN      X      Y      Z        X      Y      Z        X      Y      Z
   1   6     0.07  -0.05  -0.10    -0.10   0.04   0.08    -0.11   0.00   0.06
   2   6     0.10  -0.03   0.20    -0.09   0.02  -0.04    -0.11   0.02  -0.01
   3   6     0.00   0.07  -0.11     0.13  -0.12  -0.11     0.08  -0.12  -0.12
   4   6    -0.01  -0.09  -0.01     0.10   0.03   0.11     0.11   0.09   0.12
   5   6    -0.14  -0.15   0.50    -0.08   0.06   0.19    -0.04   0.03   0.26
   6   6     0.08  -0.01   0.10    -0.16   0.06  -0.21    -0.15   0.01  -0.11
   7   6     0.08   0.23  -0.37     0.14   0.09   0.18     0.20   0.06   0.00
   8   6    -0.04  -0.05  -0.09     0.04  -0.08  -0.09    -0.06   0.04  -0.01
   9   8    -0.02   0.00   0.03     0.07  -0.12  -0.08     0.07  -0.11  -0.08
  10   6     0.09   0.02   0.04    -0.07  -0.05  -0.04    -0.08   0.02  -0.01
  11   6    -0.18  -0.00  -0.05    -0.22   0.23   0.14     0.09  -0.21  -0.23
  12   6    -0.02  -0.01   0.04     0.01  -0.01  -0.03     0.02  -0.03  -0.04
  13   6    -0.06  -0.03   0.04     0.02   0.07  -0.01     0.01   0.15   0.01
  14   1     0.07   0.01   0.06    -0.05   0.06   0.00    -0.06   0.06   0.01
  15   8    -0.02  -0.01  -0.00     0.02   0.02  -0.00     0.03   0.03  -0.03
  16   6    -0.03   0.04  -0.17     0.02  -0.02   0.08     0.03  -0.01   0.08
  17   1     0.03   0.03   0.10     0.03  -0.03  -0.13     0.02  -0.02  -0.09
  18   1     0.14  -0.00  -0.11    -0.06  -0.01   0.03    -0.05  -0.03   0.01
  19   1     0.17   0.00  -0.11    -0.03  -0.17   0.02    -0.01  -0.19  -0.00
  20   1     0.06  -0.08   0.05    -0.08   0.11  -0.08    -0.11   0.15  -0.08
  21   1    -0.02   0.01   0.18     0.02   0.05   0.10     0.03   0.02   0.12
  22   1     0.09   0.10  -0.01    -0.01   0.01  -0.10    -0.00   0.01  -0.07
  23   1     0.06   0.07   0.05     0.05   0.04  -0.08     0.06   0.02   0.05
  24   1    -0.02   0.19  -0.13     0.17  -0.05   0.09     0.10   0.10   0.00
  25   1     0.03  -0.03  -0.05    -0.02   0.04   0.06    -0.00   0.02   0.03
  26   1    -0.05  -0.03  -0.05     0.02   0.01   0.02     0.04   0.04   0.05
  27   1    -0.01   0.10   0.05    -0.01  -0.06  -0.03     0.01  -0.07  -0.05
  28   1    -0.10  -0.02   0.00     0.15  -0.33  -0.24    -0.31   0.26   0.25
  29   1     0.06  -0.14  -0.11     0.24  -0.27  -0.19    -0.16   0.22   0.22
  30   1    -0.03   0.00   0.03     0.02  -0.06  -0.02     0.03  -0.17  -0.05
  31   1    -0.01  -0.00   0.01     0.04  -0.06  -0.03     0.06  -0.16  -0.07
  32   1    -0.01   0.01  -0.03    -0.00  -0.00   0.00     0.00  -0.02   0.03
  33   1    -0.01   0.02  -0.04    -0.00  -0.00   0.01    -0.01  -0.00  -0.01
  34   1    -0.02   0.02  -0.06     0.00  -0.01   0.03     0.00  -0.02   0.04
  35   1    -0.01   0.02  -0.03     0.00  -0.01   0.03     0.00  -0.02   0.04
                     34                     35                     36
                        a                      a                      a 
 Frequencies --   899.5538               905.9796               930.6924
 Red. masses --     4.3557                 5.6000                 7.2491
 Frc consts  --     0.0000                 0.0000                 0.0000
 IR Inten    --    37.6495                10.7232                 3.4177
 Raman Activ --     0.0000                 0.0000                 0.0000
 Depolar     --     0.0000                 0.0000                 0.0000
 Atom AN      X      Y      Z        X      Y      Z        X      Y      Z
   1   6    -0.03   0.01   0.05     0.13  -0.03   0.07    -0.02   0.09   0.07
   2   6    -0.10  -0.03  -0.01    -0.18  -0.04   0.00     0.25   0.13  -0.02
   3   6    -0.01   0.01  -0.01    -0.10   0.07   0.06     0.20  -0.09  -0.17
   4   6     0.07   0.07   0.03     0.06   0.11  -0.01    -0.14  -0.18   0.10
   5   6     0.02  -0.01   0.09     0.10  -0.01  -0.04    -0.18   0.07   0.04
   6   6    -0.10   0.01  -0.08    -0.13  -0.02  -0.07     0.05   0.09  -0.09
   7   6     0.06   0.09   0.03    -0.13   0.23  -0.09    -0.17   0.17   0.23
   8   6    -0.01  -0.03  -0.01     0.01  -0.11   0.03     0.09  -0.11  -0.07
   9   8     0.04  -0.05  -0.04     0.03  -0.03  -0.02    -0.00  -0.01   0.00
  10   6     0.02  -0.04  -0.01     0.33  -0.16   0.03     0.05  -0.14  -0.07
  11   6    -0.01  -0.06  -0.05    -0.03  -0.10   0.07     0.07  -0.04  -0.03
  12   6    -0.00   0.12   0.01     0.03   0.01  -0.04     0.01  -0.05   0.11
  13   6     0.10  -0.39  -0.19     0.04   0.12  -0.02    -0.03  -0.07   0.15
  14   1    -0.04   0.00   0.00    -0.07   0.00   0.00     0.10   0.11   0.02
  15   8     0.00   0.00   0.00    -0.07  -0.01   0.06    -0.02  -0.02   0.06
  16   6     0.02  -0.06   0.08     0.04  -0.02   0.11    -0.06   0.05  -0.23
  17   1     0.01   0.02   0.00     0.01   0.05   0.07     0.01  -0.07  -0.13
  18   1    -0.01  -0.03   0.01    -0.01  -0.06   0.01     0.02   0.08  -0.03
  19   1     0.01  -0.09  -0.01    -0.00  -0.06  -0.02    -0.01   0.06   0.04
  20   1    -0.04   0.08  -0.06    -0.04   0.08  -0.06     0.01  -0.10   0.11
  21   1     0.04  -0.01   0.05     0.05  -0.05  -0.01    -0.10   0.17   0.03
  22   1    -0.01   0.00  -0.04    -0.07  -0.05   0.00     0.01   0.01  -0.03
  23   1     0.01   0.03  -0.05    -0.06   0.06  -0.17    -0.11   0.03  -0.26
  24   1     0.08  -0.00   0.02     0.03  -0.07   0.00     0.14  -0.20   0.13
  25   1    -0.01   0.02   0.03    -0.02   0.04   0.05    -0.01  -0.01   0.01
  26   1    -0.02  -0.01  -0.04    -0.21  -0.17  -0.31    -0.05  -0.05  -0.11
  27   1    -0.01   0.03   0.02    -0.08   0.33   0.22    -0.04   0.04   0.05
  28   1    -0.05   0.04   0.04     0.15   0.06  -0.02    -0.04   0.06   0.05
  29   1    -0.06   0.06   0.05    -0.19   0.05  -0.06    -0.08   0.13   0.12
  30   1    -0.09   0.53   0.18     0.03  -0.14  -0.03     0.03   0.10  -0.09
  31   1    -0.04   0.53   0.15     0.07  -0.10  -0.05    -0.19  -0.06   0.05
  32   1     0.00   0.02  -0.03    -0.02   0.12  -0.20    -0.01   0.05  -0.09
  33   1     0.00  -0.00   0.08    -0.01  -0.00  -0.01     0.01   0.01  -0.02
  34   1    -0.02   0.03  -0.04    -0.00  -0.02   0.04     0.00   0.04  -0.08
  35   1     0.00   0.01   0.06     0.00  -0.04   0.06    -0.00   0.05  -0.12
                     37                     38                     39
                        a                      a                      a 
 Frequencies --   942.6570               951.7837               966.8235
 Red. masses --     7.0587                 5.7389                 5.6505
 Frc consts  --     0.0000                 0.0000                 0.0000
 IR Inten    --    13.4161                 7.2620                 5.7564
 Raman Activ --     0.0000                 0.0000                 0.0000
 Depolar     --     0.0000                 0.0000                 0.0000
 Atom AN      X      Y      Z        X      Y      Z        X      Y      Z
   1   6     0.04  -0.08   0.06     0.01  -0.03   0.08     0.02   0.05  -0.05
   2   6    -0.12   0.20   0.05     0.03   0.19  -0.02     0.06  -0.03   0.01
   3   6     0.18  -0.10  -0.20     0.05  -0.09  -0.11     0.20   0.01  -0.00
   4   6    -0.01  -0.18   0.17    -0.08  -0.11   0.11    -0.09  -0.08  -0.07
   5   6    -0.12   0.21  -0.01     0.06   0.16  -0.13    -0.23   0.00   0.01
   6   6     0.02   0.01   0.02    -0.09  -0.06   0.01     0.16   0.07   0.01
   7   6    -0.12  -0.35  -0.17     0.19   0.11  -0.22     0.03   0.12   0.05
   8   6    -0.01   0.16   0.03    -0.07  -0.03   0.13     0.04  -0.09   0.00
   9   8     0.00  -0.04  -0.02     0.02  -0.02  -0.03    -0.05   0.04   0.05
  10   6     0.20   0.01   0.06    -0.11  -0.01  -0.01    -0.03  -0.01  -0.04
  11   6     0.10   0.12  -0.03    -0.07  -0.24   0.26     0.00  -0.09   0.08
  12   6    -0.01  -0.01  -0.05     0.01  -0.01   0.03    -0.08   0.01  -0.13
  13   6     0.01  -0.00  -0.06     0.02  -0.03   0.06    -0.19   0.07  -0.28
  14   1    -0.08   0.19   0.04    -0.01   0.12   0.01     0.04  -0.03  -0.00
  15   8    -0.03  -0.02   0.02     0.04   0.03  -0.04    -0.01  -0.01   0.03
  16   6     0.03  -0.04   0.09    -0.02  -0.00  -0.05     0.08  -0.06   0.24
  17   1     0.11   0.06  -0.19     0.04   0.02  -0.07     0.00  -0.04  -0.14
  18   1    -0.04   0.01   0.00    -0.01  -0.02  -0.01    -0.02   0.14   0.03
  19   1    -0.06  -0.06   0.08    -0.04   0.01   0.06    -0.05   0.12   0.04
  20   1    -0.06  -0.02   0.05    -0.09  -0.01   0.10     0.12  -0.12   0.01
  21   1    -0.10   0.16  -0.01    -0.01   0.09  -0.04    -0.11   0.05  -0.02
  22   1    -0.03  -0.06   0.01    -0.08  -0.09   0.04     0.07   0.04  -0.02
  23   1    -0.06  -0.13   0.21     0.11   0.05   0.11    -0.00   0.03  -0.08
  24   1    -0.26   0.07  -0.11     0.04   0.19  -0.08     0.09  -0.02   0.04
  25   1     0.01  -0.02  -0.02    -0.01   0.02   0.02     0.02  -0.05  -0.05
  26   1    -0.07  -0.03  -0.14     0.04   0.03   0.07     0.00  -0.01   0.02
  27   1    -0.03   0.16   0.11     0.02  -0.08  -0.06     0.00  -0.03  -0.02
  28   1    -0.09  -0.02   0.03     0.35   0.23   0.02     0.08   0.11   0.04
  29   1     0.19  -0.05   0.03    -0.31  -0.08  -0.32    -0.12   0.01  -0.07
  30   1    -0.03   0.06   0.07     0.02   0.08  -0.05    -0.19  -0.15   0.34
  31   1     0.07   0.02  -0.02    -0.09  -0.02   0.02     0.42   0.10  -0.10
  32   1    -0.01   0.06  -0.11    -0.00  -0.03   0.04     0.00  -0.01   0.03
  33   1     0.00  -0.01   0.04     0.01   0.00   0.02    -0.02  -0.01   0.01
  34   1    -0.01   0.01  -0.01     0.01   0.02  -0.03    -0.02  -0.03   0.05
  35   1     0.00  -0.01   0.05     0.00   0.02  -0.05    -0.00  -0.06   0.17
                     40                     41                     42
                        a                      a                      a 
 Frequencies --   995.7141              1024.1810              1034.6821
 Red. masses --     5.7396                 5.8146                 5.2764
 Frc consts  --     0.0000                 0.0000                 0.0000
 IR Inten    --    20.2545                 6.7024                10.4330
 Raman Activ --     0.0000                 0.0000                 0.0000
 Depolar     --     0.0000                 0.0000                 0.0000
 Atom AN      X      Y      Z        X      Y      Z        X      Y      Z
   1   6    -0.11   0.08   0.02    -0.00   0.10  -0.13    -0.07   0.11  -0.06
   2   6    -0.21  -0.06  -0.01    -0.24  -0.08  -0.04     0.02   0.12  -0.07
   3   6     0.14  -0.07   0.13    -0.01   0.03  -0.06    -0.01  -0.13   0.05
   4   6    -0.02   0.07  -0.19     0.13   0.03   0.03    -0.06   0.08  -0.03
   5   6    -0.24  -0.10   0.03    -0.23  -0.02  -0.04     0.06  -0.10  -0.01
   6   6     0.16   0.13   0.02     0.14   0.08   0.06    -0.00  -0.02   0.05
   7   6     0.16  -0.03  -0.04     0.11  -0.04   0.06     0.11  -0.02  -0.01
   8   6    -0.01  -0.01   0.05    -0.01   0.01   0.02    -0.03   0.00   0.04
   9   8    -0.01   0.01   0.02    -0.02   0.02   0.03     0.01   0.00  -0.00
  10   6     0.08  -0.01  -0.05     0.04   0.03  -0.11     0.06   0.00  -0.13
  11   6     0.00  -0.04   0.05     0.00  -0.05   0.06    -0.02   0.01  -0.02
  12   6    -0.00   0.01  -0.10     0.07  -0.07   0.11    -0.05   0.27   0.12
  13   6     0.23   0.02   0.05    -0.03  -0.07   0.16    -0.05   0.01   0.02
  14   1    -0.17  -0.05  -0.03     0.00  -0.07  -0.02     0.04   0.01  -0.02
  15   8    -0.04  -0.03   0.07    -0.05  -0.06   0.11    -0.05  -0.06   0.13
  16   6    -0.18  -0.05   0.11     0.26   0.16  -0.14     0.14  -0.33  -0.13
  17   1    -0.03  -0.08  -0.15     0.09   0.12  -0.05    -0.06  -0.10  -0.01
  18   1    -0.11   0.12   0.11    -0.05  -0.12   0.03    -0.05   0.02   0.04
  19   1    -0.09   0.13   0.03    -0.09  -0.08   0.07    -0.04   0.05   0.01
  20   1     0.16  -0.07  -0.09     0.07   0.03  -0.15    -0.04   0.02   0.04
  21   1    -0.06  -0.12  -0.03    -0.16  -0.06  -0.12     0.07  -0.13  -0.00
  22   1     0.19   0.15  -0.11     0.07   0.03  -0.02     0.01   0.02   0.02
  23   1    -0.02  -0.05   0.07     0.01  -0.02   0.03    -0.02  -0.03   0.04
  24   1     0.07   0.12  -0.02     0.01   0.01   0.01     0.05   0.07  -0.00
  25   1     0.04  -0.07  -0.08     0.04  -0.08  -0.09     0.01  -0.01  -0.01
  26   1    -0.02   0.01  -0.10     0.00   0.01  -0.03     0.02   0.04  -0.08
  27   1    -0.03   0.03   0.05    -0.01  -0.02   0.00    -0.02  -0.00   0.02
  28   1     0.02   0.07   0.04     0.06   0.05   0.02    -0.03  -0.02  -0.00
  29   1    -0.01  -0.04  -0.06    -0.05  -0.02  -0.05     0.03  -0.02   0.00
  30   1     0.14   0.10  -0.21     0.02   0.02  -0.06    -0.03   0.02   0.04
  31   1    -0.16  -0.03   0.02    -0.16   0.02   0.07     0.03  -0.20  -0.06
  32   1    -0.00   0.05  -0.06    -0.01   0.01   0.00    -0.00   0.05  -0.05
  33   1     0.13  -0.07   0.18    -0.20   0.11  -0.38    -0.03   0.03   0.33
  34   1     0.12  -0.02   0.12    -0.15  -0.02  -0.09    -0.15   0.26  -0.47
  35   1     0.01   0.10  -0.23    -0.02  -0.15   0.33     0.01   0.10   0.26
                     43                     44                     45
                        a                      a                      a 
 Frequencies --  1039.4472              1056.1082              1064.4608
 Red. masses --     6.6609                 9.4146                 5.0907
 Frc consts  --     0.0000                 0.0000                 0.0000
 IR Inten    --    13.3950                72.7275                13.7844
 Raman Activ --     0.0000                 0.0000                 0.0000
 Depolar     --     0.0000                 0.0000                 0.0000
 Atom AN      X      Y      Z        X      Y      Z        X      Y      Z
   1   6    -0.16   0.15   0.09     0.12   0.25  -0.17     0.00   0.13   0.06
   2   6     0.22   0.22  -0.11     0.08   0.00   0.15    -0.10  -0.12  -0.09
   3   6     0.01  -0.16   0.06    -0.10  -0.03  -0.10     0.09   0.06   0.15
   4   6    -0.17   0.10   0.00     0.14  -0.01   0.10     0.01  -0.10  -0.20
   5   6     0.19  -0.18  -0.03    -0.07   0.04  -0.01     0.02   0.21   0.08
   6   6    -0.09   0.00   0.06    -0.05  -0.02   0.12    -0.01  -0.26  -0.10
   7   6     0.10  -0.04  -0.08     0.04  -0.00   0.05     0.02  -0.01  -0.08
   8   6    -0.06   0.04   0.07    -0.01   0.01   0.00    -0.02  -0.00   0.04
   9   8     0.06  -0.04  -0.05     0.02  -0.01  -0.00    -0.08   0.11   0.04
  10   6     0.07  -0.04  -0.12     0.07   0.11  -0.46     0.00   0.01  -0.18
  11   6    -0.02   0.03  -0.04    -0.02  -0.02   0.01     0.02   0.03  -0.02
  12   6     0.02  -0.19  -0.02     0.01  -0.01  -0.02    -0.01  -0.01  -0.02
  13   6    -0.12  -0.04  -0.01     0.03   0.04  -0.08     0.03  -0.01   0.05
  14   1     0.07   0.11  -0.01     0.08  -0.07   0.02    -0.03  -0.17  -0.06
  15   8    -0.05  -0.07   0.14    -0.13  -0.17   0.40    -0.04  -0.05   0.14
  16   6     0.04   0.20   0.02    -0.16  -0.01   0.03     0.06   0.03   0.02
  17   1    -0.12  -0.19   0.02     0.04   0.06   0.06     0.02   0.02  -0.08
  18   1    -0.03   0.03   0.03     0.05  -0.08  -0.07    -0.02   0.10   0.05
  19   1    -0.08   0.11   0.05     0.08  -0.17  -0.05     0.07   0.11  -0.06
  20   1    -0.08   0.02   0.11    -0.10   0.10  -0.02     0.11  -0.11   0.02
  21   1     0.14  -0.21   0.01    -0.12  -0.03  -0.11     0.24   0.28   0.32
  22   1     0.05   0.11  -0.02    -0.09  -0.16   0.05    -0.22  -0.33   0.11
  23   1    -0.08  -0.08   0.07     0.03   0.01   0.01    -0.19  -0.11  -0.00
  24   1     0.09   0.15  -0.03    -0.10  -0.07  -0.00     0.16   0.14  -0.00
  25   1    -0.00   0.02   0.02     0.03  -0.07  -0.06    -0.04   0.04   0.04
  26   1     0.03   0.09  -0.17     0.07   0.08  -0.09     0.03   0.04  -0.04
  27   1    -0.06  -0.02   0.06    -0.01  -0.09  -0.07    -0.01  -0.05  -0.03
  28   1    -0.05  -0.04  -0.01     0.02  -0.00  -0.01    -0.05   0.02   0.03
  29   1     0.06  -0.03   0.00    -0.03   0.00  -0.01     0.07  -0.03   0.00
  30   1    -0.07  -0.02   0.09    -0.01  -0.02   0.02     0.03   0.00  -0.04
  31   1     0.03   0.11   0.03     0.08   0.02  -0.03    -0.06   0.00   0.02
  32   1    -0.00   0.12  -0.16    -0.01   0.04   0.02    -0.00   0.02  -0.01
  33   1    -0.05   0.02  -0.28     0.09  -0.05   0.11    -0.03   0.02  -0.07
  34   1     0.01  -0.12   0.18     0.09  -0.03   0.10    -0.02  -0.02   0.01
  35   1    -0.01  -0.10   0.00     0.00   0.06  -0.21     0.00  -0.06   0.06
                     46                     47                     48
                        a                      a                      a 
 Frequencies --  1072.0674              1085.8841              1106.9087
 Red. masses --    10.9914                 5.8157                 8.6160
 Frc consts  --     0.0000                 0.0000                 0.0000
 IR Inten    --   140.1346                11.4404                16.2082
 Raman Activ --     0.0000                 0.0000                 0.0000
 Depolar     --     0.0000                 0.0000                 0.0000
 Atom AN      X      Y      Z        X      Y      Z        X      Y      Z
   1   6    -0.04  -0.00  -0.12     0.27  -0.02  -0.14    -0.07   0.29  -0.40
   2   6    -0.04   0.13   0.14    -0.22   0.20   0.05    -0.05   0.08   0.06
   3   6    -0.00  -0.11  -0.10     0.15  -0.11   0.06     0.03  -0.04   0.04
   4   6    -0.01   0.18   0.12    -0.19   0.07  -0.09     0.00  -0.07  -0.07
   5   6    -0.00  -0.15  -0.06     0.07  -0.06   0.07     0.02   0.17   0.03
   6   6     0.30  -0.44  -0.27    -0.07   0.02   0.10    -0.15  -0.02   0.21
   7   6     0.06   0.05   0.05    -0.02   0.16  -0.03     0.19  -0.01   0.15
   8   6     0.01  -0.05   0.01     0.08  -0.19  -0.03    -0.01  -0.05   0.04
   9   8    -0.28   0.37   0.25     0.04  -0.05  -0.02     0.05  -0.03  -0.01
  10   6     0.01  -0.01   0.07    -0.01   0.05  -0.15    -0.04  -0.20   0.34
  11   6     0.00   0.01  -0.00    -0.03   0.03  -0.07    -0.04  -0.01  -0.03
  12   6     0.02  -0.04  -0.00    -0.02  -0.04  -0.06     0.01  -0.04  -0.01
  13   6     0.01   0.00  -0.02     0.05  -0.02   0.05     0.02   0.01  -0.02
  14   1     0.00   0.11   0.06    -0.14   0.04  -0.00     0.11  -0.24  -0.04
  15   8     0.01   0.01  -0.05    -0.02  -0.02   0.07     0.04   0.05  -0.25
  16   6    -0.04   0.02  -0.01     0.06   0.03   0.05    -0.02   0.01  -0.00
  17   1    -0.00  -0.03  -0.01     0.04   0.00  -0.19     0.09   0.10  -0.10
  18   1    -0.03  -0.05  -0.01    -0.07   0.10   0.07     0.01   0.05   0.01
  19   1    -0.09  -0.04   0.06    -0.08   0.18   0.05     0.08   0.03  -0.06
  20   1    -0.10   0.12   0.00    -0.08  -0.02   0.15    -0.12   0.01   0.15
  21   1     0.10  -0.03   0.08     0.14  -0.15   0.08    -0.01  -0.08  -0.06
  22   1     0.12  -0.19  -0.16    -0.10  -0.02   0.11    -0.06  -0.14   0.02
  23   1     0.10   0.06   0.00     0.21   0.16  -0.05     0.02  -0.02   0.03
  24   1    -0.03  -0.05   0.01    -0.29  -0.21  -0.04     0.00  -0.02   0.03
  25   1     0.01  -0.06  -0.11    -0.00   0.03   0.03     0.06  -0.10  -0.11
  26   1    -0.01  -0.01  -0.01    -0.04  -0.12   0.12    -0.06  -0.03  -0.06
  27   1    -0.03  -0.01   0.04     0.06   0.03  -0.11    -0.12  -0.11   0.20
  28   1     0.00  -0.03  -0.01    -0.08  -0.06  -0.01    -0.05  -0.01   0.00
  29   1     0.01   0.01   0.02     0.01   0.04   0.07     0.01  -0.01   0.00
  30   1    -0.00   0.02   0.01     0.03   0.06  -0.04     0.00   0.02  -0.00
  31   1     0.01   0.01  -0.00    -0.07  -0.00   0.02     0.01  -0.00  -0.01
  32   1    -0.00   0.02  -0.05    -0.01  -0.12   0.19     0.02   0.10  -0.17
  33   1     0.02  -0.01  -0.01    -0.03   0.01  -0.07     0.01  -0.01   0.01
  34   1     0.02  -0.00   0.02    -0.02  -0.02   0.03     0.01  -0.01   0.02
  35   1    -0.00   0.01  -0.04     0.00  -0.05   0.05    -0.00  -0.00  -0.03
                     49                     50                     51
                        a                      a                      a 
 Frequencies --  1112.7984              1134.1235              1158.3492
 Red. masses --     5.5562                 5.9950                 3.9305
 Frc consts  --     0.0000                 0.0000                 0.0000
 IR Inten    --    39.4710                 1.5524                 2.4261
 Raman Activ --     0.0000                 0.0000                 0.0000
 Depolar     --     0.0000                 0.0000                 0.0000
 Atom AN      X      Y      Z        X      Y      Z        X      Y      Z
   1   6    -0.31  -0.26  -0.05    -0.08  -0.11  -0.10    -0.05  -0.10  -0.11
   2   6    -0.02  -0.11  -0.07    -0.07  -0.28   0.03    -0.06   0.18  -0.01
   3   6     0.07   0.11   0.07     0.16   0.27  -0.22     0.06  -0.06   0.17
   4   6    -0.06  -0.06  -0.05    -0.24   0.02   0.19     0.03  -0.03  -0.07
   5   6     0.14   0.12   0.05     0.16  -0.09  -0.03     0.06   0.10   0.10
   6   6    -0.08  -0.12   0.02    -0.04  -0.13   0.05    -0.03  -0.19  -0.05
   7   6     0.03  -0.03   0.12     0.01   0.00   0.03    -0.02  -0.09   0.11
   8   6     0.06  -0.02  -0.14    -0.04   0.02   0.05    -0.03   0.14  -0.07
   9   8    -0.00   0.01  -0.01    -0.00   0.00  -0.02    -0.05   0.04   0.02
  10   6     0.09   0.23  -0.01     0.08   0.11  -0.06     0.15   0.06  -0.09
  11   6    -0.01  -0.03   0.02    -0.01   0.01  -0.02    -0.01  -0.04   0.03
  12   6    -0.02   0.00  -0.03     0.02   0.01   0.03    -0.03  -0.04  -0.06
  13   6     0.01  -0.00   0.02     0.03   0.02  -0.03     0.01  -0.01   0.03
  14   1    -0.03  -0.03  -0.02     0.11  -0.16  -0.00    -0.04  -0.06  -0.04
  15   8    -0.04  -0.07   0.12    -0.03  -0.01   0.06    -0.03   0.03   0.03
  16   6     0.04   0.00   0.01    -0.05  -0.01  -0.01     0.04   0.02   0.02
  17   1    -0.02  -0.02  -0.01     0.25   0.32  -0.17    -0.08  -0.11  -0.01
  18   1     0.04   0.11  -0.01     0.03   0.00  -0.04     0.07   0.19  -0.01
  19   1     0.10   0.05  -0.07    -0.19   0.12   0.17     0.34  -0.07  -0.26
  20   1     0.01  -0.05   0.06    -0.17   0.04   0.17    -0.21   0.07   0.20
  21   1    -0.04   0.16  -0.00     0.05  -0.10  -0.04    -0.23  -0.02  -0.22
  22   1     0.08   0.09  -0.07     0.07   0.18   0.01     0.14   0.10  -0.13
  23   1     0.41   0.22   0.06    -0.13  -0.07  -0.03    -0.12  -0.08  -0.02
  24   1    -0.16  -0.16   0.01     0.23   0.10   0.04     0.18   0.06   0.06
  25   1    -0.01   0.02   0.02    -0.04   0.09   0.08    -0.01   0.04   0.02
  26   1     0.14   0.30  -0.18    -0.00  -0.00  -0.00    -0.11  -0.19   0.07
  27   1    -0.06  -0.05   0.10     0.03   0.06  -0.03     0.08   0.18  -0.08
  28   1     0.04   0.02  -0.01    -0.03  -0.02  -0.01     0.03   0.03   0.00
  29   1    -0.07   0.03  -0.00     0.02  -0.01   0.00    -0.04  -0.01  -0.05
  30   1     0.01  -0.00  -0.02     0.02  -0.02  -0.02     0.01   0.04  -0.01
  31   1    -0.03  -0.01   0.01     0.03   0.01  -0.01    -0.04  -0.01   0.01
  32   1     0.01   0.15  -0.20    -0.01  -0.04   0.07    -0.02  -0.15   0.22
  33   1    -0.02   0.01  -0.02     0.02  -0.01   0.03    -0.01   0.01  -0.04
  34   1    -0.02  -0.00  -0.01     0.02   0.01   0.00    -0.02  -0.02   0.01
  35   1    -0.00  -0.02   0.06     0.00   0.04  -0.05    -0.01  -0.04   0.07
                     52                     53                     54
                        a                      a                      a 
 Frequencies --  1174.3894              1190.2160              1195.6146
 Red. masses --     4.0598                 6.8309                 5.7665
 Frc consts  --     0.0000                 0.0000                 0.0000
 IR Inten    --    34.3113                 5.8692                23.0478
 Raman Activ --     0.0000                 0.0000                 0.0000
 Depolar     --     0.0000                 0.0000                 0.0000
 Atom AN      X      Y      Z        X      Y      Z        X      Y      Z
   1   6     0.11   0.13  -0.13     0.21   0.21   0.24     0.14  -0.27   0.11
   2   6    -0.09   0.10   0.09    -0.02  -0.26  -0.07     0.05   0.14  -0.01
   3   6     0.00  -0.11  -0.02     0.19   0.17  -0.05    -0.10  -0.11   0.17
   4   6     0.03   0.10  -0.01    -0.12   0.05   0.16     0.08  -0.04  -0.15
   5   6    -0.00  -0.07   0.06     0.02  -0.21  -0.03    -0.20   0.09   0.10
   6   6     0.24  -0.25   0.04     0.10   0.07  -0.12     0.20   0.13  -0.18
   7   6    -0.00  -0.01   0.03     0.02   0.04  -0.10    -0.19  -0.01  -0.04
   8   6     0.00   0.07  -0.07    -0.02   0.01   0.07     0.03   0.02  -0.07
   9   8    -0.05  -0.04  -0.13    -0.02   0.03   0.03    -0.04  -0.02   0.01
  10   6    -0.06  -0.04   0.06    -0.19  -0.11   0.03    -0.10   0.08   0.04
  11   6    -0.03  -0.04   0.01    -0.02   0.00  -0.02     0.04   0.00   0.03
  12   6    -0.00  -0.01  -0.02    -0.13   0.07  -0.15     0.04  -0.02   0.05
  13   6     0.02   0.01  -0.00     0.04  -0.02   0.07    -0.03   0.00  -0.01
  14   1     0.02  -0.04   0.01    -0.17  -0.00  -0.02     0.02  -0.07  -0.03
  15   8     0.01  -0.02  -0.03     0.04  -0.02  -0.02     0.02  -0.04   0.03
  16   6    -0.00  -0.00   0.01     0.08  -0.02   0.07    -0.02   0.01  -0.02
  17   1    -0.02  -0.05  -0.01    -0.03  -0.05  -0.01     0.19   0.25  -0.15
  18   1    -0.03  -0.02   0.01     0.15   0.23  -0.09    -0.09  -0.09   0.09
  19   1    -0.02  -0.01   0.00     0.20  -0.07  -0.13     0.09   0.00  -0.09
  20   1     0.07   0.01  -0.10    -0.22   0.09   0.18    -0.20   0.07   0.18
  21   1    -0.16   0.15  -0.06    -0.15  -0.03  -0.14     0.07  -0.38  -0.04
  22   1    -0.09   0.30   0.33    -0.03  -0.08  -0.01    -0.08  -0.06   0.06
  23   1    -0.05  -0.03  -0.00    -0.07  -0.03  -0.01     0.01   0.03  -0.04
  24   1    -0.02  -0.04   0.01    -0.18  -0.04  -0.06     0.16   0.05   0.03
  25   1    -0.20   0.41   0.42     0.00  -0.03  -0.02    -0.03   0.04   0.06
  26   1     0.02   0.05  -0.03     0.07   0.11  -0.01     0.12   0.20  -0.04
  27   1    -0.06  -0.13   0.06    -0.04  -0.15   0.00    -0.02  -0.10   0.00
  28   1     0.01   0.01  -0.00    -0.02  -0.04  -0.02     0.03   0.04   0.02
  29   1    -0.05  -0.01  -0.04    -0.01   0.00  -0.00     0.01   0.00  -0.00
  30   1     0.01   0.02  -0.01     0.03  -0.01  -0.05    -0.02  -0.01   0.03
  31   1     0.00  -0.00  -0.00    -0.09  -0.02   0.02     0.02   0.00  -0.00
  32   1     0.01   0.07  -0.11     0.02   0.11  -0.17     0.02   0.12  -0.17
  33   1    -0.00   0.00   0.01    -0.02   0.01  -0.00     0.00  -0.00   0.00
  34   1    -0.00  -0.01   0.01    -0.03  -0.01   0.00     0.00   0.00  -0.00
  35   1     0.00   0.01  -0.01    -0.00  -0.04   0.12     0.00   0.00  -0.03
                     55                     56                     57
                        a                      a                      a 
 Frequencies --  1210.6738              1241.1269              1252.7629
 Red. masses --     6.0414                 7.4771                 6.0235
 Frc consts  --     0.0000                 0.0000                 0.0000
 IR Inten    --     2.8188                14.3216                22.5684
 Raman Activ --     0.0000                 0.0000                 0.0000
 Depolar     --     0.0000                 0.0000                 0.0000
 Atom AN      X      Y      Z        X      Y      Z        X      Y      Z
   1   6     0.12   0.26   0.30     0.00  -0.04   0.10    -0.28   0.26   0.23
   2   6     0.12  -0.05  -0.07     0.03   0.01  -0.03     0.03  -0.01  -0.10
   3   6    -0.07  -0.04   0.07    -0.05  -0.04   0.06     0.03  -0.02   0.03
   4   6     0.06  -0.02  -0.14     0.04  -0.03  -0.14    -0.01   0.09  -0.00
   5   6    -0.01   0.13   0.08     0.14   0.21   0.02    -0.12  -0.21  -0.12
   6   6    -0.17  -0.27   0.01    -0.00  -0.10  -0.07     0.17   0.09  -0.02
   7   6     0.04  -0.02  -0.00     0.08   0.18  -0.14    -0.10  -0.13  -0.09
   8   6     0.04   0.10  -0.17    -0.03  -0.38   0.46    -0.00  -0.08   0.06
   9   8    -0.01   0.04  -0.00    -0.04   0.02  -0.01     0.00  -0.02  -0.04
  10   6    -0.09  -0.16  -0.05    -0.05  -0.02  -0.02     0.10  -0.16  -0.03
  11   6    -0.03  -0.05   0.04    -0.04   0.10  -0.17     0.04   0.03   0.00
  12   6     0.05   0.02   0.07     0.05  -0.00   0.06     0.09  -0.03   0.13
  13   6    -0.05  -0.00  -0.01    -0.03   0.00  -0.01    -0.03   0.01  -0.04
  14   1     0.01  -0.12  -0.05    -0.02   0.02  -0.00     0.10  -0.26  -0.08
  15   8     0.03   0.01   0.01     0.02  -0.01   0.03    -0.03   0.07  -0.03
  16   6    -0.02  -0.01  -0.05    -0.02   0.00  -0.03    -0.03   0.01  -0.04
  17   1     0.14   0.19  -0.11     0.04   0.06  -0.02     0.07   0.08  -0.08
  18   1    -0.09  -0.13   0.08    -0.07  -0.08   0.06    -0.03  -0.02   0.03
  19   1    -0.03   0.06   0.01    -0.05   0.08   0.02     0.12  -0.05  -0.10
  20   1    -0.03   0.01   0.03     0.05  -0.03  -0.03    -0.13   0.08   0.08
  21   1     0.06   0.01   0.07    -0.36   0.10  -0.34    -0.03   0.15   0.06
  22   1     0.31   0.27  -0.26     0.07  -0.03  -0.10    -0.09  -0.04   0.12
  23   1    -0.08  -0.06   0.02     0.03   0.04  -0.01     0.41   0.21   0.11
  24   1    -0.33  -0.16  -0.05     0.03   0.05  -0.03     0.01   0.08  -0.03
  25   1     0.01   0.01  -0.02    -0.03   0.05   0.05    -0.03   0.06   0.07
  26   1     0.00  -0.03   0.02     0.03   0.05  -0.00    -0.07  -0.12  -0.02
  27   1     0.04   0.05  -0.08     0.04   0.05  -0.06     0.01   0.15   0.01
  28   1     0.03   0.04   0.01    -0.20  -0.14  -0.02     0.03  -0.00  -0.01
  29   1    -0.06  -0.01  -0.06     0.10   0.01   0.09     0.04   0.02   0.05
  30   1    -0.03  -0.04   0.04    -0.02  -0.02   0.03    -0.02  -0.02   0.03
  31   1     0.02   0.00  -0.00     0.02   0.00  -0.00     0.05   0.01  -0.01
  32   1     0.01   0.02  -0.02     0.01   0.03  -0.04    -0.01  -0.11   0.18
  33   1     0.00  -0.00  -0.00     0.01  -0.00  -0.01     0.01  -0.00  -0.01
  34   1     0.01   0.02  -0.02     0.01   0.01  -0.01     0.00   0.01  -0.01
  35   1    -0.00   0.03   0.01    -0.00   0.01  -0.02     0.00   0.01  -0.06
                     58                     59                     60
                        a                      a                      a 
 Frequencies --  1266.3269              1270.0040              1274.8409
 Red. masses --     6.4275                 6.5603                 7.7535
 Frc consts  --     0.0000                 0.0000                 0.0000
 IR Inten    --    14.1670                 2.6456                10.2890
 Raman Activ --     0.0000                 0.0000                 0.0000
 Depolar     --     0.0000                 0.0000                 0.0000
 Atom AN      X      Y      Z        X      Y      Z        X      Y      Z
   1   6    -0.29   0.10   0.05     0.15   0.25   0.06    -0.04   0.05   0.01
   2   6     0.08  -0.18  -0.06     0.04  -0.01   0.06    -0.18  -0.13  -0.12
   3   6    -0.01   0.14  -0.02    -0.00   0.01  -0.11     0.12   0.04   0.05
   4   6     0.08  -0.20   0.05    -0.06  -0.04   0.04    -0.19   0.07  -0.04
   5   6    -0.16   0.35   0.02     0.19   0.15   0.28     0.25  -0.11   0.26
   6   6     0.22  -0.06  -0.04    -0.06  -0.08  -0.09     0.03   0.09  -0.12
   7   6     0.19   0.07   0.01    -0.32  -0.23  -0.01     0.06  -0.05   0.06
   8   6     0.03  -0.07   0.01     0.02   0.08  -0.12     0.02   0.19  -0.16
   9   8    -0.06  -0.03  -0.09    -0.03   0.02  -0.00    -0.02   0.01   0.01
  10   6     0.10  -0.04  -0.02    -0.04  -0.08  -0.02     0.03   0.00  -0.00
  11   6    -0.02  -0.00  -0.01     0.00  -0.01   0.01    -0.05  -0.06   0.02
  12   6    -0.01   0.01   0.00    -0.13   0.04  -0.16     0.28  -0.06   0.35
  13   6    -0.00  -0.00   0.00     0.04  -0.01   0.04    -0.07   0.02  -0.09
  14   1    -0.06   0.15   0.03     0.03  -0.09  -0.01    -0.04   0.22   0.05
  15   8    -0.03   0.05  -0.03     0.02  -0.01   0.00    -0.02   0.02  -0.02
  16   6     0.00  -0.00   0.01     0.04  -0.02   0.06    -0.09   0.03  -0.12
  17   1    -0.09  -0.08   0.10    -0.04  -0.05   0.05     0.01  -0.01  -0.07
  18   1     0.09   0.06  -0.07     0.03   0.00  -0.05    -0.13  -0.10   0.13
  19   1    -0.04  -0.02   0.06    -0.17   0.07   0.14     0.06   0.04  -0.07
  20   1    -0.03  -0.03   0.05     0.20  -0.11  -0.11     0.12  -0.09  -0.02
  21   1     0.15  -0.47  -0.05    -0.08  -0.26  -0.17    -0.18  -0.05  -0.16
  22   1    -0.04  -0.09   0.06     0.01  -0.13  -0.10    -0.13  -0.26   0.01
  23   1    -0.03  -0.03   0.03     0.32   0.17   0.03    -0.07  -0.06   0.01
  24   1    -0.20  -0.11  -0.03     0.23   0.15   0.04    -0.10  -0.06  -0.00
  25   1    -0.09   0.19   0.18    -0.01   0.03   0.01     0.00  -0.01  -0.01
  26   1    -0.04  -0.07  -0.03    -0.02  -0.06   0.04    -0.01  -0.02  -0.01
  27   1    -0.01   0.04   0.04    -0.00   0.01  -0.01    -0.04  -0.06   0.05
  28   1    -0.04   0.01   0.02     0.02   0.03   0.01    -0.00  -0.01  -0.01
  29   1    -0.00  -0.01  -0.01    -0.01   0.00  -0.01    -0.10  -0.01  -0.08
  30   1     0.00  -0.01  -0.00     0.03   0.02  -0.05    -0.04  -0.04   0.07
  31   1    -0.00   0.00   0.00    -0.05  -0.01   0.01     0.13   0.03  -0.03
  32   1    -0.02  -0.10   0.14     0.00   0.02  -0.03    -0.01  -0.03   0.04
  33   1     0.00  -0.00  -0.01    -0.01   0.00   0.01     0.02  -0.01  -0.02
  34   1     0.00   0.01  -0.01    -0.01  -0.01   0.01     0.02   0.04  -0.04
  35   1     0.00  -0.00  -0.00     0.00  -0.02   0.06     0.00   0.05  -0.15
                     61                     62                     63
                        a                      a                      a 
 Frequencies --  1300.5219              1308.1068              1315.1508
 Red. masses --     5.5605                 5.1208                 4.7899
 Frc consts  --     0.0000                 0.0000                 0.0000
 IR Inten    --    10.5600                 8.3077                35.0215
 Raman Activ --     0.0000                 0.0000                 0.0000
 Depolar     --     0.0000                 0.0000                 0.0000
 Atom AN      X      Y      Z        X      Y      Z        X      Y      Z
   1   6    -0.07  -0.05   0.06     0.24   0.16  -0.07    -0.17   0.15  -0.17
   2   6     0.32   0.00   0.10    -0.09  -0.20  -0.09     0.24  -0.23   0.03
   3   6    -0.09  -0.07   0.02     0.03   0.08   0.08    -0.04  -0.00   0.12
   4   6    -0.02   0.07  -0.08     0.08  -0.08  -0.06    -0.03   0.03  -0.10
   5   6     0.09  -0.10   0.09    -0.12   0.09  -0.10    -0.00  -0.06   0.00
   6   6     0.02   0.04  -0.04    -0.11  -0.16   0.06     0.03  -0.01   0.03
   7   6     0.04   0.04   0.01    -0.18  -0.07  -0.03     0.01  -0.04   0.04
   8   6     0.01   0.05  -0.03    -0.02  -0.10   0.07    -0.00   0.02  -0.02
   9   8    -0.00   0.00   0.00     0.03   0.01   0.03     0.02  -0.01  -0.01
  10   6     0.21  -0.00  -0.05     0.07   0.04  -0.05    -0.07   0.05   0.01
  11   6    -0.02  -0.01   0.00     0.03   0.03  -0.01     0.00  -0.01   0.01
  12   6    -0.20   0.06  -0.26     0.13   0.00   0.16    -0.17   0.06  -0.19
  13   6     0.03  -0.02   0.07    -0.04   0.00  -0.03     0.04  -0.01   0.04
  14   1    -0.11   0.03   0.01    -0.17   0.39   0.08    -0.01   0.46   0.14
  15   8    -0.13   0.13  -0.11    -0.06   0.03  -0.06     0.09  -0.10   0.06
  16   6     0.06  -0.02   0.07    -0.03   0.01  -0.07     0.04  -0.01   0.07
  17   1     0.14   0.19  -0.07    -0.05  -0.05   0.03     0.12   0.17  -0.07
  18   1    -0.10  -0.14   0.07    -0.02   0.01   0.04    -0.17  -0.18   0.15
  19   1    -0.04   0.04   0.01     0.05   0.00  -0.03     0.08   0.01  -0.08
  20   1     0.01   0.00  -0.01    -0.14   0.05   0.09    -0.05   0.02   0.04
  21   1    -0.11   0.10  -0.05     0.07   0.02   0.06    -0.02   0.07   0.01
  22   1    -0.04  -0.08  -0.00     0.09   0.26   0.01    -0.08  -0.01   0.10
  23   1    -0.08  -0.04  -0.01     0.16   0.10  -0.02     0.06   0.03   0.02
  24   1    -0.05  -0.03  -0.00     0.21   0.14   0.02     0.05   0.03   0.02
  25   1     0.00  -0.01  -0.01     0.03  -0.05  -0.05     0.00   0.00  -0.00
  26   1     0.03   0.06  -0.17    -0.01  -0.02  -0.02    -0.12  -0.20   0.19
  27   1    -0.21  -0.28   0.29    -0.19  -0.30   0.22     0.13   0.21  -0.17
  28   1    -0.02  -0.02  -0.00     0.03   0.03   0.01     0.02   0.01  -0.00
  29   1    -0.04  -0.00  -0.03     0.08   0.00   0.06    -0.00  -0.00   0.00
  30   1     0.01   0.00  -0.02    -0.02  -0.03   0.04     0.03  -0.00  -0.05
  31   1    -0.12  -0.02   0.02     0.04   0.02  -0.00    -0.06   0.00   0.01
  32   1    -0.04  -0.22   0.34    -0.02  -0.08   0.10     0.02   0.12  -0.22
  33   1    -0.01   0.01   0.04    -0.01   0.01   0.01    -0.00   0.00   0.02
  34   1    -0.01  -0.03   0.04     0.02   0.00  -0.00    -0.02  -0.03   0.03
  35   1    -0.00  -0.04   0.11    -0.00   0.04  -0.02    -0.00  -0.04   0.05
                     64                     65                     66
                        a                      a                      a 
 Frequencies --  1332.6430              1342.8938              1347.3147
 Red. masses --     4.3477                 3.3771                 3.4045
 Frc consts  --     0.0000                 0.0000                 0.0000
 IR Inten    --    34.5754                65.1880                23.7455
 Raman Activ --     0.0000                 0.0000                 0.0000
 Depolar     --     0.0000                 0.0000                 0.0000
 Atom AN      X      Y      Z        X      Y      Z        X      Y      Z
   1   6    -0.08   0.00   0.01    -0.05  -0.06   0.05     0.09  -0.03   0.06
   2   6     0.04   0.02   0.02     0.10   0.06   0.02    -0.19  -0.04  -0.01
   3   6    -0.01   0.15  -0.06     0.00   0.04  -0.06     0.07   0.10   0.03
   4   6     0.30  -0.14  -0.25     0.00   0.01   0.01     0.14  -0.07  -0.16
   5   6     0.02  -0.08   0.17    -0.01  -0.05  -0.03    -0.04  -0.10   0.02
   6   6     0.01  -0.00  -0.17     0.03   0.09   0.16     0.03   0.11   0.17
   7   6     0.02  -0.02   0.03     0.00   0.01  -0.01    -0.03   0.01  -0.03
   8   6     0.03   0.08  -0.06    -0.00  -0.01   0.01     0.01   0.02  -0.02
   9   8     0.04   0.01   0.09    -0.04  -0.03  -0.10    -0.05  -0.02  -0.10
  10   6     0.00   0.02  -0.00     0.06   0.29  -0.10    -0.00   0.01  -0.01
  11   6    -0.01  -0.02   0.01     0.00   0.00   0.00     0.00  -0.00   0.01
  12   6     0.04  -0.00   0.01     0.11   0.01   0.03    -0.14  -0.01  -0.05
  13   6    -0.01  -0.00   0.00    -0.05  -0.01   0.00     0.06   0.01  -0.00
  14   1    -0.17  -0.12  -0.05    -0.30  -0.19  -0.09     0.55   0.12   0.10
  15   8     0.02  -0.02   0.01     0.05  -0.11  -0.01    -0.01   0.01  -0.01
  16   6     0.01  -0.01   0.03    -0.02  -0.00  -0.02     0.00  -0.00  -0.01
  17   1    -0.14  -0.14   0.15    -0.01  -0.01   0.01    -0.10  -0.12   0.11
  18   1    -0.01  -0.04   0.00    -0.01  -0.05  -0.00    -0.11  -0.07   0.10
  19   1    -0.34   0.18   0.28    -0.02  -0.01   0.02    -0.10   0.05   0.07
  20   1    -0.31   0.12   0.23    -0.01   0.00   0.02    -0.19   0.06   0.18
  21   1    -0.15   0.12  -0.04     0.02   0.04   0.03    -0.04   0.11   0.04
  22   1    -0.19   0.11   0.22     0.16  -0.22  -0.22     0.18  -0.26  -0.26
  23   1    -0.01  -0.01  -0.01     0.00   0.01  -0.02    -0.01  -0.00   0.04
  24   1    -0.04  -0.01  -0.00     0.00   0.02  -0.00    -0.01  -0.04   0.00
  25   1     0.07  -0.14  -0.13    -0.08   0.16   0.14    -0.08   0.16   0.15
  26   1    -0.04  -0.06   0.05    -0.21  -0.37   0.31     0.02   0.03  -0.01
  27   1     0.02   0.03  -0.02    -0.14  -0.24   0.15    -0.04  -0.07   0.04
  28   1    -0.03  -0.02   0.00     0.00  -0.00  -0.00    -0.01  -0.01  -0.00
  29   1    -0.06  -0.00  -0.05     0.00   0.00   0.01    -0.02   0.00  -0.02
  30   1    -0.02  -0.01   0.04    -0.06  -0.05   0.13     0.08   0.07  -0.17
  31   1    -0.02  -0.00   0.00    -0.09  -0.02   0.01     0.11   0.02  -0.02
  32   1     0.01   0.03  -0.05     0.02   0.13  -0.22    -0.01  -0.02   0.03
  33   1    -0.02   0.01  -0.01     0.02  -0.02  -0.01     0.00  -0.00   0.01
  34   1    -0.02   0.01  -0.02     0.04   0.02  -0.01     0.02  -0.01   0.02
  35   1     0.01   0.02  -0.06    -0.01   0.01   0.02    -0.01  -0.01   0.07
                     67                     68                     69
                        a                      a                      a 
 Frequencies --  1348.2077              1359.0502              1396.3719
 Red. masses --     3.8399                 3.9905                 3.1703
 Frc consts  --     0.0000                 0.0000                 0.0000
 IR Inten    --    32.9537                 7.2699                 5.0092
 Raman Activ --     0.0000                 0.0000                 0.0000
 Depolar     --     0.0000                 0.0000                 0.0000
 Atom AN      X      Y      Z        X      Y      Z        X      Y      Z
   1   6    -0.07  -0.04   0.24    -0.02   0.03  -0.01    -0.02   0.01  -0.00
   2   6    -0.10   0.02  -0.05    -0.01  -0.07  -0.14    -0.05  -0.01  -0.04
   3   6    -0.02  -0.07   0.05    -0.27  -0.26   0.20    -0.02  -0.03   0.01
   4   6    -0.05   0.01   0.05     0.16   0.06  -0.05     0.02  -0.01  -0.00
   5   6     0.03   0.09   0.01     0.03  -0.10   0.06     0.01  -0.01   0.02
   6   6    -0.02  -0.07  -0.22     0.02   0.05   0.05     0.01   0.01  -0.01
   7   6     0.05   0.04  -0.04    -0.00  -0.03   0.02     0.00  -0.01   0.00
   8   6     0.01  -0.03   0.03     0.01   0.04  -0.03     0.02   0.01  -0.00
   9   8     0.05   0.02   0.10    -0.01  -0.01  -0.03     0.00  -0.00   0.00
  10   6     0.07   0.21  -0.11     0.01   0.00  -0.00    -0.01  -0.01   0.01
  11   6    -0.00   0.01  -0.01    -0.00  -0.01   0.01     0.00   0.00   0.00
  12   6    -0.11  -0.02  -0.02     0.02  -0.02   0.07     0.11   0.01   0.02
  13   6     0.04   0.01  -0.01    -0.01   0.00  -0.01     0.01   0.01  -0.03
  14   1     0.45  -0.03   0.03     0.01   0.21   0.03     0.04   0.02   0.00
  15   8     0.03  -0.05  -0.03     0.00  -0.00   0.00     0.00  -0.00   0.01
  16   6     0.02   0.00  -0.01    -0.01  -0.01   0.03    -0.05   0.12  -0.40
  17   1     0.03   0.03  -0.03     0.17   0.23  -0.13     0.02   0.02   0.01
  18   1     0.04   0.08  -0.03     0.39   0.47  -0.30     0.03   0.08  -0.03
  19   1     0.05  -0.01  -0.04    -0.19   0.07   0.16    -0.04   0.03   0.04
  20   1     0.08  -0.03  -0.08    -0.01   0.05  -0.04    -0.01   0.02  -0.02
  21   1    -0.01  -0.08  -0.06    -0.06   0.11   0.01    -0.01   0.01   0.00
  22   1    -0.14   0.24   0.20     0.03  -0.12  -0.06    -0.03  -0.02   0.03
  23   1    -0.02  -0.01   0.03     0.01   0.00  -0.02     0.01   0.00  -0.00
  24   1    -0.10  -0.05  -0.02    -0.01   0.02  -0.00    -0.00   0.00  -0.00
  25   1     0.08  -0.15  -0.15    -0.03   0.05   0.04    -0.00  -0.00  -0.00
  26   1    -0.16  -0.29   0.22    -0.01  -0.02   0.01    -0.01   0.00  -0.02
  27   1    -0.14  -0.24   0.16    -0.00   0.00   0.00     0.03   0.03  -0.04
  28   1    -0.03  -0.02   0.00    -0.01  -0.02  -0.00    -0.03  -0.02   0.00
  29   1    -0.01   0.00  -0.01    -0.03   0.00  -0.03    -0.03   0.00  -0.03
  30   1     0.06   0.06  -0.13     0.01   0.01  -0.03    -0.07  -0.06   0.16
  31   1     0.10   0.02  -0.02     0.05   0.01  -0.01    -0.16  -0.03   0.01
  32   1     0.01   0.05  -0.11    -0.00  -0.00  -0.01    -0.00  -0.00  -0.00
  33   1    -0.03   0.02   0.04    -0.01  -0.01  -0.07     0.12   0.06   0.49
  34   1    -0.03  -0.04   0.03     0.00   0.05  -0.05     0.11  -0.33   0.37
  35   1    -0.00  -0.00   0.01     0.01   0.02  -0.06    -0.09  -0.10   0.43
                     70                     71                     72
                        a                      a                      a 
 Frequencies --  1411.7741              1435.7425              1468.7107
 Red. masses --     2.3640                 2.4897                 1.8227
 Frc consts  --     0.0000                 0.0000                 0.0000
 IR Inten    --     4.3094                 7.9590                 1.8706
 Raman Activ --     0.0000                 0.0000                 0.0000
 Depolar     --     0.0000                 0.0000                 0.0000
 Atom AN      X      Y      Z        X      Y      Z        X      Y      Z
   1   6     0.01   0.00  -0.01    -0.01  -0.00  -0.03    -0.01  -0.01   0.04
   2   6     0.00  -0.00   0.01     0.13   0.02   0.02    -0.02  -0.00  -0.01
   3   6     0.01   0.01  -0.00    -0.00   0.01  -0.03     0.01  -0.03  -0.04
   4   6    -0.01  -0.00   0.03    -0.01   0.02  -0.00    -0.00   0.05  -0.04
   5   6    -0.07   0.02  -0.09     0.00  -0.00  -0.01    -0.01   0.01  -0.01
   6   6    -0.01  -0.01   0.02     0.00  -0.00   0.02     0.00  -0.00  -0.01
   7   6    -0.08  -0.06   0.01     0.00  -0.01   0.02     0.04  -0.09   0.11
   8   6     0.23   0.08   0.11     0.00  -0.00   0.00     0.01  -0.02   0.01
   9   8     0.00  -0.00  -0.00    -0.00   0.00  -0.01    -0.00   0.00  -0.00
  10   6     0.00  -0.00   0.00    -0.00   0.01   0.01     0.02   0.11   0.15
  11   6     0.14   0.06   0.06     0.00   0.00   0.00     0.00   0.00  -0.00
  12   6     0.00   0.00  -0.01    -0.16  -0.10   0.19     0.01   0.00  -0.02
  13   6    -0.00  -0.00   0.00    -0.09  -0.03   0.05     0.03   0.01  -0.02
  14   1    -0.01   0.00   0.00    -0.30  -0.07  -0.05     0.07   0.00   0.01
  15   8    -0.00  -0.00  -0.00     0.00  -0.00   0.01    -0.00   0.00   0.02
  16   6    -0.00  -0.01   0.02     0.07   0.02  -0.15     0.03  -0.05   0.02
  17   1    -0.00  -0.01  -0.01     0.01   0.01  -0.00     0.05   0.04   0.13
  18   1    -0.01  -0.02   0.01    -0.00  -0.02  -0.00    -0.10   0.09   0.05
  19   1     0.05  -0.01  -0.03    -0.02  -0.04  -0.00    -0.05  -0.14  -0.01
  20   1     0.00   0.01  -0.03     0.02  -0.02   0.04     0.06  -0.08   0.13
  21   1     0.07  -0.00   0.05     0.01   0.00   0.00     0.00  -0.00   0.00
  22   1     0.02   0.03  -0.01     0.02  -0.02  -0.02     0.00   0.00  -0.01
  23   1     0.04   0.02  -0.01     0.00   0.01  -0.06     0.04   0.05  -0.38
  24   1     0.05   0.04   0.01    -0.01   0.05  -0.01    -0.20   0.33  -0.09
  25   1     0.00  -0.00  -0.00    -0.01   0.01   0.01    -0.01   0.01   0.01
  26   1     0.00   0.00   0.00    -0.01  -0.00  -0.01    -0.29  -0.09  -0.37
  27   1    -0.00   0.00   0.01     0.02   0.00  -0.02     0.23  -0.31  -0.29
  28   1    -0.50  -0.42   0.04    -0.01  -0.01   0.00     0.00   0.00   0.00
  29   1    -0.45   0.04  -0.47    -0.01   0.00  -0.01     0.00   0.00   0.00
  30   1    -0.00  -0.00   0.00     0.18   0.19  -0.48    -0.02  -0.03   0.07
  31   1    -0.00  -0.00   0.00     0.56   0.10  -0.05    -0.08  -0.01   0.00
  32   1    -0.00  -0.00   0.00     0.01   0.02  -0.02    -0.00  -0.01   0.01
  33   1     0.00  -0.01  -0.03    -0.16   0.13   0.15    -0.15   0.07  -0.00
  34   1    -0.00   0.02  -0.02    -0.08  -0.18   0.12    -0.02  -0.04   0.02
  35   1     0.00   0.00  -0.02    -0.00   0.07   0.07     0.03   0.14  -0.06
                     73                     74                     75
                        a                      a                      a 
 Frequencies --  1472.5275              1476.1116              1483.9997
 Red. masses --     1.7690                 1.8545                 1.6813
 Frc consts  --     0.0000                 0.0000                 0.0000
 IR Inten    --     2.1855                 4.0539                 3.6532
 Raman Activ --     0.0000                 0.0000                 0.0000
 Depolar     --     0.0000                 0.0000                 0.0000
 Atom AN      X      Y      Z        X      Y      Z        X      Y      Z
   1   6    -0.00  -0.01   0.01    -0.01  -0.03  -0.01    -0.01  -0.02  -0.01
   2   6     0.02   0.01   0.01    -0.02   0.00  -0.00    -0.00   0.02   0.02
   3   6    -0.00   0.02   0.01     0.02  -0.06  -0.07    -0.02   0.07   0.09
   4   6    -0.00  -0.14   0.08    -0.00   0.02  -0.02    -0.00  -0.04   0.03
   5   6    -0.00  -0.01   0.01    -0.01   0.01  -0.00     0.00  -0.01   0.01
   6   6     0.01   0.01  -0.00     0.01  -0.00  -0.00     0.00   0.01  -0.02
   7   6     0.02  -0.05   0.06     0.07  -0.10   0.14     0.03  -0.04   0.06
   8   6     0.00   0.00  -0.00     0.01  -0.01   0.01    -0.00  -0.00   0.00
   9   8     0.00  -0.00  -0.00    -0.00  -0.00  -0.00     0.00  -0.00   0.01
  10   6     0.01   0.04   0.05    -0.01  -0.10  -0.14    -0.00  -0.02  -0.02
  11   6    -0.01  -0.00  -0.00    -0.01  -0.00  -0.00    -0.01  -0.00  -0.00
  12   6    -0.03   0.01   0.04     0.01  -0.00  -0.00    -0.02  -0.01  -0.04
  13   6    -0.04  -0.02   0.03     0.01   0.00  -0.00    -0.01  -0.01   0.02
  14   1    -0.02  -0.02  -0.01     0.03   0.00   0.01     0.03   0.00   0.01
  15   8    -0.00   0.00   0.01     0.00   0.00  -0.02     0.00   0.00  -0.00
  16   6    -0.09   0.14  -0.01     0.00   0.04   0.01    -0.09  -0.15  -0.04
  17   1    -0.03  -0.03  -0.07     0.08   0.07   0.21    -0.10  -0.09  -0.25
  18   1     0.03  -0.08  -0.01    -0.15   0.16   0.08     0.16  -0.22  -0.08
  19   1     0.13   0.35   0.01    -0.03  -0.07  -0.00     0.06   0.12  -0.01
  20   1    -0.14   0.18  -0.31     0.03  -0.04   0.06    -0.05   0.06  -0.10
  21   1    -0.00  -0.01   0.00     0.00  -0.01   0.00    -0.00  -0.00  -0.00
  22   1     0.00  -0.00  -0.00    -0.00   0.01   0.01    -0.04  -0.01   0.04
  23   1     0.01   0.03  -0.20     0.01   0.04  -0.44     0.00   0.02  -0.20
  24   1    -0.10   0.17  -0.04    -0.22   0.37  -0.09    -0.10   0.17  -0.04
  25   1    -0.00   0.00   0.01    -0.01   0.00   0.02    -0.00  -0.01   0.00
  26   1    -0.10  -0.03  -0.13     0.27   0.10   0.33     0.05   0.02   0.06
  27   1     0.08  -0.12  -0.09    -0.21   0.28   0.26    -0.03   0.06   0.04
  28   1     0.01   0.01  -0.00     0.01   0.01  -0.00     0.01   0.01  -0.00
  29   1     0.01  -0.00   0.01     0.01  -0.00   0.01     0.01  -0.00   0.01
  30   1     0.04   0.05  -0.12    -0.00  -0.00   0.01     0.01   0.01  -0.03
  31   1     0.13   0.02  -0.01    -0.01  -0.00   0.00     0.02   0.00   0.00
  32   1     0.00   0.00   0.00     0.00   0.00  -0.01     0.00   0.00   0.00
  33   1     0.42  -0.21  -0.02     0.06  -0.02   0.02    -0.10  -0.01  -0.22
  34   1    -0.01   0.14  -0.14    -0.06  -0.01  -0.02     0.51   0.14   0.11
  35   1    -0.07  -0.43   0.08    -0.01  -0.10  -0.04    -0.00   0.44   0.31
                     76                     77                     78
                        a                      a                      a 
 Frequencies --  1492.4396              1495.7532              1701.7748
 Red. masses --     1.7434                 1.8904                11.1811
 Frc consts  --     0.0000                 0.0000                 0.0000
 IR Inten    --     2.4318                 3.1202                30.9305
 Raman Activ --     0.0000                 0.0000                 0.0000
 Depolar     --     0.0000                 0.0000                 0.0000
 Atom AN      X      Y      Z        X      Y      Z        X      Y      Z
   1   6    -0.01   0.01  -0.00     0.00  -0.00   0.00     0.01  -0.00   0.00
   2   6     0.02  -0.01  -0.01     0.01  -0.00   0.01     0.07   0.02  -0.01
   3   6     0.03  -0.10  -0.14    -0.03   0.09   0.11     0.01   0.00  -0.00
   4   6    -0.00   0.04  -0.03     0.01   0.18  -0.11    -0.00  -0.00   0.00
   5   6     0.00   0.01   0.00    -0.00   0.01  -0.01     0.00   0.00   0.00
   6   6    -0.01  -0.01  -0.02    -0.01  -0.02  -0.01    -0.00   0.00   0.00
   7   6    -0.02   0.03  -0.04     0.01  -0.01   0.01    -0.00   0.00  -0.00
   8   6     0.00   0.00  -0.01    -0.01  -0.01   0.01    -0.00  -0.00  -0.00
   9   8     0.01  -0.00   0.01     0.01   0.00   0.01    -0.00   0.00   0.00
  10   6     0.00   0.01   0.02     0.00   0.00   0.00    -0.00  -0.00   0.00
  11   6     0.00   0.00   0.00     0.01   0.00   0.00     0.00   0.00   0.00
  12   6    -0.00  -0.01   0.02    -0.01   0.01   0.01    -0.53  -0.24   0.43
  13   6    -0.06  -0.02   0.04    -0.02  -0.01   0.02     0.48   0.20  -0.35
  14   1    -0.07  -0.01  -0.02     0.01   0.01   0.01    -0.08  -0.01  -0.01
  15   8    -0.00  -0.00   0.00    -0.00  -0.00   0.00     0.00   0.00  -0.00
  16   6    -0.14  -0.01  -0.03    -0.07   0.08  -0.01     0.02   0.03  -0.07
  17   1     0.15   0.13   0.39    -0.11  -0.09  -0.30     0.00  -0.00   0.00
  18   1    -0.26   0.32   0.13     0.21  -0.23  -0.11    -0.00   0.00   0.00
  19   1    -0.05  -0.13  -0.01    -0.20  -0.45   0.01     0.00   0.00  -0.00
  20   1     0.06  -0.07   0.10     0.18  -0.23   0.40    -0.00   0.00   0.00
  21   1     0.00  -0.00  -0.00    -0.00   0.01  -0.00     0.00  -0.00  -0.00
  22   1    -0.04   0.03   0.05    -0.01   0.05   0.03     0.00  -0.00  -0.00
  23   1    -0.00  -0.02   0.15     0.00   0.01  -0.05    -0.00  -0.00   0.00
  24   1     0.08  -0.14   0.03    -0.02   0.05  -0.01     0.00  -0.00   0.00
  25   1     0.01  -0.02  -0.02     0.01  -0.01  -0.01     0.00  -0.00  -0.00
  26   1    -0.04  -0.02  -0.05    -0.01  -0.00  -0.01     0.00   0.00   0.00
  27   1     0.03  -0.04  -0.04     0.00  -0.01  -0.00    -0.00  -0.00   0.00
  28   1    -0.01  -0.01   0.00    -0.01  -0.01   0.00    -0.00  -0.00   0.00
  29   1    -0.01   0.00  -0.01    -0.00   0.00  -0.00    -0.00   0.00  -0.00
  30   1     0.03   0.04  -0.10     0.01   0.02  -0.04     0.05  -0.04   0.15
  31   1     0.11   0.02  -0.00     0.04   0.00  -0.00    -0.14   0.01  -0.09
  32   1     0.00   0.00   0.00    -0.00  -0.00   0.00    -0.00   0.00  -0.01
  33   1     0.25  -0.18  -0.21     0.29  -0.15  -0.00     0.01  -0.01  -0.08
  34   1     0.39   0.23  -0.03     0.04   0.10  -0.07     0.02   0.04  -0.04
  35   1    -0.05   0.02   0.29    -0.05  -0.25   0.09    -0.01  -0.02   0.06
                     79                     80                     81
                        a                      a                      a 
 Frequencies --  1736.8655              2901.5011              2904.1713
 Red. masses --    11.5779                 1.7557                 1.7526
 Frc consts  --     0.0000                 0.0000                 0.0000
 IR Inten    --    28.8505                79.6637                63.4372
 Raman Activ --     0.0000                 0.0000                 0.0000
 Depolar     --     0.0000                 0.0000                 0.0000
 Atom AN      X      Y      Z        X      Y      Z        X      Y      Z
   1   6    -0.01  -0.01  -0.00    -0.01  -0.00  -0.00    -0.00   0.00   0.01
   2   6     0.00   0.00   0.00     0.00   0.00  -0.00    -0.03  -0.07   0.25
   3   6     0.00   0.00   0.00     0.00  -0.00   0.00    -0.02  -0.00  -0.01
   4   6    -0.01   0.01   0.00     0.00   0.00   0.00    -0.00  -0.00  -0.00
   5   6    -0.06  -0.00  -0.06    -0.00  -0.00   0.00     0.00   0.00  -0.00
   6   6    -0.01   0.00  -0.01     0.00  -0.00   0.00     0.00   0.00  -0.00
   7   6    -0.06  -0.05   0.00     0.00  -0.00   0.00     0.00  -0.00  -0.01
   8   6     0.65   0.26   0.28    -0.00   0.00  -0.00    -0.00  -0.00   0.00
   9   8     0.00   0.00   0.00     0.00   0.00   0.00    -0.00   0.00   0.00
  10   6     0.00   0.00  -0.00    -0.22   0.02  -0.14    -0.00  -0.00  -0.00
  11   6    -0.53  -0.21  -0.24    -0.00  -0.00   0.00    -0.00   0.00  -0.00
  12   6    -0.00  -0.00   0.00     0.00  -0.00   0.00     0.00  -0.00   0.01
  13   6     0.00   0.00  -0.00    -0.00   0.00  -0.00    -0.00   0.00  -0.01
  14   1    -0.00  -0.00  -0.00    -0.00  -0.00   0.00     0.11   0.25  -0.92
  15   8     0.00   0.00   0.00    -0.00   0.00  -0.01     0.00  -0.00  -0.00
  16   6     0.00   0.00  -0.00    -0.00   0.00   0.00     0.00   0.00  -0.00
  17   1     0.00   0.00  -0.00    -0.00   0.00   0.00    -0.00  -0.00  -0.00
  18   1     0.00   0.00  -0.00    -0.00   0.00  -0.00     0.05   0.01   0.07
  19   1     0.00  -0.01  -0.01    -0.00   0.00  -0.00     0.00  -0.00   0.00
  20   1     0.00  -0.00   0.01    -0.00  -0.00  -0.00     0.00   0.00   0.00
  21   1     0.03   0.00   0.02     0.00   0.00  -0.00    -0.01  -0.00   0.01
  22   1    -0.00  -0.00  -0.00    -0.01   0.00  -0.01     0.00  -0.00   0.00
  23   1     0.01   0.00   0.01    -0.01   0.01   0.00    -0.00   0.01  -0.00
  24   1     0.02   0.00   0.01     0.00  -0.00  -0.00    -0.01   0.00   0.02
  25   1     0.00  -0.00  -0.01    -0.00   0.00  -0.00    -0.00  -0.00  -0.00
  26   1    -0.00  -0.00  -0.00     0.04  -0.07  -0.06    -0.00   0.00   0.00
  27   1     0.00  -0.00  -0.00     0.74  -0.03   0.61     0.00  -0.00   0.00
  28   1     0.03   0.10  -0.09     0.00   0.00  -0.00     0.00  -0.00   0.00
  29   1     0.01  -0.08   0.11     0.00   0.00  -0.00    -0.00  -0.00   0.00
  30   1     0.00   0.00   0.00     0.00   0.00   0.00     0.00   0.00   0.00
  31   1    -0.00   0.00  -0.00     0.00  -0.00   0.00     0.00  -0.00   0.01
  32   1    -0.00  -0.00   0.00     0.00   0.00   0.00    -0.00   0.00  -0.00
  33   1    -0.00  -0.00  -0.00     0.00   0.00  -0.00    -0.00  -0.00   0.00
  34   1     0.00   0.00  -0.00     0.00  -0.01  -0.01    -0.00   0.00   0.00
  35   1    -0.00   0.00   0.00     0.00  -0.00   0.00    -0.01   0.00   0.00
                     82                     83                     84
                        a                      a                      a 
 Frequencies --  2947.6304              2958.8800              2963.5180
 Red. masses --     1.8657                 1.7687                 1.9502
 Frc consts  --     0.0000                 0.0000                 0.0000
 IR Inten    --    36.8852                62.0382                16.0212
 Raman Activ --     0.0000                 0.0000                 0.0000
 Depolar     --     0.0000                 0.0000                 0.0000
 Atom AN      X      Y      Z        X      Y      Z        X      Y      Z
   1   6     0.01  -0.01  -0.00    -0.00  -0.00  -0.00    -0.00   0.00   0.00
   2   6     0.00   0.00  -0.00    -0.00  -0.00   0.00     0.00  -0.00   0.01
   3   6     0.00   0.00   0.01    -0.01   0.00  -0.01     0.15  -0.06   0.10
   4   6     0.00   0.00   0.00     0.02   0.04   0.01    -0.14  -0.08  -0.14
   5   6    -0.00  -0.00   0.00    -0.17  -0.08   0.18    -0.03  -0.01   0.02
   6   6    -0.00  -0.00  -0.00    -0.01   0.00   0.00     0.00  -0.00   0.00
   7   6     0.14  -0.22  -0.10    -0.00   0.01  -0.00    -0.00   0.00  -0.00
   8   6     0.00  -0.01  -0.00    -0.00  -0.00   0.00    -0.00  -0.00   0.00
   9   8    -0.00   0.00  -0.00     0.00  -0.00  -0.00     0.00  -0.00  -0.00
  10   6    -0.00   0.01   0.01     0.00  -0.00  -0.00    -0.00   0.00   0.00
  11   6     0.00   0.00  -0.00     0.00   0.00  -0.00     0.00   0.00  -0.00
  12   6    -0.00  -0.00  -0.00     0.00   0.00   0.00    -0.00   0.00   0.00
  13   6     0.00   0.00   0.00    -0.00   0.00  -0.00    -0.00   0.00  -0.00
  14   1    -0.00  -0.00   0.01     0.00   0.00  -0.00     0.00   0.01  -0.04
  15   8    -0.00   0.00   0.00     0.00  -0.00   0.00     0.00  -0.00  -0.00
  16   6     0.00   0.00   0.00     0.00  -0.00  -0.00    -0.00  -0.00   0.00
  17   1     0.00  -0.00   0.00     0.01  -0.01  -0.00    -0.28   0.25   0.04
  18   1    -0.01  -0.00  -0.02     0.03   0.00   0.05    -0.27  -0.04  -0.42
  19   1    -0.00   0.00  -0.00     0.01   0.00   0.02     0.28  -0.12   0.42
  20   1    -0.00  -0.01  -0.00    -0.09  -0.14  -0.05     0.25   0.41   0.11
  21   1     0.01   0.01  -0.01     0.61   0.28  -0.67     0.08   0.04  -0.08
  22   1     0.00  -0.00   0.00     0.02  -0.01   0.02    -0.01   0.00  -0.01
  23   1    -0.45   0.80   0.07     0.01  -0.02  -0.00     0.01  -0.01  -0.00
  24   1    -0.04   0.00   0.27    -0.00   0.00   0.00    -0.00   0.00   0.01
  25   1    -0.00   0.00   0.00    -0.00  -0.00  -0.00    -0.00  -0.00   0.00
  26   1     0.03  -0.02  -0.01    -0.00   0.00   0.00     0.00  -0.00  -0.00
  27   1    -0.02   0.00  -0.01    -0.00  -0.00  -0.00     0.00   0.00   0.00
  28   1     0.00  -0.00   0.00     0.00   0.00  -0.00     0.00  -0.00  -0.00
  29   1    -0.00   0.00  -0.00    -0.00  -0.01   0.00    -0.00  -0.00   0.00
  30   1    -0.00   0.00  -0.00     0.00   0.00   0.00     0.00  -0.00   0.00
  31   1    -0.00  -0.00  -0.00     0.00  -0.00   0.00     0.00  -0.00   0.00
  32   1     0.00  -0.00  -0.00    -0.00   0.00  -0.00    -0.00   0.00   0.00
  33   1    -0.00  -0.00  -0.00     0.00   0.00   0.00     0.00   0.01  -0.00
  34   1     0.00  -0.00  -0.00    -0.00   0.00   0.00     0.00  -0.00  -0.00
  35   1    -0.00   0.00  -0.00    -0.00   0.00  -0.00     0.01  -0.00   0.00
                     85                     86                     87
                        a                      a                      a 
 Frequencies --  2972.5631              2976.4337              2984.8897
 Red. masses --     1.9567                 1.6698                 1.5554
 Frc consts  --     0.0000                 0.0000                 0.0000
 IR Inten    --    79.6785                41.6606                87.2774
 Raman Activ --     0.0000                 0.0000                 0.0000
 Depolar     --     0.0000                 0.0000                 0.0000
 Atom AN      X      Y      Z        X      Y      Z        X      Y      Z
   1   6     0.00  -0.00  -0.00     0.00  -0.01  -0.00     0.00  -0.00   0.00
   2   6    -0.00   0.01  -0.01    -0.00   0.00  -0.00    -0.00   0.00  -0.01
   3   6    -0.19   0.10  -0.07     0.01  -0.00   0.01    -0.03  -0.04  -0.11
   4   6    -0.12  -0.10  -0.10     0.00   0.00   0.00    -0.05   0.12  -0.13
   5   6    -0.02  -0.01   0.01     0.00   0.00  -0.00     0.02   0.01  -0.02
   6   6     0.00  -0.00   0.00     0.00  -0.00   0.00     0.01  -0.00   0.01
   7   6     0.00  -0.00   0.01     0.01  -0.01  -0.01     0.00  -0.00   0.01
   8   6    -0.00  -0.00   0.00    -0.00  -0.00  -0.00     0.00  -0.00   0.00
   9   8     0.00  -0.00  -0.00    -0.00   0.00  -0.00     0.00   0.00   0.00
  10   6     0.00  -0.00  -0.00     0.15  -0.16  -0.10     0.00  -0.00  -0.00
  11   6     0.00   0.00  -0.00    -0.00   0.00   0.00    -0.00  -0.00   0.00
  12   6     0.00   0.00  -0.00    -0.00   0.00  -0.00     0.00   0.00  -0.00
  13   6     0.00  -0.00   0.00    -0.00  -0.00   0.00     0.00  -0.00   0.00
  14   1    -0.00  -0.01   0.03    -0.00  -0.00   0.00    -0.00  -0.01   0.04
  15   8     0.00   0.00  -0.00     0.00   0.00  -0.01     0.00   0.00  -0.00
  16   6    -0.00  -0.00   0.00    -0.00  -0.00  -0.00    -0.00  -0.00  -0.00
  17   1     0.48  -0.41  -0.05    -0.01   0.01   0.00    -0.17   0.14  -0.00
  18   1     0.18   0.04   0.30    -0.01  -0.00  -0.02     0.27   0.03   0.40
  19   1     0.13  -0.07   0.20    -0.01   0.00  -0.01     0.39  -0.13   0.57
  20   1     0.30   0.46   0.14    -0.01  -0.01  -0.00    -0.22  -0.30  -0.12
  21   1     0.04   0.02  -0.05    -0.00  -0.00   0.00    -0.07  -0.03   0.08
  22   1    -0.01   0.01  -0.01    -0.01   0.00  -0.01    -0.03   0.01  -0.02
  23   1    -0.01   0.02   0.00    -0.02   0.03   0.00    -0.01   0.03   0.00
  24   1     0.01  -0.01  -0.03    -0.00   0.00   0.02     0.01  -0.01  -0.05
  25   1    -0.00  -0.00  -0.00    -0.00   0.00   0.00    -0.00   0.00  -0.00
  26   1    -0.02   0.02   0.01    -0.67   0.60   0.33    -0.01   0.01   0.01
  27   1     0.01  -0.00   0.00     0.10  -0.03   0.05     0.00  -0.00   0.00
  28   1     0.00  -0.00   0.00     0.00  -0.00   0.00    -0.00  -0.00   0.00
  29   1    -0.00  -0.00   0.00     0.00   0.00  -0.00     0.00   0.00  -0.00
  30   1    -0.00   0.00   0.00    -0.00  -0.00   0.00    -0.00  -0.00  -0.00
  31   1    -0.00   0.00  -0.00    -0.00   0.00  -0.00    -0.00   0.00  -0.00
  32   1     0.00  -0.00  -0.00     0.01  -0.01  -0.01     0.00  -0.00  -0.00
  33   1     0.01   0.01  -0.00     0.00  -0.00  -0.00     0.01   0.01  -0.00
  34   1     0.00  -0.01  -0.01    -0.00   0.01   0.01    -0.00   0.01   0.01
  35   1     0.00  -0.00   0.00     0.00  -0.00   0.00     0.01  -0.00   0.00
                     88                     89                     90
                        a                      a                      a 
 Frequencies --  2990.0274              2995.6525              3002.8417
 Red. masses --     1.5000                 1.6150                 1.8228
 Frc consts  --     0.0000                 0.0000                 0.0000
 IR Inten    --    74.7243                52.6644                36.3798
 Raman Activ --     0.0000                 0.0000                 0.0000
 Depolar     --     0.0000                 0.0000                 0.0000
 Atom AN      X      Y      Z        X      Y      Z        X      Y      Z
   1   6    -0.00  -0.00  -0.00    -0.00  -0.00   0.01     0.00  -0.00   0.00
   2   6     0.00   0.00  -0.01    -0.00  -0.00   0.00    -0.00  -0.00   0.00
   3   6     0.04  -0.11  -0.13     0.01   0.00   0.01    -0.00   0.00   0.00
   4   6    -0.01  -0.11   0.03     0.01  -0.00   0.01     0.00   0.01  -0.00
   5   6    -0.01  -0.01   0.01    -0.00  -0.00   0.00     0.00   0.00  -0.00
   6   6    -0.00   0.00  -0.00    -0.00   0.00  -0.00    -0.01   0.00  -0.01
   7   6     0.00  -0.00   0.00    -0.02  -0.03   0.23    -0.00   0.00  -0.00
   8   6    -0.00  -0.00  -0.00    -0.00  -0.00   0.01     0.00   0.00   0.00
   9   8    -0.00  -0.00  -0.00    -0.00   0.00  -0.00    -0.00   0.00  -0.00
  10   6     0.00  -0.00  -0.00     0.00  -0.00   0.00     0.00  -0.00   0.00
  11   6     0.00   0.00  -0.00    -0.00   0.00  -0.00    -0.00  -0.00  -0.00
  12   6     0.00  -0.00   0.00    -0.00  -0.00   0.00    -0.00   0.00   0.01
  13   6     0.00  -0.00   0.00    -0.00   0.00  -0.00     0.00   0.00   0.00
  14   1    -0.00  -0.01   0.04     0.00   0.00  -0.02    -0.00   0.00  -0.01
  15   8    -0.00  -0.00   0.00     0.00  -0.00  -0.00    -0.00   0.00   0.00
  16   6    -0.00   0.01   0.01    -0.00   0.00   0.00    -0.11   0.20   0.15
  17   1    -0.46   0.37   0.01    -0.00   0.00   0.00     0.01  -0.01  -0.00
  18   1     0.32   0.02   0.46    -0.03  -0.01  -0.05    -0.01  -0.00  -0.01
  19   1    -0.18   0.05  -0.26    -0.02   0.01  -0.03     0.01  -0.00   0.01
  20   1     0.24   0.34   0.12     0.00  -0.00   0.00    -0.01  -0.02  -0.01
  21   1     0.04   0.02  -0.04     0.01   0.00  -0.01    -0.00  -0.00   0.00
  22   1     0.01  -0.00   0.01     0.01  -0.01   0.01     0.04  -0.02   0.03
  23   1    -0.01   0.02   0.00    -0.14   0.24   0.06     0.00  -0.00  -0.00
  24   1     0.00  -0.00  -0.01     0.21  -0.14  -0.89    -0.00   0.00   0.01
  25   1     0.00   0.00   0.00     0.00   0.00  -0.00     0.00   0.00   0.00
  26   1    -0.01   0.01   0.00    -0.01   0.01   0.00    -0.01   0.01   0.00
  27   1    -0.00  -0.00  -0.00    -0.00   0.00  -0.00    -0.00  -0.00  -0.01
  28   1     0.00  -0.00   0.00     0.00  -0.01   0.01    -0.00  -0.00   0.00
  29   1    -0.00  -0.00   0.00    -0.00   0.00  -0.00     0.00   0.00  -0.00
  30   1     0.00  -0.00   0.00     0.00   0.00  -0.00     0.00   0.00   0.00
  31   1    -0.00   0.00  -0.01     0.00  -0.00   0.00    -0.00   0.00  -0.01
  32   1     0.00   0.00  -0.00     0.00   0.00   0.00     0.00  -0.00  -0.00
  33   1    -0.00  -0.00   0.00    -0.00  -0.00   0.00    -0.07  -0.06   0.04
  34   1     0.01  -0.02  -0.02     0.00  -0.01  -0.01     0.32  -0.64  -0.61
  35   1    -0.00   0.00   0.00    -0.00   0.00   0.00     0.15   0.01   0.04
                     91                     92                     93
                        a                      a                      a 
 Frequencies --  3022.2401              3033.2872              3045.5338
 Red. masses --     1.7448                 1.7814                 1.5289
 Frc consts  --     0.0000                 0.0000                 0.0000
 IR Inten    --    54.2176                42.0242                24.5259
 Raman Activ --     0.0000                 0.0000                 0.0000
 Depolar     --     0.0000                 0.0000                 0.0000
 Atom AN      X      Y      Z        X      Y      Z        X      Y      Z
   1   6     0.01  -0.00   0.00    -0.00   0.00  -0.00     0.00   0.00  -0.00
   2   6    -0.00  -0.00   0.00    -0.00   0.00  -0.00     0.00   0.00  -0.00
   3   6     0.00   0.00   0.00    -0.00   0.00   0.00    -0.00   0.00  -0.00
   4   6     0.01  -0.00   0.01    -0.00   0.00  -0.00    -0.00  -0.00  -0.00
   5   6    -0.00  -0.00   0.01     0.00   0.00  -0.00    -0.00  -0.00   0.00
   6   6     0.18  -0.06   0.17    -0.01   0.00  -0.01     0.01  -0.00   0.01
   7   6    -0.00  -0.00   0.00     0.00   0.00  -0.00    -0.00  -0.00   0.00
   8   6    -0.00  -0.00  -0.00    -0.00  -0.00   0.00    -0.00   0.00   0.00
   9   8     0.01  -0.01  -0.00    -0.00   0.00   0.00     0.00  -0.00   0.00
  10   6     0.00   0.00   0.00     0.00  -0.00  -0.00    -0.00   0.00   0.00
  11   6    -0.00   0.00  -0.00     0.00  -0.00   0.00    -0.00   0.00  -0.00
  12   6    -0.00   0.00   0.00     0.01   0.00   0.00     0.00   0.01  -0.01
  13   6    -0.00  -0.00   0.00    -0.01   0.00  -0.01    -0.00   0.00  -0.00
  14   1     0.00   0.00  -0.00     0.00  -0.00   0.01     0.00  -0.00   0.00
  15   8    -0.00  -0.00   0.00     0.00  -0.00  -0.00    -0.00  -0.00  -0.00
  16   6     0.01   0.01   0.01     0.26   0.05   0.04     0.07   0.19  -0.07
  17   1    -0.00   0.00   0.00     0.00  -0.00  -0.00     0.00  -0.00  -0.00
  18   1    -0.01  -0.00  -0.01    -0.00   0.00  -0.00     0.00   0.00   0.00
  19   1    -0.02   0.01  -0.03     0.01  -0.00   0.01     0.01  -0.00   0.01
  20   1    -0.00  -0.00   0.00    -0.00  -0.00  -0.00     0.00   0.01   0.00
  21   1     0.02   0.01  -0.02    -0.00  -0.00   0.00     0.00   0.00  -0.00
  22   1    -0.69   0.25  -0.61     0.05  -0.02   0.04    -0.03   0.01  -0.02
  23   1    -0.00   0.01   0.00     0.00  -0.00  -0.00    -0.00   0.00   0.00
  24   1     0.00  -0.00  -0.02    -0.00   0.00   0.00     0.00  -0.00  -0.00
  25   1     0.01  -0.00   0.01    -0.00   0.00  -0.00    -0.00  -0.00  -0.00
  26   1     0.01  -0.01  -0.00    -0.00   0.00   0.00     0.00  -0.00  -0.00
  27   1    -0.01  -0.00  -0.01     0.00  -0.00   0.00     0.00   0.00   0.00
  28   1     0.00  -0.00   0.00    -0.00   0.00  -0.00     0.00  -0.00   0.00
  29   1    -0.00  -0.00   0.00    -0.00  -0.00   0.00     0.00   0.00  -0.00
  30   1     0.00   0.00   0.00     0.03   0.00   0.01    -0.01   0.00  -0.00
  31   1    -0.00   0.00  -0.00     0.00  -0.01   0.02     0.00  -0.01   0.02
  32   1    -0.00   0.00   0.00     0.00   0.00   0.00     0.00   0.00   0.00
  33   1     0.01   0.01  -0.00    -0.08  -0.21   0.05    -0.43  -0.81   0.15
  34   1     0.03  -0.04  -0.04     0.08  -0.08  -0.08    -0.04   0.12   0.08
  35   1    -0.06   0.01  -0.01    -0.91   0.11  -0.12     0.23   0.00   0.02
                     94                     95                     96
                        a                      a                      a 
 Frequencies --  3085.8593              3098.2184              3109.3317
 Red. masses --     1.6131                 1.5179                 1.9887
 Frc consts  --     0.0000                 0.0000                 0.0000
 IR Inten    --    52.6129                42.0527                78.7491
 Raman Activ --     0.0000                 0.0000                 0.0000
 Depolar     --     0.0000                 0.0000                 0.0000
 Atom AN      X      Y      Z        X      Y      Z        X      Y      Z
   1   6    -0.00  -0.00   0.00     0.00   0.00  -0.00     0.00   0.00   0.00
   2   6     0.00  -0.00   0.00    -0.00  -0.00   0.00    -0.00  -0.00   0.00
   3   6    -0.00   0.00   0.00     0.00  -0.00   0.00     0.00   0.00   0.00
   4   6     0.00   0.00  -0.00     0.00   0.00   0.00     0.00  -0.00   0.00
   5   6     0.00   0.00  -0.00     0.00   0.00  -0.00    -0.00  -0.00   0.00
   6   6    -0.00   0.00  -0.00     0.00  -0.00   0.00    -0.00   0.00   0.00
   7   6     0.00  -0.00   0.00    -0.00  -0.00   0.00    -0.00   0.00   0.00
   8   6     0.00   0.00   0.00    -0.01  -0.01  -0.00    -0.00   0.00  -0.00
   9   8    -0.00   0.00  -0.00     0.00   0.00   0.00    -0.00  -0.00  -0.00
  10   6    -0.00   0.00   0.00    -0.00  -0.00  -0.00    -0.00   0.00   0.00
  11   6    -0.00  -0.00  -0.00     0.18   0.05   0.10    -0.00   0.00  -0.00
  12   6     0.01   0.00  -0.00    -0.00  -0.00   0.00     0.01  -0.00   0.01
  13   6    -0.07  -0.08   0.21     0.00  -0.00   0.00     0.24  -0.02   0.17
  14   1    -0.00   0.00  -0.01     0.00   0.00  -0.00    -0.00   0.00  -0.01
  15   8    -0.00   0.00   0.00     0.00   0.00  -0.00    -0.00   0.00   0.00
  16   6     0.00   0.00  -0.00    -0.00   0.00  -0.00     0.01   0.00   0.00
  17   1     0.00  -0.00   0.00    -0.00   0.00  -0.00     0.00  -0.00   0.00
  18   1    -0.00  -0.00  -0.00     0.00   0.00  -0.00    -0.00   0.00  -0.00
  19   1     0.00  -0.00   0.00    -0.00   0.00  -0.00    -0.00   0.00  -0.00
  20   1    -0.00  -0.00  -0.00    -0.00  -0.00  -0.00     0.00   0.00   0.00
  21   1    -0.00  -0.00   0.00    -0.00  -0.00   0.00     0.00   0.00  -0.00
  22   1     0.00  -0.00   0.00    -0.00   0.00  -0.00     0.00  -0.00   0.00
  23   1    -0.00   0.00   0.00    -0.00   0.01   0.00     0.00  -0.00  -0.00
  24   1     0.00  -0.00  -0.00     0.00  -0.00  -0.01    -0.00  -0.00  -0.00
  25   1     0.00  -0.00   0.00    -0.00  -0.00  -0.00     0.00  -0.00   0.00
  26   1     0.00  -0.00  -0.00    -0.00   0.00   0.00     0.00  -0.00  -0.00
  27   1     0.00  -0.00   0.00     0.00   0.00   0.00     0.00  -0.00   0.00
  28   1     0.00  -0.00   0.00    -0.28   0.30  -0.62     0.00  -0.00   0.01
  29   1     0.00   0.00  -0.00    -0.30  -0.47   0.29    -0.00  -0.00   0.00
  30   1     0.33   0.00   0.15    -0.00  -0.00  -0.00    -0.84  -0.04  -0.31
  31   1    -0.12   0.26  -0.85    -0.00   0.00  -0.00    -0.01   0.10  -0.32
  32   1     0.00  -0.00  -0.00     0.00  -0.00  -0.00     0.00  -0.00  -0.00
  33   1    -0.01  -0.02   0.01    -0.00  -0.00   0.00    -0.00  -0.01   0.00
  34   1    -0.00   0.00   0.01    -0.00   0.00  -0.00     0.00  -0.00  -0.00
  35   1    -0.00   0.00  -0.00     0.00  -0.00   0.00    -0.03   0.00  -0.01
                     97                     98                     99
                        a                      a                      a 
 Frequencies --  3118.9593              3505.3443              3510.8651
 Red. masses --     2.0882                 1.8751                 1.8678
 Frc consts  --     0.0000                 0.0000                 0.0000
 IR Inten    --    61.7476                62.0537                33.9582
 Raman Activ --     0.0000                 0.0000                 0.0000
 Depolar     --     0.0000                 0.0000                 0.0000
 Atom AN      X      Y      Z        X      Y      Z        X      Y      Z
   1   6    -0.00  -0.00   0.00    -0.00   0.00   0.00    -0.00  -0.00  -0.00
   2   6    -0.00  -0.00   0.00    -0.00  -0.00   0.00     0.00  -0.00   0.00
   3   6    -0.00  -0.00  -0.00     0.00  -0.00   0.00     0.00  -0.00   0.00
   4   6    -0.00  -0.00  -0.00    -0.00   0.00   0.00     0.00  -0.00   0.00
   5   6    -0.00   0.00  -0.00    -0.00  -0.00   0.00    -0.00   0.00  -0.00
   6   6     0.00  -0.00   0.00    -0.00   0.00   0.00     0.01  -0.00   0.00
   7   6    -0.00   0.00   0.00    -0.00   0.00   0.00     0.00  -0.00  -0.00
   8   6    -0.00  -0.01   0.01     0.00  -0.00  -0.00    -0.00  -0.00  -0.00
   9   8     0.00   0.00   0.00    -0.00  -0.00  -0.00     0.19  -0.05   0.14
  10   6     0.00   0.00   0.00    -0.01   0.00   0.01     0.00  -0.00   0.00
  11   6    -0.04  -0.22   0.22    -0.00  -0.00  -0.00     0.00   0.00  -0.00
  12   6     0.00  -0.00   0.00     0.00  -0.00  -0.00     0.00  -0.00   0.00
  13   6     0.00  -0.00   0.00    -0.00  -0.00  -0.00     0.00  -0.00   0.00
  14   1     0.00   0.00  -0.00     0.00   0.00  -0.00    -0.00   0.00   0.00
  15   8    -0.00  -0.00  -0.00    -0.19   0.13   0.07    -0.00   0.00   0.00
  16   6    -0.00   0.00  -0.00    -0.00   0.00   0.00    -0.00   0.00   0.00
  17   1    -0.00   0.00  -0.00    -0.00   0.00  -0.00    -0.00   0.00   0.00
  18   1     0.00  -0.00   0.00     0.00   0.00  -0.00    -0.00   0.00  -0.00
  19   1     0.00  -0.00  -0.00    -0.00   0.00  -0.00    -0.00   0.00  -0.00
  20   1     0.00   0.00   0.00     0.00   0.00  -0.00     0.00   0.00   0.00
  21   1     0.00   0.00  -0.01     0.00   0.00  -0.00    -0.00  -0.00   0.00
  22   1    -0.00   0.00  -0.00    -0.00  -0.00  -0.00    -0.00  -0.00  -0.01
  23   1    -0.00   0.01   0.00     0.00  -0.00   0.00    -0.00   0.00   0.00
  24   1     0.00  -0.00  -0.01    -0.00  -0.00  -0.00    -0.00  -0.00   0.00
  25   1    -0.00  -0.00  -0.00     0.00  -0.00   0.00    -0.78   0.22  -0.54
  26   1    -0.00   0.00   0.00     0.01  -0.01  -0.00     0.00   0.00  -0.00
  27   1    -0.00  -0.00  -0.00     0.00  -0.00  -0.00    -0.00  -0.00  -0.00
  28   1    -0.26   0.22  -0.50     0.00  -0.00   0.00     0.00  -0.00   0.00
  29   1     0.38   0.55  -0.30     0.00   0.00  -0.00    -0.00  -0.00   0.00
  30   1    -0.01  -0.00  -0.00     0.00  -0.00   0.00    -0.00  -0.00  -0.00
  31   1    -0.00   0.00  -0.00    -0.00   0.00   0.01     0.00   0.00  -0.00
  32   1     0.00   0.00   0.00     0.76  -0.51  -0.32     0.00  -0.00  -0.00
  33   1    -0.00  -0.00   0.00     0.00   0.00  -0.00     0.00   0.00  -0.00
  34   1     0.00  -0.00  -0.00    -0.00   0.00   0.00     0.00  -0.00  -0.00
  35   1     0.00   0.00  -0.00    -0.00   0.00  -0.00     0.00  -0.00  -0.00
