54
 xtb: 6.7.1 (edcfbbe)
c           -1.33357524184337       -1.48527146645111        2.00667690660734
c           -2.72910184918267       -1.29831286326132        1.37811815803019
c           -2.72270574972036       -0.68351532827619       -0.05256938885353
c           -1.67879135188451        0.50377114710524       -0.18663319296512
c           -0.28455278535926        0.29521526429395        0.53915790980909
c           -0.55872431169972       -0.15144969078804        2.00157627945024
c           -1.39321413510237        0.81421372761871       -1.67421507778682
c           -0.60928555509786        2.13560716781250       -1.79985719647839
c            0.70817654947772        2.10396882273348       -0.99364587571156
c            0.55651220887066        1.65017470504424        0.49443611378604
c            0.81530461467914       -0.71560303211824        0.00361046883194
c            1.95407140960737        1.18215962389036        0.94601662429109
c            2.07430166617876       -0.17682794047791        0.31764017116371
c            3.27897466861123       -0.80182981012426        0.08946648123611
c            3.27174972741888       -2.06731179039136       -0.50902789711965
c            2.06562439935969       -2.63667299168040       -0.80359992153828
c            0.82131050177153       -2.01036339673897       -0.53871279482737
o           -0.21107262060202       -2.83105213791562       -0.83770215291223
o            4.49635268044798       -0.24541407540697        0.41691968511631
o           -2.45265912073148       -1.73361144221225       -0.97857338116994
c           -4.19080511071665       -0.24834363962550       -0.37014747250538
c           -2.42722729925888        1.71720876061251        0.43079588454476
c            1.41239806023715        3.47546476162110       -1.12885992357610
c            0.16621183833072        2.82295322926188        1.43717296649884
h           -1.45587714951272       -1.83524439415935        3.02513864043170
h           -0.77233177208952       -2.24070777051748        1.47178469322375
h           -3.30860779943589       -0.64275942287678        2.01450007430873
h           -3.25324167148979       -2.24601754151128        1.32541894457125
h            0.37908241471385       -0.27217669246500        2.52450316463476
h           -1.13538456813358        0.59529652820612        2.52572947590760
h           -0.80768559389637        0.01194044586315       -2.10515201712053
h           -2.31869481111129        0.89424854968743       -2.22863710485518
h           -0.36251603344594        2.30999261462619       -2.84018062720830
h           -1.22495302801440        2.96401188684244       -1.48210184343320
h            1.33769986484488        1.36175652952856       -1.46401453343752
h            2.00308566193705        1.12331393720474        2.02677407029294
h            2.71517751061203        1.87477786783730        0.62011894529047
h            4.20519379885791       -2.57064018569358       -0.71250680953427
h            2.01172703336785       -3.62036342792293       -1.24441391964369
h           -1.10515411445864       -2.41355958298950       -0.82456629626286
h            4.36672489339477        0.61197205976462        0.85959764642426
h           -2.63938016397877       -1.43847502143134       -1.88651950468043
h           -4.78919754152241       -1.15062616386410       -0.43075420323490
h           -4.60659841109038        0.37931428845550        0.40378127680009
h           -4.25530682966328        0.27405197057844       -1.31620770428899
h           -2.77175259701770        1.49966647548398        1.42981621426836
h           -1.81790648381178        2.59131724591551        0.46774114762360
h           -3.28060178697137        1.95883132217746       -0.18134180736393
h            2.33845559676301        3.50818341455218       -0.57116197409278
h            1.63946400170851        3.66527221530637       -2.17127893806733
h            0.77353248346502        4.27345807637683       -0.77508070209943
h            1.07413260738197        3.31199762932637        1.76534309836190
h           -0.43387543408309        3.57737844884330        0.95509041343771
h           -0.35564621035373        2.47399699516023        2.31628282664475
