      -----------------------------------------------------------      
     |                   =====================                   |     
     |                           x T B                           |     
     |                   =====================                   |     
     |                         S. Grimme                         |     
     |          Mulliken Center for Theoretical Chemistry        |     
     |                    University of Bonn                     |     
      -----------------------------------------------------------      

   * xtb version 6.7.1 (edcfbbe) compiled by 'albert@albert-system' on 2024-07-22

   xtb is free software: you can redistribute it and/or modify it under
   the terms of the GNU Lesser General Public License as published by
   the Free Software Foundation, either version 3 of the License, or
   (at your option) any later version.
   
   xtb is distributed in the hope that it will be useful,
   but WITHOUT ANY WARRANTY; without even the implied warranty of
   MERCHANTABILITY or FITNESS FOR A PARTICULAR PURPOSE.  See the
   GNU Lesser General Public License for more details.
   
   Cite this work as:
   * C. Bannwarth, E. Caldeweyher, S. Ehlert, A. Hansen, P. Pracht,
     J. Seibert, S. Spicher, S. Grimme, WIREs Comput. Mol. Sci., 2020, 11,
     e01493. DOI: 10.1002/wcms.1493
   
   for GFN2-xTB:
   * C. Bannwarth, S. Ehlert and S. Grimme., J. Chem. Theory Comput., 2019,
     15, 1652-1671. DOI: 10.1021/acs.jctc.8b01176
   for GFN1-xTB:
   * S. Grimme, C. Bannwarth, P. Shushkov, J. Chem. Theory Comput., 2017,
     13, 1989-2009. DOI: 10.1021/acs.jctc.7b00118
   for GFN0-xTB:
   * P. Pracht, E. Caldeweyher, S. Ehlert, S. Grimme, ChemRxiv, 2019, preprint.
     DOI: 10.26434/chemrxiv.8326202.v1
   for GFN-FF:
   * S. Spicher and S. Grimme, Angew. Chem. Int. Ed., 2020, 59, 15665-15673.
     DOI: 10.1002/anie.202004239
   
   for ALPB and GBSA implicit solvation:
   * S. Ehlert, M. Stahn, S. Spicher, S. Grimme, J. Chem. Theory Comput.,
     2021, 17, 4250-4261. DOI: 10.1021/acs.jctc.1c00471
   
   for ddCOSMO and CPCM-X implicit solvation:
   * M. Stahn, S. Ehlert, S. Grimme, J. Phys. Chem. A,
     2023, XX, XXXX-XXXX. DOI: 10.1021/acs.jpca.3c04382
   
   for DFT-D4:
   * E. Caldeweyher, C. Bannwarth and S. Grimme, J. Chem. Phys., 2017,
     147, 034112. DOI: 10.1063/1.4993215
   * E. Caldeweyher, S. Ehlert, A. Hansen, H. Neugebauer, S. Spicher,
     C. Bannwarth and S. Grimme, J. Chem. Phys., 2019, 150, 154122.
     DOI: 10.1063/1.5090222
   * E. Caldeweyher, J.-M. Mewes, S. Ehlert and S. Grimme, Phys. Chem. Chem. Phys.
     2020, 22, 8499-8512. DOI: 10.1039/D0CP00502A
   
   for sTDA-xTB:
   * S. Grimme and C. Bannwarth, J. Chem. Phys., 2016, 145, 054103.
     DOI: 10.1063/1.4959605
   
   in the mass-spec context:
   * V. Asgeirsson, C. Bauer and S. Grimme, Chem. Sci., 2017, 8, 4879.
     DOI: 10.1039/c7sc00601b
   * J. Koopman and S. Grimme, ACS Omega 2019, 4, 12, 15120-15133.
     DOI: 10.1021/acsomega.9b02011
   
   for metadynamics refer to:
   * S. Grimme, J. Chem. Theory Comput., 2019, 155, 2847-2862
     DOI: 10.1021/acs.jctc.9b00143
   
   for SPH calculations refer to:
   * S. Spicher and S. Grimme, J. Chem. Theory Comput., 2021, 17, 1701-1714
     DOI: 10.1021/acs.jctc.0c01306
   
   for ONIOM refer to:
   * C. Plett, A. Katbashev, S. Ehlert, S. Grimme, M. Bursch,
     Phys. Chem. Chem. Phys., 2023, 25, 17860-17868. DOI: 10.1039/D3CP02178E
   
   for DIPRO refer to:
   * J. Kohn, N. Gildemeister, S. Grimme, D. Fazzi, A. Hansen,
     J. Chem. Phys., 2023, just accepted.
   
   for PTB refer to:
   * S. Grimme, M. Mueller, A. Hansen, J. Chem. Phys., 2023, 158, 124111.
     DOI: 10.1063/5.0137838
   
   with help from (in alphabetical order)
   P. Atkinson, C. Bannwarth, F. Bohle, G. Brandenburg, E. Caldeweyher
   M. Checinski, S. Dohm, S. Ehlert, S. Ehrlich, I. Gerasimov, C. Hölzer
   A. Katbashev, J. Kohn, J. Koopman, C. Lavigne, S. Lehtola, F. März, M. Müller,
   F. Musil, H. Neugebauer, J. Pisarek, C. Plett, P. Pracht, F. Pultar,
   J. Seibert, P. Shushkov, S. Spicher, M. Stahn, M. Steiner, T. Strunk,
   J. Stückrath, T. Rose, and J. Unsleber
   
 * started run on 2026/08/09 at 17:05:41.813     
   ID    Z sym.   atoms
    1    6 c      1-8, 10-13, 16
    2    8 o      9, 15
    3    1 h      14, 17-35

           -------------------------------------------------
          |                Calculation Setup                |
           -------------------------------------------------

          program call               : /home/dinglab/software/xtb_6.7.1/xtb_dist/bin/xtb coord --gfn2 --ohess vtight --alpb chcl3 --chrg 0 --enso --norestart -I xcontrol-inp --parallel 12
          hostname                   : localhost
          coordinate file            : coord
          omp threads                :                    12


           -------------------------------------------------
          |                 G F N 2 - x T B                 |
           -------------------------------------------------

        Reference                      10.1021/acs.jctc.8b01176
      * Hamiltonian:
        H0-scaling (s, p, d)           1.850000    2.230000    2.230000
        zeta-weighting                 0.500000
      * Dispersion:
        s8                             2.700000
        a1                             0.520000
        a2                             5.000000
        s9                             5.000000
      * Repulsion:
        kExp                           1.500000    1.000000
        rExp                           1.000000
      * Coulomb:
        alpha                          2.000000
        third order                    shell-resolved
        anisotropic                    true
        a3                             3.000000
        a5                             4.000000
        cn-shift                       1.200000
        cn-exp                         4.000000
        max-rad                        5.000000

      * Solvation model:               ALPB
        Solvent                        chcl3
        Parameter file                 internal GFN2-xTB/ALPB
        Dielectric constant                4.8100E+00
        Reference state                gsolv [1 M gas/solution]
        Free energy shift                  3.8910E-03 Eh       2.4417E+00 kcal/mol
        Temperature                        2.9815E+02 K
        Density                            1.4900E+00 kg/L
        Solvent mass                       1.1938E+02 g/mol
        Interaction kernel             P16
        Born radius scaling (c1)           1.3274E+00
        Born radii integrator          GBOBC
        Born offset                        0.0000E+00 a0       0.0000E+00 AA
        H-bond correction              false
        Ion screening                  false
        Surface tension                    1.0000E-05 Eh       1.5569E+01 dyn/cm
        Grid points                               974 per atom

          ...................................................
          :                      SETUP                      :
          :.................................................:
          :  # basis functions                  80          :
          :  # atomic orbitals                  80          :
          :  # shells                           50          :
          :  # electrons                        84          :
          :  max. iterations                   250          :
          :  Hamiltonian                  GFN2-xTB          :
          :  restarted?                      false          :
          :  GBSA solvation                   true          :
          :  PC potential                    false          :
          :  electronic temp.          300.0000000     K    :
          :  accuracy                    1.0000000          :
          :  -> integral cutoff          0.2500000E+02      :
          :  -> integral neglect         0.1000000E-07      :
          :  -> SCF convergence          0.1000000E-05 Eh   :
          :  -> wf. convergence          0.1000000E-03 e    :
          :  Broyden damping             0.4000000          :
          :  net charge                          0          :
          :  unpaired electrons                  0          :
          ...................................................

 iter      E             dE          RMSdq      gap      omega  full diag
   1    -46.6596872 -0.466597E+02  0.355E+00    4.97       0.0  T
   2    -46.7056752 -0.459879E-01  0.200E+00    4.89       1.0  T
   3    -46.7005967  0.507842E-02  0.835E-01    4.80       1.0  T
   4    -46.7071226 -0.652583E-02  0.395E-01    4.75       1.0  T
   5    -46.7100662 -0.294358E-02  0.825E-02    4.76       1.0  T
   6    -46.7101061 -0.399076E-04  0.442E-02    4.76       1.0  T
   7    -46.7101121 -0.601277E-05  0.144E-02    4.76       1.2  T
   8    -46.7101137 -0.159373E-05  0.405E-03    4.76       4.2  T
   9    -46.7101137 -0.544610E-07  0.232E-03    4.76       7.3  T
  10    -46.7101138 -0.557164E-07  0.115E-03    4.76      14.7  T
  11    -46.7101138 -0.132383E-07  0.450E-04    4.76      37.5  T
  12    -46.7101138 -0.133462E-08  0.105E-04    4.76     160.3  T

   *** convergence criteria satisfied after 12 iterations ***

         #    Occupation            Energy/Eh            Energy/eV
      -------------------------------------------------------------
         1        2.0000           -0.7054469             -19.1962
       ...           ...                  ...                  ...
        36        2.0000           -0.4287395             -11.6666
        37        2.0000           -0.4188107             -11.3964
        38        2.0000           -0.4133129             -11.2468
        39        2.0000           -0.4081647             -11.1067
        40        2.0000           -0.4018333             -10.9344
        41        2.0000           -0.3889660             -10.5843
        42        2.0000           -0.3832473             -10.4287 (HOMO)
        43                         -0.2082508              -5.6668 (LUMO)
        44                         -0.1978478              -5.3837
        45                         -0.0281964              -0.7673
        46                          0.0099536               0.2709
        47                          0.0175007               0.4762
       ...                                ...                  ...
        80                          0.6048089              16.4577
      -------------------------------------------------------------
                  HL-Gap            0.1749965 Eh            4.7619 eV
             Fermi-level           -0.2957491 Eh           -8.0477 eV

 SCC (total)                   0 d,  0 h,  0 min,  0.082 sec
 SCC setup                      ...        0 min,  0.001 sec (  1.168%)
 Dispersion                     ...        0 min,  0.000 sec (  0.585%)
 classical contributions        ...        0 min,  0.000 sec (  0.039%)
 integral evaluation            ...        0 min,  0.002 sec (  2.625%)
 iterations                     ...        0 min,  0.075 sec ( 91.216%)
 molecular gradient             ...        0 min,  0.003 sec (  4.047%)
 printout                       ...        0 min,  0.000 sec (  0.268%)

         :::::::::::::::::::::::::::::::::::::::::::::::::::::
         ::                     SUMMARY                     ::
         :::::::::::::::::::::::::::::::::::::::::::::::::::::
         :: total energy             -46.152804887524 Eh    ::
         :: total w/o Gsasa/hb       -46.140135601866 Eh    ::
         :: gradient norm              0.051676250504 Eh/a0 ::
         :: HOMO-LUMO gap              4.761896322898 eV    ::
         ::.................................................::
         :: SCC energy               -46.709477695388 Eh    ::
         :: -> isotropic ES            0.063709679445 Eh    ::
         :: -> anisotropic ES          0.007679466931 Eh    ::
         :: -> anisotropic XC          0.019417387346 Eh    ::
         :: -> dispersion             -0.035369457546 Eh    ::
         :: -> Gsolv                  -0.021287641152 Eh    ::
         ::    -> Gelec               -0.008618355495 Eh    ::
         ::    -> Gsasa               -0.016560304901 Eh    ::
         ::    -> Ghb                  0.000000000000 Eh    ::
         ::    -> Gshift               0.003891019244 Eh    ::
         :: repulsion energy           0.556672807864 Eh    ::
         :: add. restraining           0.000000000000 Eh    ::
         :: total charge               0.000000000000 e     ::
         :::::::::::::::::::::::::::::::::::::::::::::::::::::

      ----------------------------------------------------------- 
     |                   =====================                   |
     |                        A N C O P T                        |
     |                   =====================                   |
     |               Approximate Normal Coordinate               |
     |                Rational Function Optimizer                |
      ----------------------------------------------------------- 
      ----------------------------------------------------------- 
     |                   =====================                   |
     |                        A N C O P T                        |
     |                   =====================                   |
     |               Approximate Normal Coordinate               |
     |                Rational Function Optimizer                |
      ----------------------------------------------------------- 

          ...................................................
          :                      SETUP                      :
          :.................................................:
          :   optimization level         verytight          :
          :   max. optcycles                   700          :
          :   ANC micro-cycles                  20          :
          :   degrees of freedom                99          :
          :.................................................:
          :   RF solver                   davidson          :
          :   write xtbopt.log                true          :
          :   linear?                        false          :
          :   energy convergence         0.1000000E-06 Eh   :
          :   grad. convergence          0.2000000E-03 Eh/α :
          :   maxmium RF displ.          1.0000000          :
          :   Hlow (freq-cutoff)         0.1000000E-01      :
          :   Hmax (freq-cutoff)         5.0000000          :
          :   S6 in model hess.         20.0000000          :
          ...................................................

generating ANC from exact Hessian ...
Using Lindh-Hessian (1995)
 Shifting diagonal of input Hessian by   8.922005217255528E-003
 Lowest  eigenvalues of input Hessian
    0.000000    0.000000    0.000000    0.000000    0.000000    0.000000
    0.010000    0.010620    0.010903    0.011888    0.013269    0.015040
    0.015662    0.016048    0.016644    0.018044    0.018641    0.018818
 Highest eigenvalues
    1.388585    1.394807    1.404133    1.412810    1.809150    1.859710
 

........................................................................
.............................. CYCLE    1 ..............................
........................................................................

 iter      E             dE          RMSdq      gap      omega  full diag
   1    -46.7101138 -0.467101E+02  0.564E-05    4.76       0.0  T
   2    -46.7101138 -0.520117E-11  0.354E-05    4.76     477.8  T
   3    -46.7101138  0.517275E-11  0.256E-05    4.76     660.1  T
     SCC iter.                  ...        0 min,  0.005 sec
     gradient                   ...        0 min,  0.003 sec
 * total energy  :   -46.1528049 Eh     change       -0.6625100E-10 Eh
   gradient norm :     0.0516762 Eh/α   predicted     0.0000000E+00 (-100.00%)
   displ. norm   :     0.2879068 α      lambda       -0.9677993E-02
   maximum displ.:     0.0930888 α      in ANC's #22, #44, #63, ...

........................................................................
.............................. CYCLE    2 ..............................
........................................................................

 iter      E             dE          RMSdq      gap      omega  full diag
   1    -46.7615602 -0.467616E+02  0.151E-01    4.92       0.0  T
   2    -46.7615879 -0.276732E-04  0.925E-02    4.92       1.0  T
   3    -46.7615535  0.343696E-04  0.580E-02    4.93       1.0  T
   4    -46.7616141 -0.606316E-04  0.646E-03    4.93       2.6  T
   5    -46.7616146 -0.424968E-06  0.292E-03    4.93       5.8  T
   6    -46.7616146 -0.475102E-08  0.100E-03    4.93      16.9  T
   7    -46.7616146 -0.464438E-08  0.353E-04    4.93      48.0  T
   8    -46.7616146 -0.166601E-08  0.171E-04    4.93      98.7  T
     SCC iter.                  ...        0 min,  0.011 sec
     gradient                   ...        0 min,  0.003 sec
 * total energy  :   -46.1590212 Eh     change       -0.6216306E-02 Eh
   gradient norm :     0.0153553 Eh/α   predicted    -0.5240301E-02 ( -15.70%)
   displ. norm   :     0.1910001 α      lambda       -0.1503866E-02
   maximum displ.:     0.0603901 α      in ANC's #22, #11, #4, ...

........................................................................
.............................. CYCLE    3 ..............................
........................................................................

 iter      E             dE          RMSdq      gap      omega  full diag
   1    -46.7802024 -0.467802E+02  0.769E-02    4.96       0.0  T
   2    -46.7802091 -0.675345E-05  0.480E-02    4.96       1.0  T
   3    -46.7802003  0.883050E-05  0.287E-02    4.97       1.0  T
   4    -46.7802154 -0.151194E-04  0.336E-03    4.97       5.0  T
   5    -46.7802155 -0.127058E-06  0.140E-03    4.97      12.1  T
   6    -46.7802155 -0.405689E-08  0.542E-04    4.97      31.2  T
   7    -46.7802155 -0.547338E-09  0.196E-04    4.97      86.3  T
     SCC iter.                  ...        0 min,  0.010 sec
     gradient                   ...        0 min,  0.003 sec
 * total energy  :   -46.1598442 Eh     change       -0.8229838E-03 Eh
   gradient norm :     0.0053075 Eh/α   predicted    -0.7796097E-03 (  -5.27%)
   displ. norm   :     0.0980076 α      lambda       -0.2179289E-03
   maximum displ.:     0.0387293 α      in ANC's #8, #6, #19, ...

........................................................................
.............................. CYCLE    4 ..............................
........................................................................

 iter      E             dE          RMSdq      gap      omega  full diag
   1    -46.7811063 -0.467811E+02  0.364E-02    4.96       0.0  T
   2    -46.7811070 -0.649712E-06  0.222E-02    4.96       1.0  T
   3    -46.7811056  0.135911E-05  0.820E-03    4.96       2.1  T
   4    -46.7811073 -0.165683E-05  0.143E-03    4.96      11.9  T
   5    -46.7811073 -0.210227E-07  0.632E-04    4.96      26.8  T
   6    -46.7811073 -0.106560E-08  0.216E-04    4.96      78.4  T
     SCC iter.                  ...        0 min,  0.008 sec
     gradient                   ...        0 min,  0.003 sec
 * total energy  :   -46.1599854 Eh     change       -0.1411791E-03 Eh
   gradient norm :     0.0041617 Eh/α   predicted    -0.1100143E-03 ( -22.07%)
   displ. norm   :     0.1556800 α      lambda       -0.2220407E-03
   maximum displ.:     0.0683329 α      in ANC's #6, #5, #8, ...

........................................................................
.............................. CYCLE    5 ..............................
........................................................................

 iter      E             dE          RMSdq      gap      omega  full diag
   1    -46.7796148 -0.467796E+02  0.537E-02    4.96       0.0  T
   2    -46.7796161 -0.134666E-05  0.324E-02    4.96       1.0  T
   3    -46.7796146  0.155732E-05  0.898E-03    4.96       1.9  T
   4    -46.7796166 -0.202128E-05  0.214E-03    4.96       7.9  T
   5    -46.7796167 -0.482244E-07  0.106E-03    4.96      15.9  T
   6    -46.7796167 -0.281914E-08  0.299E-04    4.96      56.5  T
   7    -46.7796167 -0.216104E-09  0.799E-05    4.96     211.6  T
     SCC iter.                  ...        0 min,  0.010 sec
     gradient                   ...        0 min,  0.003 sec
 * total energy  :   -46.1601202 Eh     change       -0.1348315E-03 Eh
   gradient norm :     0.0065362 Eh/α   predicted    -0.1137144E-03 ( -15.66%)
   displ. norm   :     0.1027525 α      lambda       -0.1097472E-03
   maximum displ.:     0.0538308 α      in ANC's #5, #6, #8, ...

........................................................................
.............................. CYCLE    6 ..............................
........................................................................

 iter      E             dE          RMSdq      gap      omega  full diag
   1    -46.7783299 -0.467783E+02  0.356E-02    4.96       0.0  T
   2    -46.7783302 -0.357062E-06  0.213E-02    4.96       1.0  T
   3    -46.7783298  0.478665E-06  0.484E-03    4.96       3.5  T
   4    -46.7783304 -0.619896E-06  0.115E-03    4.96      14.6  T
   5    -46.7783304 -0.113710E-07  0.612E-04    4.96      27.6  T
   6    -46.7783304 -0.797456E-09  0.127E-04    4.96     133.0  T
     SCC iter.                  ...        0 min,  0.008 sec
     gradient                   ...        0 min,  0.003 sec
 * total energy  :   -46.1602012 Eh     change       -0.8100598E-04 Eh
   gradient norm :     0.0046781 Eh/α   predicted    -0.5545387E-04 ( -31.54%)
   displ. norm   :     0.1367992 α      lambda       -0.1063988E-03
   maximum displ.:     0.0699333 α      in ANC's #6, #5, #3, ...

........................................................................
.............................. CYCLE    7 ..............................
........................................................................

 iter      E             dE          RMSdq      gap      omega  full diag
   1    -46.7780672 -0.467781E+02  0.472E-02    4.96       0.0  T
   2    -46.7780677 -0.517455E-06  0.282E-02    4.96       1.0  T
   3    -46.7780673  0.400090E-06  0.494E-03    4.96       3.4  T
   4    -46.7780679 -0.591796E-06  0.154E-03    4.96      11.0  T
   5    -46.7780680 -0.226191E-07  0.769E-04    4.96      22.0  T
   6    -46.7780680 -0.159233E-08  0.177E-04    4.96      95.7  T
     SCC iter.                  ...        0 min,  0.008 sec
     gradient                   ...        0 min,  0.003 sec
 * total energy  :   -46.1602711 Eh     change       -0.6991408E-04 Eh
   gradient norm :     0.0023035 Eh/α   predicted    -0.5420830E-04 ( -22.46%)
   displ. norm   :     0.0915773 α      lambda       -0.4116873E-04
   maximum displ.:     0.0430820 α      in ANC's #6, #3, #5, ...

........................................................................
.............................. CYCLE    8 ..............................
........................................................................

 iter      E             dE          RMSdq      gap      omega  full diag
   1    -46.7788048 -0.467788E+02  0.332E-02    4.96       0.0  T
   2    -46.7788050 -0.236456E-06  0.198E-02    4.96       1.0  T
   3    -46.7788050 -0.299002E-08  0.207E-03    4.96       8.2  T
   4    -46.7788051 -0.712085E-07  0.101E-03    4.96      16.8  T
   5    -46.7788051 -0.901331E-08  0.524E-04    4.96      32.3  T
   6    -46.7788051 -0.194426E-08  0.129E-04    4.96     131.1  T
     SCC iter.                  ...        0 min,  0.008 sec
     gradient                   ...        0 min,  0.003 sec
 * total energy  :   -46.1602972 Eh     change       -0.2608056E-04 Eh
   gradient norm :     0.0018565 Eh/α   predicted    -0.2076980E-04 ( -20.36%)
   displ. norm   :     0.0784417 α      lambda       -0.1943662E-04
   maximum displ.:     0.0374569 α      in ANC's #3, #2, #6, ...

........................................................................
.............................. CYCLE    9 ..............................
........................................................................

 iter      E             dE          RMSdq      gap      omega  full diag
   1    -46.7802277 -0.467802E+02  0.287E-02    4.97       0.0  T
   2    -46.7802278 -0.196224E-06  0.171E-02    4.97       1.0  T
   3    -46.7802278  0.996638E-07  0.263E-03    4.97       6.4  T
   4    -46.7802279 -0.164861E-06  0.905E-04    4.97      18.7  T
   5    -46.7802279 -0.100035E-07  0.468E-04    4.97      36.1  T
     SCC iter.                  ...        0 min,  0.007 sec
     gradient                   ...        0 min,  0.003 sec
 * total energy  :   -46.1603059 Eh     change       -0.8692916E-05 Eh
   gradient norm :     0.0018941 Eh/α   predicted    -0.9747821E-05 (  12.14%)
   displ. norm   :     0.0319659 α      lambda       -0.1085795E-04
   maximum displ.:     0.0153024 α      in ANC's #19, #8, #2, ...

........................................................................
.............................. CYCLE   10 ..............................
........................................................................

 iter      E             dE          RMSdq      gap      omega  full diag
   1    -46.7798292 -0.467798E+02  0.139E-02    4.97       0.0  T
   2    -46.7798293 -0.666391E-07  0.835E-03    4.97       2.0  T
   3    -46.7798292  0.760519E-07  0.205E-03    4.97       8.2  T
   4    -46.7798293 -0.106081E-06  0.503E-04    4.97      33.6  T
   5    -46.7798293 -0.181866E-08  0.273E-04    4.97      62.0  T
     SCC iter.                  ...        0 min,  0.007 sec
     gradient                   ...        0 min,  0.003 sec
 * total energy  :   -46.1603124 Eh     change       -0.6519723E-05 Eh
   gradient norm :     0.0018502 Eh/α   predicted    -0.5432973E-05 ( -16.67%)
   displ. norm   :     0.0426130 α      lambda       -0.6292628E-05
   maximum displ.:     0.0227461 α      in ANC's #6, #5, #3, ...

........................................................................
.............................. CYCLE   11 ..............................
........................................................................

 iter      E             dE          RMSdq      gap      omega  full diag
   1    -46.7796581 -0.467797E+02  0.148E-02    4.97       0.0  T
   2    -46.7796582 -0.447253E-07  0.875E-03    4.97       1.9  T
   3    -46.7796581  0.344738E-07  0.140E-03    4.97      12.1  T
   4    -46.7796582 -0.489169E-07  0.428E-04    4.97      39.5  T
   5    -46.7796582 -0.222387E-08  0.204E-04    4.97      82.9  T
     SCC iter.                  ...        0 min,  0.007 sec
     gradient                   ...        0 min,  0.003 sec
 * total energy  :   -46.1603168 Eh     change       -0.4395093E-05 Eh
   gradient norm :     0.0006883 Eh/α   predicted    -0.3150305E-05 ( -28.32%)
   displ. norm   :     0.0254459 α      lambda       -0.5043507E-05
   maximum displ.:     0.0093024 α      in ANC's #2, #3, #5, ...

........................................................................
.............................. CYCLE   12 ..............................
........................................................................

 iter      E             dE          RMSdq      gap      omega  full diag
   1    -46.7791899 -0.467792E+02  0.100E-02    4.97       0.0  T
   2    -46.7791900 -0.334326E-07  0.606E-03    4.97       2.8  T
   3    -46.7791899  0.824523E-07  0.193E-03    4.97       8.8  T
   4    -46.7791900 -0.102332E-06  0.308E-04    4.97      54.9  T
   5    -46.7791900 -0.475907E-09  0.172E-04    4.97      98.2  T
     SCC iter.                  ...        0 min,  0.007 sec
     gradient                   ...        0 min,  0.003 sec
 * total energy  :   -46.1603200 Eh     change       -0.3180550E-05 Eh
   gradient norm :     0.0012281 Eh/α   predicted    -0.2522962E-05 ( -20.68%)
   displ. norm   :     0.0379201 α      lambda       -0.5674056E-05
   maximum displ.:     0.0200047 α      in ANC's #2, #7, #4, ...

........................................................................
.............................. CYCLE   13 ..............................
........................................................................

 iter      E             dE          RMSdq      gap      omega  full diag
   1    -46.7792437 -0.467792E+02  0.135E-02    4.97       0.0  T
   2    -46.7792438 -0.689094E-07  0.815E-03    4.97       2.1  T
   3    -46.7792437  0.691913E-07  0.197E-03    4.97       8.6  T
   4    -46.7792438 -0.954873E-07  0.521E-04    4.97      32.4  T
   5    -46.7792438 -0.299760E-08  0.269E-04    4.97      62.8  T
     SCC iter.                  ...        0 min,  0.007 sec
     gradient                   ...        0 min,  0.003 sec
 * total energy  :   -46.1603262 Eh     change       -0.6175351E-05 Eh
   gradient norm :     0.0007352 Eh/α   predicted    -0.2841594E-05 ( -53.98%)
   displ. norm   :     0.0762765 α      lambda       -0.7826438E-05
   maximum displ.:     0.0346406 α      in ANC's #2, #4, #7, ...

........................................................................
.............................. CYCLE   14 ..............................
........................................................................

 iter      E             dE          RMSdq      gap      omega  full diag
   1    -46.7795546 -0.467796E+02  0.274E-02    4.97       0.0  T
   2    -46.7795548 -0.267626E-06  0.166E-02    4.97       1.0  T
   3    -46.7795547  0.103731E-06  0.296E-03    4.97       5.7  T
   4    -46.7795549 -0.198897E-06  0.103E-03    4.97      16.4  T
   5    -46.7795550 -0.118416E-07  0.535E-04    4.97      31.6  T
   6    -46.7795550 -0.927798E-09  0.105E-04    4.97     161.0  T
     SCC iter.                  ...        0 min,  0.008 sec
     gradient                   ...        0 min,  0.003 sec
 * total energy  :   -46.1603328 Eh     change       -0.6637973E-05 Eh
   gradient norm :     0.0009684 Eh/α   predicted    -0.3927185E-05 ( -40.84%)
   displ. norm   :     0.0375374 α      lambda       -0.2975831E-05
   maximum displ.:     0.0203495 α      in ANC's #1, #3, #14, ...

........................................................................
.............................. CYCLE   15 ..............................
........................................................................

 iter      E             dE          RMSdq      gap      omega  full diag
   1    -46.7795829 -0.467796E+02  0.128E-02    4.97       0.0  T
   2    -46.7795830 -0.435138E-07  0.765E-03    4.97       2.2  T
   3    -46.7795829  0.355762E-07  0.144E-03    4.97      11.7  T
   4    -46.7795830 -0.521578E-07  0.407E-04    4.97      41.5  T
   5    -46.7795830 -0.148748E-08  0.216E-04    4.97      78.4  T
     SCC iter.                  ...        0 min,  0.007 sec
     gradient                   ...        0 min,  0.003 sec
 * total energy  :   -46.1603359 Eh     change       -0.3106712E-05 Eh
   gradient norm :     0.0005417 Eh/α   predicted    -0.1490054E-05 ( -52.04%)
   displ. norm   :     0.0299663 α      lambda       -0.2153614E-05
   maximum displ.:     0.0207778 α      in ANC's #1, #3, #14, ...

........................................................................
.............................. CYCLE   16 ..............................
........................................................................

 iter      E             dE          RMSdq      gap      omega  full diag
   1    -46.7796154 -0.467796E+02  0.933E-03    4.97       0.0  T
   2    -46.7796154 -0.201356E-07  0.560E-03    4.97       3.0  T
   3    -46.7796154  0.208405E-07  0.108E-03    4.97      15.6  T
   4    -46.7796154 -0.304344E-07  0.284E-04    4.97      59.5  T
   5    -46.7796154 -0.427569E-09  0.145E-04    4.97     116.9  T
     SCC iter.                  ...        0 min,  0.007 sec
     gradient                   ...        0 min,  0.003 sec
 * total energy  :   -46.1603381 Eh     change       -0.2241933E-05 Eh
   gradient norm :     0.0002185 Eh/α   predicted    -0.1081472E-05 ( -51.76%)
   displ. norm   :     0.0299663 α      lambda        0.0000000E+00
   maximum displ.:     0.0207778 α      in ANC's #1, #3, #14, ...

........................................................................
.............................. CYCLE   17 ..............................
........................................................................

 iter      E             dE          RMSdq      gap      omega  full diag
   1    -46.7796253 -0.467796E+02  0.933E-03    4.97       0.0  T
   2    -46.7796253 -0.202694E-07  0.560E-03    4.97       3.0  T
   3    -46.7796253  0.224633E-07  0.111E-03    4.97      15.2  T
   4    -46.7796253 -0.321929E-07  0.283E-04    4.97      59.7  T
   5    -46.7796253 -0.415803E-09  0.144E-04    4.97     117.3  T
     SCC iter.                  ...        0 min,  0.007 sec
     gradient                   ...        0 min,  0.003 sec
 * total energy  :   -46.1603384 Eh     change       -0.2833308E-06 Eh
   gradient norm :     0.0006294 Eh/α   predicted    -0.2162757E-08 ( -99.24%)
   displ. norm   :     0.0109713 α      lambda       -0.1246880E-05
   maximum displ.:     0.0054541 α      in ANC's #1, #19, #3, ...

........................................................................
.............................. CYCLE   18 ..............................
........................................................................

 iter      E             dE          RMSdq      gap      omega  full diag
   1    -46.7795977 -0.467796E+02  0.424E-03    4.97       0.0  T
   2    -46.7795977 -0.101353E-07  0.255E-03    4.97       6.6  T
   3    -46.7795977  0.222197E-08  0.469E-04    4.97      36.0  T
   4    -46.7795977 -0.431449E-08  0.185E-04    4.97      91.5  T
     SCC iter.                  ...        0 min,  0.005 sec
     gradient                   ...        0 min,  0.003 sec
 * total energy  :   -46.1603396 Eh     change       -0.1212650E-05 Eh
   gradient norm :     0.0003471 Eh/α   predicted    -0.6253797E-06 ( -48.43%)
   displ. norm   :     0.0164060 α      lambda       -0.1098323E-05
   maximum displ.:     0.0100815 α      in ANC's #1, #3, #4, ...

........................................................................
.............................. CYCLE   19 ..............................
........................................................................

 iter      E             dE          RMSdq      gap      omega  full diag
   1    -46.7796547 -0.467797E+02  0.408E-03    4.97       0.0  T
   2    -46.7796547 -0.604510E-08  0.244E-03    4.97       6.9  T
   3    -46.7796547  0.228449E-08  0.440E-04    4.97      38.4  T
   4    -46.7796547 -0.443654E-08  0.161E-04    4.97     104.8  T
     SCC iter.                  ...        0 min,  0.005 sec
     gradient                   ...        0 min,  0.003 sec
 * total energy  :   -46.1603408 Eh     change       -0.1146770E-05 Eh
   gradient norm :     0.0004262 Eh/α   predicted    -0.5515726E-06 ( -51.90%)
   displ. norm   :     0.0215508 α      lambda       -0.8690268E-06
   maximum displ.:     0.0147204 α      in ANC's #1, #2, #3, ...

........................................................................
.............................. CYCLE   20 ..............................
........................................................................

 iter      E             dE          RMSdq      gap      omega  full diag
   1    -46.7796430 -0.467796E+02  0.473E-03    4.97       0.0  T
   2    -46.7796430 -0.800372E-08  0.283E-03    4.97       6.0  T
   3    -46.7796430  0.599336E-08  0.612E-04    4.97      27.6  T
   4    -46.7796430 -0.943022E-08  0.186E-04    4.97      91.0  T
     SCC iter.                  ...        0 min,  0.005 sec
     gradient                   ...        0 min,  0.003 sec
 * total energy  :   -46.1603417 Eh     change       -0.9091348E-06 Eh
   gradient norm :     0.0002816 Eh/α   predicted    -0.4389370E-06 ( -51.72%)
   displ. norm   :     0.0215508 α      lambda        0.0000000E+00
   maximum displ.:     0.0147204 α      in ANC's #1, #2, #3, ...
 * RMSD in coord.:     0.1443257 α      energy gain  -0.7536803E-02 Eh

generating ANC from exact Hessian ...
Using Lindh-Hessian (1995)
 Shifting diagonal of input Hessian by   8.782974437507635E-003
 Lowest  eigenvalues of input Hessian
    0.000000    0.000000    0.000000    0.000000    0.000000    0.000000
    0.010000    0.010680    0.011019    0.012105    0.013675    0.015916
    0.016615    0.017039    0.017708    0.019226    0.020211    0.020450
 Highest eigenvalues
    1.472742    1.485324    1.509715    1.510528    1.920800    1.969039
 

........................................................................
.............................. CYCLE   21 ..............................
........................................................................

 iter      E             dE          RMSdq      gap      omega  full diag
   1    -46.7796221 -0.467796E+02  0.472E-03    4.97       0.0  T
   2    -46.7796221 -0.786767E-08  0.283E-03    4.97       6.0  T
   3    -46.7796221  0.559447E-08  0.600E-04    4.97      28.2  T
   4    -46.7796221 -0.901488E-08  0.186E-04    4.97      91.0  T
     SCC iter.                  ...        0 min,  0.005 sec
     gradient                   ...        0 min,  0.003 sec
 * total energy  :   -46.1603418 Eh     change       -0.9260695E-07 Eh
   gradient norm :     0.0003218 Eh/α   predicted     0.0000000E+00 (-100.00%)
   displ. norm   :     0.0069352 α      lambda       -0.1173084E-06
   maximum displ.:     0.0036707 α      in ANC's #4, #3, #9, ...

........................................................................
.............................. CYCLE   22 ..............................
........................................................................

 iter      E             dE          RMSdq      gap      omega  full diag
   1    -46.7796306 -0.467796E+02  0.355E-03    4.97       0.0  T
   2    -46.7796306 -0.230004E-08  0.210E-03    4.97       8.1  T
   3    -46.7796306  0.176406E-08  0.312E-04    4.97      54.2  T
   4    -46.7796306 -0.239318E-08  0.927E-05    4.97     182.3  T
     SCC iter.                  ...        0 min,  0.005 sec
     gradient                   ...        0 min,  0.003 sec
 * total energy  :   -46.1603422 Eh     change       -0.3727973E-06 Eh
   gradient norm :     0.0001938 Eh/α   predicted    -0.2786257E-06 ( -25.26%)
   displ. norm   :     0.0071203 α      lambda       -0.2449831E-06
   maximum displ.:     0.0033607 α      in ANC's #4, #2, #3, ...

........................................................................
.............................. CYCLE   23 ..............................
........................................................................

 iter      E             dE          RMSdq      gap      omega  full diag
   1    -46.7796375 -0.467796E+02  0.258E-03    4.97       0.0  T
   2    -46.7796375 -0.114833E-08  0.154E-03    4.97      11.0  T
   3    -46.7796375  0.706052E-09  0.215E-04    4.97      78.7  T
   4    -46.7796375 -0.108270E-08  0.668E-05    4.97     253.1  T
     SCC iter.                  ...        0 min,  0.005 sec
     gradient                   ...        0 min,  0.003 sec
 * total energy  :   -46.1603424 Eh     change       -0.2806245E-06 Eh
   gradient norm :     0.0001686 Eh/α   predicted    -0.1579776E-06 ( -43.70%)
   displ. norm   :     0.0087426 α      lambda       -0.1982778E-06
   maximum displ.:     0.0042359 α      in ANC's #4, #2, #1, ...

........................................................................
.............................. CYCLE   24 ..............................
........................................................................

 iter      E             dE          RMSdq      gap      omega  full diag
   1    -46.7796364 -0.467796E+02  0.300E-03    4.97       0.0  T
   2    -46.7796364 -0.104060E-08  0.178E-03    4.97       9.5  T
   3    -46.7796364 -0.101991E-09  0.142E-04    4.97     119.0  T
   4    -46.7796364 -0.302727E-09  0.684E-05    4.97     247.0  T
     SCC iter.                  ...        0 min,  0.005 sec
     gradient                   ...        0 min,  0.003 sec
 * total energy  :   -46.1603426 Eh     change       -0.1665814E-06 Eh
   gradient norm :     0.0001413 Eh/α   predicted    -0.1079387E-06 ( -35.20%)
   displ. norm   :     0.0072844 α      lambda       -0.1282899E-06
   maximum displ.:     0.0037114 α      in ANC's #1, #2, #4, ...

........................................................................
.............................. CYCLE   25 ..............................
........................................................................

 iter      E             dE          RMSdq      gap      omega  full diag
   1    -46.7796279 -0.467796E+02  0.225E-03    4.97       0.0  T
   2    -46.7796279 -0.468894E-09  0.134E-03    4.97      12.7  T
   3    -46.7796279  0.129369E-08  0.241E-04    4.97      70.0  T
   4    -46.7796279 -0.159465E-08  0.439E-05    4.97     384.7  T
     SCC iter.                  ...        0 min,  0.005 sec
     gradient                   ...        0 min,  0.003 sec
 * total energy  :   -46.1603428 Eh     change       -0.1479662E-06 Eh
   gradient norm :     0.0000787 Eh/α   predicted    -0.6701318E-07 ( -54.71%)
   displ. norm   :     0.0096845 α      lambda       -0.1371211E-06
   maximum displ.:     0.0055421 α      in ANC's #1, #2, #9, ...

........................................................................
.............................. CYCLE   26 ..............................
........................................................................

 iter      E             dE          RMSdq      gap      omega  full diag
   1    -46.7796206 -0.467796E+02  0.282E-03    4.97       0.0  T
   2    -46.7796206 -0.899135E-09  0.167E-03    4.97      10.1  T
   3    -46.7796206  0.317985E-08  0.365E-04    4.97      46.3  T
   4    -46.7796206 -0.374367E-08  0.538E-05    4.97     313.9  T
     SCC iter.                  ...        0 min,  0.005 sec
     gradient                   ...        0 min,  0.003 sec
 * total energy  :   -46.1603429 Eh     change       -0.1488420E-06 Eh
   gradient norm :     0.0000924 Eh/α   predicted    -0.7041019E-07 ( -52.69%)
   displ. norm   :     0.0099631 α      lambda       -0.1012462E-06
   maximum displ.:     0.0061999 α      in ANC's #1, #2, #4, ...

........................................................................
.............................. CYCLE   27 ..............................
........................................................................

 iter      E             dE          RMSdq      gap      omega  full diag
   1    -46.7796219 -0.467796E+02  0.293E-03    4.97       0.0  T
   2    -46.7796219 -0.117526E-08  0.174E-03    4.97       9.7  T
   3    -46.7796219  0.289467E-08  0.357E-04    4.97      47.4  T
   4    -46.7796219 -0.351837E-08  0.643E-05    4.97     262.7  T
     SCC iter.                  ...        0 min,  0.005 sec
     gradient                   ...        0 min,  0.003 sec
 * total energy  :   -46.1603430 Eh     change       -0.1058407E-06 Eh
   gradient norm :     0.0000923 Eh/α   predicted    -0.5101914E-07 ( -51.80%)
   displ. norm   :     0.0099631 α      lambda        0.0000000E+00
   maximum displ.:     0.0061999 α      in ANC's #1, #2, #4, ...

........................................................................
.............................. CYCLE   28 ..............................
........................................................................

 iter      E             dE          RMSdq      gap      omega  full diag
   1    -46.7796210 -0.467796E+02  0.293E-03    4.97       0.0  T
   2    -46.7796210 -0.116083E-08  0.174E-03    4.97       9.7  T
   3    -46.7796210  0.298100E-08  0.362E-04    4.97      46.7  T
   4    -46.7796210 -0.361780E-08  0.642E-05    4.97     263.4  T
     SCC iter.                  ...        0 min,  0.005 sec
     gradient                   ...        0 min,  0.003 sec
 * total energy  :   -46.1603430 Eh     change       -0.1097186E-07 Eh
   gradient norm :     0.0001359 Eh/α   predicted     0.1989103E-08 (-118.13%)
   displ. norm   :     0.0032803 α      lambda       -0.8869772E-07
   maximum displ.:     0.0021527 α      in ANC's #1, #8, #4, ...

   *** GEOMETRY OPTIMIZATION CONVERGED AFTER 28 ITERATIONS ***

------------------------------------------------------------------------
 total energy gain   :        -0.0075381 Eh       -4.7302 kcal/mol
 total RMSD          :         0.1440345 a0        0.0762 Å
 total power (kW/mol):        -0.7068341 (step)  -45.5611 (real)
------------------------------------------------------------------------

 ANCopt (total)                0 d,  0 h,  0 min,  0.434 sec
 optimizer setup                ...        0 min,  0.000 sec (  0.041%)
 model hessian                  ...        0 min,  0.096 sec ( 22.015%)
 ANC generation                 ...        0 min,  0.003 sec (  0.757%)
 coordinate transformation      ...        0 min,  0.000 sec (  0.093%)
 single point calculation       ...        0 min,  0.328 sec ( 75.404%)
 optimization log               ...        0 min,  0.004 sec (  0.825%)
 hessian update                 ...        0 min,  0.000 sec (  0.091%)
 rational function              ...        0 min,  0.002 sec (  0.460%)

================
 final structure:
================
$coord
       -0.04182511340726       -1.04330264870914        0.52588737662807      c
       -1.91567139297997        1.08191599272802        1.29016014984637      c
       -0.62685727672704        3.69653101564102        1.17336170596779      c
        1.14493721547706        4.10134004613454       -1.07330207353566      c
        2.79064948147132        1.76177521852833       -1.50242964741929      c
        1.05572397844297       -0.48329467347494       -2.10548481982712      c
        2.32109011748377       -0.90693090665507        2.22286359569636      c
        4.02188077519998        0.97890568746864        0.94224022022651      c
        2.44477982800320       -2.49944683464864       -3.19286667979908      o
       -1.35642121870349       -3.62007054100483        0.70554402931310      c
        6.21299821513342        1.80414229471416        1.80547793815505      c
       -4.42915172858922        1.00630975704655       -0.08716675370653      c
       -4.84023625740593        1.88948369149842       -2.39318599587761      c
       -2.36201576794254        0.74219396269449        3.28530471655957      h
        0.43128724693830       -5.61027336938055        0.43127461217114      o
       -6.59366902985086       -0.00902718252392        1.44914956096819      c
       -2.08728967041368        5.15350728206722        1.17151720383181      h
        0.48325489460067        3.93551565678242        2.89543352065504      h
        0.08844724337034        4.50609033382368       -2.79520893733365      h
        2.35039651013432        5.73022658739105       -0.68533650328545      h
        4.15862218015896        2.08766999164994       -3.01117729930161      h
       -0.42103320698877        0.01784854764624       -3.46586160037006      h
        3.24307020421503       -2.75304956321281        2.28162041414439      h
        1.86845885499293       -0.37258785852243        4.16029662982459      h
        2.32848282241186       -3.93660367512776       -2.06215031011698      h
       -2.79666575052233       -3.74998639461864       -0.77876361219187      h
       -2.27115909859020       -3.78984463160463        2.56015270414396      h
        6.96997809076441        1.17548862748987        3.58805283720876      h
        7.34097851719346        3.13672587656952        0.76004857659431      h
       -6.69739064252331        1.81426950546915       -3.22785878338385      h
       -3.40125744222737        2.73187492350673       -3.54986813859295      h
       -0.46622350599135       -7.19129763652468        0.31550305087071      h
       -8.30866935093626       -0.11751969747706        0.32404148241927      h
       -6.17397531036199       -1.87738169303916        2.19549244911449      h
       -6.94488161649941        1.23902213259143        3.05075850450884      h
$end
 
 Bond Distances (Angstroems)
 ---------------------------
C1-C2=1.5529         C1-C6=1.5376         C1-C7=1.5411         C1-C10=1.5337        C2-C1=1.5529         C2-C3=1.5438         
C2-C12=1.5172        C2-H14=1.0967        C3-C2=1.5438         C3-C4=1.5292         C3-H17=1.0917        C3-H18=1.0916        
C4-C3=1.5292         C4-C5=1.5306         C4-H19=1.0903        C4-H20=1.0918        C5-C4=1.5306         C5-C6=1.5350         
C5-C8=1.5066         C5-H21=1.0914        C6-C1=1.5376         C6-C5=1.5350         C6-O9=1.4176         C6-H22=1.0951        
C7-C1=1.5411         C7-C8=1.5050         C7-H23=1.0924        C7-H24=1.0902        C8-C5=1.5066         C8-C7=1.5050         
C8-C11=1.3205        O9-C6=1.4176         O9-H25=0.9696        C10-C1=1.5337        C10-O15=1.4231       C10-H26=1.0966       
C10-H27=1.0980       C11-C8=1.3205        C11-H28=1.0775       C11-H29=1.0769       C12-C2=1.5172        C12-C13=1.3247       
C12-C16=1.5039       C13-C12=1.3247       C13-H30=1.0782       C13-H31=1.0739       H14-C2=1.0967        O15-C10=1.4231       
O15-H32=0.9640       C16-C12=1.5039       C16-H33=1.0869       C16-H34=1.0876       C16-H35=1.0904       H17-C3=1.0917        
H18-C3=1.0916        H19-C4=1.0903        H20-C4=1.0918        H21-C5=1.0914        H22-C6=1.0951        H23-C7=1.0924        
H24-C7=1.0902        H25-O9=0.9696        H26-C10=1.0966       H27-C10=1.0980       H28-C11=1.0775       H29-C11=1.0769       
H30-C13=1.0782       H31-C13=1.0739       H32-O15=0.9640       H33-C16=1.0869       H34-C16=1.0876       H35-C16=1.0904       
 C  H  Rav=1.0887 sigma=0.0071  Rmin=1.0739  Rmax=1.0980    18
 C  C  Rav=1.4987 sigma=0.0733  Rmin=1.3205  Rmax=1.5529    14
 O  H  Rav=0.9668 sigma=0.0028  Rmin=0.9640  Rmax=0.9696     2
 O  C  Rav=1.4204 sigma=0.0027  Rmin=1.4176  Rmax=1.4231     2
 
 selected bond angles (degree)
 --------------------
C6-C1-C2=109.72                C7-C1-C2=109.42                C7-C1-C6=102.25                C10-C1-C2=109.76               
C10-C1-C6=113.50               C10-C1-C7=111.93               C3-C2-C1=110.89                C12-C2-C1=114.56               
C12-C2-C3=113.06               H14-C2-C1=105.64               H14-C2-C3=106.30               H14-C2-C12=105.62              
C4-C3-C2=115.31                H17-C3-C2=108.68               H17-C3-C4=109.54               H18-C3-C2=107.95               
H18-C3-C4=107.63               H18-C3-H17=107.45              C5-C4-C3=110.54                H19-C4-C3=111.28               
H19-C4-C5=109.07               H20-C4-C3=108.82               H20-C4-C5=109.51               H20-C4-H19=107.56              
C6-C5-C4=108.46                C8-C5-C4=109.94                C8-C5-C6=102.97                H21-C5-C4=110.98               
H21-C5-C6=111.53               H21-C5-C8=112.63               C5-C6-C1=100.77                O9-C6-C1=114.73                
O9-C6-C5=110.90                H22-C6-C1=111.87               H22-C6-C5=112.09               H22-C6-O9=106.58               
C8-C7-C1=104.71                H23-C7-C1=109.70               H23-C7-C8=109.80               H24-C7-C1=112.45               
H24-C7-C8=112.51               H24-C7-H23=107.66              C7-C8-C5=108.08                C11-C8-C5=125.86               
C11-C8-C7=126.06               H25-O9-C6=107.87               O15-C10-C1=110.49              H26-C10-C1=109.06              
H26-C10-O15=110.03             H27-C10-C1=109.15              H27-C10-O15=108.89             H27-C10-H26=109.19             
 
 selected dihedral angles (degree)
 ---------------------------------
C3-C2-C1-C6=304.35            C3-C2-C1-C7= 55.78            C3-C2-C1-C10=178.97           C12-C2-C1-C6= 73.79           
C12-C2-C1-C7=185.22           C12-C2-C1-C10=308.41          H14-C2-C1-C6=189.60           H14-C2-C1-C7=301.03           
H14-C2-C1-C10= 64.22          C4-C3-C2-C1= 40.21            C4-C3-C2-C12=269.98           C4-C3-C2-H14=154.55           
H17-C3-C2-C1=163.61           H17-C3-C2-C12= 33.38          H17-C3-C2-H14=277.95          H18-C3-C2-C1=279.86           
H18-C3-C2-C12=149.63          H18-C3-C2-H14= 34.20          C5-C4-C3-C2=316.86            C5-C4-C3-H17=193.92           
C5-C4-C3-H18= 77.39           H19-C4-C3-C2= 78.21           H19-C4-C3-H17=315.27          H19-C4-C3-H18=198.74          
H20-C4-C3-C2=196.55           H20-C4-C3-H17= 73.61          H20-C4-C3-H18=317.08          C6-C5-C4-C3= 61.44            
C6-C5-C4-H19=298.79           C6-C5-C4-H20=181.33           C8-C5-C4-C3=309.56            C8-C5-C4-H19=186.91           
C8-C5-C4-H20= 69.45           H21-C5-C4-C3=184.28           H21-C5-C4-H19= 61.63          H21-C5-C4-H20=304.17          
C5-C6-C1-C2= 71.35            C5-C6-C1-C7=315.29            C5-C6-C1-C10=194.55           O9-C6-C1-C2=190.52            
O9-C6-C1-C7= 74.46            O9-C6-C1-C10=313.72           H22-C6-C1-C2=312.09           H22-C6-C1-C7=196.03           
H22-C6-C1-C10= 75.29          C1-C6-C5-C4=285.72            C1-C6-C5-C8= 42.20            C1-C6-C5-H21=163.21           
O9-C6-C5-C4=163.82            O9-C6-C5-C8=280.29            O9-C6-C5-H21= 41.31           H22-C6-C5-C4= 44.82           
H22-C6-C5-C8=161.30           H22-C6-C5-H21=282.31          C8-C7-C1-C2=274.12            C8-C7-C1-C6= 30.39            
C8-C7-C1-C10=152.22           H23-C7-C1-C2=156.35           H23-C7-C1-C6=272.62           H23-C7-C1-C10= 34.45          
H24-C7-C1-C2= 36.58           H24-C7-C1-C6=152.85           H24-C7-C1-C10=274.68          C7-C8-C5-C4= 91.50            
C7-C8-C5-C6=336.09            C7-C8-C5-H21=215.83           C11-C8-C5-C4=271.43           C11-C8-C5-C6=156.02           
C11-C8-C5-H21= 35.76          C5-C8-C7-C1=355.92            C5-C8-C7-H23=113.62           C5-C8-C7-H24=233.50           
C11-C8-C7-C1=175.99           C11-C8-C7-H23=293.69          C11-C8-C7-H24= 53.57          H25-O9-C6-C1=  3.93           
H25-O9-C6-C5=117.26           H25-O9-C6-H22=239.52          O15-C10-C1-C2=189.83          O15-C10-C1-C6= 66.65          
O15-C10-C1-C7=311.53          H26-C10-C1-C2= 68.76          H26-C10-C1-C6=305.58          H26-C10-C1-C7=190.46          
H27-C10-C1-C2=309.54          H27-C10-C1-C6=186.36          H27-C10-C1-C7= 71.24          
           -------------------------------------------------
          |                Final Singlepoint                |
           -------------------------------------------------

          ...................................................
          :                      SETUP                      :
          :.................................................:
          :  # basis functions                  80          :
          :  # atomic orbitals                  80          :
          :  # shells                           50          :
          :  # electrons                        84          :
          :  max. iterations                   250          :
          :  Hamiltonian                  GFN2-xTB          :
          :  restarted?                      false          :
          :  GBSA solvation                   true          :
          :  PC potential                    false          :
          :  electronic temp.          300.0000000     K    :
          :  accuracy                    1.0000000          :
          :  -> integral cutoff          0.2500000E+02      :
          :  -> integral neglect         0.1000000E-07      :
          :  -> SCF convergence          0.1000000E-05 Eh   :
          :  -> wf. convergence          0.1000000E-03 e    :
          :  Broyden damping             0.4000000          :
          :  net charge                          0          :
          :  unpaired electrons                  0          :
          ...................................................

 iter      E             dE          RMSdq      gap      omega  full diag
   1    -46.7796210 -0.467796E+02  0.350E-05    4.97       0.0  T
   2    -46.7796210 -0.247979E-11  0.212E-05    4.97     797.1  T
   3    -46.7796210  0.810019E-12  0.112E-05    4.97    1515.1  T

   *** convergence criteria satisfied after 3 iterations ***

         #    Occupation            Energy/Eh            Energy/eV
      -------------------------------------------------------------
         1        2.0000           -0.7086305             -19.2828
       ...           ...                  ...                  ...
        36        2.0000           -0.4288196             -11.6688
        37        2.0000           -0.4184635             -11.3870
        38        2.0000           -0.4143746             -11.2757
        39        2.0000           -0.4099789             -11.1561
        40        2.0000           -0.3989803             -10.8568
        41        2.0000           -0.3896848             -10.6039
        42        2.0000           -0.3842553             -10.4561 (HOMO)
        43                         -0.2015532              -5.4845 (LUMO)
        44                         -0.1940405              -5.2801
        45                         -0.0064518              -0.1756
        46                          0.0284266               0.7735
        47                          0.0338116               0.9201
       ...                                ...                  ...
        80                          0.6546893              17.8150
      -------------------------------------------------------------
                  HL-Gap            0.1827021 Eh            4.9716 eV
             Fermi-level           -0.2929042 Eh           -7.9703 eV

 SCC (total)                   0 d,  0 h,  0 min,  0.009 sec
 SCC setup                      ...        0 min,  0.000 sec (  5.582%)
 Dispersion                     ...        0 min,  0.000 sec (  1.791%)
 classical contributions        ...        0 min,  0.000 sec (  0.231%)
 integral evaluation            ...        0 min,  0.001 sec ( 10.886%)
 iterations                     ...        0 min,  0.004 sec ( 45.370%)
 molecular gradient             ...        0 min,  0.003 sec ( 34.453%)
 printout                       ...        0 min,  0.000 sec (  1.281%)

         :::::::::::::::::::::::::::::::::::::::::::::::::::::
         ::                     SUMMARY                     ::
         :::::::::::::::::::::::::::::::::::::::::::::::::::::
         :: total energy             -46.160343016697 Eh    ::
         :: total w/o Gsasa/hb       -46.148011611783 Eh    ::
         :: gradient norm              0.000136055027 Eh/a0 ::
         :: HOMO-LUMO gap              4.971577253394 eV    ::
         ::.................................................::
         :: SCC energy               -46.778990072004 Eh    ::
         :: -> isotropic ES            0.063126131546 Eh    ::
         :: -> anisotropic ES          0.005368427014 Eh    ::
         :: -> anisotropic XC          0.017205860595 Eh    ::
         :: -> dispersion             -0.036013950465 Eh    ::
         :: -> Gsolv                  -0.020398891399 Eh    ::
         ::    -> Gelec               -0.008067486485 Eh    ::
         ::    -> Gsasa               -0.016222424158 Eh    ::
         ::    -> Ghb                  0.000000000000 Eh    ::
         ::    -> Gshift               0.003891019244 Eh    ::
         :: repulsion energy           0.618647055307 Eh    ::
         :: add. restraining           0.000000000000 Eh    ::
         :: total charge              -0.000000000000 e     ::
         :::::::::::::::::::::::::::::::::::::::::::::::::::::

           ------------------------------------------------- 
          |                Numerical Hessian                |
           ------------------------------------------------- 
step length          :   0.00500
SCC accuracy         :   0.30000
Hessian scale factor :   1.00000
frozen atoms in %    :   0.00000    0
RMS gradient         :   0.00014
estimated CPU  time      1.87 min
estimated wall time      0.16 min

writing file <hessian>.

 projected vibrational frequencies (cm⁻¹)
eigval :       -0.00    -0.00    -0.00    -0.00     0.00     0.00
eigval :       51.60    90.26   106.03   119.56   128.64   156.43
eigval :      177.65   222.43   248.52   273.41   275.24   286.97
eigval :      298.10   318.42   338.72   349.31   362.80   418.51
eigval :      438.33   465.27   496.37   548.61   575.27   580.75
eigval :      670.58   692.11   717.05   722.65   801.55   826.74
eigval :      878.88   882.21   890.20   897.50   925.31   930.51
eigval :      944.46   955.16   965.64  1006.54  1011.81  1034.23
eigval :     1041.90  1054.53  1062.84  1079.29  1092.77  1111.29
eigval :     1125.51  1138.32  1170.48  1174.68  1192.69  1197.87
eigval :     1228.38  1232.90  1241.86  1250.76  1264.19  1269.09
eigval :     1277.52  1298.35  1323.70  1330.25  1342.36  1351.68
eigval :     1360.86  1364.81  1396.36  1412.74  1421.59  1458.94
eigval :     1472.21  1480.65  1481.50  1487.72  1494.44  1719.98
eigval :     1739.85  2887.30  2910.03  2919.80  2926.41  2965.26
eigval :     2965.94  2971.70  2974.67  2987.79  2988.58  2993.65
eigval :     2995.40  3030.87  3043.01  3095.60  3097.31  3118.53
eigval :     3148.45  3417.93  3540.89
           -------------------------------------------------
          |                Property Printout                |
           -------------------------------------------------

    * Orbital Energies and Occupations

         #    Occupation            Energy/Eh            Energy/eV
      -------------------------------------------------------------
         1        2.0000           -0.7086304             -19.2828
       ...           ...                  ...                  ...
        30        2.0000           -0.4630178             -12.5994
        31        2.0000           -0.4580610             -12.4645
        32        2.0000           -0.4575375             -12.4502
        33        2.0000           -0.4456679             -12.1272
        34        2.0000           -0.4387355             -11.9386
        35        2.0000           -0.4314619             -11.7407
        36        2.0000           -0.4288195             -11.6688
        37        2.0000           -0.4184635             -11.3870
        38        2.0000           -0.4143746             -11.2757
        39        2.0000           -0.4099789             -11.1561
        40        2.0000           -0.3989802             -10.8568
        41        2.0000           -0.3896848             -10.6039
        42        2.0000           -0.3842553             -10.4561 (HOMO)
        43                         -0.2015532              -5.4845 (LUMO)
        44                         -0.1940404              -5.2801
        45                         -0.0064517              -0.1756
        46                          0.0284267               0.7735
        47                          0.0338116               0.9201
        48                          0.0604568               1.6451
        49                          0.0651909               1.7739
        50                          0.0812368               2.2106
        51                          0.0855250               2.3273
        52                          0.0942049               2.5634
        53                          0.0988784               2.6906
       ...                                ...                  ...
        80                          0.6546894              17.8150
      -------------------------------------------------------------
                  HL-Gap            0.1827021 Eh            4.9716 eV
             Fermi-level           -0.2929042 Eh           -7.9703 eV

     #   Z          covCN         q      C6AA      α(0)
     1   6 c        3.936     0.000    20.512     6.436
     2   6 c        3.858    -0.037    21.195     6.547
     3   6 c        3.803    -0.062    21.688     6.630
     4   6 c        3.808    -0.059    21.633     6.621
     5   6 c        3.891    -0.033    21.115     6.533
     6   6 c        3.769     0.113    18.764     6.173
     7   6 c        3.833    -0.071    21.824     6.647
     8   6 c        2.974     0.016    27.653     8.626
     9   8 o        1.654    -0.508    23.058     6.482
    10   6 c        3.676     0.083    19.413     6.313
    11   6 c        2.838    -0.113    30.864     9.104
    12   6 c        2.936     0.007    27.856     8.656
    13   6 c        2.844    -0.110    30.779     9.092
    14   1 h        0.924     0.046     2.366     2.405
    15   8 o        1.654    -0.476    22.372     6.385
    16   6 c        3.761    -0.117    22.782     6.804
    17   1 h        0.924     0.042     2.420     2.433
    18   1 h        0.924     0.043     2.404     2.425
    19   1 h        0.924     0.037     2.484     2.465
    20   1 h        0.924     0.042     2.429     2.437
    21   1 h        0.924     0.042     2.417     2.431
    22   1 h        0.924     0.027     2.634     2.538
    23   1 h        0.924     0.063     2.168     2.302
    24   1 h        0.925     0.050     2.325     2.385
    25   1 h        0.804     0.326     0.649     1.265
    26   1 h        0.924     0.031     2.578     2.511
    27   1 h        0.923     0.031     2.570     2.507
    28   1 h        0.926     0.033     2.550     2.497
    29   1 h        0.926     0.033     2.550     2.497
    30   1 h        0.926     0.033     2.547     2.495
    31   1 h        0.926     0.035     2.516     2.480
    32   1 h        0.805     0.311     0.687     1.302
    33   1 h        0.925     0.046     2.370     2.408
    34   1 h        0.925     0.045     2.388     2.417
    35   1 h        0.924     0.051     2.305     2.374

 Mol. C6AA /au·bohr⁶  :      10392.318716
 Mol. C8AA /au·bohr⁸  :     233670.526575
 Mol. α(0) /au        :        153.623772


Wiberg/Mayer (AO) data.
largest (>0.10) Wiberg bond orders for each atom

 ---------------------------------------------------------------------------
     #   Z sym  total        # sym  WBO       # sym  WBO       # sym  WBO
 ---------------------------------------------------------------------------
     1   6 c    3.988 --    10 c    0.985     7 c    0.982     6 c    0.971
                             2 c    0.957
     2   6 c    3.992 --    12 c    0.997     3 c    0.985    14 h    0.963
                             1 c    0.957
     3   6 c    3.996 --     4 c    1.009     2 c    0.985    18 h    0.977
                            17 h    0.976
     4   6 c    3.996 --     3 c    1.009     5 c    0.980    20 h    0.976
                            19 h    0.970
     5   6 c    3.995 --     8 c    0.995     4 c    0.980     6 c    0.971
                            21 h    0.963
     6   6 c    3.953 --     9 o    0.984     5 c    0.971     1 c    0.971
                            22 h    0.955
     7   6 c    3.995 --     8 c    1.008     1 c    0.982    24 h    0.964
                            23 h    0.955
     8   6 c    3.986 --    11 c    1.935     7 c    1.008     5 c    0.995
     9   8 o    1.919 --     6 c    0.984    25 h    0.849
    10   6 c    3.945 --     1 c    0.985    15 o    0.977    26 h    0.971
                            27 h    0.968
    11   6 c    3.987 --     8 c    1.935    28 h    0.975    29 h    0.975
    12   6 c    3.986 --    13 c    1.930    16 c    1.024     2 c    0.997
    13   6 c    3.988 --    12 c    1.930    30 h    0.974    31 h    0.966
    14   1 h    0.998 --     2 c    0.963
    15   8 o    1.958 --    10 c    0.977    32 h    0.887
    16   6 c    3.996 --    12 c    1.024    33 h    0.984    34 h    0.972
                            35 h    0.969
    17   1 h    0.998 --     3 c    0.976
    18   1 h    0.998 --     3 c    0.977
    19   1 h    0.999 --     4 c    0.970
    20   1 h    0.998 --     4 c    0.976
    21   1 h    0.998 --     5 c    0.963
    22   1 h    0.999 --     6 c    0.955
    23   1 h    0.995 --     7 c    0.955
    24   1 h    0.998 --     7 c    0.964
    25   1 h    0.894 --     9 o    0.849
    26   1 h    0.999 --    10 c    0.971
    27   1 h    0.999 --    10 c    0.968
    28   1 h    0.998 --    11 c    0.975
    29   1 h    0.998 --    11 c    0.975
    30   1 h    0.998 --    13 c    0.974
    31   1 h    0.999 --    13 c    0.966
    32   1 h    0.902 --    15 o    0.887
    33   1 h    0.997 --    16 c    0.984
    34   1 h    0.998 --    16 c    0.972
    35   1 h    0.997 --    16 c    0.969
 ---------------------------------------------------------------------------

Topologies differ in total number of bonds
Writing topology from bond orders to xtbtopo.mol

molecular dipole:
                 x           y           z       tot (Debye)
 q only:       -1.070      -0.073       0.964
   full:       -1.360      -0.323       1.097       4.516
molecular quadrupole (traceless):
                xx          xy          yy          xz          yz          zz
 q only:       -2.255       4.871       6.912       0.944      -2.670      -4.658
  q+dip:       -2.882       8.279       6.658       3.173      -5.110      -3.777
   full:       -3.228       7.263       8.480       2.140      -4.092      -5.252

           -------------------------------------------------
          |                Geometry Summary                 |
           -------------------------------------------------

      molecular mass/u    :      208.2971915
   center of mass at/Å    :        0.0145053       0.0050867      -0.0041844
  moments of inertia/u·Å² :        0.6124212E+03   0.8630488E+03   0.1114314E+04
rotational constants/cm⁻¹ :        0.2752620E-01   0.1953265E-01   0.1512826E-01

 * 30 selected distances

     #   Z          #   Z                                           value/Å
     3   6 c        4   6 c                                       1.5291872
     4   6 c        5   6 c                                       1.5306019
     1   6 c        6   6 c                                       1.5375621
     5   6 c        6   6 c                                       1.5349772
     1   6 c        7   6 c                                       1.5411413 (max)
     6   6 c        9   8 o                                       1.4176366
     1   6 c       10   6 c                                       1.5337171
     8   6 c       11   6 c                                       1.3205269
    12   6 c       13   6 c                                       1.3247106
     2   6 c       14   1 h                                       1.0967173
    10   6 c       15   8 o                                       1.4230867
     3   6 c       17   1 h                                       1.0916513
     3   6 c       18   1 h                                       1.0915676
     4   6 c       19   1 h                                       1.0902794
     4   6 c       20   1 h                                       1.0918147
     5   6 c       21   1 h                                       1.0914242
     6   6 c       22   1 h                                       1.0951005
     7   6 c       23   1 h                                       1.0924215
     7   6 c       24   1 h                                       1.0901622
     9   8 o       25   1 h                                       0.9696319
    10   6 c       26   1 h                                       1.0966044
    10   6 c       27   1 h                                       1.0979812
    11   6 c       28   1 h                                       1.0774700
    11   6 c       29   1 h                                       1.0768518
    13   6 c       30   1 h                                       1.0781924
    13   6 c       31   1 h                                       1.0738774
    15   8 o       32   1 h                                       0.9639986 (min)
    16   6 c       33   1 h                                       1.0869235
    16   6 c       34   1 h                                       1.0875744
    16   6 c       35   1 h                                       1.0904299

 * 4 distinct bonds (by element types)

   Z      Z             #   av. dist./Å        max./Å        min./Å
   1 H    6 C          18     1.0887247     1.0979812     1.0738774
   6 C    6 C           8     1.4815530     1.5411413     1.3205269
   1 H    8 O           2     0.9668153     0.9696319     0.9639986
   6 C    8 O           2     1.4203617     1.4230867     1.4176366

           -------------------------------------------------
          |               Frequency Printout                |
           -------------------------------------------------
 projected vibrational frequencies (cm⁻¹)
eigval :       -0.00    -0.00    -0.00    -0.00     0.00     0.00
eigval :       51.60    90.26   106.03   119.56   128.64   156.43
eigval :      177.65   222.43   248.52   273.41   275.24   286.97
eigval :      298.10   318.42   338.72   349.31   362.80   418.51
eigval :      438.33   465.27   496.37   548.61   575.27   580.75
eigval :      670.58   692.11   717.05   722.65   801.55   826.74
eigval :      878.88   882.21   890.20   897.50   925.31   930.51
eigval :      944.46   955.16   965.64  1006.54  1011.81  1034.23
eigval :     1041.90  1054.53  1062.84  1079.29  1092.77  1111.29
eigval :     1125.51  1138.32  1170.48  1174.68  1192.69  1197.87
eigval :     1228.38  1232.90  1241.86  1250.76  1264.19  1269.09
eigval :     1277.52  1298.35  1323.70  1330.25  1342.36  1351.68
eigval :     1360.86  1364.81  1396.36  1412.74  1421.59  1458.94
eigval :     1472.21  1480.65  1481.50  1487.72  1494.44  1719.98
eigval :     1739.85  2887.30  2910.03  2919.80  2926.41  2965.26
eigval :     2965.94  2971.70  2974.67  2987.79  2988.58  2993.65
eigval :     2995.40  3030.87  3043.01  3095.60  3097.31  3118.53
eigval :     3148.45  3417.93  3540.89
 reduced masses (amu)
   1: 10.58   2: 11.65   3: 11.44   4: 11.92   5: 11.79   6: 10.37   7: 10.96   8: 10.14
   9: 10.63  10:  8.98  11:  6.21  12:  7.74  13: 10.38  14:  5.07  15: 10.61  16:  8.51
  17:  7.85  18:  7.62  19:  8.83  20:  8.45  21: 10.28  22:  8.49  23:  7.44  24:  8.96
  25:  9.98  26:  9.88  27:  8.42  28:  9.19  29:  8.31  30:  9.49  31: 10.19  32:  4.31
  33:  4.11  34:  5.50  35:  9.81  36:  7.69  37:  8.23  38:  7.04  39:  5.22  40:  4.01
  41:  7.79  42:  7.02  43:  6.40  44:  5.59  45:  5.59  46:  6.57  47:  6.66  48:  6.81
  49:  4.79  50:  9.05  51:  6.26  52:  9.62  53:  6.44  54:  8.04  55:  6.09  56:  6.93
  57:  3.61  58:  4.47  59:  5.46  60:  5.44  61:  7.02  62:  6.08  63:  4.37  64:  6.72
  65:  5.91  66:  5.11  67:  6.16  68:  4.77  69:  5.03  70:  5.22  71:  3.77  72:  4.64
  73:  4.09  74:  4.53  75:  2.95  76:  2.38  77:  2.45  78:  1.90  79:  1.72  80:  1.79
  81:  1.69  82:  1.67  83:  1.96  84: 11.23  85: 11.58  86:  1.90  87:  1.76  88:  1.53
  89:  1.72  90:  1.95  91:  1.93  92:  1.77  93:  1.93  94:  1.54  95:  1.55  96:  1.54
  97:  1.81  98:  1.72  99:  1.59 100:  1.71 101:  1.53 102:  2.08 103:  1.89 104:  1.88
 105:  1.88
 IR intensities (km·mol⁻¹)
   1:  0.52   2:  0.01   3:  0.66   4:  0.01   5:  0.08   6:  0.69   7:  5.14   8:  1.75
   9: 13.87  10:  1.07  11:  2.04  12:  0.69  13:  1.66  14: 53.10  15: 11.61  16: 29.68
  17:  5.76  18: 19.76  19:  0.91  20: 26.25  21: 10.70  22: 84.59  23: 87.55  24:  4.60
  25:  2.80  26:  0.64  27:  3.14  28: 10.26  29:  5.90  30:  1.39  31:  1.16  32:  2.70
  33:  2.85  34:  1.07  35:  6.11  36:  4.99  37:  2.89  38:  4.18  39: 39.30  40: 14.98
  41:  3.07  42: 15.59  43:  3.98  44:  0.90  45:  1.32  46:  4.70  47: 35.59  48:  8.40
  49:  0.51  50: 12.50  51: 56.97  52: 55.79  53: 23.83  54:107.05  55:  5.71  56:  5.22
  57: 40.92  58: 35.84  59: 21.70  60: 18.09  61: 20.73  62:  4.04  63:  8.09  64: 17.28
  65: 17.51  66:  3.21  67: 34.75  68: 19.88  69:  6.38  70: 40.41  71: 23.29  72: 14.18
  73: 15.35  74:  4.33  75:  2.43  76:  5.96  77: 13.16  78:  2.86  79:  3.16  80:  1.15
  81:  1.79  82:  2.19  83:  0.70  84: 25.27  85: 31.98  86: 61.06  87: 67.87  88: 44.44
  89: 93.63  90: 31.44  91:  7.78  92: 44.58  93: 92.10  94: 14.02  95:115.83  96:107.21
  97: 43.11  98: 45.27  99: 43.23 100: 72.94 101: 40.27 102: 64.33 103: 44.53 104:290.25
 105: 21.27
 Raman intensities (Ä⁴*amu⁻¹)
   1:  0.00   2:  0.00   3:  0.00   4:  0.00   5:  0.00   6:  0.00   7:  0.00   8:  0.00
   9:  0.00  10:  0.00  11:  0.00  12:  0.00  13:  0.00  14:  0.00  15:  0.00  16:  0.00
  17:  0.00  18:  0.00  19:  0.00  20:  0.00  21:  0.00  22:  0.00  23:  0.00  24:  0.00
  25:  0.00  26:  0.00  27:  0.00  28:  0.00  29:  0.00  30:  0.00  31:  0.00  32:  0.00
  33:  0.00  34:  0.00  35:  0.00  36:  0.00  37:  0.00  38:  0.00  39:  0.00  40:  0.00
  41:  0.00  42:  0.00  43:  0.00  44:  0.00  45:  0.00  46:  0.00  47:  0.00  48:  0.00
  49:  0.00  50:  0.00  51:  0.00  52:  0.00  53:  0.00  54:  0.00  55:  0.00  56:  0.00
  57:  0.00  58:  0.00  59:  0.00  60:  0.00  61:  0.00  62:  0.00  63:  0.00  64:  0.00
  65:  0.00  66:  0.00  67:  0.00  68:  0.00  69:  0.00  70:  0.00  71:  0.00  72:  0.00
  73:  0.00  74:  0.00  75:  0.00  76:  0.00  77:  0.00  78:  0.00  79:  0.00  80:  0.00
  81:  0.00  82:  0.00  83:  0.00  84:  0.00  85:  0.00  86:  0.00  87:  0.00  88:  0.00
  89:  0.00  90:  0.00  91:  0.00  92:  0.00  93:  0.00  94:  0.00  95:  0.00  96:  0.00
  97:  0.00  98:  0.00  99:  0.00 100:  0.00 101:  0.00 102:  0.00 103:  0.00 104:  0.00
 105:  0.00
 output can be read by thermo (or use thermo option).
 writing <g98.out> molden fake output.
 recommended (thermochemical) frequency scaling factor: 1.0
           -------------------------------------------------
          |             Thermodynamic Functions             |
           -------------------------------------------------

Molecule has no symmetry elements
It seems to be the C1 point group
c1  symmetry found (for desy threshold:  0.10E+00) used in thermo

          ...................................................
          :                      SETUP                      :
          :.................................................:
          :  # frequencies                          99      :
          :  # imaginary freq.                       0      :
          :  linear?                             false      :
          :  only rotor calc.                    false      :
          :  symmetry                               c1      :
          :  rotational number                       1      :
          :  scaling factor                  1.0000000      :
          :  rotor cutoff                   50.0000000 cm⁻¹ :
          :  imag. cutoff                  -50.0000000 cm⁻¹ :
          :.................................................:

    mode    ω/cm⁻¹     T·S(HO)/kcal·mol⁻¹    T·S(FR)/kcal·mol⁻¹   T·S(vib)
   ------------------------------------------------------------------------
       1     51.60    -1.41774 ( 53.15%)    -1.04711 ( 46.85%)    -1.24408
       2     90.26    -1.08957 ( 91.39%)    -0.88151 (  8.61%)    -1.07167
       3    106.03    -0.99590 ( 95.29%)    -0.83380 (  4.71%)    -0.98826
       4    119.56    -0.92650 ( 97.03%)    -0.79824 (  2.97%)    -0.92269
       5    128.64    -0.88440 ( 97.77%)    -0.77656 (  2.23%)    -0.88199
       6    156.43    -0.77296 ( 98.97%)    -0.71862 (  1.03%)    -0.77240
       7    177.65    -0.70152 ( 99.38%)    -0.68094 (  0.62%)    -0.70139
       8    222.43    -0.57817 ( 99.75%)    -0.61435 (  0.25%)    -0.57826
       9    248.52    -0.51909 ( 99.84%)    -0.58150 (  0.16%)    -0.51920
      10    273.41    -0.46945 ( 99.89%)    -0.55322 (  0.11%)    -0.46954
      11    275.24    -0.46604 ( 99.89%)    -0.55126 (  0.11%)    -0.46613
      12    286.97    -0.44477 ( 99.91%)    -0.53889 (  0.09%)    -0.44485
      13    298.10    -0.42562 ( 99.92%)    -0.52762 (  0.08%)    -0.42570
   ------------------------------------------------------------------------

   temp. (K)  partition function   enthalpy   heat capacity  entropy
                                   cal/mol     cal/K/mol   cal/K/mol   J/K/mol
 298.15  VIB  0.254E+05             7792.133     54.407     45.601
         ROT  0.185E+07              888.752      2.981     31.663
         INT  0.470E+11             8680.885     57.388     77.264
         TR   0.291E+28             1481.254      4.968     41.886
         TOT                       10162.1394    62.3562   119.1499   498.5230

       T/K    H(0)-H(T)+PV         H(T)/Eh          T*S/Eh         G(T)/Eh
   ------------------------------------------------------------------------
    298.15    0.161944E-01    0.317378E+00    0.566119E-01    0.260766E+00
   ------------------------------------------------------------------------

         :::::::::::::::::::::::::::::::::::::::::::::::::::::
         ::                  THERMODYNAMIC                  ::
         :::::::::::::::::::::::::::::::::::::::::::::::::::::
         :: total free energy         -45.899576898187 Eh   ::
         ::.................................................::
         :: total energy              -46.160343016677 Eh   ::
         :: zero point energy           0.301183658104 Eh   ::
         :: G(RRHO) w/o ZPVE           -0.040417539614 Eh   ::
         :: G(RRHO) contrib.            0.260766118490 Eh   ::
         :::::::::::::::::::::::::::::::::::::::::::::::::::::

optimized geometry written to: xtbopt.coord


           -------------------------------------------------
          | TOTAL ENERGY              -46.160343016677 Eh   |
          | TOTAL ENTHALPY            -45.842964958689 Eh   |
          | TOTAL FREE ENERGY         -45.899576898187 Eh   |
          | GRADIENT NORM               0.000136078776 Eh/α |
          | HOMO-LUMO GAP               4.971578238937 eV   |
           -------------------------------------------------

------------------------------------------------------------------------
 * finished run on 2026/08/09 at 17:05:43.217     
------------------------------------------------------------------------
 total:
 * wall-time:     0 d,  0 h,  0 min,  1.403 sec
 *  cpu-time:     0 d,  0 h,  0 min, 16.391 sec
 * ratio c/w:    11.682 speedup
 SCF:
 * wall-time:     0 d,  0 h,  0 min,  0.082 sec
 *  cpu-time:     0 d,  0 h,  0 min,  0.930 sec
 * ratio c/w:    11.309 speedup
 ANC optimizer:
 * wall-time:     0 d,  0 h,  0 min,  0.444 sec
 *  cpu-time:     0 d,  0 h,  0 min,  5.319 sec
 * ratio c/w:    11.967 speedup
 analytical hessian:
 * wall-time:     0 d,  0 h,  0 min,  0.831 sec
 *  cpu-time:     0 d,  0 h,  0 min,  9.828 sec
 * ratio c/w:    11.827 speedup

normal termination of xtb
