          42
 Energy =     -662.48841420 a.u.  Frame:     1 Step:     1 Geom:     1
C          -0.66900900      1.66556100      0.29067100
C          -1.19296600      1.34892200     -1.13664000
C          -2.41014200      0.42097500     -1.27017700
C          -2.14319300     -1.06823500     -1.02789600
C          -1.66347100     -1.45559600      0.38268000
C          -0.23151400     -0.99341100      0.71057000
C           0.09282000      0.49166400      0.99202600
C           0.46842400      2.71775700      0.16942600
C           1.70672100      1.91575900     -0.25430800
C           1.59916900      0.60708100      0.56577500
O           0.64646100     -1.37722600     -0.35087700
C           1.93170700     -0.76180200     -0.12363100
H           0.00154000      0.65994900      2.07225700
H           2.22816200      0.70657600      1.45719700
H           0.06302900     -1.54141300      1.62300800
C          -1.76341600     -2.98132700      0.56750800
C           2.61702400     -0.68616200     -1.48832600
C           2.76553600     -1.64903800      0.81945200
C          -1.80577200      2.20653900      1.17581400
H          -1.45592800      2.31363500     -1.59418900
H          -0.37948300      0.93575200     -1.74489900
H          -3.22048000      0.76402200     -0.61324300
H          -2.79686500      0.52882500     -2.29302900
H          -1.40477400     -1.43057500     -1.75330000
H          -3.07281800     -1.61762700     -1.23057900
H          -2.32583300     -0.98315500      1.12423700
H           0.64415700      3.17576900      1.15295200
H           0.21786700      3.52985300     -0.52445200
H           1.67491900      1.72391800     -1.33053800
H           2.64298900      2.45025700     -0.05869200
H          -1.48082400     -3.28111500      1.58373400
H          -2.78516600     -3.33384100      0.38589900
H          -1.09544200     -3.49664200     -0.13152700
H           1.98724200     -0.17828700     -2.22351100
H           3.57421300     -0.15757800     -1.42096400
H           2.81029600     -1.69795300     -1.86033100
H           2.87077300     -2.65483200      0.39920600
H           3.76707700     -1.22600500      0.96226200
H           2.30077300     -1.73881700      1.80742900
H          -2.56454900      1.44779600      1.39351100
H          -1.41093600      2.55966700      2.13621600
H          -2.31379400      3.05170300      0.69387700
