      -----------------------------------------------------------      
     |                   =====================                   |     
     |                           x T B                           |     
     |                   =====================                   |     
     |                         S. Grimme                         |     
     |          Mulliken Center for Theoretical Chemistry        |     
     |                    University of Bonn                     |     
      -----------------------------------------------------------      

   * xtb version 6.7.1 (edcfbbe) compiled by 'albert@albert-system' on 2024-07-22

   xtb is free software: you can redistribute it and/or modify it under
   the terms of the GNU Lesser General Public License as published by
   the Free Software Foundation, either version 3 of the License, or
   (at your option) any later version.
   
   xtb is distributed in the hope that it will be useful,
   but WITHOUT ANY WARRANTY; without even the implied warranty of
   MERCHANTABILITY or FITNESS FOR A PARTICULAR PURPOSE.  See the
   GNU Lesser General Public License for more details.
   
   Cite this work as:
   * C. Bannwarth, E. Caldeweyher, S. Ehlert, A. Hansen, P. Pracht,
     J. Seibert, S. Spicher, S. Grimme, WIREs Comput. Mol. Sci., 2020, 11,
     e01493. DOI: 10.1002/wcms.1493
   
   for GFN2-xTB:
   * C. Bannwarth, S. Ehlert and S. Grimme., J. Chem. Theory Comput., 2019,
     15, 1652-1671. DOI: 10.1021/acs.jctc.8b01176
   for GFN1-xTB:
   * S. Grimme, C. Bannwarth, P. Shushkov, J. Chem. Theory Comput., 2017,
     13, 1989-2009. DOI: 10.1021/acs.jctc.7b00118
   for GFN0-xTB:
   * P. Pracht, E. Caldeweyher, S. Ehlert, S. Grimme, ChemRxiv, 2019, preprint.
     DOI: 10.26434/chemrxiv.8326202.v1
   for GFN-FF:
   * S. Spicher and S. Grimme, Angew. Chem. Int. Ed., 2020, 59, 15665-15673.
     DOI: 10.1002/anie.202004239
   
   for ALPB and GBSA implicit solvation:
   * S. Ehlert, M. Stahn, S. Spicher, S. Grimme, J. Chem. Theory Comput.,
     2021, 17, 4250-4261. DOI: 10.1021/acs.jctc.1c00471
   
   for ddCOSMO and CPCM-X implicit solvation:
   * M. Stahn, S. Ehlert, S. Grimme, J. Phys. Chem. A,
     2023, XX, XXXX-XXXX. DOI: 10.1021/acs.jpca.3c04382
   
   for DFT-D4:
   * E. Caldeweyher, C. Bannwarth and S. Grimme, J. Chem. Phys., 2017,
     147, 034112. DOI: 10.1063/1.4993215
   * E. Caldeweyher, S. Ehlert, A. Hansen, H. Neugebauer, S. Spicher,
     C. Bannwarth and S. Grimme, J. Chem. Phys., 2019, 150, 154122.
     DOI: 10.1063/1.5090222
   * E. Caldeweyher, J.-M. Mewes, S. Ehlert and S. Grimme, Phys. Chem. Chem. Phys.
     2020, 22, 8499-8512. DOI: 10.1039/D0CP00502A
   
   for sTDA-xTB:
   * S. Grimme and C. Bannwarth, J. Chem. Phys., 2016, 145, 054103.
     DOI: 10.1063/1.4959605
   
   in the mass-spec context:
   * V. Asgeirsson, C. Bauer and S. Grimme, Chem. Sci., 2017, 8, 4879.
     DOI: 10.1039/c7sc00601b
   * J. Koopman and S. Grimme, ACS Omega 2019, 4, 12, 15120-15133.
     DOI: 10.1021/acsomega.9b02011
   
   for metadynamics refer to:
   * S. Grimme, J. Chem. Theory Comput., 2019, 155, 2847-2862
     DOI: 10.1021/acs.jctc.9b00143
   
   for SPH calculations refer to:
   * S. Spicher and S. Grimme, J. Chem. Theory Comput., 2021, 17, 1701-1714
     DOI: 10.1021/acs.jctc.0c01306
   
   for ONIOM refer to:
   * C. Plett, A. Katbashev, S. Ehlert, S. Grimme, M. Bursch,
     Phys. Chem. Chem. Phys., 2023, 25, 17860-17868. DOI: 10.1039/D3CP02178E
   
   for DIPRO refer to:
   * J. Kohn, N. Gildemeister, S. Grimme, D. Fazzi, A. Hansen,
     J. Chem. Phys., 2023, just accepted.
   
   for PTB refer to:
   * S. Grimme, M. Mueller, A. Hansen, J. Chem. Phys., 2023, 158, 124111.
     DOI: 10.1063/5.0137838
   
   with help from (in alphabetical order)
   P. Atkinson, C. Bannwarth, F. Bohle, G. Brandenburg, E. Caldeweyher
   M. Checinski, S. Dohm, S. Ehlert, S. Ehrlich, I. Gerasimov, C. Hölzer
   A. Katbashev, J. Kohn, J. Koopman, C. Lavigne, S. Lehtola, F. März, M. Müller,
   F. Musil, H. Neugebauer, J. Pisarek, C. Plett, P. Pracht, F. Pultar,
   J. Seibert, P. Shushkov, S. Spicher, M. Stahn, M. Steiner, T. Strunk,
   J. Stückrath, T. Rose, and J. Unsleber
   
 * started run on 2026/08/09 at 17:05:40.806     
   ID    Z sym.   atoms
    1    6 c      1-8, 10-13, 16
    2    8 o      9, 15
    3    1 h      14, 17-35

           -------------------------------------------------
          |                Calculation Setup                |
           -------------------------------------------------

          program call               : /home/dinglab/software/xtb_6.7.1/xtb_dist/bin/xtb coord --gfn2 --ohess vtight --alpb chcl3 --chrg 0 --enso --norestart -I xcontrol-inp --parallel 12
          hostname                   : localhost
          coordinate file            : coord
          omp threads                :                    12


           -------------------------------------------------
          |                 G F N 2 - x T B                 |
           -------------------------------------------------

        Reference                      10.1021/acs.jctc.8b01176
      * Hamiltonian:
        H0-scaling (s, p, d)           1.850000    2.230000    2.230000
        zeta-weighting                 0.500000
      * Dispersion:
        s8                             2.700000
        a1                             0.520000
        a2                             5.000000
        s9                             5.000000
      * Repulsion:
        kExp                           1.500000    1.000000
        rExp                           1.000000
      * Coulomb:
        alpha                          2.000000
        third order                    shell-resolved
        anisotropic                    true
        a3                             3.000000
        a5                             4.000000
        cn-shift                       1.200000
        cn-exp                         4.000000
        max-rad                        5.000000

      * Solvation model:               ALPB
        Solvent                        chcl3
        Parameter file                 internal GFN2-xTB/ALPB
        Dielectric constant                4.8100E+00
        Reference state                gsolv [1 M gas/solution]
        Free energy shift                  3.8910E-03 Eh       2.4417E+00 kcal/mol
        Temperature                        2.9815E+02 K
        Density                            1.4900E+00 kg/L
        Solvent mass                       1.1938E+02 g/mol
        Interaction kernel             P16
        Born radius scaling (c1)           1.3274E+00
        Born radii integrator          GBOBC
        Born offset                        0.0000E+00 a0       0.0000E+00 AA
        H-bond correction              false
        Ion screening                  false
        Surface tension                    1.0000E-05 Eh       1.5569E+01 dyn/cm
        Grid points                               974 per atom

          ...................................................
          :                      SETUP                      :
          :.................................................:
          :  # basis functions                  80          :
          :  # atomic orbitals                  80          :
          :  # shells                           50          :
          :  # electrons                        84          :
          :  max. iterations                   250          :
          :  Hamiltonian                  GFN2-xTB          :
          :  restarted?                      false          :
          :  GBSA solvation                   true          :
          :  PC potential                    false          :
          :  electronic temp.          300.0000000     K    :
          :  accuracy                    1.0000000          :
          :  -> integral cutoff          0.2500000E+02      :
          :  -> integral neglect         0.1000000E-07      :
          :  -> SCF convergence          0.1000000E-05 Eh   :
          :  -> wf. convergence          0.1000000E-03 e    :
          :  Broyden damping             0.4000000          :
          :  net charge                          0          :
          :  unpaired electrons                  0          :
          ...................................................

 iter      E             dE          RMSdq      gap      omega  full diag
   1    -46.6625704 -0.466626E+02  0.358E+00    4.96       0.0  T
   2    -46.7066372 -0.440668E-01  0.203E+00    4.94       1.0  T
   3    -46.7015153  0.512190E-02  0.820E-01    4.88       1.0  T
   4    -46.7079266 -0.641135E-02  0.394E-01    4.84       1.0  T
   5    -46.7107928 -0.286617E-02  0.797E-02    4.87       1.0  T
   6    -46.7108286 -0.358179E-04  0.435E-02    4.87       1.0  T
   7    -46.7108346 -0.600016E-05  0.136E-02    4.87       1.2  T
   8    -46.7108361 -0.147077E-05  0.384E-03    4.87       4.4  T
   9    -46.7108361 -0.415372E-07  0.213E-03    4.87       7.9  T
  10    -46.7108362 -0.502040E-07  0.105E-03    4.87      16.2  T
  11    -46.7108362 -0.103976E-07  0.420E-04    4.87      40.3  T
  12    -46.7108362 -0.142862E-08  0.105E-04    4.87     161.4  T

   *** convergence criteria satisfied after 12 iterations ***

         #    Occupation            Energy/Eh            Energy/eV
      -------------------------------------------------------------
         1        2.0000           -0.7044907             -19.1702
       ...           ...                  ...                  ...
        36        2.0000           -0.4291359             -11.6774
        37        2.0000           -0.4233828             -11.5208
        38        2.0000           -0.4171106             -11.3502
        39        2.0000           -0.4088520             -11.1254
        40        2.0000           -0.4029875             -10.9658
        41        2.0000           -0.3906170             -10.6292
        42        2.0000           -0.3877467             -10.5511 (HOMO)
        43                         -0.2089037              -5.6846 (LUMO)
        44                         -0.2026177              -5.5135
        45                         -0.0274196              -0.7461
        46                          0.0089362               0.2432
        47                          0.0115828               0.3152
       ...                                ...                  ...
        80                          0.6005431              16.3416
      -------------------------------------------------------------
                  HL-Gap            0.1788430 Eh            4.8666 eV
             Fermi-level           -0.2983252 Eh           -8.1178 eV

 SCC (total)                   0 d,  0 h,  0 min,  0.066 sec
 SCC setup                      ...        0 min,  0.001 sec (  1.406%)
 Dispersion                     ...        0 min,  0.000 sec (  0.721%)
 classical contributions        ...        0 min,  0.000 sec (  0.046%)
 integral evaluation            ...        0 min,  0.002 sec (  2.716%)
 iterations                     ...        0 min,  0.059 sec ( 89.087%)
 molecular gradient             ...        0 min,  0.004 sec (  5.729%)
 printout                       ...        0 min,  0.000 sec (  0.234%)

         :::::::::::::::::::::::::::::::::::::::::::::::::::::
         ::                     SUMMARY                     ::
         :::::::::::::::::::::::::::::::::::::::::::::::::::::
         :: total energy             -46.153318430671 Eh    ::
         :: total w/o Gsasa/hb       -46.140864756169 Eh    ::
         :: gradient norm              0.050039146896 Eh/a0 ::
         :: HOMO-LUMO gap              4.866565432686 eV    ::
         ::.................................................::
         :: SCC energy               -46.710172358031 Eh    ::
         :: -> isotropic ES            0.063518987868 Eh    ::
         :: -> anisotropic ES          0.007875962899 Eh    ::
         :: -> anisotropic XC          0.019630776236 Eh    ::
         :: -> dispersion             -0.035396022861 Eh    ::
         :: -> Gsolv                  -0.020818977992 Eh    ::
         ::    -> Gelec               -0.008365303490 Eh    ::
         ::    -> Gsasa               -0.016344693746 Eh    ::
         ::    -> Ghb                  0.000000000000 Eh    ::
         ::    -> Gshift               0.003891019244 Eh    ::
         :: repulsion energy           0.556853927360 Eh    ::
         :: add. restraining           0.000000000000 Eh    ::
         :: total charge              -0.000000000000 e     ::
         :::::::::::::::::::::::::::::::::::::::::::::::::::::

      ----------------------------------------------------------- 
     |                   =====================                   |
     |                        A N C O P T                        |
     |                   =====================                   |
     |               Approximate Normal Coordinate               |
     |                Rational Function Optimizer                |
      ----------------------------------------------------------- 
      ----------------------------------------------------------- 
     |                   =====================                   |
     |                        A N C O P T                        |
     |                   =====================                   |
     |               Approximate Normal Coordinate               |
     |                Rational Function Optimizer                |
      ----------------------------------------------------------- 

          ...................................................
          :                      SETUP                      :
          :.................................................:
          :   optimization level         verytight          :
          :   max. optcycles                   700          :
          :   ANC micro-cycles                  20          :
          :   degrees of freedom                99          :
          :.................................................:
          :   RF solver                   davidson          :
          :   write xtbopt.log                true          :
          :   linear?                        false          :
          :   energy convergence         0.1000000E-06 Eh   :
          :   grad. convergence          0.2000000E-03 Eh/α :
          :   maxmium RF displ.          1.0000000          :
          :   Hlow (freq-cutoff)         0.1000000E-01      :
          :   Hmax (freq-cutoff)         5.0000000          :
          :   S6 in model hess.         20.0000000          :
          ...................................................

generating ANC from exact Hessian ...
Using Lindh-Hessian (1995)
 Shifting diagonal of input Hessian by   8.918562461475269E-003
 Lowest  eigenvalues of input Hessian
    0.000000    0.000000    0.000000    0.000000    0.000000    0.000000
    0.010000    0.010232    0.010906    0.011850    0.013339    0.013931
    0.015577    0.015835    0.016590    0.017828    0.018509    0.018968
 Highest eigenvalues
    1.385574    1.392801    1.407375    1.416597    1.791204    1.860114
 

........................................................................
.............................. CYCLE    1 ..............................
........................................................................

 iter      E             dE          RMSdq      gap      omega  full diag
   1    -46.7108362 -0.467108E+02  0.521E-05    4.87       0.0  T
   2    -46.7108362 -0.494538E-11  0.310E-05    4.87     545.9  T
   3    -46.7108362  0.116529E-11  0.258E-05    4.87     654.1  T
     SCC iter.                  ...        0 min,  0.005 sec
     gradient                   ...        0 min,  0.004 sec
 * total energy  :   -46.1533184 Eh     change       -0.6475886E-10 Eh
   gradient norm :     0.0500392 Eh/α   predicted     0.0000000E+00 (-100.00%)
   displ. norm   :     0.2879857 α      lambda       -0.9532648E-02
   maximum displ.:     0.1124556 α      in ANC's #39, #62, #29, ...

........................................................................
.............................. CYCLE    2 ..............................
........................................................................

 iter      E             dE          RMSdq      gap      omega  full diag
   1    -46.7619662 -0.467620E+02  0.151E-01    5.02       0.0  T
   2    -46.7619930 -0.268261E-04  0.942E-02    5.01       1.0  T
   3    -46.7619662  0.267609E-04  0.599E-02    5.02       1.0  T
   4    -46.7620262 -0.599203E-04  0.626E-03    5.02       2.7  T
   5    -46.7620265 -0.341037E-06  0.284E-03    5.02       6.0  T
   6    -46.7620265  0.386457E-09  0.118E-03    5.02      14.3  T
   7    -46.7620265 -0.924563E-08  0.546E-04    5.02      31.0  T
   8    -46.7620265 -0.483880E-08  0.190E-04    5.02      88.9  T
     SCC iter.                  ...        0 min,  0.011 sec
     gradient                   ...        0 min,  0.004 sec
 * total energy  :   -46.1594303 Eh     change       -0.6111844E-02 Eh
   gradient norm :     0.0154003 Eh/α   predicted    -0.5161804E-02 ( -15.54%)
   displ. norm   :     0.1914335 α      lambda       -0.1426815E-02
   maximum displ.:     0.0683948 α      in ANC's #4, #7, #16, ...

........................................................................
.............................. CYCLE    3 ..............................
........................................................................

 iter      E             dE          RMSdq      gap      omega  full diag
   1    -46.7805172 -0.467805E+02  0.734E-02    5.06       0.0  T
   2    -46.7805236 -0.639791E-05  0.458E-02    5.06       1.0  T
   3    -46.7805180  0.561919E-05  0.290E-02    5.06       1.0  T
   4    -46.7805313 -0.133769E-04  0.305E-03    5.06       5.5  T
   5    -46.7805314 -0.813631E-07  0.134E-03    5.06      12.6  T
   6    -46.7805314 -0.243100E-08  0.593E-04    5.06      28.5  T
   7    -46.7805314 -0.100258E-08  0.311E-04    5.06      54.4  T
     SCC iter.                  ...        0 min,  0.009 sec
     gradient                   ...        0 min,  0.004 sec
 * total energy  :   -46.1601742 Eh     change       -0.7438978E-03 Eh
   gradient norm :     0.0050716 Eh/α   predicted    -0.7398881E-03 (  -0.54%)
   displ. norm   :     0.0950343 α      lambda       -0.1967608E-03
   maximum displ.:     0.0391712 α      in ANC's #7, #4, #6, ...

........................................................................
.............................. CYCLE    4 ..............................
........................................................................

 iter      E             dE          RMSdq      gap      omega  full diag
   1    -46.7811743 -0.467812E+02  0.356E-02    5.06       0.0  T
   2    -46.7811746 -0.368379E-06  0.216E-02    5.06       1.0  T
   3    -46.7811738  0.819061E-06  0.601E-03    5.06       2.8  T
   4    -46.7811748 -0.101137E-05  0.124E-03    5.06      13.6  T
   5    -46.7811749 -0.148059E-07  0.564E-04    5.06      30.0  T
   6    -46.7811749 -0.119740E-08  0.195E-04    5.06      86.6  T
     SCC iter.                  ...        0 min,  0.008 sec
     gradient                   ...        0 min,  0.004 sec
 * total energy  :   -46.1602802 Eh     change       -0.1060190E-03 Eh
   gradient norm :     0.0030162 Eh/α   predicted    -0.9927022E-04 (  -6.37%)
   displ. norm   :     0.1171767 α      lambda       -0.1431963E-03
   maximum displ.:     0.0567169 α      in ANC's #4, #6, #9, ...

........................................................................
.............................. CYCLE    5 ..............................
........................................................................

 iter      E             dE          RMSdq      gap      omega  full diag
   1    -46.7796214 -0.467796E+02  0.366E-02    5.05       0.0  T
   2    -46.7796218 -0.437273E-06  0.218E-02    5.05       1.0  T
   3    -46.7796219 -0.850380E-07  0.223E-03    5.05       7.6  T
   4    -46.7796219 -0.661249E-07  0.117E-03    5.05      14.5  T
   5    -46.7796219 -0.187029E-08  0.660E-04    5.05      25.6  T
   6    -46.7796219 -0.640006E-08  0.217E-04    5.05      77.8  T
     SCC iter.                  ...        0 min,  0.008 sec
     gradient                   ...        0 min,  0.004 sec
 * total energy  :   -46.1603810 Eh     change       -0.1008524E-03 Eh
   gradient norm :     0.0025168 Eh/α   predicted    -0.7258663E-04 ( -28.03%)
   displ. norm   :     0.1241726 α      lambda       -0.9174419E-04
   maximum displ.:     0.0572862 α      in ANC's #6, #4, #9, ...

........................................................................
.............................. CYCLE    6 ..............................
........................................................................

 iter      E             dE          RMSdq      gap      omega  full diag
   1    -46.7781573 -0.467782E+02  0.432E-02    5.05       0.0  T
   2    -46.7781577 -0.410205E-06  0.257E-02    5.05       1.0  T
   3    -46.7781577 -0.387945E-07  0.266E-03    5.06       6.3  T
   4    -46.7781578 -0.106067E-06  0.134E-03    5.06      12.6  T
   5    -46.7781579 -0.128943E-07  0.689E-04    5.06      24.5  T
   6    -46.7781579 -0.445306E-08  0.205E-04    5.06      82.5  T
     SCC iter.                  ...        0 min,  0.008 sec
     gradient                   ...        0 min,  0.004 sec
 * total energy  :   -46.1604384 Eh     change       -0.5739150E-04 Eh
   gradient norm :     0.0032976 Eh/α   predicted    -0.4661208E-04 ( -18.78%)
   displ. norm   :     0.0806268 α      lambda       -0.3820313E-04
   maximum displ.:     0.0431845 α      in ANC's #2, #4, #6, ...

........................................................................
.............................. CYCLE    7 ..............................
........................................................................

 iter      E             dE          RMSdq      gap      omega  full diag
   1    -46.7782858 -0.467783E+02  0.282E-02    5.06       0.0  T
   2    -46.7782859 -0.107015E-06  0.167E-02    5.06       1.0  T
   3    -46.7782859  0.573772E-07  0.205E-03    5.06       8.3  T
   4    -46.7782860 -0.978404E-07  0.700E-04    5.06      24.1  T
   5    -46.7782860 -0.354589E-08  0.258E-04    5.06      65.6  T
     SCC iter.                  ...        0 min,  0.007 sec
     gradient                   ...        0 min,  0.003 sec
 * total energy  :   -46.1604659 Eh     change       -0.2742171E-04 Eh
   gradient norm :     0.0021910 Eh/α   predicted    -0.1922697E-04 ( -29.88%)
   displ. norm   :     0.0779126 α      lambda       -0.3001619E-04
   maximum displ.:     0.0500169 α      in ANC's #2, #4, #9, ...

........................................................................
.............................. CYCLE    8 ..............................
........................................................................

 iter      E             dE          RMSdq      gap      omega  full diag
   1    -46.7790750 -0.467791E+02  0.280E-02    5.06       0.0  T
   2    -46.7790751 -0.107449E-06  0.165E-02    5.06       1.0  T
   3    -46.7790749  0.202294E-06  0.299E-03    5.06       5.6  T
   4    -46.7790752 -0.249660E-06  0.558E-04    5.06      30.3  T
   5    -46.7790752 -0.180902E-08  0.245E-04    5.06      69.0  T
     SCC iter.                  ...        0 min,  0.006 sec
     gradient                   ...        0 min,  0.004 sec
 * total energy  :   -46.1604846 Eh     change       -0.1873254E-04 Eh
   gradient norm :     0.0009973 Eh/α   predicted    -0.1510136E-04 ( -19.38%)
   displ. norm   :     0.0747648 α      lambda       -0.1305120E-04
   maximum displ.:     0.0510082 α      in ANC's #2, #9, #4, ...

........................................................................
.............................. CYCLE    9 ..............................
........................................................................

 iter      E             dE          RMSdq      gap      omega  full diag
   1    -46.7797431 -0.467797E+02  0.265E-02    5.06       0.0  T
   2    -46.7797432 -0.105888E-06  0.157E-02    5.06       1.1  T
   3    -46.7797427  0.452976E-06  0.427E-03    5.06       4.0  T
   4    -46.7797433 -0.518497E-06  0.413E-04    5.06      40.9  T
   5    -46.7797433 -0.199684E-08  0.207E-04    5.06      81.5  T
     SCC iter.                  ...        0 min,  0.006 sec
     gradient                   ...        0 min,  0.004 sec
 * total energy  :   -46.1604926 Eh     change       -0.8016522E-05 Eh
   gradient norm :     0.0017093 Eh/α   predicted    -0.6542537E-05 ( -18.39%)
   displ. norm   :     0.0372720 α      lambda       -0.7673689E-05
   maximum displ.:     0.0230086 α      in ANC's #2, #4, #9, ...

........................................................................
.............................. CYCLE   10 ..............................
........................................................................

 iter      E             dE          RMSdq      gap      omega  full diag
   1    -46.7796393 -0.467796E+02  0.135E-02    5.06       0.0  T
   2    -46.7796394 -0.176296E-07  0.796E-03    5.06       2.1  T
   3    -46.7796393  0.105960E-07  0.812E-04    5.06      20.8  T
   4    -46.7796394 -0.168789E-07  0.260E-04    5.06      65.0  T
     SCC iter.                  ...        0 min,  0.005 sec
     gradient                   ...        0 min,  0.004 sec
 * total energy  :   -46.1604998 Eh     change       -0.7226591E-05 Eh
   gradient norm :     0.0010154 Eh/α   predicted    -0.3845193E-05 ( -46.79%)
   displ. norm   :     0.0356999 α      lambda       -0.4789400E-05
   maximum displ.:     0.0184971 α      in ANC's #2, #4, #6, ...

........................................................................
.............................. CYCLE   11 ..............................
........................................................................

 iter      E             dE          RMSdq      gap      omega  full diag
   1    -46.7792762 -0.467793E+02  0.118E-02    5.06       0.0  T
   2    -46.7792763 -0.300731E-07  0.699E-03    5.06       2.4  T
   3    -46.7792763  0.421468E-08  0.810E-04    5.06      20.9  T
   4    -46.7792763 -0.118448E-07  0.378E-04    5.06      44.7  T
     SCC iter.                  ...        0 min,  0.005 sec
     gradient                   ...        0 min,  0.003 sec
 * total energy  :   -46.1605040 Eh     change       -0.4190165E-05 Eh
   gradient norm :     0.0004243 Eh/α   predicted    -0.2397953E-05 ( -42.77%)
   displ. norm   :     0.0252817 α      lambda       -0.1528731E-05
   maximum displ.:     0.0148118 α      in ANC's #4, #2, #9, ...

........................................................................
.............................. CYCLE   12 ..............................
........................................................................

 iter      E             dE          RMSdq      gap      omega  full diag
   1    -46.7792414 -0.467792E+02  0.893E-03    5.06       0.0  T
   2    -46.7792414 -0.968471E-08  0.526E-03    5.06       3.2  T
   3    -46.7792414  0.813671E-09  0.431E-04    5.06      39.2  T
   4    -46.7792414 -0.336173E-08  0.186E-04    5.06      90.9  T
     SCC iter.                  ...        0 min,  0.005 sec
     gradient                   ...        0 min,  0.003 sec
 * total energy  :   -46.1605052 Eh     change       -0.1177784E-05 Eh
   gradient norm :     0.0003246 Eh/α   predicted    -0.7660725E-06 ( -34.96%)
   displ. norm   :     0.0128946 α      lambda       -0.5642903E-06
   maximum displ.:     0.0081991 α      in ANC's #4, #2, #8, ...

........................................................................
.............................. CYCLE   13 ..............................
........................................................................

 iter      E             dE          RMSdq      gap      omega  full diag
   1    -46.7793312 -0.467793E+02  0.478E-03    5.06       0.0  T
   2    -46.7793312 -0.300498E-08  0.282E-03    5.06       6.0  T
   3    -46.7793312  0.265990E-08  0.392E-04    5.06      43.1  T
   4    -46.7793312 -0.372387E-08  0.110E-04    5.06     154.0  T
     SCC iter.                  ...        0 min,  0.006 sec
     gradient                   ...        0 min,  0.003 sec
 * total energy  :   -46.1605057 Eh     change       -0.5174964E-06 Eh
   gradient norm :     0.0001659 Eh/α   predicted    -0.2853113E-06 ( -44.87%)
   displ. norm   :     0.0077728 α      lambda       -0.2117394E-06
   maximum displ.:     0.0047385 α      in ANC's #4, #3, #6, ...

........................................................................
.............................. CYCLE   14 ..............................
........................................................................

 iter      E             dE          RMSdq      gap      omega  full diag
   1    -46.7793362 -0.467793E+02  0.261E-03    5.06       0.0  T
   2    -46.7793362 -0.110855E-08  0.154E-03    5.06      11.0  T
   3    -46.7793362  0.164327E-08  0.277E-04    5.06      60.9  T
   4    -46.7793362 -0.205357E-08  0.586E-05    5.06     288.4  T
     SCC iter.                  ...        0 min,  0.005 sec
     gradient                   ...        0 min,  0.003 sec
 * total energy  :   -46.1605059 Eh     change       -0.1910715E-06 Eh
   gradient norm :     0.0001153 Eh/α   predicted    -0.1093201E-06 ( -42.79%)
   displ. norm   :     0.0052768 α      lambda       -0.8529817E-07
   maximum displ.:     0.0029333 α      in ANC's #4, #6, #3, ...

........................................................................
.............................. CYCLE   15 ..............................
........................................................................

 iter      E             dE          RMSdq      gap      omega  full diag
   1    -46.7793318 -0.467793E+02  0.165E-03    5.06       0.0  T
   2    -46.7793318 -0.492690E-09  0.977E-04    5.06      17.3  T
   3    -46.7793318  0.365759E-09  0.140E-04    5.06     121.0  T
     SCC iter.                  ...        0 min,  0.004 sec
     gradient                   ...        0 min,  0.003 sec
 * total energy  :   -46.1605060 Eh     change       -0.7040874E-07 Eh
   gradient norm :     0.0000648 Eh/α   predicted    -0.4405743E-07 ( -37.43%)
   displ. norm   :     0.0030743 α      lambda       -0.2711899E-07
   maximum displ.:     0.0015394 α      in ANC's #6, #4, #2, ...

   *** GEOMETRY OPTIMIZATION CONVERGED AFTER 15 ITERATIONS ***

------------------------------------------------------------------------
 total energy gain   :        -0.0071875 Eh       -4.5103 kcal/mol
 total RMSD          :         0.1416676 a0        0.0750 Å
 total power (kW/mol):        -1.2580606 (step)  -79.4283 (real)
------------------------------------------------------------------------

 ANCopt (total)                0 d,  0 h,  0 min,  0.238 sec
 optimizer setup                ...        0 min,  0.000 sec (  0.067%)
 model hessian                  ...        0 min,  0.049 sec ( 20.483%)
 ANC generation                 ...        0 min,  0.002 sec (  0.767%)
 coordinate transformation      ...        0 min,  0.000 sec (  0.086%)
 single point calculation       ...        0 min,  0.183 sec ( 76.968%)
 optimization log               ...        0 min,  0.002 sec (  0.785%)
 hessian update                 ...        0 min,  0.000 sec (  0.098%)
 rational function              ...        0 min,  0.001 sec (  0.436%)

================
 final structure:
================
$coord
       -0.04073594664942       -1.06769083938445        0.56490551066538      c
       -1.85936233551721        1.09111424723728        1.36435942172630      c
       -0.63513833908113        3.72100214891377        1.04199062247887      c
        1.06480298969414        4.01873418122498       -1.27563806660674      c
        2.75752866774290        1.69388637468094       -1.57677402454441      c
        1.06732094494195       -0.59751783839297       -2.08533828241349      c
        2.36043216902673       -0.91663892332658        2.20780558710073      c
        3.98295769573932        1.03168820879384        0.90792817349227      c
        2.57883862088086       -2.61703173445673       -2.98666041636737      o
       -1.46072169564338       -3.59157121982969        0.80808516214071      c
        6.11465072301182        1.98412202973838        1.78754812065222      c
       -4.49758371223197        0.95661861411198        0.25474788412014      c
       -6.42774830253830        0.36389672376162        1.74089539611901      c
       -2.13734056622566        0.83059308663248        3.40208034101236      h
       -0.00551786103272       -5.76839725314051        0.25023453613418      o
       -4.95610409472399        1.58724858747370       -2.46915270422193      c
       -2.12493107904134        5.14804501985384        1.01062614933930      h
        0.52180559752374        4.08631929251655        2.71024783148891      h
       -0.03767994656264        4.26337674955414       -3.00002093305093      h
        2.23241610845167        5.70170430982685       -1.03222394445253      h
        4.13421599652356        1.96553943671700       -3.08758355853422      h
       -0.38804998795600       -0.18850987992597       -3.49909393003542      h
        3.37213515372938       -2.71834499980152        2.18820097557811      h
        1.95864785674141       -0.43166575925747        4.16923776344274      h
        1.75922010484722       -4.18555541948162       -2.49641412456876      h
       -3.02169096347887       -3.63539016919092       -0.54231198467974      h
       -2.25869848707852       -3.74461131465656        2.71513593891901      h
        6.87175641266276        1.43676754969812        3.59685939247358      h
        7.19251397993202        3.34747786457351        0.72956259352799      h
       -8.33918180093671        0.29570778439873        1.04307821343551      h
       -6.19101380249053       -0.08650007966980        3.71210727945403      h
        1.27091961347890       -5.96826278678278        1.54041399437242      h
       -3.99968312808940        3.32444483041626       -3.00013797488491      h
       -4.28191932008306        0.07970207590332       -3.69747039080522      h
       -6.97009903253863        1.81995215794786       -2.80800571694999      h
$end
 
 Bond Distances (Angstroems)
 ---------------------------
C1-C2=1.5525         C1-C6=1.5403         C1-C7=1.5417         C1-C10=1.5378        C2-C1=1.5525         C2-C3=1.5445         
C2-C12=1.5162        C2-H14=1.0970        C3-C2=1.5445         C3-C4=1.5291         C3-H17=1.0918        C3-H18=1.0916        
C4-C3=1.5291         C4-C5=1.5301         C4-H19=1.0908        C4-H20=1.0916        C5-C4=1.5301         C5-C6=1.5306         
C5-C8=1.5074         C5-H21=1.0911        C6-C1=1.5403         C6-C5=1.5306         C6-O9=1.4175         C6-H22=1.0953        
C7-C1=1.5417         C7-C8=1.5078         C7-H23=1.0935        C7-H24=1.0901        C8-C5=1.5074         C8-C7=1.5078         
C8-C11=1.3203        O9-C6=1.4175         O9-H25=0.9718        C10-C1=1.5378        C10-O15=1.4167       C10-H26=1.0925       
C10-H27=1.0969       C11-C8=1.3203        C11-H28=1.0776       C11-H29=1.0767       C12-C2=1.5162        C12-C13=1.3267       
C12-C16=1.4993       C13-C12=1.3267       C13-H30=1.0774       C13-H31=1.0773       H14-C2=1.0970        O15-C10=1.4167       
O15-H32=0.9662       C16-C12=1.4993       C16-H33=1.0864       C16-H34=1.0891       C16-H35=1.0877       H17-C3=1.0918        
H18-C3=1.0916        H19-C4=1.0908        H20-C4=1.0916        H21-C5=1.0911        H22-C6=1.0953        H23-C7=1.0935        
H24-C7=1.0901        H25-O9=0.9718        H26-C10=1.0925       H27-C10=1.0969       H28-C11=1.0776       H29-C11=1.0767       
H30-C13=1.0774       H31-C13=1.0773       H32-O15=0.9662       H33-C16=1.0864       H34-C16=1.0891       H35-C16=1.0877       
 C  H  Rav=1.0886 sigma=0.0066  Rmin=1.0767  Rmax=1.0970    18
 C  C  Rav=1.4989 sigma=0.0731  Rmin=1.3203  Rmax=1.5525    14
 O  H  Rav=0.9690 sigma=0.0028  Rmin=0.9662  Rmax=0.9718     2
 O  C  Rav=1.4171 sigma=0.0004  Rmin=1.4167  Rmax=1.4175     2
 
 selected bond angles (degree)
 --------------------
C6-C1-C2=111.42                C7-C1-C2=108.61                C7-C1-C6=101.03                C10-C1-C2=108.26               
C10-C1-C6=113.73               C10-C1-C7=113.61               C3-C2-C1=111.90                C12-C2-C1=115.51               
C12-C2-C3=112.69               H14-C2-C1=104.98               H14-C2-C3=106.14               H14-C2-C12=104.55              
C4-C3-C2=115.35                H17-C3-C2=108.79               H17-C3-C4=109.96               H18-C3-C2=107.79               
H18-C3-C4=107.48               H18-C3-H17=107.14              C5-C4-C3=110.19                H19-C4-C3=111.63               
H19-C4-C5=108.75               H20-C4-C3=108.81               H20-C4-C5=109.69               H20-C4-H19=107.74              
C6-C5-C4=108.25                C8-C5-C4=110.36                C8-C5-C6=102.74                H21-C5-C4=111.18               
H21-C5-C6=111.45               H21-C5-C8=112.49               C5-C6-C1=100.97                O9-C6-C1=113.54                
O9-C6-C5=109.07                H22-C6-C1=112.72               H22-C6-C5=111.99               H22-C6-O9=108.42               
C8-C7-C1=104.33                H23-C7-C1=110.67               H23-C7-C8=108.24               H24-C7-C1=112.85               
H24-C7-C8=112.61               H24-C7-H23=108.05              C7-C8-C5=108.18                C11-C8-C5=125.90               
C11-C8-C7=125.93               H25-O9-C6=107.59               O15-C10-C1=115.03              H26-C10-C1=109.46              
H26-C10-O15=104.92             H27-C10-C1=109.22              H27-C10-O15=109.93             H27-C10-H26=108.01             
 
 selected dihedral angles (degree)
 ---------------------------------
C3-C2-C1-C6=308.86            C3-C2-C1-C7= 59.29            C3-C2-C1-C10=183.08           C12-C2-C1-C6= 79.59           
C12-C2-C1-C7=190.01           C12-C2-C1-C10=313.80          H14-C2-C1-C6=194.17           H14-C2-C1-C7=304.59           
H14-C2-C1-C10= 68.38          C4-C3-C2-C1= 37.29            C4-C3-C2-C12=265.13           C4-C3-C2-H14=151.27           
H17-C3-C2-C1=161.35           H17-C3-C2-C12= 29.20          H17-C3-C2-H14=275.33          H18-C3-C2-C1=277.21           
H18-C3-C2-C12=145.05          H18-C3-C2-H14= 31.19          C5-C4-C3-C2=316.49            C5-C4-C3-H17=193.04           
C5-C4-C3-H18= 76.74           H19-C4-C3-C2= 77.43           H19-C4-C3-H17=313.98          H19-C4-C3-H18=197.68          
H20-C4-C3-C2=196.20           H20-C4-C3-H17= 72.75          H20-C4-C3-H18=316.44          C6-C5-C4-C3= 63.88            
C6-C5-C4-H19=301.23           C6-C5-C4-H20=183.64           C8-C5-C4-C3=312.15            C8-C5-C4-H19=189.51           
C8-C5-C4-H20= 71.92           H21-C5-C4-C3=186.61           H21-C5-C4-H19= 63.96          H21-C5-C4-H20=306.37          
C5-C6-C1-C2= 68.29            C5-C6-C1-C7=313.09            C5-C6-C1-C10=190.98           O9-C6-C1-C2=184.86            
O9-C6-C1-C7= 69.67            O9-C6-C1-C10=307.56           H22-C6-C1-C2=308.64           H22-C6-C1-C7=193.44           
H22-C6-C1-C10= 71.34          C1-C6-C5-C4=285.39            C1-C6-C5-C8= 42.14            C1-C6-C5-H21=162.82           
O9-C6-C5-C4=165.56            O9-C6-C5-C8=282.31            O9-C6-C5-H21= 42.99           H22-C6-C5-C4= 45.55           
H22-C6-C5-C8=162.31           H22-C6-C5-H21=282.99          C8-C7-C1-C2=276.56            C8-C7-C1-C6= 33.83            
C8-C7-C1-C10=156.02           H23-C7-C1-C2=160.34           H23-C7-C1-C6=277.62           H23-C7-C1-C10= 39.81          
H24-C7-C1-C2= 39.12           H24-C7-C1-C6=156.40           H24-C7-C1-C10=278.59          C7-C8-C5-C4= 93.89            
C7-C8-C5-C6=338.65            C7-C8-C5-H21=218.68           C11-C8-C5-C4=273.58           C11-C8-C5-C6=158.34           
C11-C8-C5-H21= 38.38          C5-C8-C7-C1=352.02            C5-C8-C7-H23=109.92           C5-C8-C7-H24=229.30           
C11-C8-C7-C1=172.33           C11-C8-C7-H23=290.22          C11-C8-C7-H24= 49.60          H25-O9-C6-C1= 39.77           
H25-O9-C6-C5=151.50           H25-O9-C6-H22=273.69          O15-C10-C1-C2=182.74          O15-C10-C1-C6= 58.32          
O15-C10-C1-C7=303.47          H26-C10-C1-C2= 64.94          H26-C10-C1-C6=300.52          H26-C10-C1-C7=185.67          
H27-C10-C1-C2=306.88          H27-C10-C1-C6=182.46          H27-C10-C1-C7= 67.61          
           -------------------------------------------------
          |                Final Singlepoint                |
           -------------------------------------------------

          ...................................................
          :                      SETUP                      :
          :.................................................:
          :  # basis functions                  80          :
          :  # atomic orbitals                  80          :
          :  # shells                           50          :
          :  # electrons                        84          :
          :  max. iterations                   250          :
          :  Hamiltonian                  GFN2-xTB          :
          :  restarted?                      false          :
          :  GBSA solvation                   true          :
          :  PC potential                    false          :
          :  electronic temp.          300.0000000     K    :
          :  accuracy                    1.0000000          :
          :  -> integral cutoff          0.2500000E+02      :
          :  -> integral neglect         0.1000000E-07      :
          :  -> SCF convergence          0.1000000E-05 Eh   :
          :  -> wf. convergence          0.1000000E-03 e    :
          :  Broyden damping             0.4000000          :
          :  net charge                          0          :
          :  unpaired electrons                  0          :
          ...................................................

 iter      E             dE          RMSdq      gap      omega  full diag
   1    -46.7793318 -0.467793E+02  0.387E-05    5.06       0.0  T
   2    -46.7793318 -0.834177E-11  0.294E-05    5.06     575.7  T
   3    -46.7793318 -0.161720E-10  0.128E-05    5.06    1325.1  T

   *** convergence criteria satisfied after 3 iterations ***

         #    Occupation            Energy/Eh            Energy/eV
      -------------------------------------------------------------
         1        2.0000           -0.7080710             -19.2676
       ...           ...                  ...                  ...
        36        2.0000           -0.4298207             -11.6960
        37        2.0000           -0.4230038             -11.5105
        38        2.0000           -0.4173424             -11.3565
        39        2.0000           -0.4074152             -11.0863
        40        2.0000           -0.4027677             -10.9599
        41        2.0000           -0.3914898             -10.6530
        42        2.0000           -0.3890825             -10.5875 (HOMO)
        43                         -0.2032165              -5.5298 (LUMO)
        44                         -0.1978583              -5.3840
        45                          0.0006116               0.0166
        46                          0.0253104               0.6887
        47                          0.0302144               0.8222
       ...                                ...                  ...
        80                          0.6508059              17.7093
      -------------------------------------------------------------
                  HL-Gap            0.1858661 Eh            5.0577 eV
             Fermi-level           -0.2961495 Eh           -8.0586 eV

 SCC (total)                   0 d,  0 h,  0 min,  0.009 sec
 SCC setup                      ...        0 min,  0.001 sec (  6.622%)
 Dispersion                     ...        0 min,  0.000 sec (  1.853%)
 classical contributions        ...        0 min,  0.000 sec (  0.244%)
 integral evaluation            ...        0 min,  0.001 sec ( 11.297%)
 iterations                     ...        0 min,  0.004 sec ( 45.300%)
 molecular gradient             ...        0 min,  0.003 sec ( 33.176%)
 printout                       ...        0 min,  0.000 sec (  1.135%)

         :::::::::::::::::::::::::::::::::::::::::::::::::::::
         ::                     SUMMARY                     ::
         :::::::::::::::::::::::::::::::::::::::::::::::::::::
         :: total energy             -46.160505980667 Eh    ::
         :: total w/o Gsasa/hb       -46.148421541787 Eh    ::
         :: gradient norm              0.000064664345 Eh/a0 ::
         :: HOMO-LUMO gap              5.057672877992 eV    ::
         ::.................................................::
         :: SCC energy               -46.778668789123 Eh    ::
         :: -> isotropic ES            0.062804848975 Eh    ::
         :: -> anisotropic ES          0.006268110759 Eh    ::
         :: -> anisotropic XC          0.017304548472 Eh    ::
         :: -> dispersion             -0.036130964826 Eh    ::
         :: -> Gsolv                  -0.019984513488 Eh    ::
         ::    -> Gelec               -0.007900074608 Eh    ::
         ::    -> Gsasa               -0.015975458124 Eh    ::
         ::    -> Ghb                  0.000000000000 Eh    ::
         ::    -> Gshift               0.003891019244 Eh    ::
         :: repulsion energy           0.618162808456 Eh    ::
         :: add. restraining           0.000000000000 Eh    ::
         :: total charge              -0.000000000000 e     ::
         :::::::::::::::::::::::::::::::::::::::::::::::::::::

           ------------------------------------------------- 
          |                Numerical Hessian                |
           ------------------------------------------------- 
step length          :   0.00500
SCC accuracy         :   0.30000
Hessian scale factor :   1.00000
frozen atoms in %    :   0.00000    0
RMS gradient         :   0.00006
estimated CPU  time      1.55 min
estimated wall time      0.13 min

writing file <hessian>.

 projected vibrational frequencies (cm⁻¹)
eigval :       -0.00    -0.00    -0.00     0.00     0.00     0.00
eigval :       43.64    76.64   108.20   119.94   121.64   161.30
eigval :      187.62   244.01   253.71   263.68   288.27   303.47
eigval :      310.10   338.24   349.96   361.13   405.73   438.12
eigval :      465.71   481.49   500.17   544.94   572.49   591.42
eigval :      668.36   702.05   719.28   728.76   785.60   825.97
eigval :      874.79   887.03   891.79   895.77   916.50   923.97
eigval :      938.58   953.91   968.89   995.52  1023.05  1031.44
eigval :     1035.43  1055.22  1061.44  1081.77  1085.48  1103.04
eigval :     1128.78  1135.99  1153.27  1167.21  1190.12  1213.47
eigval :     1219.37  1247.94  1255.02  1269.06  1275.41  1282.95
eigval :     1296.97  1308.70  1318.92  1325.03  1336.70  1344.84
eigval :     1349.89  1356.75  1395.84  1412.99  1433.60  1451.50
eigval :     1469.20  1471.75  1482.24  1491.41  1495.37  1704.73
eigval :     1740.37  2905.44  2909.53  2917.78  2944.28  2966.21
eigval :     2973.84  2975.76  2986.32  2987.27  2988.15  2991.87
eigval :     3003.38  3034.65  3046.48  3096.33  3097.65  3114.41
eigval :     3120.11  3383.74  3503.64
           -------------------------------------------------
          |                Property Printout                |
           -------------------------------------------------

    * Orbital Energies and Occupations

         #    Occupation            Energy/Eh            Energy/eV
      -------------------------------------------------------------
         1        2.0000           -0.7080710             -19.2676
       ...           ...                  ...                  ...
        30        2.0000           -0.4677100             -12.7270
        31        2.0000           -0.4649087             -12.6508
        32        2.0000           -0.4583837             -12.4733
        33        2.0000           -0.4463044             -12.1446
        34        2.0000           -0.4408493             -11.9961
        35        2.0000           -0.4383245             -11.9274
        36        2.0000           -0.4298207             -11.6960
        37        2.0000           -0.4230038             -11.5105
        38        2.0000           -0.4173424             -11.3565
        39        2.0000           -0.4074153             -11.0863
        40        2.0000           -0.4027678             -10.9599
        41        2.0000           -0.3914898             -10.6530
        42        2.0000           -0.3890825             -10.5875 (HOMO)
        43                         -0.2032164              -5.5298 (LUMO)
        44                         -0.1978583              -5.3840
        45                          0.0006116               0.0166
        46                          0.0253104               0.6887
        47                          0.0302144               0.8222
        48                          0.0549595               1.4955
        49                          0.0592363               1.6119
        50                          0.0725040               1.9729
        51                          0.0801691               2.1815
        52                          0.0928769               2.5273
        53                          0.1028807               2.7995
       ...                                ...                  ...
        80                          0.6508059              17.7093
      -------------------------------------------------------------
                  HL-Gap            0.1858661 Eh            5.0577 eV
             Fermi-level           -0.2961495 Eh           -8.0586 eV

     #   Z          covCN         q      C6AA      α(0)
     1   6 c        3.935    -0.008    20.658     6.459
     2   6 c        3.862    -0.036    21.182     6.545
     3   6 c        3.803    -0.060    21.661     6.626
     4   6 c        3.809    -0.059    21.635     6.621
     5   6 c        3.891    -0.030    21.048     6.522
     6   6 c        3.775     0.117    18.702     6.162
     7   6 c        3.837    -0.066    21.744     6.634
     8   6 c        2.976     0.017    27.624     8.621
     9   8 o        1.654    -0.506    23.030     6.478
    10   6 c        3.677     0.077    19.506     6.327
    11   6 c        2.838    -0.113    30.845     9.102
    12   6 c        2.936     0.008    27.834     8.652
    13   6 c        2.849    -0.114    30.880     9.108
    14   1 h        0.924     0.045     2.387     2.416
    15   8 o        1.654    -0.475    22.368     6.385
    16   6 c        3.761    -0.112    22.688     6.790
    17   1 h        0.924     0.042     2.419     2.432
    18   1 h        0.924     0.043     2.415     2.430
    19   1 h        0.924     0.039     2.459     2.452
    20   1 h        0.924     0.041     2.431     2.438
    21   1 h        0.924     0.045     2.389     2.417
    22   1 h        0.924     0.020     2.729     2.583
    23   1 h        0.924     0.050     2.319     2.381
    24   1 h        0.925     0.046     2.367     2.406
    25   1 h        0.804     0.320     0.663     1.279
    26   1 h        0.924     0.050     2.323     2.384
    27   1 h        0.924     0.030     2.580     2.512
    28   1 h        0.926     0.033     2.541     2.493
    29   1 h        0.926     0.034     2.530     2.487
    30   1 h        0.926     0.034     2.527     2.486
    31   1 h        0.926     0.027     2.624     2.533
    32   1 h        0.805     0.313     0.682     1.297
    33   1 h        0.925     0.055     2.261     2.352
    34   1 h        0.925     0.046     2.366     2.405
    35   1 h        0.925     0.046     2.369     2.407

 Mol. C6AA /au·bohr⁶  :      10392.213790
 Mol. C8AA /au·bohr⁸  :     233651.183762
 Mol. α(0) /au        :        153.623578


Wiberg/Mayer (AO) data.
largest (>0.10) Wiberg bond orders for each atom

 ---------------------------------------------------------------------------
     #   Z sym  total        # sym  WBO       # sym  WBO       # sym  WBO
 ---------------------------------------------------------------------------
     1   6 c    3.989 --     7 c    0.982    10 c    0.977     6 c    0.967
                             2 c    0.958
     2   6 c    3.992 --    12 c    0.998     3 c    0.982    14 h    0.961
                             1 c    0.958
     3   6 c    3.996 --     4 c    1.009     2 c    0.982    18 h    0.977
                            17 h    0.975
     4   6 c    3.996 --     3 c    1.009     5 c    0.980    20 h    0.976
                            19 h    0.970
     5   6 c    3.995 --     8 c    0.995     4 c    0.980     6 c    0.977
                            21 h    0.962
     6   6 c    3.952 --     9 o    0.983     5 c    0.977     1 c    0.967
                            22 h    0.953
     7   6 c    3.997 --     8 c    1.005     1 c    0.982    24 h    0.967
                            23 h    0.953
     8   6 c    3.986 --    11 c    1.938     7 c    1.005     5 c    0.995
     9   8 o    1.918 --     6 c    0.983    25 h    0.853
    10   6 c    3.944 --    15 o    0.985     1 c    0.977    27 h    0.970
                            26 h    0.969
    11   6 c    3.988 --     8 c    1.938    28 h    0.975    29 h    0.975
    12   6 c    3.986 --    13 c    1.925    16 c    1.027     2 c    0.998
    13   6 c    3.986 --    12 c    1.925    30 h    0.975    31 h    0.975
    14   1 h    0.998 --     2 c    0.961
    15   8 o    1.972 --    10 c    0.985    32 h    0.881
    16   6 c    3.996 --    12 c    1.027    35 h    0.982    33 h    0.968
                            34 h    0.961
    17   1 h    0.998 --     3 c    0.975
    18   1 h    0.998 --     3 c    0.977
    19   1 h    0.998 --     4 c    0.970
    20   1 h    0.997 --     4 c    0.976
    21   1 h    0.998 --     5 c    0.962
    22   1 h    0.999 --     6 c    0.953
    23   1 h    0.997 --     7 c    0.953
    24   1 h    0.998 --     7 c    0.967
    25   1 h    0.897 --     9 o    0.853
    26   1 h    0.997 --    10 c    0.969
    27   1 h    0.999 --    10 c    0.970
    28   1 h    0.998 --    11 c    0.975
    29   1 h    0.998 --    11 c    0.975
    30   1 h    0.998 --    13 c    0.975
    31   1 h    0.999 --    13 c    0.975
    32   1 h    0.902 --    15 o    0.881
    33   1 h    0.997 --    16 c    0.968
    34   1 h    0.998 --    16 c    0.961
    35   1 h    0.997 --    16 c    0.982
 ---------------------------------------------------------------------------

Topologies differ in total number of bonds
Writing topology from bond orders to xtbtopo.mol

molecular dipole:
                 x           y           z       tot (Debye)
 q only:       -0.472       0.511       0.763
   full:       -0.557       0.415       0.986       3.066
molecular quadrupole (traceless):
                xx          xy          yy          xz          yz          zz
 q only:       -2.620      -1.105       1.507       5.249      -5.972       1.113
  q+dip:       -2.001       0.604      -1.493       7.403      -8.972       3.494
   full:       -2.719      -0.628       0.400       6.891      -8.184       2.319

           -------------------------------------------------
          |                Geometry Summary                 |
           -------------------------------------------------

      molecular mass/u    :      208.2971915
   center of mass at/Å    :        0.0006821       0.0017224      -0.0020487
  moments of inertia/u·Å² :        0.6195998E+03   0.8557643E+03   0.1105826E+04
rotational constants/cm⁻¹ :        0.2720729E-01   0.1969892E-01   0.1524439E-01

 * 30 selected distances

     #   Z          #   Z                                           value/Å
     3   6 c        4   6 c                                       1.5291161
     4   6 c        5   6 c                                       1.5301296
     1   6 c        6   6 c                                       1.5403190
     5   6 c        6   6 c                                       1.5305919
     1   6 c        7   6 c                                       1.5416729 (max)
     6   6 c        9   8 o                                       1.4175140
     1   6 c       10   6 c                                       1.5378467
     8   6 c       11   6 c                                       1.3202921
    12   6 c       13   6 c                                       1.3266938
     2   6 c       14   1 h                                       1.0969999
    10   6 c       15   8 o                                       1.4167121
     3   6 c       17   1 h                                       1.0918143
     3   6 c       18   1 h                                       1.0915758
     4   6 c       19   1 h                                       1.0907748
     4   6 c       20   1 h                                       1.0915632
     5   6 c       21   1 h                                       1.0911333
     6   6 c       22   1 h                                       1.0952943
     7   6 c       23   1 h                                       1.0935000
     7   6 c       24   1 h                                       1.0901367
     9   8 o       25   1 h                                       0.9717836
    10   6 c       26   1 h                                       1.0924810
    10   6 c       27   1 h                                       1.0969464
    11   6 c       28   1 h                                       1.0775501
    11   6 c       29   1 h                                       1.0766985
    13   6 c       30   1 h                                       1.0773894
    13   6 c       31   1 h                                       1.0773114
    15   8 o       32   1 h                                       0.9662090 (min)
    16   6 c       33   1 h                                       1.0863659
    16   6 c       34   1 h                                       1.0891268
    16   6 c       35   1 h                                       1.0877326

 * 4 distinct bonds (by element types)

   Z      Z             #   av. dist./Å        max./Å        min./Å
   1 H    6 C          18     1.0885775     1.0969999     1.0766985
   6 C    6 C           8     1.4820828     1.5416729     1.3202921
   1 H    8 O           2     0.9689963     0.9717836     0.9662090
   6 C    8 O           2     1.4171131     1.4175140     1.4167121

           -------------------------------------------------
          |               Frequency Printout                |
           -------------------------------------------------
 projected vibrational frequencies (cm⁻¹)
eigval :       -0.00    -0.00    -0.00     0.00     0.00     0.00
eigval :       43.64    76.64   108.20   119.94   121.64   161.30
eigval :      187.62   244.01   253.71   263.68   288.27   303.47
eigval :      310.10   338.24   349.96   361.13   405.73   438.12
eigval :      465.71   481.49   500.17   544.94   572.49   591.42
eigval :      668.36   702.05   719.28   728.76   785.60   825.97
eigval :      874.79   887.03   891.79   895.77   916.50   923.97
eigval :      938.58   953.91   968.89   995.52  1023.05  1031.44
eigval :     1035.43  1055.22  1061.44  1081.77  1085.48  1103.04
eigval :     1128.78  1135.99  1153.27  1167.21  1190.12  1213.47
eigval :     1219.37  1247.94  1255.02  1269.06  1275.41  1282.95
eigval :     1296.97  1308.70  1318.92  1325.03  1336.70  1344.84
eigval :     1349.89  1356.75  1395.84  1412.99  1433.60  1451.50
eigval :     1469.20  1471.75  1482.24  1491.41  1495.37  1704.73
eigval :     1740.37  2905.44  2909.53  2917.78  2944.28  2966.21
eigval :     2973.84  2975.76  2986.32  2987.27  2988.15  2991.87
eigval :     3003.38  3034.65  3046.48  3096.33  3097.65  3114.41
eigval :     3120.11  3383.74  3503.64
 reduced masses (amu)
   1: 11.62   2: 11.63   3: 11.37   4: 12.18   5: 10.77   6: 10.39   7:  8.90   8:  9.68
   9: 11.31  10:  9.49  11:  9.55  12: 10.73  13:  4.28  14: 10.22  15: 10.17  16:  8.78
  17:  8.14  18:  9.54  19:  8.87  20:  9.09  21:  5.54  22: 10.99  23:  8.66  24:  9.93
  25:  7.35  26:  5.45  27:  7.92  28:  9.16  29:  8.28  30:  9.80  31: 10.27  32:  3.43
  33:  4.78  34:  5.75  35:  9.56  36:  7.92  37:  8.68  38:  6.85  39:  5.21  40:  3.88
  41:  6.39  42:  7.81  43:  7.11  44:  5.75  45:  5.47  46:  5.71  47:  6.41  48:  7.11
  49:  4.62  50: 10.18  51:  6.23  52: 10.20  53:  5.64  54:  6.57  55:  7.79  56:  4.59
  57:  4.86  58:  3.04  59:  7.37  60:  5.49  61:  6.31  62:  7.46  63:  5.59  64:  5.13
  65:  7.71  66:  6.24  67:  4.44  68:  6.49  69:  4.13  70:  4.38  71:  4.32  72:  3.55
  73:  3.78  74:  4.06  75:  3.16  76:  2.37  77:  2.48  78:  1.97  79:  1.79  80:  1.79
  81:  1.68  82:  1.74  83:  1.89  84: 11.20  85: 11.58  86:  1.75  87:  1.75  88:  1.72
  89:  1.85  90:  1.96  91:  1.83  92:  1.87  93:  1.61  94:  1.67  95:  1.60  96:  1.50
  97:  1.82  98:  1.79  99:  1.52 100:  1.52 101:  1.55 102:  2.08 103:  2.06 104:  1.88
 105:  1.87
 IR intensities (km·mol⁻¹)
   1:  0.01   2:  0.03   3:  0.16   4:  0.28   5:  0.16   6:  0.39   7:  0.57   8:  0.25
   9:  7.53  10:  2.12  11:  0.37  12:  1.13  13:  0.99  14: 16.04  15:  1.19  16:  2.16
  17:  0.65  18: 12.39  19: 33.92  20: 20.96  21:173.71  22: 31.80  23:  3.50  24:  3.85
  25: 53.62  26: 67.71  27: 13.46  28:  7.27  29:  1.25  30:  7.99  31:  4.36  32:  0.95
  33:  5.66  34:  5.45  35:  4.73  36:  2.02  37:  1.10  38: 14.99  39:  9.53  40: 21.12
  41: 31.91  42: 19.38  43:  3.22  44: 11.22  45:  0.09  46:  3.68  47:  5.79  48: 36.23
  49:  3.27  50: 50.15  51: 60.06  52: 73.66  53: 51.02  54: 11.77  55:  7.75  56:  2.73
  57: 16.09  58:  7.60  59:  6.50  60: 53.30  61: 21.08  62: 29.18  63:  5.34  64: 19.69
  65:  7.15  66: 17.96  67: 58.73  68: 32.64  69:  6.58  70: 31.31  71: 28.38  72: 20.23
  73: 16.64  74:  2.34  75:  5.32  76:  4.75  77:  7.56  78:  2.61  79:  0.43  80:  4.20
  81:  2.18  82:  2.20  83:  2.64  84: 29.76  85: 30.20  86:  4.17  87:138.87  88: 86.49
  89: 44.13  90: 15.98  91: 35.64  92: 89.43  93:  7.61  94: 29.34  95:173.84  96: 80.57
  97: 40.64  98: 44.68  99: 25.58 100: 45.88 101: 45.08 102: 82.48 103: 62.46 104:245.90
 105: 37.74
 Raman intensities (Ä⁴*amu⁻¹)
   1:  0.00   2:  0.00   3:  0.00   4:  0.00   5:  0.00   6:  0.00   7:  0.00   8:  0.00
   9:  0.00  10:  0.00  11:  0.00  12:  0.00  13:  0.00  14:  0.00  15:  0.00  16:  0.00
  17:  0.00  18:  0.00  19:  0.00  20:  0.00  21:  0.00  22:  0.00  23:  0.00  24:  0.00
  25:  0.00  26:  0.00  27:  0.00  28:  0.00  29:  0.00  30:  0.00  31:  0.00  32:  0.00
  33:  0.00  34:  0.00  35:  0.00  36:  0.00  37:  0.00  38:  0.00  39:  0.00  40:  0.00
  41:  0.00  42:  0.00  43:  0.00  44:  0.00  45:  0.00  46:  0.00  47:  0.00  48:  0.00
  49:  0.00  50:  0.00  51:  0.00  52:  0.00  53:  0.00  54:  0.00  55:  0.00  56:  0.00
  57:  0.00  58:  0.00  59:  0.00  60:  0.00  61:  0.00  62:  0.00  63:  0.00  64:  0.00
  65:  0.00  66:  0.00  67:  0.00  68:  0.00  69:  0.00  70:  0.00  71:  0.00  72:  0.00
  73:  0.00  74:  0.00  75:  0.00  76:  0.00  77:  0.00  78:  0.00  79:  0.00  80:  0.00
  81:  0.00  82:  0.00  83:  0.00  84:  0.00  85:  0.00  86:  0.00  87:  0.00  88:  0.00
  89:  0.00  90:  0.00  91:  0.00  92:  0.00  93:  0.00  94:  0.00  95:  0.00  96:  0.00
  97:  0.00  98:  0.00  99:  0.00 100:  0.00 101:  0.00 102:  0.00 103:  0.00 104:  0.00
 105:  0.00
 output can be read by thermo (or use thermo option).
 writing <g98.out> molden fake output.
 recommended (thermochemical) frequency scaling factor: 1.0
           -------------------------------------------------
          |             Thermodynamic Functions             |
           -------------------------------------------------

Molecule has no symmetry elements
It seems to be the C1 point group
c1  symmetry found (for desy threshold:  0.10E+00) used in thermo

          ...................................................
          :                      SETUP                      :
          :.................................................:
          :  # frequencies                          99      :
          :  # imaginary freq.                       0      :
          :  linear?                             false      :
          :  only rotor calc.                    false      :
          :  symmetry                               c1      :
          :  rotational number                       1      :
          :  scaling factor                  1.0000000      :
          :  rotor cutoff                   50.0000000 cm⁻¹ :
          :  imag. cutoff                  -50.0000000 cm⁻¹ :
          :.................................................:

    mode    ω/cm⁻¹     T·S(HO)/kcal·mol⁻¹    T·S(FR)/kcal·mol⁻¹   T·S(vib)
   ------------------------------------------------------------------------
       1     43.64    -1.51658 ( 36.72%)    -1.09673 ( 63.28%)    -1.25089
       2     76.64    -1.18520 ( 84.66%)    -0.92996 ( 15.34%)    -1.14605
       3    108.20    -0.98415 ( 95.64%)    -0.82780 (  4.36%)    -0.97733
       4    119.94    -0.92468 ( 97.07%)    -0.79731 (  2.93%)    -0.92094
       5    121.64    -0.91656 ( 97.22%)    -0.79314 (  2.78%)    -0.91314
       6    161.30    -0.75566 ( 99.09%)    -0.70955 (  0.91%)    -0.75524
       7    187.62    -0.67121 ( 99.50%)    -0.66478 (  0.50%)    -0.67118
       8    244.01    -0.52876 ( 99.82%)    -0.58693 (  0.18%)    -0.52886
       9    253.71    -0.50825 ( 99.85%)    -0.57539 (  0.15%)    -0.50835
      10    263.68    -0.48814 ( 99.87%)    -0.56396 (  0.13%)    -0.48824
      11    288.27    -0.44249 ( 99.91%)    -0.53755 (  0.09%)    -0.44257
   ------------------------------------------------------------------------

   temp. (K)  partition function   enthalpy   heat capacity  entropy
                                   cal/mol     cal/K/mol   cal/K/mol   J/K/mol
 298.15  VIB  0.257E+05             7667.057     53.763     44.828
         ROT  0.185E+07              888.752      2.981     31.658
         INT  0.476E+11             8555.809     56.744     76.486
         TR   0.291E+28             1481.254      4.968     41.886
         TOT                       10037.0632    61.7117   118.3721   495.2691

       T/K    H(0)-H(T)+PV         H(T)/Eh          T*S/Eh         G(T)/Eh
   ------------------------------------------------------------------------
    298.15    0.159951E-01    0.317528E+00    0.562424E-01    0.261285E+00
   ------------------------------------------------------------------------

         :::::::::::::::::::::::::::::::::::::::::::::::::::::
         ::                  THERMODYNAMIC                  ::
         :::::::::::::::::::::::::::::::::::::::::::::::::::::
         :: total free energy         -45.899220886507 Eh   ::
         ::.................................................::
         :: total energy              -46.160505980660 Eh   ::
         :: zero point energy           0.301532442659 Eh   ::
         :: G(RRHO) w/o ZPVE           -0.040247348506 Eh   ::
         :: G(RRHO) contrib.            0.261285094153 Eh   ::
         :::::::::::::::::::::::::::::::::::::::::::::::::::::

optimized geometry written to: xtbopt.coord


           -------------------------------------------------
          | TOTAL ENERGY              -46.160505980660 Eh   |
          | TOTAL ENTHALPY            -45.842978459672 Eh   |
          | TOTAL FREE ENERGY         -45.899220886507 Eh   |
          | GRADIENT NORM               0.000064693461 Eh/α |
          | HOMO-LUMO GAP               5.057673427126 eV   |
           -------------------------------------------------

------------------------------------------------------------------------
 * finished run on 2026/08/09 at 17:05:41.877     
------------------------------------------------------------------------
 total:
 * wall-time:     0 d,  0 h,  0 min,  1.070 sec
 *  cpu-time:     0 d,  0 h,  0 min, 12.617 sec
 * ratio c/w:    11.793 speedup
 SCF:
 * wall-time:     0 d,  0 h,  0 min,  0.066 sec
 *  cpu-time:     0 d,  0 h,  0 min,  0.725 sec
 * ratio c/w:    10.945 speedup
 ANC optimizer:
 * wall-time:     0 d,  0 h,  0 min,  0.248 sec
 *  cpu-time:     0 d,  0 h,  0 min,  2.966 sec
 * ratio c/w:    11.966 speedup
 analytical hessian:
 * wall-time:     0 d,  0 h,  0 min,  0.715 sec
 *  cpu-time:     0 d,  0 h,  0 min,  8.539 sec
 * ratio c/w:    11.939 speedup

normal termination of xtb
