 Entering Gaussian System
 *********************************************
 Gaussian 98:
 frequency output generated by the xtb code
 *********************************************
                         Standard orientation:
 --------------------------------------------------------------------
  Center     Atomic     Atomic              Coordinates (Angstroms)
  Number     Number      Type              X           Y           Z
 --------------------------------------------------------------------
    1          6             0        0.046121   -0.768698   -0.036147
    2          6             0        0.647790    0.438644   -0.815452
    3          6             0       -0.409962    1.547863   -0.972619
    4          6             0       -1.250872    1.800885    0.277381
    5          6             0       -1.773455    0.477709    0.848156
    6          6             0       -0.586270   -0.369299    1.315342
    7          6             0       -1.218390   -1.251354   -0.777703
    8          6             0       -2.333710   -0.381926   -0.254381
    9          8             0        0.226513    0.299970    2.248627
   10          6             0        1.057806   -1.910106    0.138332
   11          6             0       -3.580256   -0.371614   -0.689831
   12          6             0        1.992372    0.942929   -0.320106
   13          6             0        3.114199    0.411614   -0.791496
   14          1             0        0.842151    0.055736   -1.826925
   15          8             0        1.348491   -2.597197   -1.059652
   16          6             0        2.062747    2.089892    0.641638
   17          1             0        0.078779    2.471030   -1.286860
   18          1             0       -1.088885    1.258142   -1.777419
   19          1             0       -0.672537    2.302808    1.051122
   20          1             0       -2.095429    2.440034    0.012894
   21          1             0       -2.487030    0.669750    1.650974
   22          1             0       -0.976677   -1.288431    1.784802
   23          1             0       -1.120405   -1.191765   -1.861366
   24          1             0       -1.411436   -2.298436   -0.530393
   25          1             0        0.943622   -0.290327    2.507937
   26          1             0        0.638402   -2.672636    0.801780
   27          1             0        1.985156   -1.527686    0.587418
   28          1             0       -3.903788   -1.006717   -1.497682
   29          1             0       -4.326371    0.272168   -0.255911
   30          1             0        4.082171    0.754771   -0.465129
   31          1             0        3.131344   -0.380032   -1.523519
   32          1             0        1.722563   -1.962695   -1.684478
   33          1             0        1.465056    1.895043    1.526459
   34          1             0        3.093200    2.264454    0.942325
   35          1             0        1.688139    2.999295    0.174299
 --------------------------------------------------------------------
     1 basis functions        1 primitive gaussians
     1 alpha electrons        1 beta electrons
 
 Harmonic frequencies (cm**-1), IR intensities (km*mol⁻¹),
 Raman scattering activities (A**4/amu), Raman depolarization ratios,
 reduced masses (AMU), force constants (mDyne/A) and normal coordinates:
                      1                      2                      3
                        a                      a                      a 
 Frequencies --    46.0453                97.2770               109.3193
 Red. masses --    10.1474                 9.5356                12.0961
 Frc consts  --     0.0000                 0.0000                 0.0000
 IR Inten    --     1.0076                 0.2167                 2.5399
 Raman Activ --     0.0000                 0.0000                 0.0000
 Depolar     --     0.0000                 0.0000                 0.0000
 Atom AN      X      Y      Z        X      Y      Z        X      Y      Z
   1   6     0.02  -0.01  -0.07    -0.03   0.07  -0.05     0.09   0.07   0.01
   2   6     0.05   0.02  -0.00     0.09   0.02  -0.03     0.07   0.11   0.04
   3   6     0.01  -0.03  -0.06     0.14   0.06  -0.10     0.04   0.09   0.06
   4   6    -0.00  -0.01  -0.07     0.05   0.08  -0.18    -0.03   0.00   0.03
   5   6     0.06  -0.00   0.01    -0.02   0.13  -0.12    -0.01  -0.04  -0.04
   6   6     0.09   0.01  -0.05    -0.07   0.08  -0.07     0.02   0.02  -0.01
   7   6    -0.01   0.05  -0.06    -0.02   0.14  -0.13     0.14   0.04  -0.06
   8   6    -0.01  -0.02   0.06    -0.07  -0.02   0.03     0.07  -0.06  -0.06
   9   8     0.18   0.06  -0.15    -0.14   0.00   0.02    -0.06   0.06   0.04
  10   6    -0.05  -0.07  -0.15    -0.09   0.03  -0.00     0.07   0.05  -0.02
  11   6    -0.05  -0.10   0.19    -0.22  -0.44   0.42     0.07  -0.22  -0.05
  12   6    -0.01   0.05   0.16     0.10  -0.06   0.03     0.06   0.13   0.02
  13   6     0.05  -0.18   0.57     0.09   0.00  -0.05     0.04   0.19  -0.12
  14   1     0.05   0.02   0.00     0.04  -0.00  -0.00     0.02   0.04   0.01
  15   8    -0.19  -0.07  -0.22     0.08   0.13  -0.02    -0.60  -0.43   0.07
  16   6    -0.12   0.30  -0.12     0.11  -0.19   0.19     0.08   0.04   0.12
  17   1    -0.01  -0.01  -0.03     0.06   0.01  -0.01     0.01   0.03   0.04
  18   1     0.01  -0.03  -0.01     0.06   0.03  -0.05     0.03   0.03   0.00
  19   1    -0.01   0.02  -0.03    -0.00   0.03  -0.04    -0.03  -0.00   0.02
  20   1    -0.01  -0.02  -0.03     0.02   0.02  -0.07    -0.01  -0.00   0.00
  21   1     0.03   0.00   0.01     0.00   0.06  -0.03    -0.01  -0.02  -0.02
  22   1     0.04   0.01   0.00    -0.04   0.02  -0.04     0.01  -0.00  -0.01
  23   1    -0.02   0.04  -0.02    -0.01   0.10  -0.03     0.05   0.03  -0.02
  24   1     0.01   0.01  -0.04     0.01   0.02  -0.10     0.06   0.00  -0.04
  25   1     0.07   0.03  -0.08    -0.06  -0.02   0.03    -0.01   0.03   0.01
  26   1    -0.02  -0.02  -0.04    -0.06  -0.00  -0.03     0.08   0.08   0.11
  27   1     0.00  -0.05  -0.05    -0.04  -0.01   0.05     0.09   0.03  -0.15
  28   1    -0.03  -0.03   0.06    -0.08  -0.18   0.17     0.04  -0.08  -0.01
  29   1    -0.01  -0.04   0.08    -0.08  -0.17   0.16    -0.00  -0.09  -0.02
  30   1     0.00  -0.05   0.21     0.03  -0.01  -0.00     0.02   0.05  -0.05
  31   1     0.05  -0.11   0.23     0.02   0.03  -0.05    -0.01   0.07  -0.05
  32   1    -0.07  -0.01  -0.07     0.06   0.04   0.03    -0.20  -0.18  -0.09
  33   1    -0.04   0.14  -0.03    -0.00  -0.07   0.03     0.01  -0.00   0.02
  34   1    -0.04   0.12  -0.03     0.03  -0.10   0.09     0.02  -0.01   0.05
  35   1    -0.04   0.05  -0.10     0.07  -0.03   0.07     0.04   0.03   0.05
                      4                      5                      6
                        a                      a                      a 
 Frequencies --   122.2012               158.3149               183.0382
 Red. masses --     9.4758                12.1651                 5.9960
 Frc consts  --     0.0000                 0.0000                 0.0000
 IR Inten    --     1.1388                 3.1597                 3.2580
 Raman Activ --     0.0000                 0.0000                 0.0000
 Depolar     --     0.0000                 0.0000                 0.0000
 Atom AN      X      Y      Z        X      Y      Z        X      Y      Z
   1   6     0.00  -0.06  -0.01     0.04  -0.03   0.17    -0.03  -0.07  -0.05
   2   6     0.05  -0.11  -0.06     0.04  -0.11   0.06     0.00  -0.04   0.03
   3   6     0.03  -0.17  -0.26     0.05  -0.14  -0.10     0.02  -0.02   0.01
   4   6     0.17   0.03  -0.21    -0.02  -0.03  -0.16    -0.16  -0.04  -0.09
   5   6     0.13   0.13  -0.03     0.01   0.02   0.00     0.02  -0.05   0.03
   6   6     0.02  -0.02  -0.01     0.02   0.08   0.14     0.08   0.01  -0.03
   7   6    -0.06  -0.01   0.05     0.03  -0.15   0.26    -0.07  -0.03  -0.01
   8   6     0.02   0.09   0.06     0.03  -0.07   0.07    -0.04  -0.02   0.05
   9   8     0.09  -0.29   0.12    -0.14   0.29   0.16     0.23   0.13  -0.26
  10   6    -0.01  -0.07  -0.00     0.04  -0.05  -0.12    -0.06  -0.10  -0.00
  11   6    -0.01   0.19   0.13     0.09  -0.02  -0.10    -0.03   0.17   0.04
  12   6    -0.07   0.09   0.04     0.03  -0.08   0.05    -0.03  -0.01   0.11
  13   6     0.05   0.38  -0.00     0.06   0.03  -0.02     0.00   0.21  -0.05
  14   1     0.05  -0.06   0.00     0.02  -0.06   0.03     0.02   0.00   0.01
  15   8    -0.06  -0.15   0.02    -0.26   0.34  -0.45     0.08  -0.14   0.05
  16   6    -0.31   0.01   0.16     0.00  -0.12   0.10    -0.06  -0.08   0.21
  17   1     0.00  -0.07  -0.14     0.02  -0.05  -0.04     0.02  -0.00   0.04
  18   1    -0.01  -0.10  -0.04     0.03  -0.07  -0.03     0.03   0.01  -0.03
  19   1     0.08   0.03  -0.10    -0.02   0.03  -0.06    -0.10   0.06  -0.03
  20   1     0.05   0.01  -0.06    -0.01  -0.03  -0.08    -0.08  -0.07  -0.08
  21   1     0.05   0.08  -0.00    -0.00   0.03  -0.01     0.02  -0.02   0.02
  22   1    -0.04   0.00  -0.03     0.01   0.03   0.06     0.04   0.01   0.03
  23   1    -0.03  -0.02   0.01     0.01  -0.11   0.07    -0.03  -0.00  -0.00
  24   1    -0.03   0.00   0.03     0.01  -0.03   0.14    -0.02  -0.01  -0.00
  25   1    -0.02  -0.12   0.04    -0.03   0.09   0.09     0.15   0.10  -0.18
  26   1    -0.00  -0.01   0.01     0.04  -0.06  -0.07    -0.04  -0.02  -0.01
  27   1     0.00  -0.02  -0.01     0.04  -0.06  -0.05    -0.03  -0.03   0.02
  28   1    -0.04   0.05   0.05     0.05  -0.02  -0.02    -0.04   0.08  -0.00
  29   1     0.03   0.08   0.04     0.02   0.02  -0.08     0.01   0.06   0.03
  30   1    -0.01   0.16   0.01     0.01   0.02  -0.01    -0.01   0.07  -0.01
  31   1     0.06   0.12  -0.01     0.03   0.02  -0.02     0.01   0.10  -0.06
  32   1     0.01  -0.05   0.00    -0.09   0.14  -0.08     0.07  -0.05   0.03
  33   1     0.01  -0.11   0.09    -0.05  -0.02  -0.00    -0.31   0.14  -0.11
  34   1    -0.09   0.12  -0.03    -0.01  -0.07   0.08    -0.06  -0.26   0.35
  35   1    -0.25  -0.03   0.11     0.05  -0.02   0.01     0.34   0.06  -0.07
                      7                      8                      9
                        a                      a                      a 
 Frequencies --   199.3636               219.0473               257.0392
 Red. masses --     9.1110                 8.9726                10.4880
 Frc consts  --     0.0000                 0.0000                 0.0000
 IR Inten    --     5.0782                 7.2925                 9.8084
 Raman Activ --     0.0000                 0.0000                 0.0000
 Depolar     --     0.0000                 0.0000                 0.0000
 Atom AN      X      Y      Z        X      Y      Z        X      Y      Z
   1   6    -0.06  -0.11   0.07     0.02   0.02   0.06    -0.09   0.01   0.10
   2   6     0.13  -0.13   0.19     0.07  -0.04  -0.00    -0.05  -0.01   0.09
   3   6     0.13  -0.13   0.15     0.09  -0.01   0.01     0.03   0.04  -0.01
   4   6     0.08  -0.11   0.11     0.04  -0.01  -0.01     0.05   0.14  -0.03
   5   6    -0.09  -0.09   0.02     0.01   0.01   0.02    -0.02   0.16  -0.03
   6   6    -0.08  -0.06   0.05    -0.08  -0.09   0.05    -0.08   0.05   0.03
   7   6    -0.05   0.07  -0.10     0.03   0.08  -0.02    -0.01  -0.04   0.09
   8   6    -0.08  -0.00  -0.04     0.01   0.04   0.01     0.02   0.04  -0.02
   9   8    -0.07   0.20  -0.15    -0.25  -0.35   0.38     0.41  -0.35  -0.09
  10   6    -0.26  -0.29   0.05    -0.00  -0.00   0.03    -0.16  -0.01   0.15
  11   6    -0.09  -0.01  -0.03     0.00   0.02   0.04     0.09  -0.31  -0.23
  12   6     0.14   0.04   0.07     0.09   0.02  -0.14    -0.05   0.01   0.06
  13   6     0.17   0.30  -0.14     0.13   0.04  -0.04    -0.08   0.02  -0.04
  14   1     0.04  -0.04   0.05    -0.00  -0.03   0.00    -0.01  -0.02   0.03
  15   8    -0.03  -0.00  -0.07    -0.05   0.05  -0.01    -0.17   0.24   0.05
  16   6     0.13   0.22  -0.13    -0.07   0.20  -0.35     0.05   0.06   0.00
  17   1     0.03  -0.04   0.04     0.03  -0.00   0.02     0.03  -0.01  -0.02
  18   1     0.04  -0.04   0.04     0.03   0.01  -0.00     0.00   0.01   0.00
  19   1     0.03  -0.07   0.05    -0.01   0.02  -0.00     0.02   0.03  -0.01
  20   1     0.05   0.00   0.03     0.01  -0.01  -0.02     0.03   0.06  -0.01
  21   1    -0.03  -0.02  -0.00    -0.00   0.02  -0.00    -0.02   0.05  -0.03
  22   1     0.00  -0.00   0.05    -0.06  -0.04  -0.05    -0.07   0.03   0.01
  23   1     0.01   0.07  -0.02     0.02   0.05  -0.00     0.01  -0.05   0.03
  24   1    -0.03   0.01  -0.09     0.01   0.02  -0.03    -0.02  -0.00   0.06
  25   1    -0.00   0.08  -0.02    -0.03  -0.07   0.03     0.19  -0.10  -0.28
  26   1    -0.16  -0.12  -0.08    -0.00  -0.01   0.00    -0.07  -0.02   0.00
  27   1    -0.10  -0.15   0.11     0.00  -0.01   0.01    -0.05  -0.04   0.07
  28   1    -0.02   0.01  -0.02    -0.00   0.01   0.01     0.13  -0.17  -0.05
  29   1    -0.03  -0.02   0.01     0.00  -0.00   0.03    -0.05  -0.12  -0.16
  30   1     0.04   0.16  -0.11     0.03   0.06  -0.02    -0.02   0.01  -0.04
  31   1     0.06   0.06  -0.01     0.06  -0.02   0.03    -0.04   0.00  -0.01
  32   1     0.11   0.03   0.08    -0.02   0.02   0.00    -0.05   0.10   0.05
  33   1     0.14   0.06   0.03    -0.28   0.21  -0.24     0.01   0.05   0.01
  34   1     0.05   0.16  -0.14    -0.07  -0.09   0.16     0.02  -0.00  -0.01
  35   1    -0.08   0.01  -0.04     0.26   0.09  -0.26     0.04   0.02  -0.02
                     10                     11                     12
                        a                      a                      a 
 Frequencies --   275.6510               283.1495               309.0217
 Red. masses --     8.1017                 7.2995                 8.1918
 Frc consts  --     0.0000                 0.0000                 0.0000
 IR Inten    --    25.8861                19.4864                12.3461
 Raman Activ --     0.0000                 0.0000                 0.0000
 Depolar     --     0.0000                 0.0000                 0.0000
 Atom AN      X      Y      Z        X      Y      Z        X      Y      Z
   1   6     0.05  -0.02  -0.03    -0.09  -0.11  -0.03    -0.01  -0.07  -0.01
   2   6    -0.10  -0.01  -0.10    -0.01  -0.10   0.03    -0.07   0.07   0.13
   3   6     0.00   0.12   0.08     0.13   0.02   0.08    -0.07   0.01  -0.10
   4   6     0.26   0.17   0.24     0.34   0.05   0.19    -0.01   0.09  -0.10
   5   6     0.10   0.12  -0.03    -0.03   0.05  -0.13     0.03   0.08  -0.10
   6   6     0.08   0.07  -0.01    -0.13  -0.06  -0.08    -0.04  -0.03  -0.03
   7   6     0.05  -0.01   0.04    -0.15  -0.22   0.10    -0.05  -0.17   0.12
   8   6     0.13   0.11  -0.05    -0.08   0.04  -0.11     0.00   0.00  -0.04
   9   8    -0.05   0.20   0.03    -0.14   0.05  -0.22    -0.05  -0.11   0.02
  10   6    -0.10  -0.20  -0.07     0.18   0.13  -0.03     0.04  -0.10  -0.12
  11   6     0.13  -0.21  -0.05    -0.14  -0.03   0.07    -0.03   0.01   0.04
  12   6    -0.15  -0.02  -0.07    -0.02  -0.05   0.07    -0.09   0.17   0.19
  13   6    -0.12   0.00   0.02     0.04   0.11   0.04    -0.26   0.02  -0.01
  14   1    -0.05   0.01  -0.04     0.00  -0.01   0.00     0.03   0.02   0.04
  15   8     0.02  -0.16  -0.10     0.12  -0.00   0.02     0.12  -0.18  -0.12
  16   6    -0.32  -0.06  -0.02    -0.03   0.03  -0.01     0.41   0.28   0.07
  17   1     0.02   0.01  -0.00     0.06  -0.01   0.01    -0.01  -0.01  -0.06
  18   1    -0.06   0.06   0.06    -0.00   0.03   0.05    -0.02  -0.03  -0.02
  19   1     0.13  -0.04   0.08     0.16  -0.11   0.09     0.02   0.02  -0.04
  20   1     0.11   0.12   0.14     0.16   0.13   0.12    -0.01   0.03  -0.01
  21   1     0.02   0.01  -0.01    -0.02   0.02  -0.05     0.01   0.03  -0.03
  22   1     0.02   0.03   0.01    -0.04  -0.00  -0.00    -0.06   0.01  -0.02
  23   1     0.02  -0.04   0.01    -0.05  -0.17   0.02    -0.02  -0.13   0.03
  24   1    -0.01   0.01   0.04    -0.07  -0.04   0.13    -0.02  -0.03   0.12
  25   1    -0.09   0.02   0.16     0.04   0.07  -0.14    -0.18  -0.13   0.22
  26   1    -0.11  -0.06  -0.07     0.17   0.04   0.07     0.01  -0.03  -0.04
  27   1    -0.04  -0.12   0.05     0.06   0.14  -0.10     0.01  -0.03  -0.03
  28   1     0.09  -0.13   0.01    -0.09  -0.05   0.07    -0.04  -0.03   0.05
  29   1    -0.01  -0.08  -0.07    -0.01   0.04   0.00     0.02   0.04  -0.00
  30   1    -0.04  -0.00   0.03    -0.00   0.08   0.00    -0.04  -0.04  -0.07
  31   1    -0.02   0.02  -0.02     0.04   0.02   0.03    -0.15   0.01  -0.01
  32   1     0.31  -0.10   0.10    -0.35   0.07  -0.16     0.19  -0.09   0.02
  33   1    -0.18  -0.00  -0.06    -0.05   0.07  -0.02     0.12   0.18   0.05
  34   1    -0.11  -0.06   0.10    -0.01  -0.03   0.04     0.15  -0.04  -0.02
  35   1    -0.00   0.00  -0.04     0.06   0.02  -0.04     0.22   0.11  -0.01
                     13                     14                     15
                        a                      a                      a 
 Frequencies --   316.8673               323.5854               337.5995
 Red. masses --     5.1839                 5.9663                 7.7610
 Frc consts  --     0.0000                 0.0000                 0.0000
 IR Inten    --   152.4892                64.9789                33.2926
 Raman Activ --     0.0000                 0.0000                 0.0000
 Depolar     --     0.0000                 0.0000                 0.0000
 Atom AN      X      Y      Z        X      Y      Z        X      Y      Z
   1   6    -0.05  -0.03  -0.03     0.01  -0.04   0.05    -0.04   0.14  -0.10
   2   6     0.03  -0.02   0.02    -0.03  -0.06   0.03     0.06   0.05  -0.17
   3   6     0.15   0.14   0.15    -0.17  -0.25  -0.13    -0.17  -0.18  -0.13
   4   6    -0.16   0.05  -0.02     0.17  -0.08   0.04     0.17  -0.18   0.11
   5   6    -0.04   0.02  -0.00     0.05  -0.03   0.04    -0.09  -0.09   0.10
   6   6     0.01   0.03  -0.03     0.03  -0.03   0.06    -0.00  -0.01  -0.03
   7   6    -0.08  -0.08   0.07     0.11   0.20  -0.24    -0.12   0.02   0.08
   8   6    -0.06  -0.03   0.03     0.08   0.04  -0.04    -0.18  -0.05   0.11
   9   8     0.29  -0.03  -0.22     0.12   0.10  -0.09     0.07  -0.02  -0.10
  10   6    -0.02   0.02   0.02    -0.04  -0.02   0.12    -0.03   0.22  -0.00
  11   6    -0.04  -0.03  -0.05     0.08  -0.01  -0.01    -0.10  -0.03  -0.14
  12   6     0.08  -0.07  -0.04    -0.12   0.04   0.07     0.09   0.06  -0.10
  13   6     0.17   0.06   0.01    -0.21  -0.03  -0.05     0.22   0.08   0.15
  14   1    -0.02   0.01  -0.01     0.03  -0.03   0.02     0.03  -0.01  -0.04
  15   8    -0.00   0.02   0.03     0.02   0.12   0.08    -0.20   0.11   0.06
  16   6    -0.11  -0.03  -0.09     0.01   0.03   0.08     0.17  -0.05   0.04
  17   1     0.08   0.04   0.12    -0.09  -0.08  -0.13    -0.13  -0.03  -0.11
  18   1     0.08   0.11  -0.01    -0.09  -0.14   0.03    -0.10  -0.13   0.03
  19   1    -0.12   0.07   0.02     0.13  -0.07  -0.02     0.15  -0.15   0.01
  20   1    -0.07  -0.04  -0.07     0.07   0.03   0.08     0.09   0.05   0.12
  21   1    -0.01  -0.00   0.01     0.01  -0.00   0.00    -0.00  -0.00   0.05
  22   1    -0.01   0.03   0.00     0.02   0.00   0.03     0.04  -0.03  -0.02
  23   1    -0.04  -0.06   0.02     0.07   0.20  -0.06    -0.07  -0.04   0.02
  24   1    -0.02  -0.02   0.06     0.01   0.03  -0.22     0.01   0.01   0.07
  25   1    -0.39  -0.31   0.53    -0.17  -0.09   0.27    -0.08  -0.07   0.10
  26   1     0.01   0.00   0.01    -0.01  -0.02   0.01     0.01   0.09   0.03
  27   1    -0.02   0.03   0.00    -0.02  -0.00   0.05    -0.01   0.09  -0.03
  28   1     0.01  -0.02  -0.01     0.04   0.02  -0.03     0.03  -0.01  -0.06
  29   1    -0.02  -0.00  -0.04     0.01  -0.04   0.03    -0.07  -0.03  -0.08
  30   1     0.03   0.07   0.01    -0.04  -0.04  -0.04     0.03   0.03   0.12
  31   1     0.09  -0.01   0.03    -0.10  -0.01  -0.01     0.13   0.04   0.02
  32   1    -0.14   0.04  -0.04    -0.40   0.15  -0.10     0.33  -0.09   0.13
  33   1    -0.06  -0.04  -0.05    -0.07   0.07  -0.02    -0.01  -0.00  -0.03
  34   1    -0.05   0.02   0.01     0.00  -0.10   0.09     0.04  -0.10   0.08
  35   1    -0.04  -0.02  -0.04     0.13   0.04  -0.02     0.14   0.03   0.01
                     16                     17                     18
                        a                      a                      a 
 Frequencies --   355.6698               380.6376               413.9973
 Red. masses --     9.6252                 7.3076                 8.9016
 Frc consts  --     0.0000                 0.0000                 0.0000
 IR Inten    --    45.0227                19.8134                 4.1549
 Raman Activ --     0.0000                 0.0000                 0.0000
 Depolar     --     0.0000                 0.0000                 0.0000
 Atom AN      X      Y      Z        X      Y      Z        X      Y      Z
   1   6     0.01  -0.03   0.08     0.07   0.09  -0.14     0.06  -0.05   0.05
   2   6    -0.04  -0.04   0.05     0.01   0.16  -0.21    -0.01   0.01   0.11
   3   6     0.08   0.04   0.03    -0.09   0.14  -0.06    -0.36  -0.21   0.14
   4   6     0.06  -0.05   0.01    -0.00  -0.03   0.04    -0.24   0.26   0.14
   5   6     0.03  -0.11  -0.18     0.07  -0.10  -0.08    -0.07   0.17  -0.05
   6   6    -0.06  -0.06  -0.02     0.10   0.01  -0.11    -0.10   0.08  -0.07
   7   6     0.18  -0.18  -0.13     0.06  -0.24   0.08     0.11  -0.00  -0.02
   8   6     0.18  -0.13  -0.23     0.10  -0.14  -0.05     0.16   0.21  -0.23
   9   8     0.05  -0.03  -0.17    -0.08  -0.03   0.06    -0.01  -0.06  -0.10
  10   6     0.05   0.11   0.19    -0.33  -0.17   0.12     0.09  -0.09   0.01
  11   6     0.02   0.16   0.24     0.06   0.05   0.09     0.04  -0.01   0.12
  12   6    -0.07  -0.03   0.04     0.03   0.17  -0.17     0.13  -0.07  -0.06
  13   6    -0.11  -0.04  -0.02     0.08   0.06   0.08     0.24   0.04   0.04
  14   1    -0.01  -0.03   0.02    -0.01   0.08  -0.07    -0.03   0.03   0.01
  15   8    -0.36   0.31   0.04    -0.02   0.06   0.11     0.01  -0.05  -0.06
  16   6    -0.08   0.02  -0.02     0.11   0.00   0.05     0.06  -0.12  -0.04
  17   1     0.05   0.01   0.04    -0.05   0.06   0.00    -0.19  -0.08  -0.16
  18   1     0.03   0.05  -0.01    -0.04   0.04  -0.01    -0.16  -0.24   0.15
  19   1     0.01  -0.05   0.03     0.02  -0.04   0.02    -0.07   0.11   0.02
  20   1     0.02   0.00   0.02    -0.01   0.00   0.06    -0.08   0.05  -0.00
  21   1    -0.04  -0.05  -0.09     0.01  -0.05  -0.02    -0.06  -0.04  -0.03
  22   1    -0.02  -0.01   0.01     0.04  -0.02  -0.06    -0.07   0.04  -0.02
  23   1     0.11  -0.06  -0.03    -0.02  -0.19   0.01     0.07  -0.08  -0.01
  24   1     0.05  -0.05  -0.04     0.04  -0.04   0.15    -0.03   0.03   0.06
  25   1    -0.05  -0.05   0.03     0.01   0.02  -0.01    -0.02  -0.04  -0.05
  26   1     0.03   0.03   0.06    -0.26  -0.05  -0.07     0.03  -0.03   0.00
  27   1     0.03   0.03   0.02    -0.11  -0.17   0.19     0.04  -0.03  -0.01
  28   1    -0.17   0.10   0.10    -0.07   0.03   0.05    -0.04  -0.02   0.07
  29   1     0.14   0.12   0.19     0.08   0.07   0.06     0.04   0.01   0.07
  30   1    -0.02  -0.02  -0.03     0.01   0.00   0.08     0.04   0.06   0.05
  31   1    -0.05   0.00  -0.02     0.06   0.01   0.03     0.14   0.01   0.02
  32   1     0.31   0.00   0.17    -0.33   0.14  -0.03     0.00  -0.00  -0.01
  33   1    -0.03   0.02  -0.01     0.03  -0.05   0.01    -0.01  -0.05  -0.03
  34   1    -0.02   0.01  -0.00     0.04  -0.05   0.03     0.01  -0.02   0.02
  35   1    -0.02  -0.00  -0.02     0.05   0.04   0.09     0.01  -0.04  -0.02
                     19                     20                     21
                        a                      a                      a 
 Frequencies --   472.4234               496.3431               508.4752
 Red. masses --     7.6415                10.5841                10.9906
 Frc consts  --     0.0000                 0.0000                 0.0000
 IR Inten    --     0.7535                 7.4429                15.4294
 Raman Activ --     0.0000                 0.0000                 0.0000
 Depolar     --     0.0000                 0.0000                 0.0000
 Atom AN      X      Y      Z        X      Y      Z        X      Y      Z
   1   6    -0.11  -0.15   0.09    -0.04  -0.02  -0.23     0.07  -0.12   0.11
   2   6    -0.28  -0.14  -0.09    -0.01  -0.01  -0.03     0.03  -0.03   0.01
   3   6    -0.05   0.14  -0.06    -0.03   0.00   0.02     0.07  -0.02   0.02
   4   6    -0.03   0.06  -0.04    -0.02   0.11   0.01     0.01   0.03  -0.03
   5   6     0.04   0.03  -0.01     0.18   0.07   0.14    -0.01   0.09   0.12
   6   6    -0.03  -0.00   0.13     0.04  -0.12  -0.22    -0.19  -0.18  -0.06
   7   6    -0.01  -0.02  -0.13    -0.05  -0.07  -0.04     0.03   0.06   0.10
   8   6     0.07  -0.05   0.03     0.16  -0.04   0.32     0.03   0.03   0.25
   9   8     0.03   0.04   0.10    -0.32  -0.05  -0.20    -0.23  -0.07  -0.42
  10   6     0.05  -0.04   0.02    -0.08   0.11   0.02     0.13  -0.14   0.11
  11   6     0.09   0.00   0.01     0.31   0.00   0.04     0.13   0.03   0.03
  12   6    -0.28  -0.08  -0.17    -0.02  -0.29   0.30     0.02   0.38  -0.37
  13   6     0.05   0.26   0.25     0.01   0.08  -0.05    -0.03  -0.10   0.07
  14   1    -0.09  -0.06  -0.02     0.03   0.06  -0.02    -0.03  -0.04   0.01
  15   8    -0.00  -0.02  -0.02    -0.10   0.11   0.09    -0.04   0.04  -0.04
  16   6     0.25  -0.16  -0.12     0.03  -0.01  -0.05    -0.00   0.05   0.07
  17   1     0.08   0.02   0.07    -0.03  -0.01  -0.05     0.05  -0.01   0.04
  18   1    -0.01   0.16  -0.07    -0.02  -0.04   0.03     0.03   0.04  -0.02
  19   1     0.01   0.01  -0.02    -0.04   0.11  -0.02    -0.02   0.06  -0.02
  20   1    -0.02   0.01   0.02    -0.05  -0.04  -0.03    -0.01  -0.02  -0.04
  21   1    -0.01   0.02  -0.02     0.10   0.01   0.09     0.03   0.05   0.06
  22   1    -0.03   0.02   0.06     0.00  -0.05  -0.10    -0.08  -0.04  -0.01
  23   1     0.03   0.14  -0.03    -0.10   0.04  -0.02    -0.02   0.09   0.03
  24   1    -0.02  -0.04  -0.19     0.01  -0.03  -0.04     0.00   0.00  -0.04
  25   1     0.02   0.02   0.00    -0.05   0.05   0.01    -0.06   0.00  -0.06
  26   1     0.07  -0.02   0.03    -0.03   0.05   0.02     0.06  -0.06   0.03
  27   1     0.01   0.03  -0.03    -0.03   0.05   0.02     0.05  -0.04   0.01
  28   1     0.02  -0.00   0.00     0.16  -0.05   0.02     0.10  -0.02   0.01
  29   1     0.03   0.01  -0.00     0.04   0.00  -0.07     0.00   0.00  -0.04
  30   1    -0.08   0.24   0.18    -0.01   0.04  -0.01     0.00  -0.05  -0.00
  31   1     0.24   0.05   0.10     0.02   0.06  -0.06    -0.04  -0.08   0.08
  32   1     0.01  -0.00   0.00     0.00   0.02   0.03     0.03   0.03   0.03
  33   1     0.16  -0.00   0.03     0.04   0.13   0.03    -0.02  -0.16  -0.03
  34   1     0.12  -0.16  -0.14     0.02   0.05  -0.08    -0.01  -0.06   0.08
  35   1     0.12   0.02   0.04    -0.01  -0.08  -0.15     0.01   0.11   0.20
                     22                     23                     24
                        a                      a                      a 
 Frequencies --   524.5873               576.1503               595.0842
 Red. masses --     8.5208                10.2428                 9.5576
 Frc consts  --     0.0000                 0.0000                 0.0000
 IR Inten    --     4.4099                 5.7191                 2.2150
 Raman Activ --     0.0000                 0.0000                 0.0000
 Depolar     --     0.0000                 0.0000                 0.0000
 Atom AN      X      Y      Z        X      Y      Z        X      Y      Z
   1   6    -0.03   0.04   0.06     0.10  -0.18  -0.17     0.34   0.03   0.11
   2   6     0.00   0.11   0.09     0.08  -0.18  -0.10    -0.01   0.07  -0.11
   3   6    -0.07   0.08  -0.01     0.07  -0.18   0.25    -0.07   0.12  -0.08
   4   6     0.05   0.17   0.02    -0.04   0.18   0.10    -0.03  -0.02  -0.02
   5   6    -0.14   0.14  -0.12     0.12   0.07  -0.12    -0.08  -0.01  -0.03
   6   6    -0.15   0.19   0.02     0.28   0.16  -0.25     0.04   0.01  -0.16
   7   6     0.09  -0.14  -0.03    -0.16  -0.10  -0.13     0.17   0.22   0.22
   8   6    -0.09  -0.53   0.30    -0.19  -0.08   0.02    -0.21   0.01   0.05
   9   8     0.06  -0.02   0.01     0.02   0.03   0.25    -0.05  -0.09  -0.14
  10   6    -0.01  -0.03  -0.06     0.14  -0.09   0.16     0.29  -0.27   0.22
  11   6     0.04   0.11  -0.06    -0.18   0.01  -0.10    -0.22   0.04  -0.06
  12   6     0.11  -0.02   0.03    -0.05   0.13  -0.08    -0.10  -0.19   0.15
  13   6     0.09  -0.04  -0.05    -0.09  -0.01   0.03    -0.05   0.09   0.00
  14   1    -0.01   0.03   0.02     0.01   0.03  -0.06    -0.00   0.03  -0.04
  15   8     0.08  -0.10  -0.07    -0.12   0.15   0.04    -0.06   0.02  -0.04
  16   6    -0.06  -0.00   0.00     0.04   0.07   0.05     0.00  -0.07  -0.07
  17   1    -0.05   0.01  -0.09     0.03  -0.08  -0.00    -0.00   0.05   0.03
  18   1    -0.05  -0.05   0.05    -0.03  -0.07   0.12    -0.00   0.08  -0.05
  19   1     0.08  -0.08   0.04    -0.09   0.10   0.06     0.05  -0.08   0.00
  20   1     0.08   0.16   0.07    -0.01   0.01  -0.08     0.02   0.06   0.06
  21   1    -0.05   0.07  -0.05     0.09  -0.04   0.03     0.04   0.01   0.04
  22   1    -0.08   0.07   0.01     0.06   0.04  -0.09     0.01  -0.01  -0.08
  23   1    -0.01   0.21  -0.00    -0.07   0.08  -0.03     0.05   0.06   0.06
  24   1     0.17  -0.12  -0.24    -0.03  -0.05  -0.14     0.06   0.06   0.05
  25   1    -0.01  -0.06  -0.05     0.04   0.03   0.02    -0.03  -0.04  -0.02
  26   1    -0.02  -0.01  -0.03     0.08  -0.03   0.07     0.01  -0.08   0.02
  27   1     0.00  -0.03  -0.01     0.04   0.01   0.01     0.12  -0.18   0.08
  28   1    -0.09  -0.00   0.05    -0.06  -0.08   0.04    -0.06   0.04  -0.04
  29   1     0.11   0.19  -0.08    -0.04   0.08  -0.12    -0.07  -0.01   0.00
  30   1     0.03  -0.03  -0.02    -0.01  -0.00  -0.04    -0.03  -0.04   0.13
  31   1     0.00  -0.01  -0.02    -0.05  -0.03   0.04     0.03   0.13  -0.12
  32   1    -0.00  -0.03  -0.03     0.03   0.06   0.07    -0.04   0.06   0.03
  33   1    -0.05  -0.01  -0.03     0.02  -0.02   0.02     0.03   0.11   0.03
  34   1    -0.04   0.04   0.05     0.02  -0.03   0.00     0.02   0.00  -0.09
  35   1    -0.03  -0.02  -0.03     0.03   0.06   0.08     0.01  -0.07  -0.13
                     25                     26                     27
                        a                      a                      a 
 Frequencies --   612.2640               684.7580               699.9939
 Red. masses --     9.9774                 6.4267                 3.0718
 Frc consts  --     0.0000                 0.0000                 0.0000
 IR Inten    --     3.7118                 0.8852                 3.1205
 Raman Activ --     0.0000                 0.0000                 0.0000
 Depolar     --     0.0000                 0.0000                 0.0000
 Atom AN      X      Y      Z        X      Y      Z        X      Y      Z
   1   6     0.06   0.18  -0.09    -0.11  -0.22  -0.07     0.01  -0.09  -0.09
   2   6     0.12  -0.22  -0.22     0.05  -0.01  -0.24    -0.05  -0.02   0.05
   3   6     0.19  -0.30   0.20    -0.06   0.03  -0.07    -0.09   0.09  -0.10
   4   6    -0.05  -0.12   0.06    -0.07  -0.05   0.02    -0.04   0.05  -0.04
   5   6    -0.32   0.10   0.09    -0.16   0.06   0.11    -0.09   0.03   0.04
   6   6    -0.14   0.32  -0.12    -0.13   0.12   0.07     0.03   0.16  -0.13
   7   6     0.17   0.07   0.07    -0.18  -0.16  -0.16    -0.04  -0.06  -0.09
   8   6     0.12  -0.04   0.05     0.12   0.08   0.02     0.01  -0.06   0.09
   9   8     0.01  -0.06  -0.01     0.06   0.04   0.11    -0.01   0.00   0.06
  10   6    -0.07   0.10  -0.11     0.10  -0.17   0.12     0.10  -0.09   0.08
  11   6     0.15   0.02   0.07     0.14  -0.01   0.06     0.05   0.01   0.01
  12   6    -0.19  -0.01   0.00     0.14   0.07   0.01     0.06  -0.05   0.08
  13   6    -0.18   0.07   0.06     0.11  -0.04  -0.04     0.03  -0.04  -0.04
  14   1     0.04  -0.05  -0.07     0.02   0.02  -0.07     0.01   0.04   0.00
  15   8     0.06  -0.06  -0.03    -0.02   0.02  -0.04    -0.03   0.03  -0.02
  16   6     0.03  -0.01  -0.02    -0.00   0.14   0.10    -0.01   0.03   0.03
  17   1     0.08  -0.07   0.13     0.00   0.04   0.09     0.01   0.02   0.02
  18   1     0.06   0.00   0.02     0.00   0.10  -0.07     0.01   0.05  -0.06
  19   1    -0.04  -0.05   0.05     0.04  -0.06  -0.00     0.09  -0.11  -0.01
  20   1     0.07   0.03  -0.09     0.02   0.05   0.04     0.04   0.13   0.10
  21   1    -0.12   0.00   0.00    -0.09   0.01  -0.01     0.01   0.01   0.04
  22   1    -0.03   0.06  -0.08    -0.05   0.05   0.05    -0.00   0.04  -0.04
  23   1     0.01  -0.04   0.01    -0.07  -0.02  -0.05    -0.03  -0.10  -0.03
  24   1     0.08   0.03   0.09    -0.13  -0.03  -0.06    -0.06   0.01   0.06
  25   1    -0.04  -0.10  -0.07    -0.01  -0.03  -0.01    -0.01  -0.02  -0.02
  26   1    -0.07   0.04  -0.04     0.13  -0.06   0.07     0.05  -0.03   0.03
  27   1    -0.02  -0.01  -0.00     0.03   0.03  -0.04     0.03  -0.01   0.01
  28   1     0.02   0.07  -0.02     0.10   0.07  -0.06     0.13   0.33  -0.30
  29   1     0.06  -0.02   0.10    -0.01  -0.09   0.07    -0.10  -0.33   0.30
  30   1    -0.06   0.02   0.03     0.07  -0.34   0.24     0.02   0.24  -0.30
  31   1    -0.04   0.03   0.01    -0.05   0.26  -0.30    -0.00  -0.26   0.26
  32   1    -0.02  -0.03  -0.05    -0.00   0.06   0.04     0.03   0.02   0.03
  33   1     0.06   0.05   0.04    -0.01   0.10   0.04    -0.02  -0.06  -0.02
  34   1     0.04  -0.08  -0.08    -0.01   0.11   0.02    -0.02  -0.00   0.07
  35   1     0.05   0.03   0.02    -0.02  -0.01  -0.06    -0.00   0.03   0.06
                     28                     29                     30
                        a                      a                      a 
 Frequencies --   721.4368               794.7094               824.6272
 Red. masses --     4.3596                 7.9810                 9.0600
 Frc consts  --     0.0000                 0.0000                 0.0000
 IR Inten    --     5.6735                 8.4580                 3.9917
 Raman Activ --     0.0000                 0.0000                 0.0000
 Depolar     --     0.0000                 0.0000                 0.0000
 Atom AN      X      Y      Z        X      Y      Z        X      Y      Z
   1   6    -0.02   0.03   0.05    -0.01  -0.03   0.04    -0.01  -0.01   0.12
   2   6     0.02   0.04   0.10    -0.15  -0.07   0.48    -0.13  -0.38  -0.28
   3   6     0.16  -0.01   0.12    -0.12  -0.14   0.06    -0.15  -0.05  -0.08
   4   6     0.13   0.24  -0.00    -0.12  -0.11  -0.11    -0.10   0.26   0.10
   5   6     0.14  -0.00  -0.04     0.10  -0.01  -0.19     0.09   0.01   0.01
   6   6    -0.00  -0.11   0.07     0.22   0.16  -0.30     0.09  -0.11   0.02
   7   6     0.06  -0.04  -0.03    -0.04   0.09   0.07     0.18   0.04   0.18
   8   6    -0.10  -0.21   0.04     0.03   0.01   0.05    -0.05  -0.05  -0.07
   9   8    -0.02  -0.00  -0.04    -0.05  -0.04   0.02    -0.05  -0.04  -0.07
  10   6    -0.08   0.06  -0.06    -0.11   0.08  -0.09    -0.15   0.14  -0.12
  11   6    -0.10  -0.00  -0.08     0.08   0.02   0.03    -0.10  -0.03  -0.07
  12   6    -0.09   0.07  -0.11     0.02   0.09  -0.13     0.12  -0.06   0.03
  13   6    -0.06   0.03   0.05     0.04  -0.04   0.02     0.17  -0.07  -0.06
  14   1    -0.03  -0.02   0.03    -0.05  -0.05   0.14    -0.05  -0.15  -0.06
  15   8     0.02  -0.01   0.02     0.01   0.01   0.04     0.02   0.01   0.04
  16   6     0.00  -0.07  -0.07    -0.02  -0.03  -0.06     0.01   0.25   0.22
  17   1    -0.00  -0.05  -0.17     0.10  -0.05   0.19     0.14  -0.07   0.09
  18   1    -0.04  -0.15   0.15     0.10   0.08  -0.14    -0.07   0.20  -0.08
  19   1    -0.09   0.16   0.03     0.15  -0.23  -0.04     0.02   0.07  -0.01
  20   1    -0.01  -0.04  -0.12     0.05   0.14   0.15    -0.04   0.07   0.07
  21   1     0.06   0.05  -0.00     0.10  -0.05   0.03     0.06  -0.06   0.04
  22   1    -0.01  -0.02   0.03     0.01   0.05  -0.10     0.01  -0.03  -0.01
  23   1     0.04  -0.09  -0.01    -0.01   0.02   0.02     0.15   0.10   0.06
  24   1     0.04  -0.00   0.06    -0.02   0.03   0.03     0.06  -0.02  -0.06
  25   1     0.01   0.03   0.02    -0.01  -0.01  -0.01     0.01   0.04   0.03
  26   1    -0.03   0.02  -0.01    -0.01   0.03  -0.00    -0.03   0.03  -0.03
  27   1    -0.02   0.02  -0.01    -0.04   0.06  -0.03    -0.06   0.06  -0.02
  28   1     0.03   0.32  -0.29     0.06   0.00  -0.00    -0.09   0.07  -0.06
  29   1    -0.11  -0.29   0.28    -0.00  -0.03   0.02     0.01  -0.02   0.07
  30   1    -0.04  -0.16   0.25    -0.01  -0.11   0.18     0.09  -0.07  -0.07
  31   1     0.02   0.20  -0.19     0.05   0.15  -0.17    -0.01  -0.02  -0.02
  32   1    -0.02  -0.01  -0.02    -0.01  -0.01  -0.01    -0.00  -0.04  -0.04
  33   1     0.02   0.02  -0.00    -0.02  -0.04  -0.03     0.01   0.09   0.07
  34   1     0.02  -0.03  -0.06    -0.02   0.02   0.01    -0.00   0.10   0.07
  35   1     0.01  -0.02  -0.03    -0.01  -0.00  -0.00    -0.00   0.06   0.04
                     31                     32                     33
                        a                      a                      a 
 Frequencies --   874.4482               890.1930               892.4456
 Red. masses --     8.2575                 4.1824                 4.0167
 Frc consts  --     0.0000                 0.0000                 0.0000
 IR Inten    --     0.2594                17.4359                33.1911
 Raman Activ --     0.0000                 0.0000                 0.0000
 Depolar     --     0.0000                 0.0000                 0.0000
 Atom AN      X      Y      Z        X      Y      Z        X      Y      Z
   1   6     0.08   0.04  -0.13    -0.01  -0.00   0.06     0.02   0.01   0.02
   2   6     0.04  -0.03   0.20    -0.01   0.04   0.00    -0.06   0.02   0.01
   3   6     0.02  -0.08  -0.14     0.02   0.02   0.00    -0.04  -0.07   0.05
   4   6    -0.06   0.26  -0.02     0.04  -0.06   0.01     0.04  -0.06  -0.01
   5   6    -0.20   0.11   0.46     0.03  -0.02   0.01     0.07   0.05  -0.00
   6   6     0.03  -0.15   0.03     0.02   0.10  -0.07    -0.04   0.03   0.01
   7   6     0.14  -0.19  -0.29    -0.03  -0.11   0.11     0.00  -0.09  -0.04
   8   6    -0.05   0.01  -0.05     0.03   0.12  -0.10    -0.02   0.02   0.01
   9   8     0.02   0.02   0.02    -0.03  -0.02  -0.02    -0.00   0.01  -0.01
  10   6     0.08   0.05  -0.02    -0.01   0.03  -0.01     0.07   0.06  -0.01
  11   6    -0.15  -0.07  -0.01    -0.12  -0.32   0.29    -0.02   0.08  -0.05
  12   6    -0.01   0.04  -0.02     0.00  -0.01   0.01     0.00  -0.08   0.08
  13   6    -0.04   0.02   0.02    -0.00   0.04  -0.05     0.01   0.28  -0.35
  14   1     0.06  -0.02   0.07     0.00   0.01   0.00    -0.01   0.01   0.00
  15   8    -0.03   0.02   0.03     0.01  -0.01  -0.01    -0.02   0.01   0.01
  16   6    -0.01  -0.07  -0.08     0.00  -0.00  -0.01     0.01   0.04  -0.01
  17   1     0.13  -0.05   0.07    -0.03   0.01  -0.03     0.01  -0.01   0.07
  18   1     0.11   0.06  -0.15    -0.01  -0.02   0.03     0.00   0.03  -0.01
  19   1     0.16   0.06  -0.13    -0.02   0.01   0.01     0.01   0.02  -0.02
  20   1     0.04   0.17   0.06    -0.00  -0.04  -0.02    -0.00  -0.04  -0.02
  21   1    -0.01  -0.02   0.18     0.02  -0.00   0.01     0.03   0.04   0.00
  22   1     0.09  -0.08  -0.01    -0.01   0.03  -0.03    -0.03   0.02   0.01
  23   1     0.01  -0.18  -0.09     0.06   0.13   0.04     0.02   0.00  -0.01
  24   1     0.09  -0.03   0.06    -0.02  -0.06  -0.14    -0.01  -0.03  -0.04
  25   1     0.04   0.07   0.06    -0.02  -0.03  -0.03    -0.01  -0.01  -0.02
  26   1    -0.10   0.02  -0.07    -0.02   0.00  -0.02    -0.07   0.01  -0.06
  27   1     0.02  -0.09   0.08    -0.00  -0.01   0.01     0.01  -0.07   0.07
  28   1    -0.09   0.01  -0.00     0.15   0.44  -0.41     0.01  -0.08   0.06
  29   1     0.02   0.14  -0.12     0.11   0.36  -0.34    -0.07  -0.10   0.06
  30   1    -0.02  -0.02   0.05    -0.00  -0.05   0.07    -0.01  -0.39   0.45
  31   1    -0.01   0.04  -0.03     0.00  -0.05   0.06     0.03  -0.37   0.39
  32   1    -0.01  -0.03  -0.03     0.00  -0.02  -0.02     0.02  -0.06  -0.05
  33   1    -0.01  -0.05  -0.03    -0.00  -0.01  -0.01    -0.01  -0.06  -0.03
  34   1    -0.01  -0.02  -0.01    -0.00  -0.00   0.01    -0.01   0.00   0.04
  35   1    -0.00  -0.01  -0.00    -0.00   0.00   0.00    -0.00   0.04   0.06
                     34                     35                     36
                        a                      a                      a 
 Frequencies --   901.1650               916.9797               927.6027
 Red. masses --     7.1566                 6.2633                 6.8552
 Frc consts  --     0.0000                 0.0000                 0.0000
 IR Inten    --    14.9938                11.1182                 0.9916
 Raman Activ --     0.0000                 0.0000                 0.0000
 Depolar     --     0.0000                 0.0000                 0.0000
 Atom AN      X      Y      Z        X      Y      Z        X      Y      Z
   1   6    -0.02  -0.08  -0.07     0.17   0.05  -0.03    -0.02  -0.08   0.13
   2   6     0.16  -0.06  -0.02    -0.03  -0.06  -0.04     0.22   0.04  -0.00
   3   6     0.10   0.07  -0.08     0.00  -0.08   0.09     0.11   0.10  -0.15
   4   6    -0.19   0.27  -0.02    -0.11   0.10  -0.08    -0.11   0.06   0.08
   5   6    -0.21  -0.13  -0.14    -0.07  -0.04  -0.28    -0.12  -0.06   0.11
   6   6     0.11  -0.24   0.04    -0.03  -0.23   0.15     0.11   0.05  -0.11
   7   6    -0.09   0.31   0.12    -0.21  -0.02   0.01    -0.06  -0.31   0.27
   8   6     0.07  -0.09   0.04     0.03   0.05   0.07     0.04   0.17  -0.12
   9   8     0.04   0.00   0.03     0.06   0.02   0.02    -0.04  -0.03  -0.03
  10   6    -0.12  -0.11   0.01     0.28   0.20  -0.08    -0.06   0.09  -0.07
  11   6     0.15  -0.10   0.04     0.07   0.05   0.11     0.01   0.09  -0.05
  12   6    -0.03   0.01   0.04     0.01  -0.01  -0.02    -0.01   0.10   0.04
  13   6    -0.05   0.13  -0.07     0.03  -0.03   0.04    -0.05   0.11   0.10
  14   1     0.06  -0.01  -0.00    -0.03  -0.01  -0.02     0.12  -0.03   0.03
  15   8     0.01   0.03   0.02    -0.08   0.05   0.10     0.01   0.01   0.03
  16   6    -0.01  -0.05  -0.06    -0.01   0.02   0.03    -0.02  -0.17  -0.15
  17   1     0.03  -0.02  -0.14     0.04  -0.05   0.01    -0.05   0.05  -0.11
  18   1     0.02  -0.07   0.01     0.00  -0.00   0.02     0.04  -0.07  -0.02
  19   1     0.01  -0.12   0.07    -0.00  -0.11   0.05     0.01  -0.03   0.02
  20   1     0.04   0.22   0.07     0.04   0.13   0.01    -0.01   0.06   0.06
  21   1    -0.13  -0.12  -0.08    -0.13  -0.00  -0.18    -0.02  -0.13   0.07
  22   1     0.10  -0.09   0.02     0.01  -0.06   0.05     0.06  -0.01  -0.05
  23   1    -0.12  -0.01   0.02    -0.16   0.07  -0.00     0.16   0.28   0.10
  24   1    -0.03   0.11   0.13    -0.10  -0.01  -0.06    -0.09  -0.15  -0.31
  25   1     0.06   0.09   0.08     0.04   0.06   0.05    -0.01  -0.01  -0.01
  26   1     0.15  -0.03   0.11    -0.28   0.05  -0.24    -0.03   0.00  -0.05
  27   1    -0.05   0.16  -0.12     0.07  -0.27   0.26    -0.02   0.00   0.02
  28   1    -0.04   0.07  -0.02     0.18   0.02  -0.04    -0.01  -0.08   0.07
  29   1     0.17   0.13   0.00    -0.07  -0.05  -0.04    -0.08  -0.19   0.15
  30   1    -0.00  -0.14   0.13     0.02   0.03  -0.06     0.05  -0.07  -0.06
  31   1    -0.05  -0.11   0.14    -0.02   0.05  -0.05    -0.18   0.03   0.02
  32   1     0.02   0.07   0.08    -0.02  -0.15  -0.14     0.00  -0.06  -0.05
  33   1     0.01  -0.03  -0.01     0.01   0.03   0.02     0.01  -0.05  -0.03
  34   1     0.01  -0.06  -0.03     0.00   0.00  -0.01     0.01  -0.09  -0.07
  35   1     0.01   0.01   0.02     0.01   0.01  -0.00     0.01  -0.03  -0.02
                     37                     38                     39
                        a                      a                      a 
 Frequencies --   943.2866               954.7400               960.0825
 Red. masses --     6.9739                 6.0351                 5.9436
 Frc consts  --     0.0000                 0.0000                 0.0000
 IR Inten    --    13.7665                 4.9192                 4.7816
 Raman Activ --     0.0000                 0.0000                 0.0000
 Depolar     --     0.0000                 0.0000                 0.0000
 Atom AN      X      Y      Z        X      Y      Z        X      Y      Z
   1   6    -0.03   0.06   0.02     0.03  -0.08  -0.11     0.03  -0.08  -0.08
   2   6    -0.21  -0.06   0.15    -0.03   0.21  -0.04     0.01   0.16  -0.05
   3   6     0.18   0.14  -0.17    -0.11  -0.18   0.21     0.06  -0.07   0.13
   4   6     0.12   0.00   0.07     0.11  -0.06  -0.15    -0.04   0.01  -0.16
   5   6    -0.23  -0.14   0.17    -0.01   0.21   0.06    -0.17   0.05  -0.03
   6   6     0.09   0.12  -0.18     0.02  -0.15   0.06     0.07  -0.18   0.02
   7   6    -0.17   0.05   0.06    -0.13   0.02   0.22     0.20  -0.18   0.11
   8   6     0.06   0.00  -0.06     0.04  -0.01  -0.11    -0.02   0.13   0.01
   9   8    -0.01  -0.02   0.01     0.02   0.00   0.00     0.04   0.00   0.02
  10   6     0.14   0.01   0.02     0.02  -0.00  -0.03    -0.15  -0.04  -0.04
  11   6     0.12  -0.07  -0.09     0.08  -0.21  -0.22    -0.08   0.14   0.11
  12   6    -0.02  -0.09  -0.09     0.01   0.01   0.02    -0.05  -0.08  -0.05
  13   6    -0.01  -0.16  -0.14    -0.01  -0.00   0.02    -0.11  -0.18  -0.15
  14   1    -0.06  -0.10   0.07    -0.01   0.19  -0.06    -0.00   0.15  -0.05
  15   8    -0.02  -0.01   0.01    -0.02   0.02   0.04     0.01   0.00   0.01
  16   6     0.05   0.20   0.15     0.02  -0.05  -0.03     0.05   0.14   0.12
  17   1     0.04  -0.03  -0.24    -0.03   0.01   0.21    -0.03   0.00   0.02
  18   1    -0.05  -0.07   0.08     0.04   0.05  -0.04     0.05  -0.06   0.02
  19   1    -0.10   0.08   0.06     0.09   0.04  -0.12     0.04  -0.09  -0.01
  20   1     0.00  -0.08  -0.09     0.08   0.02  -0.10     0.10   0.14  -0.07
  21   1    -0.07  -0.10   0.05     0.02   0.15   0.02    -0.08   0.04  -0.04
  22   1     0.13  -0.03  -0.08    -0.00  -0.03   0.01     0.05  -0.07  -0.00
  23   1    -0.07   0.07   0.02    -0.07   0.17   0.06     0.16   0.08   0.04
  24   1    -0.10   0.01  -0.04    -0.08  -0.02  -0.11     0.07  -0.08  -0.11
  25   1    -0.03  -0.04  -0.02     0.04   0.08   0.06     0.06   0.09   0.08
  26   1    -0.07  -0.00  -0.07    -0.02   0.01  -0.01     0.07   0.02   0.09
  27   1     0.04  -0.10   0.08    -0.00  -0.00   0.02    -0.04   0.11  -0.10
  28   1    -0.16  -0.02   0.06    -0.36   0.12  -0.04     0.19  -0.05   0.01
  29   1     0.16   0.02   0.13     0.29   0.04   0.27    -0.20  -0.10  -0.08
  30   1    -0.11   0.10   0.16    -0.01   0.05  -0.03    -0.18   0.21   0.15
  31   1     0.28  -0.01  -0.07     0.00   0.00   0.00     0.33  -0.04  -0.04
  32   1    -0.01  -0.04  -0.04     0.00   0.00   0.01     0.00   0.08   0.09
  33   1    -0.02   0.01   0.01    -0.02  -0.02  -0.02    -0.03   0.01   0.00
  34   1    -0.02   0.11   0.11    -0.01   0.03   0.01    -0.02   0.12   0.10
  35   1    -0.02   0.04   0.05    -0.02  -0.03  -0.03    -0.03   0.00   0.00
                     40                     41                     42
                        a                      a                      a 
 Frequencies --   996.8252              1015.6857              1027.5206
 Red. masses --     7.0588                 5.0552                 8.8049
 Frc consts  --     0.0000                 0.0000                 0.0000
 IR Inten    --     1.8570                13.3804                83.9047
 Raman Activ --     0.0000                 0.0000                 0.0000
 Depolar     --     0.0000                 0.0000                 0.0000
 Atom AN      X      Y      Z        X      Y      Z        X      Y      Z
   1   6     0.02   0.05   0.10    -0.03  -0.12   0.07    -0.02   0.41   0.11
   2   6     0.41   0.01  -0.09     0.08   0.01  -0.02    -0.02   0.11   0.03
   3   6    -0.00  -0.05  -0.08     0.12   0.16   0.13    -0.02  -0.16   0.05
   4   6    -0.22   0.08   0.16    -0.16  -0.10  -0.16     0.03   0.13  -0.03
   5   6     0.31   0.01  -0.04     0.04   0.08   0.09     0.05  -0.09   0.01
   6   6    -0.11   0.08   0.14     0.04   0.01   0.01     0.09   0.01   0.07
   7   6    -0.16  -0.00  -0.04     0.05   0.00  -0.09    -0.23  -0.11  -0.01
   8   6    -0.00  -0.05  -0.03    -0.02   0.03   0.02     0.04  -0.00  -0.09
   9   8    -0.04  -0.00  -0.05    -0.02  -0.02  -0.02    -0.05  -0.06  -0.08
  10   6     0.01   0.05   0.02     0.02   0.03  -0.07    -0.05   0.01   0.33
  11   6     0.00  -0.06  -0.06     0.00  -0.05  -0.06     0.02   0.02   0.02
  12   6    -0.05   0.01  -0.00    -0.05  -0.09  -0.14    -0.00  -0.02  -0.07
  13   6    -0.23  -0.13  -0.11     0.13  -0.07  -0.07     0.09  -0.03  -0.04
  14   1     0.20  -0.08   0.03    -0.09  -0.01  -0.02    -0.06  -0.03   0.02
  15   8     0.01  -0.02  -0.03    -0.02   0.04   0.06     0.10  -0.18  -0.31
  16   6     0.05   0.02   0.02    -0.27   0.11   0.16    -0.17   0.00   0.09
  17   1    -0.04   0.05   0.09    -0.17   0.10  -0.10     0.06  -0.05   0.09
  18   1     0.10  -0.01  -0.10     0.06  -0.20   0.10     0.06   0.02  -0.06
  19   1     0.07  -0.04  -0.01     0.06  -0.20  -0.00     0.08   0.07  -0.09
  20   1    -0.10   0.04   0.22     0.04   0.12   0.07     0.02   0.05  -0.02
  21   1     0.12  -0.09   0.05     0.17   0.09   0.15    -0.09  -0.11  -0.07
  22   1    -0.15   0.09   0.06    -0.08   0.05   0.03     0.11  -0.08  -0.07
  23   1    -0.09  -0.01  -0.01     0.09  -0.07  -0.02    -0.12   0.07  -0.01
  24   1    -0.04   0.00   0.00    -0.08   0.03   0.02     0.07  -0.07  -0.08
  25   1    -0.04  -0.06  -0.06     0.00   0.01   0.02    -0.01   0.01   0.02
  26   1    -0.02   0.01  -0.02    -0.02  -0.03  -0.07     0.02   0.07   0.17
  27   1     0.02  -0.03   0.02    -0.02  -0.00   0.04     0.07  -0.03  -0.07
  28   1    -0.08   0.03  -0.02    -0.10  -0.01   0.02     0.05  -0.00  -0.01
  29   1     0.06   0.01   0.05     0.07   0.05   0.02    -0.04  -0.05   0.02
  30   1    -0.21   0.22   0.16     0.04  -0.04  -0.02     0.04  -0.02  -0.04
  31   1     0.27  -0.02  -0.03     0.05  -0.06   0.02     0.02  -0.06   0.04
  32   1     0.01  -0.03  -0.03     0.00  -0.07  -0.06     0.00   0.13   0.10
  33   1    -0.03  -0.02  -0.03     0.15   0.28   0.24     0.08   0.20   0.15
  34   1    -0.02   0.08   0.06     0.06  -0.24  -0.23     0.03  -0.13  -0.16
  35   1    -0.03  -0.03  -0.03     0.14   0.13   0.07     0.09   0.03  -0.02
                     43                     44                     45
                        a                      a                      a 
 Frequencies --  1040.4485              1055.9199              1075.6770
 Red. masses --     4.4776                 7.2198                 7.6352
 Frc consts  --     0.0000                 0.0000                 0.0000
 IR Inten    --     2.4361                55.3620                33.6882
 Raman Activ --     0.0000                 0.0000                 0.0000
 Depolar     --     0.0000                 0.0000                 0.0000
 Atom AN      X      Y      Z        X      Y      Z        X      Y      Z
   1   6     0.03   0.03  -0.11     0.13  -0.13  -0.18    -0.05  -0.05   0.17
   2   6     0.04  -0.00   0.03     0.13   0.02   0.20    -0.07   0.26  -0.12
   3   6    -0.04   0.01  -0.02    -0.14  -0.02  -0.16     0.03  -0.17   0.09
   4   6    -0.00  -0.00   0.02     0.15   0.03   0.19     0.08   0.20  -0.12
   5   6     0.04   0.00  -0.02    -0.04  -0.01  -0.05     0.06  -0.28   0.09
   6   6    -0.08  -0.02   0.03    -0.13   0.01  -0.04     0.07   0.21   0.12
   7   6     0.01  -0.02   0.07     0.04   0.01   0.13    -0.09   0.10  -0.04
   8   6     0.00   0.03  -0.02     0.00  -0.00  -0.02     0.01  -0.14  -0.02
   9   8     0.02   0.04   0.02     0.05   0.07   0.07    -0.12  -0.06  -0.09
  10   6     0.00  -0.01   0.01     0.01  -0.13  -0.27     0.05  -0.12  -0.21
  11   6    -0.01  -0.00  -0.01    -0.03   0.03   0.02     0.00   0.04   0.04
  12   6    -0.02  -0.25   0.21     0.01   0.06  -0.10     0.00  -0.05   0.05
  13   6     0.05  -0.05  -0.01     0.04  -0.08  -0.08     0.02  -0.01   0.00
  14   1     0.04   0.05  -0.01     0.09   0.02   0.05    -0.05   0.19  -0.08
  15   8     0.00  -0.02  -0.02    -0.06   0.13   0.24    -0.04   0.10   0.21
  16   6    -0.12   0.28  -0.27    -0.21  -0.05   0.10    -0.02   0.03  -0.04
  17   1     0.01  -0.01   0.00     0.05  -0.01   0.09     0.07  -0.06   0.07
  18   1     0.01  -0.03  -0.01     0.01   0.10  -0.11     0.06   0.01  -0.04
  19   1     0.02   0.02  -0.03    -0.00   0.22  -0.06     0.12   0.09  -0.13
  20   1    -0.05  -0.04   0.05    -0.11  -0.19   0.01     0.09   0.11  -0.10
  21   1    -0.02   0.01  -0.03    -0.17  -0.05  -0.14    -0.04  -0.29   0.03
  22   1    -0.01  -0.01   0.01     0.00  -0.00   0.01     0.06   0.04   0.06
  23   1    -0.06   0.06   0.02    -0.16   0.09   0.02     0.19  -0.07   0.01
  24   1     0.06  -0.03  -0.03     0.12  -0.03  -0.01    -0.21   0.07   0.03
  25   1    -0.00  -0.02  -0.03    -0.03  -0.07  -0.05    -0.11  -0.16  -0.14
  26   1    -0.01   0.04   0.04     0.04  -0.03  -0.04     0.08  -0.11  -0.09
  27   1     0.02  -0.02  -0.02    -0.03   0.04  -0.05    -0.00  -0.01  -0.02
  28   1    -0.01   0.01  -0.01     0.04   0.02  -0.03     0.07  -0.05   0.03
  29   1    -0.01  -0.02   0.02    -0.05  -0.04   0.00    -0.03   0.02  -0.07
  30   1     0.01  -0.03   0.02    -0.02   0.02   0.02     0.01   0.02  -0.03
  31   1     0.04   0.14  -0.17     0.11  -0.06   0.03    -0.00   0.01  -0.01
  32   1    -0.01   0.05   0.05    -0.00   0.01   0.04     0.00  -0.06  -0.03
  33   1     0.07  -0.34  -0.08     0.09   0.23   0.17     0.01  -0.04  -0.01
  34   1     0.01  -0.30   0.01     0.04  -0.15  -0.21    -0.00  -0.02   0.01
  35   1     0.06   0.38   0.48     0.10   0.01  -0.05     0.01   0.04   0.04
                     46                     47                     48
                        a                      a                      a 
 Frequencies --  1083.5216              1097.0055              1123.6581
 Red. masses --     6.6453                 8.6025                 6.7631
 Frc consts  --     0.0000                 0.0000                 0.0000
 IR Inten    --     8.9058                 2.1576                27.9836
 Raman Activ --     0.0000                 0.0000                 0.0000
 Depolar     --     0.0000                 0.0000                 0.0000
 Atom AN      X      Y      Z        X      Y      Z        X      Y      Z
   1   6     0.07  -0.10  -0.31    -0.12  -0.31  -0.11     0.15   0.08   0.20
   2   6    -0.21   0.01   0.03     0.07   0.10   0.03    -0.06   0.21  -0.05
   3   6     0.19  -0.05   0.01    -0.07  -0.05  -0.06     0.03  -0.16  -0.13
   4   6    -0.12   0.06  -0.08     0.11   0.07   0.06    -0.00   0.02   0.12
   5   6     0.16  -0.23   0.08    -0.06  -0.07  -0.05    -0.08   0.02  -0.10
   6   6    -0.29   0.04   0.08    -0.07  -0.06  -0.15    -0.22  -0.23  -0.25
   7   6     0.12   0.01   0.16     0.11   0.14   0.08    -0.09  -0.05  -0.08
   8   6     0.01   0.11  -0.06    -0.03  -0.09   0.08    -0.02  -0.01   0.07
   9   8     0.05   0.12   0.08     0.07   0.06   0.10     0.17   0.15   0.15
  10   6     0.01   0.05   0.06    -0.04   0.29   0.40    -0.05  -0.00  -0.14
  11   6    -0.03  -0.01  -0.03     0.01   0.02   0.02     0.07  -0.01   0.01
  12   6    -0.00   0.02  -0.06     0.02   0.03  -0.00     0.02  -0.00   0.05
  13   6     0.04   0.03   0.02     0.00  -0.05  -0.03     0.03  -0.01  -0.02
  14   1    -0.10   0.22  -0.09     0.10   0.12  -0.01     0.02  -0.05   0.03
  15   8    -0.00  -0.04  -0.07     0.02  -0.11  -0.31     0.03  -0.02   0.05
  16   6     0.03  -0.02   0.05    -0.08  -0.02  -0.01    -0.05  -0.01  -0.01
  17   1     0.21  -0.17  -0.20     0.02  -0.00   0.07     0.13  -0.09   0.02
  18   1     0.06  -0.09   0.02     0.00   0.06  -0.06    -0.05   0.10  -0.03
  19   1     0.06  -0.11  -0.01    -0.00   0.11  -0.03    -0.15  -0.04   0.17
  20   1    -0.05   0.05   0.16    -0.00  -0.05  -0.06     0.06   0.02  -0.12
  21   1     0.14  -0.12   0.12    -0.03  -0.11  -0.00     0.25  -0.07   0.23
  22   1    -0.13   0.08   0.10    -0.03   0.03   0.03    -0.17   0.02  -0.02
  23   1    -0.15   0.11   0.03     0.25  -0.05   0.04     0.15  -0.05  -0.01
  24   1     0.15  -0.03  -0.03    -0.19   0.08   0.05    -0.25   0.03  -0.02
  25   1    -0.09  -0.17  -0.15     0.01  -0.00  -0.00     0.02   0.01   0.02
  26   1    -0.09   0.10   0.06    -0.07  -0.02  -0.06    -0.07   0.15   0.10
  27   1     0.01  -0.00   0.01    -0.09   0.09   0.22     0.08  -0.10  -0.14
  28   1    -0.04  -0.01   0.01     0.03  -0.01   0.01     0.02  -0.00   0.01
  29   1     0.00  -0.01   0.02     0.01   0.03  -0.03     0.05   0.03   0.01
  30   1     0.04  -0.04  -0.02    -0.02   0.03   0.02     0.01   0.01  -0.03
  31   1    -0.05  -0.01   0.02     0.06   0.00  -0.02     0.02  -0.02   0.01
  32   1    -0.00   0.08   0.08     0.03  -0.18  -0.20    -0.02   0.17   0.17
  33   1    -0.02   0.05   0.01     0.03   0.04   0.04     0.02   0.03   0.02
  34   1    -0.01   0.06   0.02     0.01  -0.07  -0.07     0.01  -0.05  -0.05
  35   1    -0.01  -0.05  -0.06     0.03   0.02   0.01     0.01   0.02   0.01
                     49                     50                     51
                        a                      a                      a 
 Frequencies --  1127.4451              1139.0054              1154.7488
 Red. masses --     6.0030                 7.4291                 4.1716
 Frc consts  --     0.0000                 0.0000                 0.0000
 IR Inten    --   127.5570                23.0938                34.5643
 Raman Activ --     0.0000                 0.0000                 0.0000
 Depolar     --     0.0000                 0.0000                 0.0000
 Atom AN      X      Y      Z        X      Y      Z        X      Y      Z
   1   6    -0.25   0.16   0.09     0.27  -0.07   0.05     0.19  -0.26   0.05
   2   6     0.01   0.06  -0.08     0.16  -0.30   0.03    -0.02   0.08   0.01
   3   6     0.00  -0.03   0.08    -0.18   0.25   0.21    -0.04   0.01  -0.09
   4   6     0.03   0.06  -0.06     0.16   0.09  -0.24     0.08  -0.02   0.01
   5   6     0.01  -0.07  -0.03    -0.06  -0.18   0.04    -0.06  -0.03   0.02
   6   6    -0.21  -0.19  -0.29    -0.15  -0.05  -0.09     0.18   0.11   0.15
   7   6     0.00   0.01   0.06    -0.04  -0.01  -0.01     0.07   0.00  -0.03
   8   6     0.03   0.03  -0.10     0.00  -0.02  -0.00     0.02   0.05  -0.05
   9   8     0.15   0.16   0.16     0.06   0.12   0.09    -0.09  -0.12  -0.10
  10   6     0.06  -0.14   0.05    -0.10   0.13  -0.04    -0.09   0.12   0.02
  11   6     0.03   0.02   0.04     0.01   0.01   0.02    -0.04   0.01  -0.00
  12   6    -0.02  -0.05  -0.01    -0.02   0.00  -0.01    -0.00  -0.02   0.03
  13   6     0.00   0.01   0.02    -0.05   0.02   0.01     0.01  -0.00  -0.00
  14   1    -0.05  -0.16   0.04    -0.05  -0.10   0.00    -0.00  -0.10   0.05
  15   8    -0.02   0.07   0.05     0.03  -0.05  -0.04     0.01  -0.02  -0.06
  16   6     0.03   0.03   0.01     0.04   0.01   0.01    -0.01   0.01  -0.01
  17   1    -0.15   0.10   0.09    -0.25   0.18   0.08    -0.12   0.10   0.07
  18   1     0.04  -0.04  -0.00    -0.03  -0.03   0.07    -0.08   0.08   0.01
  19   1     0.06   0.04  -0.08     0.16   0.12  -0.22    -0.12  -0.01   0.12
  20   1     0.08   0.07  -0.09     0.03   0.02  -0.05     0.23   0.14  -0.34
  21   1     0.17  -0.17   0.17     0.01  -0.04   0.03     0.04  -0.29   0.13
  22   1    -0.03  -0.04  -0.06     0.10  -0.05  -0.00    -0.25   0.21   0.17
  23   1    -0.20   0.06   0.00    -0.04   0.00  -0.01    -0.39   0.03  -0.04
  24   1     0.35  -0.06   0.03    -0.16   0.02  -0.02     0.17  -0.02   0.04
  25   1     0.01  -0.02  -0.00    -0.10  -0.19  -0.16     0.04   0.09   0.06
  26   1     0.17  -0.24  -0.12    -0.11   0.17   0.09    -0.07   0.09   0.04
  27   1    -0.06   0.07   0.09     0.04  -0.04  -0.09    -0.03   0.04   0.01
  28   1     0.06  -0.00  -0.00     0.02  -0.02   0.01    -0.01  -0.00  -0.00
  29   1    -0.02  -0.03   0.02     0.00   0.01  -0.01    -0.03  -0.02  -0.00
  30   1     0.00   0.01  -0.01    -0.02  -0.01   0.02     0.01   0.00  -0.01
  31   1    -0.03   0.01  -0.01    -0.02   0.00   0.01     0.00   0.00  -0.00
  32   1     0.01  -0.20  -0.19    -0.01   0.12   0.11     0.01   0.00  -0.00
  33   1    -0.01  -0.02  -0.01    -0.01  -0.03  -0.02     0.00  -0.01  -0.00
  34   1    -0.01   0.03   0.03    -0.01   0.05   0.04     0.00  -0.02  -0.01
  35   1    -0.01  -0.00   0.00    -0.01  -0.02  -0.03    -0.00   0.02   0.03
                     52                     53                     54
                        a                      a                      a 
 Frequencies --  1163.0935              1180.1974              1211.0954
 Red. masses --     3.8316                 6.7069                 4.9792
 Frc consts  --     0.0000                 0.0000                 0.0000
 IR Inten    --     6.0077                 9.2254                23.3603
 Raman Activ --     0.0000                 0.0000                 0.0000
 Depolar     --     0.0000                 0.0000                 0.0000
 Atom AN      X      Y      Z        X      Y      Z        X      Y      Z
   1   6    -0.23  -0.03  -0.11     0.42  -0.11   0.28     0.01   0.06   0.06
   2   6    -0.09   0.00  -0.01    -0.09   0.15  -0.07     0.11  -0.15   0.01
   3   6     0.17  -0.02  -0.03     0.15  -0.03  -0.01    -0.12   0.14   0.13
   4   6    -0.03  -0.05   0.13    -0.04  -0.07   0.09     0.09  -0.04  -0.16
   5   6     0.07   0.13   0.00    -0.05   0.12   0.00    -0.10  -0.08   0.10
   6   6    -0.01  -0.02  -0.10    -0.03  -0.03  -0.13    -0.10   0.11  -0.05
   7   6     0.02   0.11   0.09    -0.02  -0.05  -0.11    -0.14   0.07   0.05
   8   6    -0.01  -0.11   0.01    -0.01  -0.02   0.04     0.07  -0.18  -0.22
   9   8     0.04  -0.04   0.01     0.05   0.01   0.02     0.05  -0.13  -0.04
  10   6     0.17  -0.02  -0.09    -0.26   0.08   0.05     0.02  -0.01  -0.03
  11   6    -0.02   0.02   0.01    -0.02  -0.01  -0.01     0.01   0.07   0.08
  12   6    -0.06  -0.06  -0.08    -0.08  -0.14  -0.05     0.07   0.10   0.07
  13   6     0.03   0.04   0.03     0.03   0.04   0.04    -0.05  -0.03  -0.03
  14   1    -0.06  -0.08   0.02    -0.20   0.04  -0.05     0.03   0.20  -0.08
  15   8    -0.01  -0.05   0.01     0.03   0.04  -0.02    -0.00   0.01   0.02
  16   6     0.05   0.04   0.04     0.05   0.06   0.03    -0.03  -0.04  -0.03
  17   1    -0.23   0.17   0.07     0.06  -0.05  -0.08     0.21  -0.15  -0.15
  18   1     0.21  -0.19  -0.08     0.15  -0.13  -0.05    -0.16   0.10   0.11
  19   1     0.16   0.13  -0.18     0.14   0.09  -0.16     0.10   0.04  -0.13
  20   1    -0.03  -0.04   0.05    -0.16  -0.14   0.21    -0.08  -0.09   0.10
  21   1    -0.18  -0.31  -0.09    -0.15  -0.05  -0.10     0.11  -0.02   0.14
  22   1    -0.23   0.10   0.00    -0.07   0.01  -0.06    -0.26   0.10  -0.07
  23   1     0.16  -0.01   0.03    -0.24  -0.02  -0.05    -0.01   0.03   0.02
  24   1    -0.01   0.03   0.01    -0.11   0.01  -0.01     0.02   0.01   0.01
  25   1     0.12   0.20   0.17     0.05   0.07   0.06     0.21   0.35   0.30
  26   1    -0.16   0.17   0.05     0.11  -0.07   0.01     0.01  -0.00  -0.00
  27   1     0.08  -0.13   0.00    -0.08   0.12  -0.05     0.00  -0.01   0.01
  28   1     0.02   0.01  -0.02    -0.03   0.02  -0.01     0.12  -0.05   0.02
  29   1    -0.03  -0.01  -0.02    -0.01  -0.01  -0.01    -0.05  -0.02  -0.04
  30   1     0.04  -0.05  -0.03     0.03  -0.01  -0.04    -0.04   0.03   0.04
  31   1    -0.06   0.00   0.01    -0.07   0.01   0.01     0.05  -0.00  -0.01
  32   1    -0.04   0.19   0.19     0.03  -0.16  -0.16     0.01  -0.02  -0.02
  33   1    -0.02  -0.01  -0.01    -0.01  -0.02  -0.01     0.00   0.00   0.00
  34   1    -0.01   0.07   0.05    -0.01   0.06   0.07     0.01  -0.04  -0.05
  35   1    -0.02  -0.01  -0.01    -0.02   0.01   0.02     0.01   0.00  -0.00
                     55                     56                     57
                        a                      a                      a 
 Frequencies --  1233.0868              1247.4746              1263.1536
 Red. masses --     5.6311                 7.4885                 8.8310
 Frc consts  --     0.0000                 0.0000                 0.0000
 IR Inten    --     0.0249                 9.0470                43.7297
 Raman Activ --     0.0000                 0.0000                 0.0000
 Depolar     --     0.0000                 0.0000                 0.0000
 Atom AN      X      Y      Z        X      Y      Z        X      Y      Z
   1   6     0.12   0.17  -0.08    -0.25  -0.19   0.31    -0.07   0.14  -0.09
   2   6    -0.02  -0.12   0.05     0.08   0.10  -0.15     0.09  -0.04   0.06
   3   6    -0.05   0.09   0.04    -0.02  -0.00   0.11    -0.08  -0.02   0.01
   4   6    -0.03  -0.08  -0.14     0.04   0.01  -0.10     0.15   0.13  -0.02
   5   6     0.29   0.01   0.14    -0.11  -0.08  -0.07    -0.17  -0.26  -0.30
   6   6    -0.16  -0.02  -0.04     0.16  -0.04  -0.20    -0.09   0.18   0.16
   7   6     0.01  -0.11  -0.05     0.05  -0.03  -0.13     0.25  -0.17  -0.06
   8   6    -0.08   0.20   0.26    -0.08   0.28   0.24    -0.11   0.30   0.29
   9   8     0.06   0.05   0.02    -0.02   0.00   0.03     0.01  -0.13  -0.06
  10   6    -0.06  -0.07   0.03     0.05   0.12  -0.07     0.01  -0.06   0.00
  11   6    -0.03  -0.09  -0.11     0.04  -0.07  -0.07     0.04  -0.07  -0.06
  12   6     0.05   0.07   0.05     0.10   0.11   0.12    -0.09  -0.11  -0.11
  13   6    -0.02  -0.02  -0.02    -0.05  -0.03  -0.03     0.02   0.03   0.03
  14   1     0.04   0.01   0.01    -0.04   0.02  -0.04    -0.02   0.05  -0.02
  15   8     0.01   0.05   0.02     0.01  -0.06  -0.00    -0.00   0.02   0.02
  16   6    -0.02  -0.03  -0.02    -0.04  -0.05  -0.05     0.03   0.04   0.04
  17   1     0.05  -0.03  -0.05     0.14  -0.11  -0.07    -0.04   0.03   0.07
  18   1    -0.15   0.08   0.10    -0.08   0.06   0.07     0.10  -0.05  -0.08
  19   1    -0.04  -0.12   0.05     0.09   0.03  -0.10    -0.01   0.06   0.01
  20   1     0.12   0.10  -0.13    -0.12  -0.10   0.14    -0.10  -0.12   0.06
  21   1    -0.33  -0.37  -0.23    -0.12  -0.05  -0.10     0.20  -0.09   0.14
  22   1    -0.18  -0.01  -0.16     0.02   0.08   0.14     0.05  -0.02  -0.02
  23   1     0.17  -0.03   0.00    -0.05  -0.06  -0.04    -0.06   0.02  -0.02
  24   1    -0.05  -0.02  -0.03     0.35  -0.05   0.07    -0.20   0.01  -0.03
  25   1     0.04   0.07   0.05    -0.03  -0.05  -0.03     0.12   0.19   0.17
  26   1     0.09  -0.08   0.00    -0.10   0.09  -0.01     0.05  -0.05  -0.01
  27   1    -0.01   0.03  -0.04     0.07  -0.15   0.00     0.01  -0.00  -0.02
  28   1    -0.17   0.05  -0.01    -0.09   0.03  -0.01    -0.08   0.02   0.00
  29   1     0.05   0.02   0.04     0.09   0.02   0.07     0.10   0.04   0.07
  30   1    -0.02   0.01   0.02    -0.04   0.05   0.02     0.02  -0.02  -0.01
  31   1     0.03   0.00  -0.01     0.05  -0.01   0.00    -0.06   0.01   0.00
  32   1     0.01  -0.09  -0.09    -0.01   0.11   0.11     0.00  -0.02  -0.02
  33   1     0.00   0.01   0.00     0.01  -0.02   0.00    -0.01   0.01  -0.00
  34   1     0.01  -0.03  -0.03     0.01  -0.05  -0.04    -0.01   0.05   0.03
  35   1     0.00  -0.00   0.00     0.01  -0.01  -0.02    -0.01   0.00   0.01
                     58                     59                     60
                        a                      a                      a 
 Frequencies --  1267.8337              1279.6934              1289.6657
 Red. masses --     5.2391                 7.3998                 5.0621
 Frc consts  --     0.0000                 0.0000                 0.0000
 IR Inten    --     4.2556                13.6271                17.3544
 Raman Activ --     0.0000                 0.0000                 0.0000
 Depolar     --     0.0000                 0.0000                 0.0000
 Atom AN      X      Y      Z        X      Y      Z        X      Y      Z
   1   6    -0.17   0.00  -0.03     0.01  -0.08  -0.05     0.11   0.17  -0.28
   2   6    -0.06   0.18  -0.11     0.24   0.22   0.04    -0.06   0.09  -0.03
   3   6     0.06  -0.06   0.11    -0.12  -0.05   0.03     0.03   0.04   0.12
   4   6    -0.05   0.04  -0.08     0.05   0.15  -0.09    -0.02  -0.08   0.00
   5   6     0.11  -0.09   0.11     0.08  -0.31   0.21    -0.21   0.06  -0.14
   6   6    -0.04   0.05  -0.10    -0.03   0.05  -0.16     0.22  -0.13   0.11
   7   6     0.38  -0.04   0.07    -0.11   0.02   0.03    -0.07  -0.05   0.01
   8   6     0.04  -0.07  -0.05     0.01   0.03  -0.02    -0.03   0.03   0.05
   9   8     0.01  -0.01   0.02     0.01  -0.02   0.02    -0.06   0.01  -0.01
  10   6     0.05  -0.03  -0.01    -0.00  -0.03  -0.01    -0.02  -0.16   0.07
  11   6    -0.08   0.02  -0.00     0.00  -0.01  -0.01     0.04  -0.01   0.01
  12   6     0.11   0.12   0.14    -0.23  -0.29  -0.22     0.03   0.02   0.04
  13   6    -0.03  -0.03  -0.03     0.05   0.07   0.06    -0.00  -0.01  -0.00
  14   1    -0.01  -0.38   0.14    -0.02  -0.22   0.10     0.05  -0.38   0.15
  15   8    -0.01  -0.02  -0.00     0.01   0.04   0.00     0.01   0.10   0.00
  16   6    -0.04  -0.05  -0.05     0.07   0.09   0.08    -0.01  -0.01  -0.01
  17   1     0.03  -0.04  -0.02     0.09  -0.06   0.04     0.11  -0.08  -0.07
  18   1    -0.09   0.06   0.09    -0.03   0.06  -0.02    -0.10   0.04   0.11
  19   1     0.05  -0.03  -0.04    -0.08  -0.07   0.12     0.17   0.12  -0.23
  20   1    -0.03   0.02   0.07    -0.00   0.03   0.01    -0.06  -0.06   0.07
  21   1    -0.08   0.11  -0.10    -0.12   0.33  -0.18     0.07  -0.07   0.10
  22   1     0.02  -0.00  -0.03    -0.18   0.13   0.06    -0.20   0.20   0.28
  23   1    -0.37   0.10  -0.02     0.13  -0.01   0.02     0.21   0.00   0.02
  24   1    -0.44   0.09  -0.01     0.12  -0.02  -0.00    -0.03  -0.01  -0.03
  25   1     0.03   0.06   0.05     0.04   0.07   0.06    -0.07  -0.12  -0.11
  26   1    -0.02   0.00  -0.01    -0.04   0.08   0.06     0.00   0.03   0.10
  27   1    -0.01   0.02   0.02     0.02  -0.03  -0.02    -0.02   0.08  -0.04
  28   1    -0.05   0.00   0.01    -0.01  -0.02   0.02     0.04  -0.00  -0.00
  29   1    -0.09  -0.02  -0.07     0.01   0.01   0.00     0.05   0.01   0.04
  30   1    -0.02   0.03   0.01     0.05  -0.04  -0.06    -0.00   0.01  -0.01
  31   1     0.06  -0.01  -0.00    -0.13   0.01   0.02     0.01  -0.00   0.00
  32   1    -0.01   0.04   0.04    -0.00  -0.03  -0.04     0.01  -0.13  -0.14
  33   1     0.01  -0.02   0.00    -0.02   0.04   0.00     0.01  -0.01   0.01
  34   1     0.01  -0.06  -0.04    -0.02   0.10   0.10    -0.00  -0.00   0.00
  35   1     0.01  -0.01  -0.01    -0.03   0.01   0.04     0.01  -0.00  -0.02
                     61                     62                     63
                        a                      a                      a 
 Frequencies --  1297.8692              1303.6716              1320.9619
 Red. masses --     5.7474                 4.7639                 4.9887
 Frc consts  --     0.0000                 0.0000                 0.0000
 IR Inten    --     1.9139                41.8698                20.3447
 Raman Activ --     0.0000                 0.0000                 0.0000
 Depolar     --     0.0000                 0.0000                 0.0000
 Atom AN      X      Y      Z        X      Y      Z        X      Y      Z
   1   6    -0.06   0.05   0.03     0.25   0.02   0.01     0.12  -0.27  -0.02
   2   6     0.30   0.08   0.08    -0.17  -0.00  -0.07    -0.14   0.20  -0.06
   3   6    -0.11   0.07   0.02     0.06  -0.06  -0.00     0.09  -0.03   0.09
   4   6    -0.00  -0.14  -0.05     0.02   0.11   0.01    -0.04  -0.03  -0.08
   5   6    -0.01   0.26  -0.03    -0.01  -0.20   0.01     0.05   0.09  -0.07
   6   6     0.05  -0.07   0.05    -0.07   0.08   0.01    -0.26   0.20   0.12
   7   6     0.05  -0.03   0.01    -0.15  -0.02  -0.04    -0.12   0.06  -0.00
   8   6     0.01  -0.05  -0.01    -0.03   0.08   0.05    -0.02   0.01   0.00
   9   8    -0.01   0.04   0.00     0.01  -0.03  -0.02     0.02  -0.07  -0.03
  10   6     0.16   0.04  -0.08     0.13  -0.01  -0.09    -0.05   0.06  -0.01
  11   6    -0.01   0.01   0.01     0.03  -0.02  -0.01     0.01  -0.01  -0.00
  12   6    -0.17  -0.22  -0.18     0.13   0.14   0.16    -0.08  -0.04  -0.03
  13   6     0.02   0.06   0.05    -0.03  -0.03  -0.03     0.05  -0.00   0.00
  14   1    -0.09  -0.02   0.00    -0.12  -0.15   0.03     0.35  -0.26   0.17
  15   8    -0.08  -0.16  -0.04    -0.09  -0.14  -0.06     0.01   0.01   0.00
  16   6     0.05   0.06   0.05    -0.03  -0.04  -0.05     0.00   0.00   0.01
  17   1     0.21  -0.14  -0.09    -0.11   0.08   0.06     0.01  -0.01   0.00
  18   1    -0.16   0.12   0.08     0.10  -0.07  -0.05    -0.15   0.07   0.14
  19   1     0.01  -0.02  -0.03    -0.01   0.01   0.02     0.07  -0.03  -0.07
  20   1     0.01  -0.02  -0.01    -0.03  -0.00   0.03    -0.05  -0.03   0.07
  21   1    -0.01  -0.26   0.07     0.01   0.16  -0.04     0.08  -0.15   0.08
  22   1     0.07  -0.05  -0.01    -0.09   0.03  -0.04     0.37  -0.23  -0.16
  23   1    -0.05   0.02  -0.00     0.15  -0.05   0.00     0.10  -0.05   0.01
  24   1    -0.10   0.01  -0.01     0.12  -0.04  -0.03     0.19  -0.02   0.02
  25   1    -0.05  -0.08  -0.08     0.05   0.07   0.05     0.07   0.12   0.11
  26   1     0.01  -0.09  -0.16    -0.01  -0.06  -0.12    -0.02   0.05   0.03
  27   1    -0.20   0.26   0.26    -0.31   0.43   0.33     0.02  -0.05  -0.01
  28   1    -0.01   0.02  -0.01     0.01  -0.01   0.01     0.03  -0.00  -0.01
  29   1    -0.03  -0.01  -0.02     0.05   0.02   0.04     0.03   0.01   0.03
  30   1     0.02  -0.02  -0.03    -0.02   0.02   0.02     0.06  -0.05  -0.07
  31   1    -0.11   0.01   0.01     0.07  -0.00  -0.01     0.04  -0.01   0.00
  32   1    -0.04   0.22   0.24    -0.04   0.18   0.19    -0.00   0.01   0.01
  33   1    -0.01   0.03   0.01     0.00  -0.03  -0.01    -0.00   0.01   0.00
  34   1    -0.02   0.08   0.08     0.01  -0.07  -0.05    -0.01   0.02   0.01
  35   1    -0.02   0.01   0.04     0.01  -0.01  -0.02    -0.00   0.00   0.01
                     64                     65                     66
                        a                      a                      a 
 Frequencies --  1329.7384              1338.1772              1352.5616
 Red. masses --     3.7662                 4.2619                 3.5739
 Frc consts  --     0.0000                 0.0000                 0.0000
 IR Inten    --     8.2350                 9.7859                45.8611
 Raman Activ --     0.0000                 0.0000                 0.0000
 Depolar     --     0.0000                 0.0000                 0.0000
 Atom AN      X      Y      Z        X      Y      Z        X      Y      Z
   1   6     0.01  -0.06  -0.13     0.02   0.13   0.10     0.08  -0.02  -0.17
   2   6     0.14   0.05   0.02    -0.18  -0.06  -0.00    -0.03   0.02   0.02
   3   6     0.00  -0.11  -0.04     0.11  -0.11   0.02     0.04  -0.04  -0.00
   4   6     0.17   0.11  -0.22     0.17   0.16  -0.27     0.03   0.04  -0.05
   5   6    -0.02   0.18   0.06    -0.08   0.07   0.10    -0.05  -0.02   0.02
   6   6    -0.06   0.03   0.05     0.12  -0.11  -0.07     0.06  -0.02   0.04
   7   6    -0.06   0.04   0.04     0.01  -0.03  -0.02    -0.04   0.02   0.03
   8   6     0.03  -0.07  -0.05     0.04  -0.04  -0.03     0.00  -0.01  -0.02
   9   8    -0.01  -0.03  -0.01    -0.02   0.03   0.01    -0.00   0.01  -0.00
  10   6    -0.01  -0.04   0.02     0.03  -0.05  -0.01    -0.16   0.34   0.08
  11   6    -0.01   0.01   0.01    -0.01   0.01   0.01    -0.00   0.01   0.01
  12   6     0.13   0.05   0.10    -0.11  -0.03  -0.07    -0.00   0.01   0.01
  13   6    -0.06  -0.00  -0.01     0.06  -0.00   0.00    -0.00   0.01   0.00
  14   1    -0.55  -0.16  -0.04     0.47   0.18   0.02    -0.04  -0.11   0.04
  15   8     0.02   0.06   0.01    -0.01  -0.01  -0.01    -0.01  -0.13   0.06
  16   6    -0.01  -0.01  -0.02     0.01   0.00   0.01     0.00   0.00   0.00
  17   1    -0.08   0.05   0.10    -0.18   0.13   0.15    -0.05   0.04   0.04
  18   1    -0.02   0.04  -0.01    -0.09   0.03   0.09    -0.04   0.02   0.03
  19   1    -0.19  -0.18   0.25    -0.14  -0.14   0.19    -0.01  -0.01   0.01
  20   1    -0.18  -0.16   0.22    -0.22  -0.16   0.29    -0.05  -0.03   0.07
  21   1    -0.01  -0.24   0.08    -0.07  -0.11   0.01    -0.00   0.01   0.01
  22   1     0.16  -0.04   0.07    -0.12   0.11   0.12    -0.15   0.06  -0.00
  23   1     0.09  -0.03   0.01    -0.07   0.05  -0.01     0.06   0.01   0.01
  24   1     0.04  -0.01  -0.04    -0.05   0.01   0.03     0.01  -0.00  -0.01
  25   1     0.01   0.02   0.02    -0.04  -0.06  -0.05    -0.01  -0.01  -0.01
  26   1    -0.04   0.07   0.08    -0.01   0.01   0.01     0.34  -0.48  -0.38
  27   1     0.03  -0.03  -0.05    -0.07   0.10   0.05     0.19  -0.29  -0.14
  28   1     0.01   0.00  -0.00    -0.03   0.01   0.00     0.02  -0.01   0.00
  29   1    -0.03  -0.01  -0.02    -0.05  -0.02  -0.04     0.00   0.00   0.00
  30   1    -0.08   0.09   0.08     0.07  -0.09  -0.07     0.01  -0.02  -0.02
  31   1    -0.05   0.00   0.01     0.06  -0.00  -0.01     0.02  -0.00   0.00
  32   1     0.01  -0.07  -0.08     0.00   0.01   0.01    -0.03   0.19   0.22
  33   1     0.00  -0.01  -0.00    -0.01   0.04  -0.00    -0.00  -0.01  -0.00
  34   1     0.01  -0.05  -0.02    -0.01   0.03   0.02     0.00  -0.00  -0.00
  35   1    -0.01  -0.01  -0.01    -0.01   0.01   0.03    -0.00  -0.00  -0.01
                     67                     68                     69
                        a                      a                      a 
 Frequencies --  1356.8297              1369.7055              1396.9983
 Red. masses --     4.2809                 3.3808                 3.1144
 Frc consts  --     0.0000                 0.0000                 0.0000
 IR Inten    --    12.9569                18.5232                13.5633
 Raman Activ --     0.0000                 0.0000                 0.0000
 Depolar     --     0.0000                 0.0000                 0.0000
 Atom AN      X      Y      Z        X      Y      Z        X      Y      Z
   1   6    -0.01   0.01   0.00     0.10   0.12  -0.01     0.02   0.00  -0.00
   2   6     0.07  -0.00   0.14    -0.01  -0.06   0.03    -0.06  -0.02  -0.03
   3   6     0.34  -0.21  -0.23     0.02   0.01  -0.03    -0.01   0.02  -0.00
   4   6    -0.17   0.01   0.07    -0.07  -0.04   0.05    -0.00   0.01   0.01
   5   6    -0.00  -0.10  -0.05     0.12   0.04   0.03     0.01  -0.00   0.00
   6   6    -0.00   0.01   0.01    -0.22   0.03  -0.26    -0.02   0.00  -0.02
   7   6     0.01  -0.02  -0.01    -0.03  -0.03  -0.00    -0.00   0.00   0.00
   8   6    -0.02   0.04   0.02     0.01  -0.01   0.00     0.00  -0.00   0.00
   9   8     0.01   0.00  -0.00    -0.04  -0.16   0.00    -0.00  -0.02   0.00
  10   6     0.01  -0.02  -0.00    -0.02   0.02   0.01    -0.01   0.01  -0.00
  11   6     0.01  -0.01  -0.01     0.00  -0.00  -0.00     0.00  -0.00   0.00
  12   6     0.01  -0.06  -0.04    -0.01  -0.01  -0.01     0.12   0.02   0.01
  13   6    -0.00   0.01   0.01     0.00   0.00   0.00     0.01  -0.03  -0.02
  14   1    -0.19   0.17  -0.07     0.01   0.07  -0.02     0.04  -0.02   0.01
  15   8     0.00   0.01  -0.00    -0.01  -0.02   0.01    -0.00  -0.00   0.00
  16   6    -0.00   0.01   0.00    -0.00   0.03   0.03    -0.01  -0.31  -0.27
  17   1    -0.23   0.18   0.13    -0.01   0.01  -0.01     0.01   0.01   0.03
  18   1    -0.49   0.34   0.28    -0.02   0.01   0.01     0.02  -0.06   0.01
  19   1     0.13   0.10  -0.18     0.02  -0.00  -0.02     0.02  -0.01  -0.01
  20   1    -0.01   0.06   0.06     0.06   0.05  -0.07    -0.00  -0.01  -0.03
  21   1     0.03   0.12  -0.02    -0.02  -0.00  -0.04     0.00   0.00  -0.00
  22   1    -0.03  -0.01  -0.05     0.41   0.21   0.70     0.04   0.02   0.06
  23   1     0.01   0.02  -0.00     0.03   0.06   0.01     0.00   0.00   0.00
  24   1    -0.00   0.00   0.02    -0.04   0.01   0.02     0.00   0.00   0.00
  25   1     0.01   0.01   0.01     0.08   0.12   0.13     0.00   0.01   0.02
  26   1    -0.01   0.03   0.03     0.06  -0.08  -0.06     0.02  -0.01  -0.00
  27   1    -0.01   0.01   0.01    -0.01   0.02  -0.01     0.00  -0.01   0.00
  28   1     0.02  -0.01   0.00    -0.03   0.01  -0.00    -0.00   0.00  -0.00
  29   1     0.03   0.01   0.03    -0.02  -0.01  -0.02    -0.00  -0.00  -0.00
  30   1    -0.03   0.04   0.04     0.01  -0.01  -0.01    -0.11   0.14   0.13
  31   1    -0.08   0.01   0.00     0.01   0.00  -0.00    -0.20  -0.00  -0.00
  32   1     0.01  -0.02  -0.02    -0.00   0.03   0.03     0.00   0.01   0.01
  33   1     0.02   0.00   0.02    -0.01  -0.04  -0.01     0.11   0.49   0.16
  34   1    -0.01   0.02   0.02     0.02  -0.02  -0.04    -0.15   0.32   0.28
  35   1     0.02   0.02   0.01     0.01  -0.02  -0.04     0.03   0.22   0.43
                     70                     71                     72
                        a                      a                      a 
 Frequencies --  1410.4280              1431.0571              1462.5592
 Red. masses --     2.3579                 2.5631                 1.7877
 Frc consts  --     0.0000                 0.0000                 0.0000
 IR Inten    --     5.8552                 6.3639                 2.6102
 Raman Activ --     0.0000                 0.0000                 0.0000
 Depolar     --     0.0000                 0.0000                 0.0000
 Atom AN      X      Y      Z        X      Y      Z        X      Y      Z
   1   6     0.01  -0.01  -0.01    -0.01   0.01  -0.01     0.01  -0.01  -0.02
   2   6    -0.00   0.00   0.00     0.11  -0.00   0.02     0.01  -0.01   0.01
   3   6     0.01  -0.00  -0.00     0.01  -0.01  -0.03     0.01  -0.03   0.06
   4   6    -0.01   0.01   0.03    -0.01  -0.03   0.01    -0.03   0.13   0.07
   5   6    -0.07  -0.05  -0.08     0.00  -0.01  -0.01    -0.00   0.02   0.01
   6   6    -0.01   0.01   0.02    -0.00   0.00  -0.00     0.01  -0.00   0.01
   7   6    -0.09   0.04   0.01     0.00   0.01   0.01    -0.02  -0.09  -0.08
   8   6     0.25   0.01   0.09     0.00   0.00   0.01     0.00  -0.02  -0.01
   9   8     0.01   0.00  -0.00    -0.00  -0.00   0.00    -0.00   0.00  -0.00
  10   6     0.00   0.00  -0.00     0.01  -0.02   0.02    -0.03   0.02  -0.05
  11   6     0.16  -0.00   0.05     0.01  -0.00   0.00    -0.01   0.00  -0.00
  12   6     0.01  -0.00  -0.00    -0.21   0.13   0.13    -0.02   0.03  -0.00
  13   6    -0.00   0.00   0.00    -0.08   0.03   0.03    -0.03   0.01   0.01
  14   1    -0.01  -0.01   0.00    -0.20   0.01  -0.04    -0.03   0.00  -0.00
  15   8    -0.00   0.00   0.00     0.00   0.01   0.01    -0.00  -0.00  -0.01
  16   6    -0.00   0.00   0.00     0.09  -0.13  -0.10    -0.01   0.07  -0.11
  17   1    -0.00   0.00  -0.01    -0.00   0.00   0.00    -0.11   0.00  -0.17
  18   1    -0.01   0.01   0.00    -0.02   0.02   0.00     0.05   0.16  -0.10
  19   1     0.04   0.01  -0.03    -0.02   0.06  -0.03     0.23  -0.27   0.02
  20   1     0.00  -0.01  -0.03     0.03   0.04   0.03    -0.11  -0.24  -0.26
  21   1     0.07   0.03   0.04     0.01   0.00   0.00    -0.00   0.00   0.00
  22   1    -0.01  -0.01  -0.03     0.01   0.00   0.01    -0.01  -0.01  -0.02
  23   1     0.06  -0.03   0.01     0.00  -0.03  -0.00     0.07   0.30   0.02
  24   1     0.05  -0.01  -0.01    -0.00  -0.01  -0.03    -0.00   0.07   0.30
  25   1     0.00   0.00   0.00    -0.00  -0.00   0.00    -0.00  -0.00  -0.00
  26   1     0.00   0.00   0.00    -0.04   0.00  -0.01     0.12   0.03   0.11
  27   1     0.00  -0.01   0.00     0.01   0.01  -0.03    -0.03  -0.09   0.14
  28   1    -0.61   0.24   0.05    -0.01   0.01   0.00     0.01  -0.00  -0.00
  29   1    -0.44  -0.24  -0.42    -0.01  -0.01  -0.01     0.00   0.00   0.00
  30   1    -0.01   0.01   0.01     0.26  -0.37  -0.34     0.04  -0.06  -0.05
  31   1    -0.01   0.00   0.00     0.58   0.00  -0.00     0.09   0.00   0.00
  32   1    -0.00   0.00   0.00     0.00  -0.03  -0.03     0.00  -0.00  -0.01
  33   1     0.01  -0.01   0.00    -0.13   0.23  -0.05     0.27   0.01   0.17
  34   1    -0.00  -0.00   0.00    -0.02   0.06   0.04    -0.07  -0.20   0.35
  35   1     0.01  -0.00  -0.01    -0.15   0.03   0.21    -0.14  -0.11  -0.12
                     73                     74                     75
                        a                      a                      a 
 Frequencies --  1465.4271              1473.7210              1477.5451
 Red. masses --     1.8118                 1.8341                 1.7390
 Frc consts  --     0.0000                 0.0000                 0.0000
 IR Inten    --     3.4856                 7.9572                 3.3212
 Raman Activ --     0.0000                 0.0000                 0.0000
 Depolar     --     0.0000                 0.0000                 0.0000
 Atom AN      X      Y      Z        X      Y      Z        X      Y      Z
   1   6     0.01  -0.02  -0.02    -0.01   0.03  -0.02    -0.00   0.02  -0.00
   2   6    -0.01   0.01  -0.01     0.00  -0.02   0.01    -0.02  -0.01   0.01
   3   6    -0.01  -0.00   0.00    -0.00   0.03  -0.05     0.01  -0.03   0.06
   4   6     0.03  -0.10  -0.05    -0.02   0.05   0.02     0.03  -0.10  -0.05
   5   6     0.00  -0.00  -0.01    -0.00  -0.00   0.01    -0.00  -0.01  -0.01
   6   6    -0.00   0.01   0.01     0.01  -0.01  -0.01    -0.01   0.00  -0.01
   7   6    -0.03  -0.12  -0.10     0.04   0.11   0.11     0.02   0.06   0.05
   8   6    -0.00  -0.01  -0.00     0.00   0.01   0.00    -0.00   0.01   0.01
   9   8     0.00   0.01   0.00    -0.00  -0.00   0.00     0.00  -0.01   0.00
  10   6    -0.07   0.06  -0.13    -0.07   0.06  -0.16    -0.02   0.01  -0.04
  11   6     0.01  -0.00   0.00    -0.01   0.00  -0.00     0.00  -0.00  -0.00
  12   6     0.01  -0.01   0.01    -0.01   0.01   0.00     0.02   0.00  -0.03
  13   6     0.01  -0.01  -0.00    -0.03   0.01   0.01     0.05  -0.02  -0.02
  14   1    -0.03  -0.03   0.00     0.00   0.01  -0.00     0.06   0.01   0.01
  15   8    -0.00  -0.01  -0.03    -0.00  -0.01  -0.03    -0.00  -0.00  -0.01
  16   6     0.03  -0.04   0.06    -0.05  -0.02  -0.01     0.12   0.12  -0.07
  17   1     0.00  -0.00   0.00     0.06   0.01   0.10    -0.07  -0.00  -0.10
  18   1     0.03  -0.03  -0.01    -0.05  -0.08   0.07     0.04   0.12  -0.07
  19   1    -0.17   0.19  -0.01     0.09  -0.11   0.01    -0.17   0.22  -0.02
  20   1     0.08   0.17   0.18    -0.04  -0.09  -0.10     0.08   0.18   0.20
  21   1     0.00  -0.01  -0.00    -0.00   0.01  -0.00     0.00  -0.01  -0.00
  22   1    -0.00  -0.01  -0.02    -0.00   0.03   0.04     0.01   0.01   0.03
  23   1     0.09   0.39   0.03    -0.08  -0.37  -0.02    -0.04  -0.19  -0.01
  24   1    -0.01   0.09   0.38    -0.03  -0.08  -0.38    -0.01  -0.04  -0.19
  25   1    -0.01  -0.01  -0.01    -0.00  -0.01  -0.01    -0.00   0.00   0.01
  26   1     0.31   0.07   0.27     0.38   0.07   0.31     0.09   0.01   0.07
  27   1    -0.07  -0.23   0.35    -0.08  -0.27   0.41    -0.02  -0.07   0.09
  28   1    -0.02   0.01   0.00     0.02  -0.01  -0.00    -0.00   0.00   0.00
  29   1    -0.01  -0.01  -0.01     0.01   0.01   0.01    -0.00  -0.00  -0.00
  30   1    -0.01   0.02   0.02     0.03  -0.05  -0.05    -0.04   0.07   0.07
  31   1    -0.02   0.00  -0.00     0.07   0.01  -0.00    -0.11  -0.01  -0.00
  32   1     0.00  -0.00  -0.01     0.00  -0.01  -0.01     0.00   0.00   0.00
  33   1    -0.20   0.05  -0.12     0.09  -0.09   0.04     0.01   0.23   0.04
  34   1     0.05   0.08  -0.22    -0.03   0.10   0.03     0.02  -0.46   0.22
  35   1     0.01   0.05   0.11     0.14   0.03  -0.06    -0.51  -0.19   0.03
                     76                     77                     78
                        a                      a                      a 
 Frequencies --  1491.4207              1502.6642              1699.6041
 Red. masses --     1.7311                 1.8464                11.1687
 Frc consts  --     0.0000                 0.0000                 0.0000
 IR Inten    --     2.0297                 1.4031                30.0644
 Raman Activ --     0.0000                 0.0000                 0.0000
 Depolar     --     0.0000                 0.0000                 0.0000
 Atom AN      X      Y      Z        X      Y      Z        X      Y      Z
   1   6     0.00   0.01  -0.00    -0.00  -0.01   0.00     0.00   0.01  -0.00
   2   6    -0.01  -0.00   0.01    -0.01   0.00  -0.02     0.07  -0.01   0.00
   3   6     0.02  -0.04   0.07    -0.03   0.13  -0.20     0.01   0.00   0.00
   4   6    -0.04   0.13   0.07    -0.02   0.06   0.03    -0.00  -0.00   0.00
   5   6    -0.00   0.01   0.00    -0.00  -0.01   0.00     0.00   0.00   0.00
   6   6     0.01  -0.01   0.00     0.00   0.00   0.00    -0.00  -0.00   0.00
   7   6     0.01   0.02   0.02    -0.01  -0.03  -0.02    -0.00  -0.00  -0.00
   8   6     0.00  -0.00  -0.00     0.01  -0.00  -0.01    -0.00  -0.00  -0.00
   9   8    -0.00   0.00   0.00    -0.00   0.00   0.00    -0.00  -0.00  -0.00
  10   6    -0.00   0.00  -0.01     0.00   0.00   0.00    -0.00   0.00  -0.00
  11   6    -0.01  -0.00  -0.00    -0.00   0.00   0.00     0.00  -0.00   0.00
  12   6     0.01  -0.03  -0.00     0.01   0.02   0.00    -0.60   0.31   0.27
  13   6     0.06  -0.03  -0.02     0.02  -0.01  -0.01     0.53  -0.25  -0.22
  14   1     0.03   0.00   0.01    -0.02  -0.00  -0.01    -0.06  -0.00  -0.01
  15   8     0.00  -0.00  -0.00     0.00  -0.00   0.00     0.00  -0.00  -0.00
  16   6     0.13  -0.02   0.11     0.08   0.06   0.00     0.03  -0.05  -0.04
  17   1    -0.12   0.01  -0.17     0.31   0.01   0.50     0.00   0.00   0.00
  18   1     0.04   0.18  -0.09    -0.15  -0.48   0.30     0.00  -0.00   0.00
  19   1     0.26  -0.27  -0.01     0.12  -0.11  -0.02     0.00  -0.00   0.00
  20   1    -0.10  -0.23  -0.24    -0.04  -0.09  -0.12    -0.00  -0.00  -0.00
  21   1    -0.00   0.01   0.00     0.00   0.01   0.00     0.00  -0.00  -0.00
  22   1    -0.00   0.00   0.00    -0.00  -0.00  -0.01    -0.00   0.00   0.00
  23   1    -0.01  -0.08  -0.01     0.01   0.11   0.01     0.00   0.00   0.00
  24   1    -0.00  -0.02  -0.07     0.00   0.02   0.09    -0.00   0.00   0.00
  25   1    -0.01  -0.02  -0.01    -0.00  -0.00  -0.00     0.00   0.00  -0.00
  26   1     0.02   0.00   0.01    -0.01  -0.00  -0.01     0.01   0.00   0.01
  27   1    -0.00  -0.01   0.02     0.00   0.00  -0.01    -0.00  -0.01   0.01
  28   1     0.01  -0.00  -0.00    -0.00   0.00   0.00    -0.00   0.00   0.00
  29   1     0.01   0.01   0.01    -0.00  -0.00  -0.00    -0.00  -0.00  -0.00
  30   1    -0.04   0.08   0.07    -0.02   0.03   0.03     0.03   0.12   0.11
  31   1    -0.11  -0.00  -0.01    -0.03  -0.00  -0.00    -0.13  -0.08  -0.07
  32   1    -0.00   0.00   0.00     0.00   0.00   0.00    -0.00  -0.00  -0.00
  33   1    -0.45   0.19  -0.26    -0.09   0.11  -0.04     0.02  -0.08  -0.01
  34   1     0.12  -0.05  -0.36     0.04  -0.23   0.02    -0.02   0.05   0.04
  35   1    -0.21   0.03   0.23    -0.28  -0.10   0.02     0.03  -0.02  -0.06
                     79                     80                     81
                        a                      a                      a 
 Frequencies --  1740.3270              2821.3789              2880.4785
 Red. masses --    11.5888                 1.7177                 1.7546
 Frc consts  --     0.0000                 0.0000                 0.0000
 IR Inten    --    29.6012               141.2837                78.8927
 Raman Activ --     0.0000                 0.0000                 0.0000
 Depolar     --     0.0000                 0.0000                 0.0000
 Atom AN      X      Y      Z        X      Y      Z        X      Y      Z
   1   6    -0.02   0.01   0.00    -0.00  -0.01   0.01    -0.01  -0.00  -0.00
   2   6     0.00   0.00  -0.00    -0.00   0.00   0.00     0.01  -0.01  -0.04
   3   6     0.00  -0.00   0.00     0.00   0.00  -0.00     0.00   0.00   0.00
   4   6    -0.00  -0.01   0.00     0.00   0.00  -0.00     0.00  -0.00   0.00
   5   6    -0.06  -0.03  -0.06     0.00  -0.01  -0.00    -0.00   0.00   0.00
   6   6    -0.01  -0.01  -0.01    -0.08  -0.21   0.12    -0.00  -0.00  -0.00
   7   6    -0.08   0.03   0.00     0.00   0.00  -0.00     0.00   0.00   0.00
   8   6     0.71  -0.01   0.25     0.00  -0.00  -0.00    -0.00  -0.00  -0.00
   9   8     0.00   0.00   0.00    -0.01  -0.01  -0.01     0.00   0.00   0.00
  10   6     0.00  -0.00  -0.00     0.00   0.00  -0.00    -0.22  -0.10  -0.07
  11   6    -0.58   0.00  -0.20     0.00   0.00   0.00    -0.00   0.00   0.00
  12   6    -0.00   0.00   0.00     0.00  -0.00   0.00     0.00  -0.00  -0.00
  13   6     0.00  -0.00  -0.00    -0.00   0.00   0.00    -0.00  -0.00   0.00
  14   1    -0.00  -0.00  -0.00     0.00  -0.01  -0.01    -0.03   0.05   0.14
  15   8     0.00  -0.00   0.00     0.00   0.00  -0.00    -0.00  -0.01  -0.01
  16   6     0.00  -0.00  -0.00     0.00   0.00  -0.00    -0.00  -0.00   0.00
  17   1     0.00  -0.00  -0.00    -0.00  -0.00   0.00    -0.00  -0.00   0.00
  18   1     0.00  -0.00  -0.00    -0.00   0.00  -0.00    -0.01  -0.00  -0.01
  19   1    -0.00   0.01  -0.01    -0.00   0.00  -0.00    -0.00  -0.00  -0.00
  20   1     0.00   0.00   0.00    -0.00   0.00   0.00    -0.00   0.00  -0.00
  21   1     0.03   0.01   0.02    -0.01   0.00   0.02     0.00  -0.00  -0.00
  22   1     0.00  -0.00   0.00     0.34   0.81  -0.41     0.00   0.00  -0.00
  23   1     0.02   0.00   0.00     0.00   0.00   0.00     0.00   0.00  -0.00
  24   1     0.01   0.00   0.01    -0.00  -0.01   0.00     0.00  -0.01   0.00
  25   1    -0.00  -0.00  -0.00     0.00   0.00  -0.00    -0.00   0.00   0.00
  26   1    -0.00  -0.00  -0.00    -0.01  -0.01   0.01     0.01   0.06  -0.08
  27   1    -0.00   0.00  -0.00     0.00   0.00   0.00     0.80   0.34   0.37
  28   1     0.05  -0.09  -0.08    -0.00  -0.00  -0.00    -0.00  -0.00  -0.00
  29   1    -0.01   0.09   0.10    -0.00  -0.00  -0.00     0.00  -0.00  -0.00
  30   1     0.00   0.00   0.00     0.00   0.00   0.00     0.00   0.00   0.00
  31   1    -0.00  -0.00  -0.00     0.00  -0.00  -0.00    -0.00   0.00   0.00
  32   1    -0.00   0.00   0.00    -0.00  -0.00   0.00     0.00   0.00   0.00
  33   1    -0.00  -0.00  -0.00    -0.00   0.00   0.00     0.00   0.00  -0.00
  34   1    -0.00   0.00   0.00     0.00   0.00   0.00     0.00  -0.00   0.00
  35   1    -0.00  -0.00  -0.00     0.00  -0.00   0.00    -0.00   0.00  -0.00
                     82                     83                     84
                        a                      a                      a 
 Frequencies --  2882.1726              2954.0803              2957.7036
 Red. masses --     1.7495                 1.8376                 1.7038
 Frc consts  --     0.0000                 0.0000                 0.0000
 IR Inten    --    72.9530                 8.5100                87.2417
 Raman Activ --     0.0000                 0.0000                 0.0000
 Depolar     --     0.0000                 0.0000                 0.0000
 Atom AN      X      Y      Z        X      Y      Z        X      Y      Z
   1   6     0.00   0.00  -0.01    -0.00  -0.00   0.00     0.00   0.01  -0.01
   2   6     0.04  -0.09  -0.23    -0.00   0.00  -0.00    -0.00  -0.00  -0.00
   3   6     0.01   0.00   0.01    -0.01  -0.00  -0.01     0.00   0.00   0.00
   4   6     0.00  -0.00   0.00    -0.00   0.00  -0.00     0.00  -0.00   0.00
   5   6    -0.00   0.00   0.00     0.00  -0.00  -0.00    -0.00   0.00   0.00
   6   6    -0.00  -0.00   0.00    -0.00  -0.00   0.00     0.00   0.00  -0.00
   7   6    -0.00  -0.00   0.00    -0.05  -0.22   0.13     0.02   0.10  -0.06
   8   6     0.00  -0.00  -0.00     0.00  -0.01   0.00    -0.00   0.00  -0.00
   9   8    -0.00  -0.00  -0.00     0.00   0.00   0.00     0.00   0.00   0.00
  10   6     0.04   0.02   0.01     0.03   0.07  -0.07     0.07   0.15  -0.14
  11   6     0.00   0.00   0.00    -0.00   0.00  -0.00     0.00  -0.00  -0.00
  12   6    -0.00  -0.01  -0.01     0.00  -0.00   0.00    -0.00  -0.00  -0.00
  13   6     0.00   0.00   0.00    -0.00   0.00   0.00    -0.00   0.00   0.00
  14   1    -0.17   0.33   0.88     0.00  -0.00  -0.00    -0.00   0.00   0.01
  15   8     0.00   0.00   0.00     0.00  -0.00  -0.00     0.00  -0.00  -0.01
  16   6    -0.00   0.00   0.00    -0.00   0.00  -0.00     0.00  -0.00  -0.00
  17   1     0.00   0.00   0.00    -0.00   0.00  -0.00    -0.00  -0.00   0.00
  18   1    -0.04  -0.02  -0.04     0.02   0.01   0.03    -0.01  -0.01  -0.01
  19   1    -0.00  -0.00  -0.00    -0.00  -0.00  -0.00     0.00  -0.00  -0.00
  20   1    -0.00   0.00  -0.00     0.00  -0.00   0.00    -0.00   0.00  -0.00
  21   1     0.00  -0.00  -0.00    -0.01   0.00   0.01     0.01  -0.00  -0.02
  22   1     0.01   0.01  -0.01     0.00   0.01  -0.00    -0.01  -0.01   0.01
  23   1     0.00   0.00  -0.01     0.02  -0.01  -0.26    -0.01   0.01   0.12
  24   1     0.00   0.00   0.00     0.14   0.79  -0.19    -0.07  -0.38   0.09
  25   1    -0.00   0.00  -0.00     0.00   0.00   0.00     0.00   0.00   0.00
  26   1    -0.00  -0.01   0.01    -0.17  -0.29   0.25    -0.35  -0.61   0.52
  27   1    -0.13  -0.05  -0.06     0.05   0.03   0.01     0.09   0.06   0.02
  28   1    -0.00  -0.00  -0.00    -0.00  -0.00  -0.00     0.00   0.00   0.00
  29   1    -0.00   0.00  -0.00     0.00   0.00   0.00     0.00  -0.00  -0.00
  30   1    -0.00  -0.00   0.00     0.00   0.00   0.00    -0.00  -0.00   0.00
  31   1    -0.00  -0.01  -0.01    -0.00  -0.00  -0.00    -0.00  -0.00  -0.00
  32   1    -0.00   0.00   0.00     0.00   0.00  -0.00     0.01   0.01  -0.01
  33   1     0.00   0.00  -0.00     0.00   0.00  -0.00    -0.00  -0.00   0.00
  34   1     0.01  -0.00   0.00     0.00   0.00   0.00    -0.00  -0.00  -0.00
  35   1    -0.00  -0.00   0.00     0.00  -0.00   0.00    -0.00   0.00  -0.00
                     85                     86                     87
                        a                      a                      a 
 Frequencies --  2967.1874              2969.4818              2977.3253
 Red. masses --     1.8715                 1.8232                 1.8218
 Frc consts  --     0.0000                 0.0000                 0.0000
 IR Inten    --    37.5534                63.6337                99.1217
 Raman Activ --     0.0000                 0.0000                 0.0000
 Depolar     --     0.0000                 0.0000                 0.0000
 Atom AN      X      Y      Z        X      Y      Z        X      Y      Z
   1   6    -0.00  -0.00   0.00     0.00   0.00   0.00    -0.00  -0.00   0.00
   2   6     0.00   0.01   0.01    -0.00  -0.01  -0.01     0.00   0.00   0.00
   3   6     0.15   0.13   0.10    -0.11  -0.10  -0.07     0.06   0.08   0.00
   4   6    -0.09   0.05  -0.04    -0.01   0.02  -0.00     0.19  -0.11   0.08
   5   6     0.08  -0.02  -0.10     0.14  -0.04  -0.16     0.06  -0.02  -0.06
   6   6     0.00   0.00  -0.00     0.00   0.00  -0.01     0.00   0.00  -0.00
   7   6    -0.00  -0.01  -0.00     0.00   0.01   0.00    -0.00  -0.00  -0.00
   8   6     0.00  -0.00  -0.00     0.00  -0.00  -0.00     0.00  -0.00  -0.00
   9   8    -0.00   0.00   0.00     0.00   0.00   0.00    -0.00   0.00   0.00
  10   6     0.00   0.00  -0.00     0.00   0.00  -0.00     0.00   0.00  -0.00
  11   6    -0.00   0.00   0.00    -0.00   0.00   0.00    -0.00   0.00   0.00
  12   6    -0.00  -0.00   0.00     0.00   0.00  -0.00    -0.00  -0.00   0.00
  13   6    -0.00  -0.00  -0.00     0.00   0.00   0.00     0.00   0.00   0.00
  14   1     0.01  -0.01  -0.03    -0.01   0.01   0.03     0.00  -0.00  -0.01
  15   8     0.00  -0.00  -0.00     0.00  -0.00  -0.00     0.00  -0.00  -0.00
  16   6     0.00  -0.00   0.00    -0.00   0.01  -0.00     0.01  -0.01   0.00
  17   1    -0.14  -0.28   0.11     0.13   0.25  -0.10    -0.14  -0.27   0.09
  18   1    -0.40  -0.18  -0.48     0.28   0.12   0.34    -0.07  -0.02  -0.10
  19   1     0.04   0.05   0.06    -0.04  -0.03  -0.05    -0.03  -0.07  -0.07
  20   1     0.31  -0.23   0.10     0.10  -0.07   0.03    -0.65   0.48  -0.21
  21   1    -0.31   0.08   0.34    -0.51   0.14   0.57    -0.21   0.06   0.23
  22   1    -0.00  -0.01   0.00    -0.01  -0.01   0.01    -0.00  -0.01   0.00
  23   1    -0.00  -0.00   0.02     0.00   0.00  -0.02    -0.00  -0.00   0.01
  24   1     0.00   0.02  -0.01    -0.01  -0.04   0.01     0.00   0.01  -0.00
  25   1     0.00  -0.00   0.00     0.00  -0.00   0.00     0.00  -0.00   0.00
  26   1    -0.00  -0.00   0.00    -0.00  -0.01   0.01    -0.00  -0.00   0.00
  27   1     0.00   0.00   0.00     0.00   0.00   0.00    -0.00  -0.00  -0.00
  28   1    -0.00  -0.00  -0.00    -0.00   0.00   0.00    -0.00  -0.00  -0.00
  29   1     0.00  -0.00  -0.00     0.00  -0.00  -0.00     0.00  -0.00  -0.00
  30   1     0.00   0.00  -0.00    -0.00  -0.00  -0.00    -0.00  -0.00  -0.00
  31   1     0.00   0.00   0.00    -0.00  -0.00  -0.00    -0.00   0.00   0.00
  32   1     0.00   0.00  -0.00    -0.00   0.00  -0.00    -0.00   0.00   0.00
  33   1    -0.00  -0.00   0.00     0.00   0.00  -0.00    -0.00  -0.00   0.01
  34   1     0.00  -0.00   0.00    -0.00   0.00  -0.00    -0.00  -0.00  -0.00
  35   1    -0.01   0.02  -0.01     0.01  -0.02   0.01    -0.01   0.03  -0.02
                     88                     89                     90
                        a                      a                      a 
 Frequencies --  2994.1246              2994.3106              3010.3733
 Red. masses --     1.5680                 1.5816                 1.8073
 Frc consts  --     0.0000                 0.0000                 0.0000
 IR Inten    --    42.0980                76.3152                47.8602
 Raman Activ --     0.0000                 0.0000                 0.0000
 Depolar     --     0.0000                 0.0000                 0.0000
 Atom AN      X      Y      Z        X      Y      Z        X      Y      Z
   1   6    -0.00   0.00   0.00    -0.00  -0.00  -0.00    -0.00   0.00   0.00
   2   6     0.00   0.00  -0.01     0.00  -0.00  -0.01     0.00   0.00  -0.00
   3   6     0.01   0.11  -0.12    -0.00   0.08  -0.10     0.01   0.02  -0.01
   4   6    -0.04   0.02  -0.02    -0.03   0.02  -0.02     0.00   0.00   0.00
   5   6    -0.01   0.00   0.00    -0.00   0.00   0.00    -0.00  -0.00   0.00
   6   6     0.00   0.00  -0.00    -0.00  -0.00   0.00     0.00   0.00  -0.00
   7   6    -0.00   0.04   0.14     0.01  -0.04  -0.18     0.00   0.00  -0.00
   8   6    -0.00   0.00   0.00     0.00  -0.00  -0.00    -0.00   0.00  -0.00
   9   8     0.00   0.00   0.00     0.00  -0.00  -0.00     0.00  -0.00  -0.00
  10   6     0.00   0.00   0.00    -0.00  -0.00  -0.00    -0.00  -0.00  -0.00
  11   6     0.00  -0.00  -0.00    -0.00   0.00   0.00     0.00  -0.00  -0.00
  12   6     0.00  -0.00   0.00     0.00  -0.00   0.00    -0.01   0.01  -0.00
  13   6    -0.00   0.00   0.00    -0.00   0.00   0.00     0.00   0.00   0.00
  14   1    -0.00   0.01   0.02    -0.01   0.01   0.03    -0.00   0.00   0.00
  15   8    -0.00   0.00  -0.00     0.00  -0.00   0.00     0.00   0.00   0.00
  16   6     0.01  -0.02   0.01     0.01  -0.02   0.01    -0.11   0.20  -0.14
  17   1    -0.30  -0.53   0.15    -0.22  -0.40   0.11    -0.06  -0.11   0.03
  18   1     0.25   0.13   0.27     0.22   0.11   0.25     0.02   0.01   0.02
  19   1     0.02   0.02   0.03     0.01   0.01   0.01    -0.01  -0.01  -0.02
  20   1     0.12  -0.09   0.04     0.11  -0.08   0.03     0.00  -0.00   0.00
  21   1     0.02  -0.00  -0.02     0.00  -0.00  -0.01     0.00  -0.00  -0.00
  22   1    -0.00  -0.00   0.00     0.00   0.00  -0.00    -0.00  -0.00   0.00
  23   1     0.05   0.05  -0.56    -0.07  -0.06   0.72    -0.00  -0.00   0.00
  24   1    -0.04  -0.19   0.07     0.04   0.21  -0.08    -0.00  -0.00   0.00
  25   1    -0.00   0.00   0.00    -0.00   0.00   0.00    -0.00   0.00  -0.00
  26   1    -0.00  -0.00   0.00     0.00   0.00  -0.00     0.00   0.00  -0.00
  27   1    -0.00  -0.00  -0.00     0.00   0.00   0.00     0.00  -0.00   0.00
  28   1     0.00   0.01   0.01    -0.00  -0.01  -0.01     0.00   0.00   0.00
  29   1    -0.00   0.00  -0.00    -0.00   0.00   0.00    -0.00   0.00   0.00
  30   1     0.00   0.00   0.00     0.00   0.00   0.00     0.00   0.00  -0.00
  31   1     0.00  -0.00  -0.00    -0.00  -0.00  -0.00    -0.00  -0.01  -0.01
  32   1     0.00  -0.00   0.00    -0.00   0.00  -0.00    -0.00  -0.00  -0.00
  33   1     0.00  -0.00  -0.00     0.00  -0.00  -0.00    -0.07   0.01   0.05
  34   1    -0.01  -0.00  -0.00    -0.01  -0.00  -0.00     0.14   0.05   0.02
  35   1    -0.03   0.07  -0.04    -0.03   0.06  -0.03     0.33  -0.78   0.41
                     91                     92                     93
                        a                      a                      a 
 Frequencies --  3021.5921              3036.3186              3067.5962
 Red. masses --     1.6771                 1.6501                 1.6667
 Frc consts  --     0.0000                 0.0000                 0.0000
 IR Inten    --    50.2771                51.8931                 8.5751
 Raman Activ --     0.0000                 0.0000                 0.0000
 Depolar     --     0.0000                 0.0000                 0.0000
 Atom AN      X      Y      Z        X      Y      Z        X      Y      Z
   1   6    -0.00   0.00   0.00    -0.00   0.00  -0.00    -0.00  -0.00  -0.00
   2   6     0.00   0.00   0.00     0.00   0.00   0.00     0.00  -0.00  -0.00
   3   6     0.02   0.02   0.01     0.00  -0.00   0.00    -0.00  -0.00  -0.00
   4   6     0.11   0.13   0.17     0.01   0.01   0.01    -0.01  -0.01  -0.01
   5   6    -0.00   0.01   0.01    -0.00   0.00   0.00    -0.00  -0.00   0.00
   6   6     0.00   0.00   0.00     0.00   0.00  -0.00     0.00   0.00   0.00
   7   6    -0.00   0.00   0.00     0.00   0.00   0.00    -0.00  -0.00   0.00
   8   6    -0.00  -0.00  -0.00     0.00   0.00  -0.00    -0.00   0.00   0.00
   9   8     0.00  -0.00   0.00     0.00  -0.00   0.00     0.00   0.00  -0.00
  10   6     0.00  -0.00   0.00     0.00   0.00   0.00    -0.00  -0.00   0.00
  11   6    -0.00  -0.00  -0.00    -0.00  -0.00  -0.00    -0.00  -0.00  -0.00
  12   6     0.00  -0.00  -0.00    -0.01  -0.00  -0.00     0.01  -0.00  -0.01
  13   6    -0.00  -0.00  -0.00     0.01   0.01   0.01    -0.00  -0.00  -0.00
  14   1     0.00  -0.00  -0.00     0.00  -0.00  -0.01    -0.00   0.00   0.00
  15   8    -0.00   0.00  -0.00     0.00  -0.00   0.00     0.00   0.00  -0.00
  16   6     0.03  -0.00  -0.00    -0.23  -0.07  -0.05     0.14   0.03  -0.19
  17   1    -0.02  -0.05   0.02     0.00   0.00   0.00     0.01   0.01  -0.00
  18   1    -0.04  -0.01  -0.04     0.00   0.00   0.00     0.01   0.00   0.01
  19   1    -0.52  -0.42  -0.67    -0.03  -0.03  -0.04     0.03   0.02   0.04
  20   1     0.12  -0.06   0.06     0.01  -0.01   0.00    -0.00   0.00  -0.00
  21   1     0.03  -0.01  -0.03     0.00  -0.00  -0.00     0.00  -0.00  -0.00
  22   1     0.00   0.00   0.00    -0.00  -0.00   0.00    -0.00  -0.00  -0.00
  23   1     0.00   0.00  -0.02     0.00   0.00  -0.00     0.00   0.00  -0.00
  24   1    -0.00  -0.00   0.00    -0.00  -0.00   0.00     0.00   0.00   0.00
  25   1    -0.00   0.00  -0.00    -0.00  -0.00  -0.00     0.00  -0.00   0.00
  26   1     0.00   0.00  -0.00     0.00   0.00  -0.00     0.00   0.00  -0.00
  27   1    -0.00  -0.00  -0.00    -0.00  -0.00  -0.00     0.00  -0.00   0.00
  28   1     0.00   0.00   0.00     0.00   0.00   0.00     0.00   0.00   0.00
  29   1     0.00  -0.00  -0.00     0.00  -0.00  -0.00     0.00  -0.00  -0.00
  30   1     0.00   0.00   0.00    -0.03  -0.01  -0.01     0.00   0.00   0.00
  31   1    -0.00  -0.00  -0.00     0.00  -0.01  -0.01    -0.00   0.00   0.01
  32   1     0.00  -0.00   0.00    -0.00   0.00  -0.00    -0.00  -0.00   0.00
  33   1    -0.02  -0.01   0.04    -0.02  -0.00  -0.02    -0.54  -0.19   0.78
  34   1    -0.06  -0.01  -0.02     0.91   0.13   0.26     0.03   0.01  -0.02
  35   1    -0.01   0.02  -0.01    -0.09   0.12  -0.08    -0.01   0.08  -0.06
                     94                     95                     96
                        a                      a                      a 
 Frequencies --  3086.1767              3099.2096              3106.5541
 Red. masses --     1.6167                 1.5231                 1.9802
 Frc consts  --     0.0000                 0.0000                 0.0000
 IR Inten    --    65.7225                40.3420                86.9175
 Raman Activ --     0.0000                 0.0000                 0.0000
 Depolar     --     0.0000                 0.0000                 0.0000
 Atom AN      X      Y      Z        X      Y      Z        X      Y      Z
   1   6    -0.00  -0.00   0.00    -0.00   0.00  -0.00     0.00  -0.00   0.00
   2   6     0.00   0.00   0.00     0.00  -0.00  -0.00    -0.00  -0.00  -0.00
   3   6     0.00  -0.00   0.00    -0.00  -0.00   0.00     0.00   0.00   0.00
   4   6     0.00  -0.00  -0.00    -0.00  -0.00  -0.00    -0.00   0.00  -0.00
   5   6     0.00  -0.00  -0.00    -0.00   0.00   0.00    -0.00   0.00   0.00
   6   6     0.00   0.00  -0.00    -0.00  -0.00   0.00     0.00   0.00   0.00
   7   6     0.00   0.00   0.00     0.00  -0.00  -0.00     0.00  -0.00   0.00
   8   6     0.00  -0.00   0.00     0.01  -0.00   0.00    -0.00  -0.00  -0.00
   9   8    -0.00  -0.00   0.00    -0.00   0.00  -0.00    -0.00  -0.00  -0.00
  10   6    -0.00  -0.00   0.00     0.00  -0.00   0.00    -0.00  -0.00   0.00
  11   6    -0.00  -0.00  -0.00    -0.19  -0.03  -0.10    -0.00  -0.00  -0.00
  12   6     0.02  -0.00  -0.00     0.00  -0.00  -0.00     0.00   0.01   0.01
  13   6    -0.10   0.16   0.14    -0.00  -0.00  -0.00     0.22   0.14   0.13
  14   1    -0.00  -0.00  -0.01    -0.00   0.00   0.00    -0.00  -0.00  -0.01
  15   8    -0.00  -0.00   0.00    -0.00   0.00   0.00    -0.00  -0.00   0.00
  16   6     0.00  -0.00  -0.00     0.00   0.00   0.00     0.01   0.00   0.00
  17   1     0.00   0.00  -0.00     0.00   0.00   0.00    -0.00  -0.00   0.00
  18   1    -0.00  -0.00  -0.00    -0.00  -0.00  -0.00    -0.00  -0.00  -0.00
  19   1     0.00   0.00   0.00     0.00   0.00   0.00     0.00   0.00   0.00
  20   1    -0.00   0.00  -0.00     0.00  -0.00   0.00     0.00  -0.00   0.00
  21   1    -0.00   0.00   0.00     0.00  -0.00  -0.00     0.00  -0.00  -0.00
  22   1    -0.00  -0.00   0.00     0.00   0.00  -0.00     0.00   0.00  -0.00
  23   1     0.00   0.00  -0.00    -0.00  -0.00   0.01    -0.00  -0.00  -0.00
  24   1    -0.00  -0.00   0.00     0.00   0.01  -0.00     0.00   0.00  -0.00
  25   1     0.00   0.00   0.00    -0.00   0.00   0.00     0.00   0.00   0.00
  26   1     0.00   0.00  -0.00     0.00   0.00  -0.00     0.00   0.00  -0.00
  27   1    -0.00  -0.00   0.00    -0.00  -0.00  -0.00     0.00   0.00   0.00
  28   1     0.00   0.00   0.00     0.21   0.46   0.58     0.00   0.00   0.01
  29   1     0.00  -0.00  -0.00     0.39  -0.36  -0.26     0.00  -0.00  -0.00
  30   1     0.30   0.13   0.13     0.00   0.00   0.00    -0.81  -0.28  -0.27
  31   1    -0.00  -0.67  -0.61    -0.00   0.00   0.00     0.03  -0.24  -0.22
  32   1     0.00   0.00  -0.01     0.00  -0.00   0.00     0.00   0.00  -0.00
  33   1    -0.00   0.00   0.00     0.00   0.00  -0.00    -0.00  -0.00   0.01
  34   1    -0.00  -0.00  -0.00    -0.00  -0.00  -0.00    -0.04  -0.01  -0.01
  35   1    -0.00   0.01  -0.00     0.00  -0.00   0.00     0.00  -0.00   0.00
                     97                     98                     99
                        a                      a                      a 
 Frequencies --  3120.9768              3503.9549              3536.1407
 Red. masses --     2.0838                 1.8723                 1.8738
 Frc consts  --     0.0000                 0.0000                 0.0000
 IR Inten    --    58.9398                52.0959                30.6585
 Raman Activ --     0.0000                 0.0000                 0.0000
 Depolar     --     0.0000                 0.0000                 0.0000
 Atom AN      X      Y      Z        X      Y      Z        X      Y      Z
   1   6    -0.00   0.00   0.00    -0.00  -0.00  -0.00     0.00  -0.00  -0.00
   2   6    -0.00   0.00   0.00     0.00   0.00   0.00    -0.00   0.00  -0.00
   3   6    -0.00  -0.00  -0.00    -0.00  -0.00  -0.00    -0.00   0.00  -0.00
   4   6    -0.00   0.00  -0.00     0.00  -0.00  -0.00     0.00   0.00   0.00
   5   6    -0.00  -0.00   0.00     0.00   0.00  -0.00    -0.00  -0.00   0.00
   6   6     0.00   0.00   0.00     0.00   0.00  -0.00    -0.00   0.00  -0.00
   7   6     0.00  -0.00   0.00    -0.00   0.00  -0.00    -0.00  -0.00  -0.00
   8   6    -0.00   0.01   0.01    -0.00  -0.00   0.00    -0.00   0.00   0.00
   9   8     0.00  -0.00  -0.00     0.00  -0.00   0.00    -0.18   0.15  -0.06
  10   6     0.00  -0.00   0.00     0.00   0.00  -0.01     0.00  -0.00  -0.00
  11   6    -0.10   0.22   0.20     0.00  -0.00  -0.00    -0.00   0.00  -0.00
  12   6     0.00   0.00   0.00    -0.00  -0.00  -0.00     0.00  -0.00  -0.00
  13   6     0.00   0.00   0.00    -0.00   0.00   0.00    -0.00  -0.00  -0.00
  14   1     0.00  -0.00  -0.00    -0.00  -0.00  -0.00     0.00   0.00   0.00
  15   8    -0.00   0.00  -0.00     0.09   0.16  -0.15     0.00   0.00  -0.00
  16   6    -0.00   0.00  -0.00     0.00   0.00  -0.00    -0.00  -0.00   0.00
  17   1    -0.00  -0.00   0.00     0.00   0.00   0.00    -0.00  -0.00   0.00
  18   1     0.00   0.00   0.00    -0.00   0.00   0.00     0.00   0.00   0.00
  19   1    -0.00   0.00  -0.00     0.00   0.00   0.00    -0.00  -0.00  -0.00
  20   1     0.00  -0.00   0.00    -0.00  -0.00   0.00     0.00  -0.00   0.00
  21   1     0.00  -0.00  -0.01    -0.00   0.00   0.00     0.00  -0.00  -0.00
  22   1    -0.00   0.00   0.00    -0.00  -0.00   0.00     0.00  -0.00   0.00
  23   1     0.00   0.00  -0.01     0.00  -0.00   0.00     0.00  -0.00   0.00
  24   1     0.00  -0.00   0.00    -0.00  -0.00  -0.00     0.00   0.00  -0.00
  25   1    -0.00   0.00  -0.00    -0.00   0.00  -0.00     0.72  -0.59   0.27
  26   1     0.00  -0.00   0.00    -0.00  -0.01   0.00     0.00  -0.00   0.00
  27   1    -0.00  -0.00  -0.00     0.00  -0.00   0.00     0.00  -0.00   0.00
  28   1    -0.19  -0.33  -0.43     0.00  -0.00   0.00    -0.00  -0.00  -0.00
  29   1     0.54  -0.45  -0.30    -0.00   0.00   0.00     0.00  -0.00  -0.00
  30   1    -0.00  -0.00  -0.00     0.00  -0.00   0.00     0.00   0.00   0.00
  31   1     0.00  -0.00  -0.00     0.00  -0.01  -0.00    -0.00   0.00   0.00
  32   1     0.00  -0.00   0.00    -0.38  -0.63   0.63    -0.00  -0.00   0.00
  33   1    -0.00   0.00  -0.00     0.00  -0.00  -0.00     0.00   0.00  -0.00
  34   1     0.00   0.00   0.00     0.00   0.00   0.00     0.00   0.00   0.00
  35   1     0.00  -0.00   0.00    -0.00   0.00   0.00    -0.00  -0.00   0.00
