      -----------------------------------------------------------      
     |                   =====================                   |     
     |                           x T B                           |     
     |                   =====================                   |     
     |                         S. Grimme                         |     
     |          Mulliken Center for Theoretical Chemistry        |     
     |                    University of Bonn                     |     
      -----------------------------------------------------------      

   * xtb version 6.7.1 (edcfbbe) compiled by 'albert@albert-system' on 2024-07-22

   xtb is free software: you can redistribute it and/or modify it under
   the terms of the GNU Lesser General Public License as published by
   the Free Software Foundation, either version 3 of the License, or
   (at your option) any later version.
   
   xtb is distributed in the hope that it will be useful,
   but WITHOUT ANY WARRANTY; without even the implied warranty of
   MERCHANTABILITY or FITNESS FOR A PARTICULAR PURPOSE.  See the
   GNU Lesser General Public License for more details.
   
   Cite this work as:
   * C. Bannwarth, E. Caldeweyher, S. Ehlert, A. Hansen, P. Pracht,
     J. Seibert, S. Spicher, S. Grimme, WIREs Comput. Mol. Sci., 2020, 11,
     e01493. DOI: 10.1002/wcms.1493
   
   for GFN2-xTB:
   * C. Bannwarth, S. Ehlert and S. Grimme., J. Chem. Theory Comput., 2019,
     15, 1652-1671. DOI: 10.1021/acs.jctc.8b01176
   for GFN1-xTB:
   * S. Grimme, C. Bannwarth, P. Shushkov, J. Chem. Theory Comput., 2017,
     13, 1989-2009. DOI: 10.1021/acs.jctc.7b00118
   for GFN0-xTB:
   * P. Pracht, E. Caldeweyher, S. Ehlert, S. Grimme, ChemRxiv, 2019, preprint.
     DOI: 10.26434/chemrxiv.8326202.v1
   for GFN-FF:
   * S. Spicher and S. Grimme, Angew. Chem. Int. Ed., 2020, 59, 15665-15673.
     DOI: 10.1002/anie.202004239
   
   for ALPB and GBSA implicit solvation:
   * S. Ehlert, M. Stahn, S. Spicher, S. Grimme, J. Chem. Theory Comput.,
     2021, 17, 4250-4261. DOI: 10.1021/acs.jctc.1c00471
   
   for ddCOSMO and CPCM-X implicit solvation:
   * M. Stahn, S. Ehlert, S. Grimme, J. Phys. Chem. A,
     2023, XX, XXXX-XXXX. DOI: 10.1021/acs.jpca.3c04382
   
   for DFT-D4:
   * E. Caldeweyher, C. Bannwarth and S. Grimme, J. Chem. Phys., 2017,
     147, 034112. DOI: 10.1063/1.4993215
   * E. Caldeweyher, S. Ehlert, A. Hansen, H. Neugebauer, S. Spicher,
     C. Bannwarth and S. Grimme, J. Chem. Phys., 2019, 150, 154122.
     DOI: 10.1063/1.5090222
   * E. Caldeweyher, J.-M. Mewes, S. Ehlert and S. Grimme, Phys. Chem. Chem. Phys.
     2020, 22, 8499-8512. DOI: 10.1039/D0CP00502A
   
   for sTDA-xTB:
   * S. Grimme and C. Bannwarth, J. Chem. Phys., 2016, 145, 054103.
     DOI: 10.1063/1.4959605
   
   in the mass-spec context:
   * V. Asgeirsson, C. Bauer and S. Grimme, Chem. Sci., 2017, 8, 4879.
     DOI: 10.1039/c7sc00601b
   * J. Koopman and S. Grimme, ACS Omega 2019, 4, 12, 15120-15133.
     DOI: 10.1021/acsomega.9b02011
   
   for metadynamics refer to:
   * S. Grimme, J. Chem. Theory Comput., 2019, 155, 2847-2862
     DOI: 10.1021/acs.jctc.9b00143
   
   for SPH calculations refer to:
   * S. Spicher and S. Grimme, J. Chem. Theory Comput., 2021, 17, 1701-1714
     DOI: 10.1021/acs.jctc.0c01306
   
   for ONIOM refer to:
   * C. Plett, A. Katbashev, S. Ehlert, S. Grimme, M. Bursch,
     Phys. Chem. Chem. Phys., 2023, 25, 17860-17868. DOI: 10.1039/D3CP02178E
   
   for DIPRO refer to:
   * J. Kohn, N. Gildemeister, S. Grimme, D. Fazzi, A. Hansen,
     J. Chem. Phys., 2023, just accepted.
   
   for PTB refer to:
   * S. Grimme, M. Mueller, A. Hansen, J. Chem. Phys., 2023, 158, 124111.
     DOI: 10.1063/5.0137838
   
   with help from (in alphabetical order)
   P. Atkinson, C. Bannwarth, F. Bohle, G. Brandenburg, E. Caldeweyher
   M. Checinski, S. Dohm, S. Ehlert, S. Ehrlich, I. Gerasimov, C. Hölzer
   A. Katbashev, J. Kohn, J. Koopman, C. Lavigne, S. Lehtola, F. März, M. Müller,
   F. Musil, H. Neugebauer, J. Pisarek, C. Plett, P. Pracht, F. Pultar,
   J. Seibert, P. Shushkov, S. Spicher, M. Stahn, M. Steiner, T. Strunk,
   J. Stückrath, T. Rose, and J. Unsleber
   
 * started run on 2026/08/09 at 17:05:36.809     
   ID    Z sym.   atoms
    1    6 c      1-8, 10-13, 16
    2    8 o      9, 15
    3    1 h      14, 17-35

           -------------------------------------------------
          |                Calculation Setup                |
           -------------------------------------------------

          program call               : /home/dinglab/software/xtb_6.7.1/xtb_dist/bin/xtb coord --gfn2 --ohess vtight --alpb chcl3 --chrg 0 --enso --norestart -I xcontrol-inp --parallel 12
          hostname                   : localhost
          coordinate file            : coord
          omp threads                :                    12


           -------------------------------------------------
          |                 G F N 2 - x T B                 |
           -------------------------------------------------

        Reference                      10.1021/acs.jctc.8b01176
      * Hamiltonian:
        H0-scaling (s, p, d)           1.850000    2.230000    2.230000
        zeta-weighting                 0.500000
      * Dispersion:
        s8                             2.700000
        a1                             0.520000
        a2                             5.000000
        s9                             5.000000
      * Repulsion:
        kExp                           1.500000    1.000000
        rExp                           1.000000
      * Coulomb:
        alpha                          2.000000
        third order                    shell-resolved
        anisotropic                    true
        a3                             3.000000
        a5                             4.000000
        cn-shift                       1.200000
        cn-exp                         4.000000
        max-rad                        5.000000

      * Solvation model:               ALPB
        Solvent                        chcl3
        Parameter file                 internal GFN2-xTB/ALPB
        Dielectric constant                4.8100E+00
        Reference state                gsolv [1 M gas/solution]
        Free energy shift                  3.8910E-03 Eh       2.4417E+00 kcal/mol
        Temperature                        2.9815E+02 K
        Density                            1.4900E+00 kg/L
        Solvent mass                       1.1938E+02 g/mol
        Interaction kernel             P16
        Born radius scaling (c1)           1.3274E+00
        Born radii integrator          GBOBC
        Born offset                        0.0000E+00 a0       0.0000E+00 AA
        H-bond correction              false
        Ion screening                  false
        Surface tension                    1.0000E-05 Eh       1.5569E+01 dyn/cm
        Grid points                               974 per atom

          ...................................................
          :                      SETUP                      :
          :.................................................:
          :  # basis functions                  80          :
          :  # atomic orbitals                  80          :
          :  # shells                           50          :
          :  # electrons                        84          :
          :  max. iterations                   250          :
          :  Hamiltonian                  GFN2-xTB          :
          :  restarted?                      false          :
          :  GBSA solvation                   true          :
          :  PC potential                    false          :
          :  electronic temp.          300.0000000     K    :
          :  accuracy                    1.0000000          :
          :  -> integral cutoff          0.2500000E+02      :
          :  -> integral neglect         0.1000000E-07      :
          :  -> SCF convergence          0.1000000E-05 Eh   :
          :  -> wf. convergence          0.1000000E-03 e    :
          :  Broyden damping             0.4000000          :
          :  net charge                          0          :
          :  unpaired electrons                  0          :
          ...................................................

 iter      E             dE          RMSdq      gap      omega  full diag
   1    -46.6669301 -0.466669E+02  0.344E+00    5.04       0.0  T
   2    -46.7092406 -0.423105E-01  0.193E+00    4.97       1.0  T
   3    -46.7035415  0.569917E-02  0.814E-01    4.98       1.0  T
   4    -46.7108605 -0.731899E-02  0.379E-01    4.91       1.0  T
   5    -46.7135578 -0.269734E-02  0.767E-02    4.93       1.0  T
   6    -46.7135909 -0.330927E-04  0.431E-02    4.93       1.0  T
   7    -46.7135975 -0.659045E-05  0.145E-02    4.93       1.2  T
   8    -46.7135992 -0.171164E-05  0.532E-03    4.93       3.2  T
   9    -46.7135997 -0.525128E-06  0.239E-03    4.93       7.1  T
  10    -46.7135998 -0.426095E-07  0.893E-04    4.93      18.9  T
  11    -46.7135998 -0.348452E-08  0.368E-04    4.93      45.9  T

   *** convergence criteria satisfied after 11 iterations ***

         #    Occupation            Energy/Eh            Energy/eV
      -------------------------------------------------------------
         1        2.0000           -0.6916731             -18.8214
       ...           ...                  ...                  ...
        36        2.0000           -0.4322976             -11.7634
        37        2.0000           -0.4231790             -11.5153
        38        2.0000           -0.4196122             -11.4182
        39        2.0000           -0.4128580             -11.2344
        40        2.0000           -0.4028739             -10.9628
        41        2.0000           -0.3929111             -10.6917
        42        2.0000           -0.3905047             -10.6262 (HOMO)
        43                         -0.2092023              -5.6927 (LUMO)
        44                         -0.2079785              -5.6594
        45                         -0.0109329              -0.2975
        46                         -0.0007742              -0.0211
        47                          0.0173509               0.4721
       ...                                ...                  ...
        80                          0.5939382              16.1619
      -------------------------------------------------------------
                  HL-Gap            0.1813024 Eh            4.9335 eV
             Fermi-level           -0.2998535 Eh           -8.1594 eV

 SCC (total)                   0 d,  0 h,  0 min,  0.049 sec
 SCC setup                      ...        0 min,  0.001 sec (  1.627%)
 Dispersion                     ...        0 min,  0.000 sec (  0.795%)
 classical contributions        ...        0 min,  0.000 sec (  0.057%)
 integral evaluation            ...        0 min,  0.001 sec (  3.026%)
 iterations                     ...        0 min,  0.043 sec ( 87.518%)
 molecular gradient             ...        0 min,  0.003 sec (  6.557%)
 printout                       ...        0 min,  0.000 sec (  0.347%)

         :::::::::::::::::::::::::::::::::::::::::::::::::::::
         ::                     SUMMARY                     ::
         :::::::::::::::::::::::::::::::::::::::::::::::::::::
         :: total energy             -46.155208053952 Eh    ::
         :: total w/o Gsasa/hb       -46.142891077541 Eh    ::
         :: gradient norm              0.050540956004 Eh/a0 ::
         :: HOMO-LUMO gap              4.933489041186 eV    ::
         ::.................................................::
         :: SCC energy               -46.712946516033 Eh    ::
         :: -> isotropic ES            0.063026255430 Eh    ::
         :: -> anisotropic ES          0.008195887246 Eh    ::
         :: -> anisotropic XC          0.019655517133 Eh    ::
         :: -> dispersion             -0.035426419483 Eh    ::
         :: -> Gsolv                  -0.020759929691 Eh    ::
         ::    -> Gelec               -0.008442953280 Eh    ::
         ::    -> Gsasa               -0.016207995655 Eh    ::
         ::    -> Ghb                  0.000000000000 Eh    ::
         ::    -> Gshift               0.003891019244 Eh    ::
         :: repulsion energy           0.557738462081 Eh    ::
         :: add. restraining           0.000000000000 Eh    ::
         :: total charge              -0.000000000000 e     ::
         :::::::::::::::::::::::::::::::::::::::::::::::::::::

      ----------------------------------------------------------- 
     |                   =====================                   |
     |                        A N C O P T                        |
     |                   =====================                   |
     |               Approximate Normal Coordinate               |
     |                Rational Function Optimizer                |
      ----------------------------------------------------------- 
      ----------------------------------------------------------- 
     |                   =====================                   |
     |                        A N C O P T                        |
     |                   =====================                   |
     |               Approximate Normal Coordinate               |
     |                Rational Function Optimizer                |
      ----------------------------------------------------------- 

          ...................................................
          :                      SETUP                      :
          :.................................................:
          :   optimization level         verytight          :
          :   max. optcycles                   700          :
          :   ANC micro-cycles                  20          :
          :   degrees of freedom                99          :
          :.................................................:
          :   RF solver                   davidson          :
          :   write xtbopt.log                true          :
          :   linear?                        false          :
          :   energy convergence         0.1000000E-06 Eh   :
          :   grad. convergence          0.2000000E-03 Eh/α :
          :   maxmium RF displ.          1.0000000          :
          :   Hlow (freq-cutoff)         0.1000000E-01      :
          :   Hmax (freq-cutoff)         5.0000000          :
          :   S6 in model hess.         20.0000000          :
          ...................................................

generating ANC from exact Hessian ...
Using Lindh-Hessian (1995)
 Shifting diagonal of input Hessian by   8.957453593219937E-003
 Lowest  eigenvalues of input Hessian
    0.000000    0.000000    0.000000    0.000000    0.000000    0.000000
    0.010000    0.010670    0.011103    0.012382    0.012880    0.013984
    0.014809    0.016076    0.016513    0.017437    0.018081    0.018739
 Highest eigenvalues
    1.389310    1.402530    1.406555    1.422411    1.808397    1.857170
 

........................................................................
.............................. CYCLE    1 ..............................
........................................................................

 iter      E             dE          RMSdq      gap      omega  full diag
   1    -46.7135998 -0.467136E+02  0.815E-05    4.93       0.0  T
   2    -46.7135998 -0.346461E-10  0.469E-05    4.93     360.3  T
   3    -46.7135998 -0.788702E-12  0.322E-05    4.93     525.4  T
     SCC iter.                  ...        0 min,  0.005 sec
     gradient                   ...        0 min,  0.003 sec
 * total energy  :   -46.1552081 Eh     change       -0.7782290E-09 Eh
   gradient norm :     0.0505435 Eh/α   predicted     0.0000000E+00 (-100.00%)
   displ. norm   :     0.2942308 α      lambda       -0.9636956E-02
   maximum displ.:     0.1186203 α      in ANC's #24, #23, #62, ...

........................................................................
.............................. CYCLE    2 ..............................
........................................................................

 iter      E             dE          RMSdq      gap      omega  full diag
   1    -46.7649576 -0.467650E+02  0.145E-01    5.09       0.0  T
   2    -46.7649863 -0.287311E-04  0.889E-02    5.09       1.0  T
   3    -46.7649594  0.269552E-04  0.564E-02    5.09       1.0  T
   4    -46.7650149 -0.555688E-04  0.661E-03    5.09       2.6  T
   5    -46.7650154 -0.429442E-06  0.301E-03    5.09       5.6  T
   6    -46.7650154 -0.144071E-08  0.127E-03    5.09      13.3  T
   7    -46.7650154 -0.110377E-07  0.520E-04    5.09      32.5  T
   8    -46.7650154 -0.470735E-08  0.211E-04    5.09      79.9  T
     SCC iter.                  ...        0 min,  0.011 sec
     gradient                   ...        0 min,  0.003 sec
 * total energy  :   -46.1613745 Eh     change       -0.6166486E-02 Eh
   gradient norm :     0.0151994 Eh/α   predicted    -0.5235833E-02 ( -15.09%)
   displ. norm   :     0.1856463 α      lambda       -0.1420423E-02
   maximum displ.:     0.0673200 α      in ANC's #15, #24, #4, ...

........................................................................
.............................. CYCLE    3 ..............................
........................................................................

 iter      E             dE          RMSdq      gap      omega  full diag
   1    -46.7834970 -0.467835E+02  0.710E-02    5.13       0.0  T
   2    -46.7835031 -0.615960E-05  0.442E-02    5.13       1.0  T
   3    -46.7834963  0.678705E-05  0.266E-02    5.13       1.0  T
   4    -46.7835094 -0.130416E-04  0.326E-03    5.13       5.2  T
   5    -46.7835095 -0.104436E-06  0.139E-03    5.13      12.2  T
   6    -46.7835095 -0.330581E-08  0.638E-04    5.13      26.5  T
   7    -46.7835095 -0.116454E-08  0.288E-04    5.13      58.7  T
     SCC iter.                  ...        0 min,  0.010 sec
     gradient                   ...        0 min,  0.003 sec
 * total energy  :   -46.1621146 Eh     change       -0.7400450E-03 Eh
   gradient norm :     0.0048778 Eh/α   predicted    -0.7350472E-03 (  -0.68%)
   displ. norm   :     0.0668452 α      lambda       -0.1150946E-03
   maximum displ.:     0.0314591 α      in ANC's #4, #14, #15, ...

........................................................................
.............................. CYCLE    4 ..............................
........................................................................

 iter      E             dE          RMSdq      gap      omega  full diag
   1    -46.7833558 -0.467834E+02  0.279E-02    5.12       0.0  T
   2    -46.7833560 -0.249890E-06  0.167E-02    5.12       1.0  T
   3    -46.7833555  0.513681E-06  0.481E-03    5.12       3.5  T
   4    -46.7833561 -0.624828E-06  0.946E-04    5.12      17.9  T
   5    -46.7833562 -0.934111E-08  0.441E-04    5.12      38.4  T
     SCC iter.                  ...        0 min,  0.007 sec
     gradient                   ...        0 min,  0.003 sec
 * total energy  :   -46.1621826 Eh     change       -0.6798164E-04 Eh
   gradient norm :     0.0021976 Eh/α   predicted    -0.5780905E-04 ( -14.96%)
   displ. norm   :     0.0906420 α      lambda       -0.8239934E-04
   maximum displ.:     0.0568964 α      in ANC's #4, #1, #14, ...

........................................................................
.............................. CYCLE    5 ..............................
........................................................................

 iter      E             dE          RMSdq      gap      omega  full diag
   1    -46.7819440 -0.467819E+02  0.342E-02    5.12       0.0  T
   2    -46.7819444 -0.362570E-06  0.204E-02    5.12       1.0  T
   3    -46.7819441  0.285298E-06  0.400E-03    5.12       4.2  T
   4    -46.7819445 -0.400885E-06  0.117E-03    5.12      14.4  T
   5    -46.7819445 -0.143686E-07  0.604E-04    5.12      28.0  T
   6    -46.7819445 -0.160278E-08  0.191E-04    5.12      88.5  T
     SCC iter.                  ...        0 min,  0.008 sec
     gradient                   ...        0 min,  0.003 sec
 * total energy  :   -46.1622324 Eh     change       -0.4980024E-04 Eh
   gradient norm :     0.0023556 Eh/α   predicted    -0.4154324E-04 ( -16.58%)
   displ. norm   :     0.0702876 α      lambda       -0.3665147E-04
   maximum displ.:     0.0395691 α      in ANC's #4, #1, #9, ...

........................................................................
.............................. CYCLE    6 ..............................
........................................................................

 iter      E             dE          RMSdq      gap      omega  full diag
   1    -46.7812829 -0.467813E+02  0.267E-02    5.12       0.0  T
   2    -46.7812830 -0.130884E-06  0.159E-02    5.12       1.1  T
   3    -46.7812830  0.285288E-07  0.177E-03    5.12       9.5  T
   4    -46.7812831 -0.680227E-07  0.740E-04    5.12      22.9  T
   5    -46.7812831 -0.529751E-08  0.405E-04    5.12      41.8  T
     SCC iter.                  ...        0 min,  0.007 sec
     gradient                   ...        0 min,  0.003 sec
 * total energy  :   -46.1622583 Eh     change       -0.2595901E-04 Eh
   gradient norm :     0.0026396 Eh/α   predicted    -0.1841708E-04 ( -29.05%)
   displ. norm   :     0.0864764 α      lambda       -0.3355636E-04
   maximum displ.:     0.0511040 α      in ANC's #1, #4, #9, ...

........................................................................
.............................. CYCLE    7 ..............................
........................................................................

 iter      E             dE          RMSdq      gap      omega  full diag
   1    -46.7813011 -0.467813E+02  0.305E-02    5.12       0.0  T
   2    -46.7813012 -0.110086E-06  0.181E-02    5.12       1.0  T
   3    -46.7813012  0.531730E-07  0.209E-03    5.12       8.1  T
   4    -46.7813013 -0.101166E-06  0.755E-04    5.12      22.4  T
   5    -46.7813013 -0.374030E-08  0.356E-04    5.12      47.4  T
     SCC iter.                  ...        0 min,  0.007 sec
     gradient                   ...        0 min,  0.003 sec
 * total energy  :   -46.1622823 Eh     change       -0.2398408E-04 Eh
   gradient norm :     0.0018795 Eh/α   predicted    -0.1690486E-04 ( -29.52%)
   displ. norm   :     0.1112597 α      lambda       -0.2088654E-04
   maximum displ.:     0.0730457 α      in ANC's #1, #4, #3, ...

........................................................................
.............................. CYCLE    8 ..............................
........................................................................

 iter      E             dE          RMSdq      gap      omega  full diag
   1    -46.7821370 -0.467821E+02  0.373E-02    5.13       0.0  T
   2    -46.7821372 -0.178571E-06  0.220E-02    5.13       1.0  T
   3    -46.7821370  0.238710E-06  0.342E-03    5.13       4.9  T
   4    -46.7821373 -0.316208E-06  0.796E-04    5.13      21.2  T
   5    -46.7821373 -0.415539E-08  0.402E-04    5.13      42.1  T
     SCC iter.                  ...        0 min,  0.007 sec
     gradient                   ...        0 min,  0.003 sec
 * total energy  :   -46.1623002 Eh     change       -0.1785993E-04 Eh
   gradient norm :     0.0011142 Eh/α   predicted    -0.1050440E-04 ( -41.18%)
   displ. norm   :     0.0498401 α      lambda       -0.7101639E-05
   maximum displ.:     0.0346881 α      in ANC's #1, #3, #4, ...

........................................................................
.............................. CYCLE    9 ..............................
........................................................................

 iter      E             dE          RMSdq      gap      omega  full diag
   1    -46.7823295 -0.467823E+02  0.155E-02    5.13       0.0  T
   2    -46.7823295 -0.223073E-07  0.916E-03    5.13       1.8  T
   3    -46.7823294  0.777189E-07  0.174E-03    5.13       9.7  T
   4    -46.7823295 -0.903627E-07  0.223E-04    5.13      75.8  T
   5    -46.7823295 -0.537185E-09  0.111E-04    5.13     152.9  T
     SCC iter.                  ...        0 min,  0.007 sec
     gradient                   ...        0 min,  0.003 sec
 * total energy  :   -46.1623084 Eh     change       -0.8265600E-05 Eh
   gradient norm :     0.0010133 Eh/α   predicted    -0.3555637E-05 ( -56.98%)
   displ. norm   :     0.0762313 α      lambda       -0.1062260E-04
   maximum displ.:     0.0502929 α      in ANC's #1, #3, #2, ...

........................................................................
.............................. CYCLE   10 ..............................
........................................................................

 iter      E             dE          RMSdq      gap      omega  full diag
   1    -46.7824524 -0.467825E+02  0.223E-02    5.13       0.0  T
   2    -46.7824524 -0.434308E-07  0.132E-02    5.13       1.3  T
   3    -46.7824523  0.752168E-07  0.182E-03    5.13       9.3  T
   4    -46.7824524 -0.950516E-07  0.371E-04    5.13      45.6  T
   5    -46.7824524 -0.111011E-08  0.191E-04    5.13      88.5  T
     SCC iter.                  ...        0 min,  0.007 sec
     gradient                   ...        0 min,  0.003 sec
 * total energy  :   -46.1623182 Eh     change       -0.9812728E-05 Eh
   gradient norm :     0.0012817 Eh/α   predicted    -0.5326556E-05 ( -45.72%)
   displ. norm   :     0.0724010 α      lambda       -0.8100027E-05
   maximum displ.:     0.0503072 α      in ANC's #1, #3, #2, ...

........................................................................
.............................. CYCLE   11 ..............................
........................................................................

 iter      E             dE          RMSdq      gap      omega  full diag
   1    -46.7821846 -0.467822E+02  0.226E-02    5.13       0.0  T
   2    -46.7821846 -0.380156E-07  0.134E-02    5.13       1.3  T
   3    -46.7821846 -0.778057E-08  0.658E-04    5.13      25.7  T
   4    -46.7821846 -0.602643E-08  0.385E-04    5.13      43.9  T
     SCC iter.                  ...        0 min,  0.006 sec
     gradient                   ...        0 min,  0.003 sec
 * total energy  :   -46.1623237 Eh     change       -0.5432258E-05 Eh
   gradient norm :     0.0009027 Eh/α   predicted    -0.4060871E-05 ( -25.25%)
   displ. norm   :     0.0350275 α      lambda       -0.4221337E-05
   maximum displ.:     0.0261815 α      in ANC's #1, #4, #3, ...

........................................................................
.............................. CYCLE   12 ..............................
........................................................................

 iter      E             dE          RMSdq      gap      omega  full diag
   1    -46.7820425 -0.467820E+02  0.137E-02    5.13       0.0  T
   2    -46.7820425 -0.196611E-07  0.803E-03    5.13       2.1  T
   3    -46.7820425  0.735224E-08  0.739E-04    5.13      22.9  T
   4    -46.7820425 -0.129825E-07  0.262E-04    5.13      64.5  T
     SCC iter.                  ...        0 min,  0.006 sec
     gradient                   ...        0 min,  0.003 sec
 * total energy  :   -46.1623273 Eh     change       -0.3611764E-05 Eh
   gradient norm :     0.0005799 Eh/α   predicted    -0.2116596E-05 ( -41.40%)
   displ. norm   :     0.0215992 α      lambda       -0.1883557E-05
   maximum displ.:     0.0168402 α      in ANC's #1, #4, #9, ...

........................................................................
.............................. CYCLE   13 ..............................
........................................................................

 iter      E             dE          RMSdq      gap      omega  full diag
   1    -46.7822305 -0.467822E+02  0.845E-03    5.13       0.0  T
   2    -46.7822305 -0.917704E-08  0.497E-03    5.13       3.4  T
   3    -46.7822305  0.733557E-09  0.360E-04    5.13      46.9  T
   4    -46.7822306 -0.275900E-08  0.152E-04    5.13     111.2  T
     SCC iter.                  ...        0 min,  0.006 sec
     gradient                   ...        0 min,  0.003 sec
 * total energy  :   -46.1623291 Eh     change       -0.1802662E-05 Eh
   gradient norm :     0.0002871 Eh/α   predicted    -0.9427025E-06 ( -47.70%)
   displ. norm   :     0.0165527 α      lambda       -0.8175368E-06
   maximum displ.:     0.0135494 α      in ANC's #1, #2, #9, ...

........................................................................
.............................. CYCLE   14 ..............................
........................................................................

 iter      E             dE          RMSdq      gap      omega  full diag
   1    -46.7822253 -0.467822E+02  0.579E-03    5.13       0.0  T
   2    -46.7822253 -0.364923E-08  0.341E-03    5.13       5.0  T
   3    -46.7822253 -0.262972E-10  0.185E-04    5.13      91.3  T
   4    -46.7822253 -0.651944E-09  0.926E-05    5.13     182.5  T
     SCC iter.                  ...        0 min,  0.006 sec
     gradient                   ...        0 min,  0.003 sec
 * total energy  :   -46.1623299 Eh     change       -0.8262388E-06 Eh
   gradient norm :     0.0002371 Eh/α   predicted    -0.4106931E-06 ( -50.29%)
   displ. norm   :     0.0161644 α      lambda        0.2193152E-06
   maximum displ.:     0.0132104 α      in ANC's #1, #2, #9, ...

........................................................................
.............................. CYCLE   15 ..............................
........................................................................

 iter      E             dE          RMSdq      gap      omega  full diag
   1    -46.7822161 -0.467822E+02  0.567E-03    5.13       0.0  T
   2    -46.7822162 -0.355459E-08  0.334E-03    5.13       5.1  T
   3    -46.7822161  0.100391E-08  0.266E-04    5.13      63.6  T
   4    -46.7822162 -0.166187E-08  0.111E-04    5.13     152.9  T
     SCC iter.                  ...        0 min,  0.006 sec
     gradient                   ...        0 min,  0.003 sec
 * total energy  :   -46.1623299 Eh     change       -0.6731256E-08 Eh
   gradient norm :     0.0005064 Eh/α   predicted     0.1094981E-06 (*******%)
   displ. norm   :     0.0046850 α      lambda       -0.5965782E-06
   maximum displ.:     0.0023614 α      in ANC's #1, #4, #2, ...

........................................................................
.............................. CYCLE   16 ..............................
........................................................................

 iter      E             dE          RMSdq      gap      omega  full diag
   1    -46.7821897 -0.467822E+02  0.241E-03    5.13       0.0  T
   2    -46.7821897 -0.147852E-08  0.142E-03    5.13      11.9  T
   3    -46.7821897  0.162238E-09  0.139E-04    5.13     121.8  T
   4    -46.7821897 -0.371308E-09  0.571E-05    5.13     295.9  T
     SCC iter.                  ...        0 min,  0.006 sec
     gradient                   ...        0 min,  0.003 sec
 * total energy  :   -46.1623305 Eh     change       -0.5895737E-06 Eh
   gradient norm :     0.0001681 Eh/α   predicted    -0.2994376E-06 ( -49.21%)
   displ. norm   :     0.0077770 α      lambda       -0.3257786E-06
   maximum displ.:     0.0050557 α      in ANC's #1, #4, #2, ...

........................................................................
.............................. CYCLE   17 ..............................
........................................................................

 iter      E             dE          RMSdq      gap      omega  full diag
   1    -46.7822227 -0.467822E+02  0.261E-03    5.13       0.0  T
   2    -46.7822227 -0.950664E-09  0.154E-03    5.13      11.0  T
   3    -46.7822227 -0.132161E-10  0.104E-04    5.13     163.3  T
   4    -46.7822227 -0.179028E-09  0.530E-05    5.13     318.7  T
     SCC iter.                  ...        0 min,  0.006 sec
     gradient                   ...        0 min,  0.003 sec
 * total energy  :   -46.1623309 Eh     change       -0.3485594E-06 Eh
   gradient norm :     0.0001451 Eh/α   predicted    -0.1635453E-06 ( -53.08%)
   displ. norm   :     0.0093351 α      lambda       -0.2200183E-06
   maximum displ.:     0.0064611 α      in ANC's #1, #2, #4, ...

........................................................................
.............................. CYCLE   18 ..............................
........................................................................

 iter      E             dE          RMSdq      gap      omega  full diag
   1    -46.7822019 -0.467822E+02  0.290E-03    5.13       0.0  T
   2    -46.7822019 -0.715964E-09  0.171E-03    5.13       9.9  T
   3    -46.7822019 -0.146372E-11  0.973E-05    5.13     173.8  T
   4    -46.7822019 -0.186340E-09  0.411E-05    5.13     410.8  T
     SCC iter.                  ...        0 min,  0.006 sec
     gradient                   ...        0 min,  0.003 sec
 * total energy  :   -46.1623311 Eh     change       -0.2491495E-06 Eh
   gradient norm :     0.0001440 Eh/α   predicted    -0.1132368E-06 ( -54.55%)
   displ. norm   :     0.0089829 α      lambda       -0.1597596E-06
   maximum displ.:     0.0065301 α      in ANC's #1, #2, #4, ...

........................................................................
.............................. CYCLE   19 ..............................
........................................................................

 iter      E             dE          RMSdq      gap      omega  full diag
   1    -46.7822041 -0.467822E+02  0.303E-03    5.13       0.0  T
   2    -46.7822041 -0.520942E-09  0.179E-03    5.13       9.5  T
   3    -46.7822041  0.440508E-09  0.151E-04    5.13     111.8  T
   4    -46.7822041 -0.640838E-09  0.376E-05    5.13     450.1  T
     SCC iter.                  ...        0 min,  0.006 sec
     gradient                   ...        0 min,  0.003 sec
 * total energy  :   -46.1623313 Eh     change       -0.1878972E-06 Eh
   gradient norm :     0.0000942 Eh/α   predicted    -0.8373092E-07 ( -55.44%)
   displ. norm   :     0.0078330 α      lambda       -0.1101060E-06
   maximum displ.:     0.0057982 α      in ANC's #1, #2, #7, ...

........................................................................
.............................. CYCLE   20 ..............................
........................................................................

 iter      E             dE          RMSdq      gap      omega  full diag
   1    -46.7822027 -0.467822E+02  0.271E-03    5.13       0.0  T
   2    -46.7822028 -0.440338E-09  0.159E-03    5.13      10.6  T
   3    -46.7822028  0.287621E-09  0.135E-04    5.13     125.5  T
   4    -46.7822028 -0.476881E-09  0.411E-05    5.13     411.1  T
     SCC iter.                  ...        0 min,  0.006 sec
     gradient                   ...        0 min,  0.003 sec
 * total energy  :   -46.1623314 Eh     change       -0.1290473E-06 Eh
   gradient norm :     0.0000453 Eh/α   predicted    -0.5674825E-07 ( -56.03%)
   displ. norm   :     0.0065983 α      lambda       -0.6554794E-07
   maximum displ.:     0.0049877 α      in ANC's #1, #2, #7, ...
 * RMSD in coord.:     0.1431158 α      energy gain  -0.7123378E-02 Eh

generating ANC from exact Hessian ...
Using Lindh-Hessian (1995)
 Shifting diagonal of input Hessian by   8.788556696014851E-003
 Lowest  eigenvalues of input Hessian
    0.000000    0.000000    0.000000    0.000000    0.000000    0.000000
    0.010000    0.010738    0.011216    0.012750    0.013266    0.014560
    0.015591    0.016983    0.017526    0.018901    0.019560    0.020393
 Highest eigenvalues
    1.480692    1.493866    1.507679    1.514612    1.919576    1.965493
 

........................................................................
.............................. CYCLE   21 ..............................
........................................................................

 iter      E             dE          RMSdq      gap      omega  full diag
   1    -46.7821967 -0.467822E+02  0.233E-03    5.13       0.0  T
   2    -46.7821967 -0.400995E-09  0.138E-03    5.13      12.3  T
   3    -46.7821967  0.866194E-09  0.195E-04    5.13      86.5  T
   4    -46.7821967 -0.108623E-08  0.367E-05    5.13     460.3  T
     SCC iter.                  ...        0 min,  0.006 sec
     gradient                   ...        0 min,  0.003 sec
 * total energy  :   -46.1623315 Eh     change       -0.7252318E-07 Eh
   gradient norm :     0.0000505 Eh/α   predicted     0.0000000E+00 (-100.00%)
   displ. norm   :     0.0000757 α      lambda        0.0000000E+00
   maximum displ.:     0.0000291 α      in ANC's #93, #99, #82, ...

   *** GEOMETRY OPTIMIZATION CONVERGED AFTER 21 ITERATIONS ***

------------------------------------------------------------------------
 total energy gain   :        -0.0071235 Eh       -4.4700 kcal/mol
 total RMSD          :         0.1431158 a0        0.0757 Å
 total power (kW/mol):        -0.8906009 (step)  -53.1463 (real)
------------------------------------------------------------------------

 ANCopt (total)                0 d,  0 h,  0 min,  0.352 sec
 optimizer setup                ...        0 min,  0.000 sec (  0.045%)
 model hessian                  ...        0 min,  0.098 sec ( 27.781%)
 ANC generation                 ...        0 min,  0.003 sec (  0.943%)
 coordinate transformation      ...        0 min,  0.000 sec (  0.092%)
 single point calculation       ...        0 min,  0.245 sec ( 69.525%)
 optimization log               ...        0 min,  0.003 sec (  0.805%)
 hessian update                 ...        0 min,  0.000 sec (  0.094%)
 rational function              ...        0 min,  0.001 sec (  0.407%)

================
 final structure:
================
$coord
        0.14610089238774       -1.16968299374672        0.20734586311487      c
       -1.80823022239307        0.76496489796296        1.22800293342020      c
       -0.63113695283620        3.43014374523931        1.39690185985397      c
        1.08177357767425        4.16754657817954       -0.81035061490747      c
        2.81769417260980        1.97187667038101       -1.54575824285144      c
        1.18047109468896       -0.27100185178829       -2.36581381423309      c
        2.53164241321314       -1.10282906745248        1.88091542395024      c
        4.14764071274843        0.95928726235979        0.76337162741614      c
        2.58377059217097       -2.13344262747111       -3.66607081198469      o
       -0.96477520359625       -3.83984529589490        0.02802033985924      c
        6.35248247007205        1.73595669124066        1.63852485118671      c
       -4.33610557374114        0.73949387998607       -0.12604739522733      c
       -4.80490901050141        1.86320320337591       -2.31312314527056      c
       -2.20714737075264        0.20125297253910        3.18388395962814      h
       -1.45039573130186       -4.95769115280307        2.40148301937278      o
       -6.43740057730701       -0.56511445506203        1.27724061157532      c
       -2.14996407463433        4.81415471184302        1.57913594256329      h
        0.49590861160886        3.52228306829571        3.12278889222112      h
       -0.02323304627064        4.72664489479097       -2.45654741234393      h
        2.22605692622434        5.79086358742806       -0.24969213122875      h
        4.12811872470491        2.55730958513709       -3.02968898997377      h
       -0.32307978170421        0.24015329939056       -3.67674012572400      h
        3.50506358558099       -2.92366972298633        1.80295167571913      h
        2.09341153269864       -0.75107806040399        3.86297445618687      h
        4.05704805897328       -2.53153675390588       -2.66211854759668      h
        0.39238551750421       -5.09225550732144       -0.89641877414320      h
       -2.67993562880950       -3.80060721305501       -1.13942737368608      h
        7.18289615685716        0.93594750654533        3.31659599402460      h
        7.41160389106274        3.20911935376729        0.71635692036936      h
       -6.66437398411675        1.80532080519793       -3.14339187801451      h
       -3.41165487183875        2.88841233461111       -3.37384165113200      h
       -2.59174460787733       -3.86836333177912        3.32165507618007      h
       -6.05452132933261       -2.57377454276039        1.51233831301262      h
       -6.65860341770837        0.26193281883549        3.15129820909011      h
       -8.21654875233534       -0.37212436192837        0.26823105055859      h
$end
 
 Bond Distances (Angstroems)
 ---------------------------
C1-C2=1.5522         C1-C6=1.5427         C1-C7=1.5425         C1-C10=1.5333        C2-C1=1.5522         C2-C3=1.5444         
C2-C12=1.5176        C2-H14=1.0976        C3-C2=1.5444         C3-C4=1.5291         C3-H17=1.0916        C3-H18=1.0919        
C4-C3=1.5291         C4-C5=1.5314         C4-H19=1.0901        C4-H20=1.0921        C5-C4=1.5314         C5-C6=1.5322         
C5-C8=1.5085         C5-H21=1.0925        C6-C1=1.5427         C6-C5=1.5322         C6-O9=1.4129         C6-H22=1.0897        
C7-C1=1.5425         C7-C8=1.5072         C7-H23=1.0934        C7-H24=1.0902        C8-C5=1.5085         C8-C7=1.5072         
C8-C11=1.3209        O9-C6=1.4129         O9-H25=0.9667        C10-C1=1.5333        C10-O15=1.4119       C10-H26=1.0929       
C10-H27=1.0981       C11-C8=1.3209        C11-H28=1.0774       C11-H29=1.0770       C12-C2=1.5176        C12-C13=1.3246       
C12-C16=1.5048       C13-C12=1.3246       C13-H30=1.0781       C13-H31=1.0738       H14-C2=1.0976        O15-C10=1.4119       
O15-H32=0.9665       C16-C12=1.5048       C16-H33=1.0892       C16-H34=1.0903       C16-H35=1.0872       H17-C3=1.0916        
H18-C3=1.0919        H19-C4=1.0901        H20-C4=1.0921        H21-C5=1.0925        H22-C6=1.0897        H23-C7=1.0934        
H24-C7=1.0902        H25-O9=0.9667        H26-C10=1.0929       H27-C10=1.0981       H28-C11=1.0774       H29-C11=1.0770       
H30-C13=1.0781       H31-C13=1.0738       H32-O15=0.9665       H33-C16=1.0892       H34-C16=1.0903       H35-C16=1.0872       
 C  H  Rav=1.0885 sigma=0.0069  Rmin=1.0738  Rmax=1.0981    18
 C  C  Rav=1.4994 sigma=0.0735  Rmin=1.3209  Rmax=1.5522    14
 O  H  Rav=0.9666 sigma=0.0001  Rmin=0.9665  Rmax=0.9667     2
 O  C  Rav=1.4124 sigma=0.0005  Rmin=1.4119  Rmax=1.4129     2
 
 selected bond angles (degree)
 --------------------
C6-C1-C2=109.89                C7-C1-C2=109.29                C7-C1-C6=102.08                C10-C1-C2=111.96               
C10-C1-C6=111.44               C10-C1-C7=111.74               C3-C2-C1=110.72                C12-C2-C1=114.65               
C12-C2-C3=113.01               H14-C2-C1=106.08               H14-C2-C3=105.73               H14-C2-C12=105.86              
C4-C3-C2=115.34                H17-C3-C2=108.71               H17-C3-C4=109.43               H18-C3-C2=108.03               
H18-C3-C4=107.68               H18-C3-H17=107.36              C5-C4-C3=110.86                H19-C4-C3=111.20               
H19-C4-C5=108.94               H20-C4-C3=108.78               H20-C4-C5=109.47               H20-C4-H19=107.52              
C6-C5-C4=108.69                C8-C5-C4=110.09                C8-C5-C6=102.60                H21-C5-C4=110.38               
H21-C5-C6=112.02               H21-C5-C8=112.76               C5-C6-C1=100.92                O9-C6-C1=113.66                
O9-C6-C5=112.40                H22-C6-C1=112.29               H22-C6-C5=113.63               H22-C6-O9=104.29               
C8-C7-C1=104.81                H23-C7-C1=110.10               H23-C7-C8=110.85               H24-C7-C1=112.47               
H24-C7-C8=112.00               H24-C7-H23=106.68              C7-C8-C5=108.08                C11-C8-C5=125.84               
C11-C8-C7=126.08               H25-O9-C6=107.95               O15-C10-C1=113.63              H26-C10-C1=109.55              
H26-C10-O15=105.29             H27-C10-C1=109.53              H27-C10-O15=110.97             H27-C10-H26=107.63             
 
 selected dihedral angles (degree)
 ---------------------------------
C3-C2-C1-C6=304.16            C3-C2-C1-C7= 55.41            C3-C2-C1-C10=179.77           C12-C2-C1-C6= 73.47           
C12-C2-C1-C7=184.72           C12-C2-C1-C10=309.07          H14-C2-C1-C6=189.91           H14-C2-C1-C7=301.16           
H14-C2-C1-C10= 65.51          C4-C3-C2-C1= 40.40            C4-C3-C2-C12=270.22           C4-C3-C2-H14=154.87           
H17-C3-C2-C1=163.70           H17-C3-C2-C12= 33.52          H17-C3-C2-H14=278.17          H18-C3-C2-C1=279.90           
H18-C3-C2-C12=149.72          H18-C3-C2-H14= 34.37          C5-C4-C3-C2=317.03            C5-C4-C3-H17=194.11           
C5-C4-C3-H18= 77.72           H19-C4-C3-C2= 78.39           H19-C4-C3-H17=315.47          H19-C4-C3-H18=199.08          
H20-C4-C3-C2=196.62           H20-C4-C3-H17= 73.70          H20-C4-C3-H18=317.31          C6-C5-C4-C3= 60.89            
C6-C5-C4-H19=298.20           C6-C5-C4-H20=180.89           C8-C5-C4-C3=309.24            C8-C5-C4-H19=186.56           
C8-C5-C4-H20= 69.24           H21-C5-C4-C3=184.12           H21-C5-C4-H19= 61.44          H21-C5-C4-H20=304.12          
C5-C6-C1-C2= 71.23            C5-C6-C1-C7=315.33            C5-C6-C1-C10=195.92           O9-C6-C1-C2=191.77            
O9-C6-C1-C7= 75.88            O9-C6-C1-C10=316.47           H22-C6-C1-C2=309.87           H22-C6-C1-C7=193.97           
H22-C6-C1-C10= 74.56          C1-C6-C5-C4=286.49            C1-C6-C5-C8= 43.05            C1-C6-C5-H21=164.25           
O9-C6-C5-C4=165.05            O9-C6-C5-C8=281.61            O9-C6-C5-H21= 42.81           H22-C6-C5-C4= 46.89           
H22-C6-C5-C8=163.46           H22-C6-C5-H21=284.65          C8-C7-C1-C2=272.98            C8-C7-C1-C6= 29.31            
C8-C7-C1-C10=148.50           H23-C7-C1-C2=153.72           H23-C7-C1-C6=270.05           H23-C7-C1-C10= 29.24          
H24-C7-C1-C2= 34.89           H24-C7-C1-C6=151.22           H24-C7-C1-C10=270.42          C7-C8-C5-C4= 90.17            
C7-C8-C5-C6=334.61            C7-C8-C5-H21=213.92           C11-C8-C5-C4=269.73           C11-C8-C5-C6=154.18           
C11-C8-C5-H21= 33.48          C5-C8-C7-C1=357.41            C5-C8-C7-H23=116.17           C5-C8-C7-H24=235.19           
C11-C8-C7-C1=177.85           C11-C8-C7-H23=296.61          C11-C8-C7-H24= 55.63          H25-O9-C6-C1=296.58           
H25-O9-C6-C5= 50.42           H25-O9-C6-H22=173.96          O15-C10-C1-C2=290.99          O15-C10-C1-C6=167.46          
O15-C10-C1-C7= 53.96          H26-C10-C1-C2=173.55          H26-C10-C1-C6= 50.02          H26-C10-C1-C7=296.52          
H27-C10-C1-C2= 55.72          H27-C10-C1-C6=292.19          H27-C10-C1-C7=178.69          
           -------------------------------------------------
          |                Final Singlepoint                |
           -------------------------------------------------

          ...................................................
          :                      SETUP                      :
          :.................................................:
          :  # basis functions                  80          :
          :  # atomic orbitals                  80          :
          :  # shells                           50          :
          :  # electrons                        84          :
          :  max. iterations                   250          :
          :  Hamiltonian                  GFN2-xTB          :
          :  restarted?                      false          :
          :  GBSA solvation                   true          :
          :  PC potential                    false          :
          :  electronic temp.          300.0000000     K    :
          :  accuracy                    1.0000000          :
          :  -> integral cutoff          0.2500000E+02      :
          :  -> integral neglect         0.1000000E-07      :
          :  -> SCF convergence          0.1000000E-05 Eh   :
          :  -> wf. convergence          0.1000000E-03 e    :
          :  Broyden damping             0.4000000          :
          :  net charge                          0          :
          :  unpaired electrons                  0          :
          ...................................................

 iter      E             dE          RMSdq      gap      omega  full diag
   1    -46.7821967 -0.467822E+02  0.204E-05    5.13       0.0  T
   2    -46.7821967 -0.824230E-12  0.132E-05    5.13    1285.0  T
   3    -46.7821967  0.142109E-12  0.552E-06    5.13    3059.9  T

   *** convergence criteria satisfied after 3 iterations ***

         #    Occupation            Energy/Eh            Energy/eV
      -------------------------------------------------------------
         1        2.0000           -0.6962472             -18.9459
       ...           ...                  ...                  ...
        36        2.0000           -0.4322096             -11.7610
        37        2.0000           -0.4227931             -11.5048
        38        2.0000           -0.4185169             -11.3884
        39        2.0000           -0.4126610             -11.2291
        40        2.0000           -0.4016386             -10.9291
        41        2.0000           -0.3932870             -10.7019
        42        2.0000           -0.3923125             -10.6754 (HOMO)
        43                         -0.2037141              -5.5433 (LUMO)
        44                         -0.2027675              -5.5176
        45                          0.0130609               0.3554
        46                          0.0241922               0.6583
        47                          0.0395418               1.0760
       ...                                ...                  ...
        80                          0.6450279              17.5521
      -------------------------------------------------------------
                  HL-Gap            0.1885984 Eh            5.1320 eV
             Fermi-level           -0.2980133 Eh           -8.1094 eV

 SCC (total)                   0 d,  0 h,  0 min,  0.009 sec
 SCC setup                      ...        0 min,  0.001 sec (  6.823%)
 Dispersion                     ...        0 min,  0.000 sec (  1.920%)
 classical contributions        ...        0 min,  0.000 sec (  0.239%)
 integral evaluation            ...        0 min,  0.001 sec ( 11.521%)
 iterations                     ...        0 min,  0.004 sec ( 45.317%)
 molecular gradient             ...        0 min,  0.003 sec ( 32.436%)
 printout                       ...        0 min,  0.000 sec (  1.347%)

         :::::::::::::::::::::::::::::::::::::::::::::::::::::
         ::                     SUMMARY                     ::
         :::::::::::::::::::::::::::::::::::::::::::::::::::::
         :: total energy             -46.162331504895 Eh    ::
         :: total w/o Gsasa/hb       -46.150364125440 Eh    ::
         :: gradient norm              0.000050662594 Eh/a0 ::
         :: HOMO-LUMO gap              5.132023488656 eV    ::
         ::.................................................::
         :: SCC energy               -46.781548023092 Eh    ::
         :: -> isotropic ES            0.062581996444 Eh    ::
         :: -> anisotropic ES          0.006621758259 Eh    ::
         :: -> anisotropic XC          0.017383801859 Eh    ::
         :: -> dispersion             -0.036162687114 Eh    ::
         :: -> Gsolv                  -0.020175989859 Eh    ::
         ::    -> Gelec               -0.008208610404 Eh    ::
         ::    -> Gsasa               -0.015858398699 Eh    ::
         ::    -> Ghb                  0.000000000000 Eh    ::
         ::    -> Gshift               0.003891019244 Eh    ::
         :: repulsion energy           0.619216518197 Eh    ::
         :: add. restraining           0.000000000000 Eh    ::
         :: total charge              -0.000000000000 e     ::
         :::::::::::::::::::::::::::::::::::::::::::::::::::::

           ------------------------------------------------- 
          |                Numerical Hessian                |
           ------------------------------------------------- 
step length          :   0.00500
SCC accuracy         :   0.30000
Hessian scale factor :   1.00000
frozen atoms in %    :   0.00000    0
RMS gradient         :   0.00005
estimated CPU  time      1.55 min
estimated wall time      0.13 min

writing file <hessian>.

 projected vibrational frequencies (cm⁻¹)
eigval :       -0.00    -0.00     0.00     0.00     0.00     0.00
eigval :       63.36    83.94    97.01   118.67   143.01   165.17
eigval :      179.03   205.61   259.75   275.67   289.66   305.46
eigval :      319.41   326.51   357.07   364.09   378.68   426.71
eigval :      446.94   463.06   512.05   541.64   562.07   604.63
eigval :      680.24   685.49   714.67   718.75   794.63   825.59
eigval :      875.69   887.96   894.81   897.88   911.64   929.20
eigval :      943.09   951.83   955.03   998.14  1015.12  1039.04
eigval :     1044.26  1053.34  1063.68  1075.08  1085.91  1107.15
eigval :     1116.54  1134.29  1154.10  1175.95  1189.69  1195.19
eigval :     1206.85  1229.46  1242.08  1254.40  1266.63  1271.25
eigval :     1288.11  1299.36  1305.49  1331.23  1344.60  1348.91
eigval :     1352.59  1364.82  1399.75  1411.78  1421.82  1468.73
eigval :     1480.63  1482.27  1483.79  1491.68  1494.04  1719.87
eigval :     1737.16  2895.39  2896.75  2950.13  2959.40  2964.68
eigval :     2973.20  2981.05  2987.76  2991.31  2994.78  2995.39
eigval :     3004.68  3012.22  3042.89  3097.74  3098.10  3118.95
eigval :     3150.35  3496.23  3503.97
           -------------------------------------------------
          |                Property Printout                |
           -------------------------------------------------

    * Orbital Energies and Occupations

         #    Occupation            Energy/Eh            Energy/eV
      -------------------------------------------------------------
         1        2.0000           -0.6962472             -18.9459
       ...           ...                  ...                  ...
        30        2.0000           -0.4659156             -12.6782
        31        2.0000           -0.4564946             -12.4219
        32        2.0000           -0.4534215             -12.3382
        33        2.0000           -0.4479459             -12.1892
        34        2.0000           -0.4449005             -12.1064
        35        2.0000           -0.4396012             -11.9622
        36        2.0000           -0.4322096             -11.7610
        37        2.0000           -0.4227932             -11.5048
        38        2.0000           -0.4185168             -11.3884
        39        2.0000           -0.4126611             -11.2291
        40        2.0000           -0.4016386             -10.9291
        41        2.0000           -0.3932870             -10.7019
        42        2.0000           -0.3923125             -10.6754 (HOMO)
        43                         -0.2037141              -5.5433 (LUMO)
        44                         -0.2027675              -5.5176
        45                          0.0130609               0.3554
        46                          0.0241922               0.6583
        47                          0.0395418               1.0760
        48                          0.0448147               1.2195
        49                          0.0636778               1.7328
        50                          0.0708493               1.9279
        51                          0.0826785               2.2498
        52                          0.0892955               2.4299
        53                          0.0962923               2.6202
       ...                                ...                  ...
        80                          0.6450280              17.5521
      -------------------------------------------------------------
                  HL-Gap            0.1885984 Eh            5.1320 eV
             Fermi-level           -0.2980133 Eh           -8.1094 eV

     #   Z          covCN         q      C6AA      α(0)
     1   6 c        3.934    -0.008    20.662     6.460
     2   6 c        3.856    -0.033    21.116     6.535
     3   6 c        3.803    -0.062    21.686     6.630
     4   6 c        3.808    -0.058    21.620     6.619
     5   6 c        3.889    -0.036    21.163     6.540
     6   6 c        3.771     0.107    18.861     6.189
     7   6 c        3.832    -0.069    21.788     6.641
     8   6 c        2.975     0.009    27.823     8.652
     9   8 o        1.655    -0.486    22.585     6.415
    10   6 c        3.677     0.081    19.440     6.316
    11   6 c        2.838    -0.113    30.846     9.102
    12   6 c        2.936     0.009    27.823     8.651
    13   6 c        2.844    -0.110    30.770     9.091
    14   1 h        0.924     0.043     2.413     2.429
    15   8 o        1.655    -0.483    22.536     6.408
    16   6 c        3.761    -0.114    22.734     6.797
    17   1 h        0.924     0.041     2.435     2.440
    18   1 h        0.924     0.042     2.427     2.436
    19   1 h        0.925     0.039     2.464     2.454
    20   1 h        0.924     0.042     2.424     2.435
    21   1 h        0.924     0.041     2.431     2.438
    22   1 h        0.925     0.045     2.382     2.414
    23   1 h        0.924     0.051     2.302     2.373
    24   1 h        0.925     0.053     2.286     2.364
    25   1 h        0.805     0.310     0.691     1.306
    26   1 h        0.924     0.050     2.314     2.379
    27   1 h        0.923     0.023     2.687     2.564
    28   1 h        0.926     0.034     2.528     2.486
    29   1 h        0.926     0.034     2.524     2.485
    30   1 h        0.926     0.032     2.556     2.500
    31   1 h        0.926     0.035     2.522     2.483
    32   1 h        0.805     0.310     0.691     1.306
    33   1 h        0.925     0.049     2.329     2.387
    34   1 h        0.924     0.047     2.363     2.404
    35   1 h        0.925     0.045     2.387     2.416

 Mol. C6AA /au·bohr⁶  :      10381.650640
 Mol. C8AA /au·bohr⁸  :     233513.855099
 Mol. α(0) /au        :        153.546517


Wiberg/Mayer (AO) data.
largest (>0.10) Wiberg bond orders for each atom

 ---------------------------------------------------------------------------
     #   Z sym  total        # sym  WBO       # sym  WBO       # sym  WBO
 ---------------------------------------------------------------------------
     1   6 c    3.989 --     7 c    0.982    10 c    0.980     2 c    0.959
                             6 c    0.959
     2   6 c    3.993 --    12 c    0.997     3 c    0.984    14 h    0.959
                             1 c    0.959
     3   6 c    3.996 --     4 c    1.009     2 c    0.984    18 h    0.977
                            17 h    0.976
     4   6 c    3.996 --     3 c    1.009     5 c    0.979    20 h    0.975
                            19 h    0.970
     5   6 c    3.995 --     8 c    0.995     4 c    0.979     6 c    0.973
                            21 h    0.963
     6   6 c    3.947 --     9 o    0.985     5 c    0.973     1 c    0.959
                            22 h    0.958
     7   6 c    3.996 --     8 c    1.007     1 c    0.982    24 h    0.963
                            23 h    0.957
     8   6 c    3.986 --    11 c    1.935     7 c    1.007     5 c    0.995
     9   8 o    1.949 --     6 c    0.985    25 h    0.884
    10   6 c    3.949 --    15 o    0.993     1 c    0.980    26 h    0.968
                            27 h    0.965
    11   6 c    3.988 --     8 c    1.935    28 h    0.975    29 h    0.975
    12   6 c    3.986 --    13 c    1.930    16 c    1.023     2 c    0.997
    13   6 c    3.989 --    12 c    1.930    30 h    0.974    31 h    0.967
    14   1 h    0.998 --     2 c    0.959
    15   8 o    1.937 --    10 c    0.993    32 h    0.880
    16   6 c    3.996 --    12 c    1.023    35 h    0.984    34 h    0.972
                            33 h    0.965
    17   1 h    0.998 --     3 c    0.976
    18   1 h    0.998 --     3 c    0.977
    19   1 h    0.998 --     4 c    0.970
    20   1 h    0.998 --     4 c    0.975
    21   1 h    0.998 --     5 c    0.963
    22   1 h    0.998 --     6 c    0.958
    23   1 h    0.997 --     7 c    0.957
    24   1 h    0.997 --     7 c    0.963
    25   1 h    0.904 --     9 o    0.884
    26   1 h    0.997 --    10 c    0.968
    27   1 h    0.999 --    10 c    0.965
    28   1 h    0.998 --    11 c    0.975
    29   1 h    0.998 --    11 c    0.975
    30   1 h    0.998 --    13 c    0.974
    31   1 h    0.999 --    13 c    0.967
    32   1 h    0.904 --    15 o    0.880
    33   1 h    0.998 --    16 c    0.965
    34   1 h    0.998 --    16 c    0.972
    35   1 h    0.998 --    16 c    0.984
 ---------------------------------------------------------------------------

Topologies differ in total number of bonds
Writing topology from bond orders to xtbtopo.mol

molecular dipole:
                 x           y           z       tot (Debye)
 q only:       -0.221       0.850       0.662
   full:       -0.245       0.990       0.774       3.254
molecular quadrupole (traceless):
                xx          xy          yy          xz          yz          zz
 q only:        6.244      -0.156      -4.566      -1.452      -0.261      -1.678
  q+dip:        9.750       0.489      -7.932       0.328      -1.633      -1.818
   full:        9.157      -0.195      -7.044      -0.866      -0.673      -2.113

           -------------------------------------------------
          |                Geometry Summary                 |
           -------------------------------------------------

      molecular mass/u    :      208.2971915
   center of mass at/Å    :       -0.0003433      -0.0001040       0.0003642
  moments of inertia/u·Å² :        0.5835258E+03   0.9128611E+03   0.1089589E+04
rotational constants/cm⁻¹ :        0.2888927E-01   0.1846681E-01   0.1547154E-01

 * 30 selected distances

     #   Z          #   Z                                           value/Å
     3   6 c        4   6 c                                       1.5291107
     4   6 c        5   6 c                                       1.5314367
     1   6 c        6   6 c                                       1.5426856 (max)
     5   6 c        6   6 c                                       1.5321939
     1   6 c        7   6 c                                       1.5424508
     6   6 c        9   8 o                                       1.4128739
     1   6 c       10   6 c                                       1.5333335
     8   6 c       11   6 c                                       1.3208709
    12   6 c       13   6 c                                       1.3246143
     2   6 c       14   1 h                                       1.0976285
    10   6 c       15   8 o                                       1.4118953
     3   6 c       17   1 h                                       1.0916366
     3   6 c       18   1 h                                       1.0918772
     4   6 c       19   1 h                                       1.0901044
     4   6 c       20   1 h                                       1.0920660
     5   6 c       21   1 h                                       1.0924652
     6   6 c       22   1 h                                       1.0897034
     7   6 c       23   1 h                                       1.0933739
     7   6 c       24   1 h                                       1.0901993
     9   8 o       25   1 h                                       0.9666644
    10   6 c       26   1 h                                       1.0928509
    10   6 c       27   1 h                                       1.0981224
    11   6 c       28   1 h                                       1.0774346
    11   6 c       29   1 h                                       1.0770207
    13   6 c       30   1 h                                       1.0780558
    13   6 c       31   1 h                                       1.0737650
    15   8 o       32   1 h                                       0.9665317 (min)
    16   6 c       33   1 h                                       1.0892035
    16   6 c       34   1 h                                       1.0902888
    16   6 c       35   1 h                                       1.0871616

 * 4 distinct bonds (by element types)

   Z      Z             #   av. dist./Å        max./Å        min./Å
   1 H    6 C          18     1.0884977     1.0981224     1.0737650
   6 C    6 C           8     1.4820870     1.5426856     1.3208709
   1 H    8 O           2     0.9665980     0.9666644     0.9665317
   6 C    8 O           2     1.4123846     1.4128739     1.4118953

           -------------------------------------------------
          |               Frequency Printout                |
           -------------------------------------------------
 projected vibrational frequencies (cm⁻¹)
eigval :       -0.00    -0.00     0.00     0.00     0.00     0.00
eigval :       63.36    83.94    97.01   118.67   143.01   165.17
eigval :      179.03   205.61   259.75   275.67   289.66   305.46
eigval :      319.41   326.51   357.07   364.09   378.68   426.71
eigval :      446.94   463.06   512.05   541.64   562.07   604.63
eigval :      680.24   685.49   714.67   718.75   794.63   825.59
eigval :      875.69   887.96   894.81   897.88   911.64   929.20
eigval :      943.09   951.83   955.03   998.14  1015.12  1039.04
eigval :     1044.26  1053.34  1063.68  1075.08  1085.91  1107.15
eigval :     1116.54  1134.29  1154.10  1175.95  1189.69  1195.19
eigval :     1206.85  1229.46  1242.08  1254.40  1266.63  1271.25
eigval :     1288.11  1299.36  1305.49  1331.23  1344.60  1348.91
eigval :     1352.59  1364.82  1399.75  1411.78  1421.82  1468.73
eigval :     1480.63  1482.27  1483.79  1491.68  1494.04  1719.87
eigval :     1737.16  2895.39  2896.75  2950.13  2959.40  2964.68
eigval :     2973.20  2981.05  2987.76  2991.31  2994.78  2995.39
eigval :     3004.68  3012.22  3042.89  3097.74  3098.10  3118.95
eigval :     3150.35  3496.23  3503.97
 reduced masses (amu)
   1: 11.48   2: 11.09   3: 11.15   4: 11.75   5: 11.88   6: 10.75   7:  9.52   8:  9.89
   9: 10.93  10:  9.79  11: 11.43  12:  6.50  13: 10.76  14:  8.74  15: 10.86  16:  7.59
  17:  9.47  18:  7.25  19:  7.95  20:  8.93  21:  3.58  22:  7.79  23:  5.83  24:  9.96
  25: 10.56  26:  9.01  27:  8.69  28:  9.28  29:  8.36  30:  9.69  31:  8.44  32:  5.83
  33:  5.39  34:  4.16  35:  9.83  36:  7.51  37:  8.63  38:  7.15  39:  4.80  40:  4.03
  41:  5.75  42:  7.30  43:  6.89  44:  5.84  45:  5.52  46:  6.86  47:  5.33  48:  4.80
  49:  6.56  50: 10.18  51:  4.90  52: 10.66  53:  6.26  54:  8.42  55:  5.19  56:  6.31
  57:  4.37  58:  4.12  59:  5.08  60:  6.46  61:  6.35  62:  7.43  63:  7.43  64:  5.83
  65:  6.53  66:  6.99  67:  4.47  68:  4.24  69:  4.58  70:  4.51  71:  3.83  72:  4.48
  73:  4.28  74:  4.44  75:  2.88  76:  2.36  77:  2.48  78:  1.87  79:  1.74  80:  1.77
  81:  1.66  82:  1.72  83:  1.96  84: 11.22  85: 11.58  86:  1.76  87:  1.75  88:  1.89
  89:  1.77  90:  1.92  91:  1.93  92:  1.67  93:  1.54  94:  1.59  95:  1.83  96:  1.62
  97:  1.75  98:  1.62  99:  1.61 100:  1.70 101:  1.53 102:  2.09 103:  1.89 104:  1.87
 105:  1.87
 IR intensities (km·mol⁻¹)
   1:  0.14   2:  0.11   3:  0.08   4:  0.50   5:  0.15   6:  0.20   7:  0.59   8:  1.99
   9:  0.46  10:  0.58  11:  0.96  12: 10.85  13:  0.44  14:  0.58  15:  0.25  16:  0.19
  17:  2.14  18: 13.35  19: 11.77  20:  2.20  21:243.95  22: 33.42  23: 22.72  24:  4.73
  25: 23.48  26:  1.08  27: 16.16  28: 12.22  29:  0.90  30:  3.05  31:  7.93  32:  5.05
  33:  2.78  34:  3.85  35: 11.55  36:  4.32  37:  0.58  38:  3.22  39: 41.42  40: 16.25
  41:  6.64  42: 12.34  43: 10.39  44:  7.72  45:  0.26  46:  6.26  47: 30.10  48:  0.77
  49: 11.77  50: 69.68  51:  7.18  52:128.00  53: 34.11  54: 16.74  55: 33.14  56:  0.18
  57:  4.18  58: 36.69  59: 19.12  60: 17.78  61:  2.86  62: 14.80  63:  7.61  64: 21.66
  65: 13.55  66:  5.72  67: 13.80  68: 30.28  69:  3.93  70: 21.26  71: 59.42  72: 16.05
  73: 61.79  74:  3.84  75:  3.80  76:  4.28  77: 13.58  78:  3.77  79:  1.29  80:  1.98
  81:  2.15  82:  4.67  83:  1.12  84: 23.27  85: 28.86  86: 84.36  87: 62.78  88: 33.63
  89: 58.18  90: 25.49  91: 78.50  92: 31.57  93: 63.28  94: 42.21  95: 48.68  96: 76.66
  97: 74.88  98: 41.85  99: 41.69 100: 89.41 101: 17.40 102: 60.62 103: 45.81 104: 45.51
 105: 33.60
 Raman intensities (Ä⁴*amu⁻¹)
   1:  0.00   2:  0.00   3:  0.00   4:  0.00   5:  0.00   6:  0.00   7:  0.00   8:  0.00
   9:  0.00  10:  0.00  11:  0.00  12:  0.00  13:  0.00  14:  0.00  15:  0.00  16:  0.00
  17:  0.00  18:  0.00  19:  0.00  20:  0.00  21:  0.00  22:  0.00  23:  0.00  24:  0.00
  25:  0.00  26:  0.00  27:  0.00  28:  0.00  29:  0.00  30:  0.00  31:  0.00  32:  0.00
  33:  0.00  34:  0.00  35:  0.00  36:  0.00  37:  0.00  38:  0.00  39:  0.00  40:  0.00
  41:  0.00  42:  0.00  43:  0.00  44:  0.00  45:  0.00  46:  0.00  47:  0.00  48:  0.00
  49:  0.00  50:  0.00  51:  0.00  52:  0.00  53:  0.00  54:  0.00  55:  0.00  56:  0.00
  57:  0.00  58:  0.00  59:  0.00  60:  0.00  61:  0.00  62:  0.00  63:  0.00  64:  0.00
  65:  0.00  66:  0.00  67:  0.00  68:  0.00  69:  0.00  70:  0.00  71:  0.00  72:  0.00
  73:  0.00  74:  0.00  75:  0.00  76:  0.00  77:  0.00  78:  0.00  79:  0.00  80:  0.00
  81:  0.00  82:  0.00  83:  0.00  84:  0.00  85:  0.00  86:  0.00  87:  0.00  88:  0.00
  89:  0.00  90:  0.00  91:  0.00  92:  0.00  93:  0.00  94:  0.00  95:  0.00  96:  0.00
  97:  0.00  98:  0.00  99:  0.00 100:  0.00 101:  0.00 102:  0.00 103:  0.00 104:  0.00
 105:  0.00
 output can be read by thermo (or use thermo option).
 writing <g98.out> molden fake output.
 recommended (thermochemical) frequency scaling factor: 1.0
           -------------------------------------------------
          |             Thermodynamic Functions             |
           -------------------------------------------------

Molecule has no symmetry elements
It seems to be the C1 point group
c1  symmetry found (for desy threshold:  0.10E+00) used in thermo

          ...................................................
          :                      SETUP                      :
          :.................................................:
          :  # frequencies                          99      :
          :  # imaginary freq.                       0      :
          :  linear?                             false      :
          :  only rotor calc.                    false      :
          :  symmetry                               c1      :
          :  rotational number                       1      :
          :  scaling factor                  1.0000000      :
          :  rotor cutoff                   50.0000000 cm⁻¹ :
          :  imag. cutoff                  -50.0000000 cm⁻¹ :
          :.................................................:

    mode    ω/cm⁻¹     T·S(HO)/kcal·mol⁻¹    T·S(FR)/kcal·mol⁻¹   T·S(vib)
   ------------------------------------------------------------------------
       1     63.36    -1.29682 ( 72.06%)    -0.98629 ( 27.94%)    -1.21006
       2     83.94    -1.13196 ( 88.82%)    -0.90301 ( 11.18%)    -1.10636
       3     97.01    -1.04757 ( 93.41%)    -0.86015 (  6.59%)    -1.03521
       4    118.67    -0.93082 ( 96.94%)    -0.80046 (  3.06%)    -0.92683
       5    143.01    -0.82387 ( 98.53%)    -0.74520 (  1.47%)    -0.82271
       6    165.17    -0.74232 ( 99.17%)    -0.70253 (  0.83%)    -0.74199
       7    179.03    -0.69723 ( 99.40%)    -0.67865 (  0.60%)    -0.69712
       8    205.61    -0.62083 ( 99.65%)    -0.63764 (  0.35%)    -0.62089
       9    259.75    -0.49596 ( 99.86%)    -0.56841 (  0.14%)    -0.49606
      10    275.67    -0.46523 ( 99.89%)    -0.55079 (  0.11%)    -0.46532
      11    289.66    -0.44006 ( 99.91%)    -0.53613 (  0.09%)    -0.44014
   ------------------------------------------------------------------------

   temp. (K)  partition function   enthalpy   heat capacity  entropy
                                   cal/mol     cal/K/mol   cal/K/mol   J/K/mol
 298.15  VIB  0.188E+05             7683.446     54.342     44.893
         ROT  0.184E+07              888.752      2.981     31.648
         INT  0.346E+11             8572.198     57.323     76.541
         TR   0.291E+28             1481.254      4.968     41.886
         TOT                       10053.4521    62.2909   118.4276   495.5011

       T/K    H(0)-H(T)+PV         H(T)/Eh          T*S/Eh         G(T)/Eh
   ------------------------------------------------------------------------
    298.15    0.160212E-01    0.317686E+00    0.562688E-01    0.261417E+00
   ------------------------------------------------------------------------

         :::::::::::::::::::::::::::::::::::::::::::::::::::::
         ::                  THERMODYNAMIC                  ::
         :::::::::::::::::::::::::::::::::::::::::::::::::::::
         :: total free energy         -45.900914554544 Eh   ::
         ::.................................................::
         :: total energy              -46.162331504742 Eh   ::
         :: zero point energy           0.301664532272 Eh   ::
         :: G(RRHO) w/o ZPVE           -0.040247582073 Eh   ::
         :: G(RRHO) contrib.            0.261416950199 Eh   ::
         :::::::::::::::::::::::::::::::::::::::::::::::::::::

optimized geometry written to: xtbopt.coord


           -------------------------------------------------
          | TOTAL ENERGY              -46.162331504742 Eh   |
          | TOTAL ENTHALPY            -45.844645776803 Eh   |
          | TOTAL FREE ENERGY         -45.900914554544 Eh   |
          | GRADIENT NORM               0.000050698224 Eh/α |
          | HOMO-LUMO GAP               5.132023335949 eV   |
           -------------------------------------------------

------------------------------------------------------------------------
 * finished run on 2026/08/09 at 17:05:38.130     
------------------------------------------------------------------------
 total:
 * wall-time:     0 d,  0 h,  0 min,  1.320 sec
 *  cpu-time:     0 d,  0 h,  0 min, 15.326 sec
 * ratio c/w:    11.613 speedup
 SCF:
 * wall-time:     0 d,  0 h,  0 min,  0.049 sec
 *  cpu-time:     0 d,  0 h,  0 min,  0.545 sec
 * ratio c/w:    11.028 speedup
 ANC optimizer:
 * wall-time:     0 d,  0 h,  0 min,  0.363 sec
 *  cpu-time:     0 d,  0 h,  0 min,  4.339 sec
 * ratio c/w:    11.969 speedup
 analytical hessian:
 * wall-time:     0 d,  0 h,  0 min,  0.879 sec
 *  cpu-time:     0 d,  0 h,  0 min, 10.187 sec
 * ratio c/w:    11.594 speedup

normal termination of xtb
