      -----------------------------------------------------------      
     |                   =====================                   |     
     |                           x T B                           |     
     |                   =====================                   |     
     |                         S. Grimme                         |     
     |          Mulliken Center for Theoretical Chemistry        |     
     |                    University of Bonn                     |     
      -----------------------------------------------------------      

   * xtb version 6.7.1 (edcfbbe) compiled by 'albert@albert-system' on 2024-07-22

   xtb is free software: you can redistribute it and/or modify it under
   the terms of the GNU Lesser General Public License as published by
   the Free Software Foundation, either version 3 of the License, or
   (at your option) any later version.
   
   xtb is distributed in the hope that it will be useful,
   but WITHOUT ANY WARRANTY; without even the implied warranty of
   MERCHANTABILITY or FITNESS FOR A PARTICULAR PURPOSE.  See the
   GNU Lesser General Public License for more details.
   
   Cite this work as:
   * C. Bannwarth, E. Caldeweyher, S. Ehlert, A. Hansen, P. Pracht,
     J. Seibert, S. Spicher, S. Grimme, WIREs Comput. Mol. Sci., 2020, 11,
     e01493. DOI: 10.1002/wcms.1493
   
   for GFN2-xTB:
   * C. Bannwarth, S. Ehlert and S. Grimme., J. Chem. Theory Comput., 2019,
     15, 1652-1671. DOI: 10.1021/acs.jctc.8b01176
   for GFN1-xTB:
   * S. Grimme, C. Bannwarth, P. Shushkov, J. Chem. Theory Comput., 2017,
     13, 1989-2009. DOI: 10.1021/acs.jctc.7b00118
   for GFN0-xTB:
   * P. Pracht, E. Caldeweyher, S. Ehlert, S. Grimme, ChemRxiv, 2019, preprint.
     DOI: 10.26434/chemrxiv.8326202.v1
   for GFN-FF:
   * S. Spicher and S. Grimme, Angew. Chem. Int. Ed., 2020, 59, 15665-15673.
     DOI: 10.1002/anie.202004239
   
   for ALPB and GBSA implicit solvation:
   * S. Ehlert, M. Stahn, S. Spicher, S. Grimme, J. Chem. Theory Comput.,
     2021, 17, 4250-4261. DOI: 10.1021/acs.jctc.1c00471
   
   for ddCOSMO and CPCM-X implicit solvation:
   * M. Stahn, S. Ehlert, S. Grimme, J. Phys. Chem. A,
     2023, XX, XXXX-XXXX. DOI: 10.1021/acs.jpca.3c04382
   
   for DFT-D4:
   * E. Caldeweyher, C. Bannwarth and S. Grimme, J. Chem. Phys., 2017,
     147, 034112. DOI: 10.1063/1.4993215
   * E. Caldeweyher, S. Ehlert, A. Hansen, H. Neugebauer, S. Spicher,
     C. Bannwarth and S. Grimme, J. Chem. Phys., 2019, 150, 154122.
     DOI: 10.1063/1.5090222
   * E. Caldeweyher, J.-M. Mewes, S. Ehlert and S. Grimme, Phys. Chem. Chem. Phys.
     2020, 22, 8499-8512. DOI: 10.1039/D0CP00502A
   
   for sTDA-xTB:
   * S. Grimme and C. Bannwarth, J. Chem. Phys., 2016, 145, 054103.
     DOI: 10.1063/1.4959605
   
   in the mass-spec context:
   * V. Asgeirsson, C. Bauer and S. Grimme, Chem. Sci., 2017, 8, 4879.
     DOI: 10.1039/c7sc00601b
   * J. Koopman and S. Grimme, ACS Omega 2019, 4, 12, 15120-15133.
     DOI: 10.1021/acsomega.9b02011
   
   for metadynamics refer to:
   * S. Grimme, J. Chem. Theory Comput., 2019, 155, 2847-2862
     DOI: 10.1021/acs.jctc.9b00143
   
   for SPH calculations refer to:
   * S. Spicher and S. Grimme, J. Chem. Theory Comput., 2021, 17, 1701-1714
     DOI: 10.1021/acs.jctc.0c01306
   
   for ONIOM refer to:
   * C. Plett, A. Katbashev, S. Ehlert, S. Grimme, M. Bursch,
     Phys. Chem. Chem. Phys., 2023, 25, 17860-17868. DOI: 10.1039/D3CP02178E
   
   for DIPRO refer to:
   * J. Kohn, N. Gildemeister, S. Grimme, D. Fazzi, A. Hansen,
     J. Chem. Phys., 2023, just accepted.
   
   for PTB refer to:
   * S. Grimme, M. Mueller, A. Hansen, J. Chem. Phys., 2023, 158, 124111.
     DOI: 10.1063/5.0137838
   
   with help from (in alphabetical order)
   P. Atkinson, C. Bannwarth, F. Bohle, G. Brandenburg, E. Caldeweyher
   M. Checinski, S. Dohm, S. Ehlert, S. Ehrlich, I. Gerasimov, C. Hölzer
   A. Katbashev, J. Kohn, J. Koopman, C. Lavigne, S. Lehtola, F. März, M. Müller,
   F. Musil, H. Neugebauer, J. Pisarek, C. Plett, P. Pracht, F. Pultar,
   J. Seibert, P. Shushkov, S. Spicher, M. Stahn, M. Steiner, T. Strunk,
   J. Stückrath, T. Rose, and J. Unsleber
   
 * started run on 2026/08/09 at 18:42:11.739     
   ID    Z sym.   atoms
    1    6 c      1-8, 10-13, 16
    2    8 o      9, 15
    3    1 h      14, 17-35

           -------------------------------------------------
          |                Calculation Setup                |
           -------------------------------------------------

          program call               : /home/dinglab/software/xtb_6.7.1/xtb_dist/bin/xtb coord --gfn2 --ohess vtight --alpb chcl3 --chrg 0 --enso --norestart -I xcontrol-inp --parallel 12
          hostname                   : localhost
          coordinate file            : coord
          omp threads                :                    12


           -------------------------------------------------
          |                 G F N 2 - x T B                 |
           -------------------------------------------------

        Reference                      10.1021/acs.jctc.8b01176
      * Hamiltonian:
        H0-scaling (s, p, d)           1.850000    2.230000    2.230000
        zeta-weighting                 0.500000
      * Dispersion:
        s8                             2.700000
        a1                             0.520000
        a2                             5.000000
        s9                             5.000000
      * Repulsion:
        kExp                           1.500000    1.000000
        rExp                           1.000000
      * Coulomb:
        alpha                          2.000000
        third order                    shell-resolved
        anisotropic                    true
        a3                             3.000000
        a5                             4.000000
        cn-shift                       1.200000
        cn-exp                         4.000000
        max-rad                        5.000000

      * Solvation model:               ALPB
        Solvent                        chcl3
        Parameter file                 internal GFN2-xTB/ALPB
        Dielectric constant                4.8100E+00
        Reference state                gsolv [1 M gas/solution]
        Free energy shift                  3.8910E-03 Eh       2.4417E+00 kcal/mol
        Temperature                        2.9815E+02 K
        Density                            1.4900E+00 kg/L
        Solvent mass                       1.1938E+02 g/mol
        Interaction kernel             P16
        Born radius scaling (c1)           1.3274E+00
        Born radii integrator          GBOBC
        Born offset                        0.0000E+00 a0       0.0000E+00 AA
        H-bond correction              false
        Ion screening                  false
        Surface tension                    1.0000E-05 Eh       1.5569E+01 dyn/cm
        Grid points                               974 per atom

          ...................................................
          :                      SETUP                      :
          :.................................................:
          :  # basis functions                  80          :
          :  # atomic orbitals                  80          :
          :  # shells                           50          :
          :  # electrons                        84          :
          :  max. iterations                   250          :
          :  Hamiltonian                  GFN2-xTB          :
          :  restarted?                      false          :
          :  GBSA solvation                   true          :
          :  PC potential                    false          :
          :  electronic temp.          300.0000000     K    :
          :  accuracy                    1.0000000          :
          :  -> integral cutoff          0.2500000E+02      :
          :  -> integral neglect         0.1000000E-07      :
          :  -> SCF convergence          0.1000000E-05 Eh   :
          :  -> wf. convergence          0.1000000E-03 e    :
          :  Broyden damping             0.4000000          :
          :  net charge                          0          :
          :  unpaired electrons                  0          :
          ...................................................

 iter      E             dE          RMSdq      gap      omega  full diag
   1    -46.6629325 -0.466629E+02  0.347E+00    4.98       0.0  T
   2    -46.7058962 -0.429637E-01  0.196E+00    4.88       1.0  T
   3    -46.7012984  0.459781E-02  0.781E-01    4.87       1.0  T
   4    -46.7068711 -0.557267E-02  0.379E-01    4.82       1.0  T
   5    -46.7097266 -0.285552E-02  0.756E-02    4.85       1.0  T
   6    -46.7097661 -0.394956E-04  0.429E-02    4.85       1.0  T
   7    -46.7097715 -0.537065E-05  0.155E-02    4.85       1.1  T
   8    -46.7097739 -0.249593E-05  0.640E-03    4.85       2.6  T
   9    -46.7097748 -0.810982E-06  0.229E-03    4.85       7.4  T
  10    -46.7097748 -0.234002E-07  0.933E-04    4.85      18.1  T
  11    -46.7097748 -0.334468E-08  0.405E-04    4.85      41.8  T

   *** convergence criteria satisfied after 11 iterations ***

         #    Occupation            Energy/Eh            Energy/eV
      -------------------------------------------------------------
         1        2.0000           -0.6960769             -18.9412
       ...           ...                  ...                  ...
        36        2.0000           -0.4302212             -11.7069
        37        2.0000           -0.4244329             -11.5494
        38        2.0000           -0.4181137             -11.3775
        39        2.0000           -0.4127388             -11.2312
        40        2.0000           -0.4040033             -10.9935
        41        2.0000           -0.3935553             -10.7092
        42        2.0000           -0.3888285             -10.5806 (HOMO)
        43                         -0.2107229              -5.7341 (LUMO)
        44                         -0.2081852              -5.6650
        45                         -0.0194621              -0.5296
        46                         -0.0019701              -0.0536
        47                          0.0202131               0.5500
       ...                                ...                  ...
        80                          0.5942281              16.1698
      -------------------------------------------------------------
                  HL-Gap            0.1781056 Eh            4.8465 eV
             Fermi-level           -0.2997757 Eh           -8.1573 eV

 SCC (total)                   0 d,  0 h,  0 min,  0.043 sec
 SCC setup                      ...        0 min,  0.001 sec (  1.795%)
 Dispersion                     ...        0 min,  0.000 sec (  1.069%)
 classical contributions        ...        0 min,  0.000 sec (  0.082%)
 integral evaluation            ...        0 min,  0.002 sec (  3.737%)
 iterations                     ...        0 min,  0.036 sec ( 84.589%)
 molecular gradient             ...        0 min,  0.004 sec (  8.206%)
 printout                       ...        0 min,  0.000 sec (  0.421%)

         :::::::::::::::::::::::::::::::::::::::::::::::::::::
         ::                     SUMMARY                     ::
         :::::::::::::::::::::::::::::::::::::::::::::::::::::
         :: total energy             -46.154419888527 Eh    ::
         :: total w/o Gsasa/hb       -46.142283118251 Eh    ::
         :: gradient norm              0.050335091259 Eh/a0 ::
         :: HOMO-LUMO gap              4.846501212918 eV    ::
         ::.................................................::
         :: SCC energy               -46.709120769106 Eh    ::
         :: -> isotropic ES            0.062307359828 Eh    ::
         :: -> anisotropic ES          0.005134734046 Eh    ::
         :: -> anisotropic XC          0.019709088690 Eh    ::
         :: -> dispersion             -0.035967644121 Eh    ::
         :: -> Gsolv                  -0.019587945054 Eh    ::
         ::    -> Gelec               -0.007451174778 Eh    ::
         ::    -> Gsasa               -0.016027789520 Eh    ::
         ::    -> Ghb                  0.000000000000 Eh    ::
         ::    -> Gshift               0.003891019244 Eh    ::
         :: repulsion energy           0.554700880579 Eh    ::
         :: add. restraining           0.000000000000 Eh    ::
         :: total charge              -0.000000000000 e     ::
         :::::::::::::::::::::::::::::::::::::::::::::::::::::

      ----------------------------------------------------------- 
     |                   =====================                   |
     |                        A N C O P T                        |
     |                   =====================                   |
     |               Approximate Normal Coordinate               |
     |                Rational Function Optimizer                |
      ----------------------------------------------------------- 
      ----------------------------------------------------------- 
     |                   =====================                   |
     |                        A N C O P T                        |
     |                   =====================                   |
     |               Approximate Normal Coordinate               |
     |                Rational Function Optimizer                |
      ----------------------------------------------------------- 

          ...................................................
          :                      SETUP                      :
          :.................................................:
          :   optimization level         verytight          :
          :   max. optcycles                   700          :
          :   ANC micro-cycles                  20          :
          :   degrees of freedom                99          :
          :.................................................:
          :   RF solver                   davidson          :
          :   write xtbopt.log                true          :
          :   linear?                        false          :
          :   energy convergence         0.1000000E-06 Eh   :
          :   grad. convergence          0.2000000E-03 Eh/α :
          :   maxmium RF displ.          1.0000000          :
          :   Hlow (freq-cutoff)         0.1000000E-01      :
          :   Hmax (freq-cutoff)         5.0000000          :
          :   S6 in model hess.         20.0000000          :
          ...................................................

generating ANC from exact Hessian ...
Using Lindh-Hessian (1995)
 Shifting diagonal of input Hessian by   9.254423463653199E-003
 Lowest  eigenvalues of input Hessian
    0.000000    0.000000    0.000000    0.000000    0.000000    0.000000
    0.010000    0.010455    0.011257    0.012144    0.013799    0.014863
    0.015699    0.016241    0.016505    0.017561    0.018748    0.019034
 Highest eigenvalues
    1.395622    1.398553    1.409289    1.447683    1.793790    1.860414
 

........................................................................
.............................. CYCLE    1 ..............................
........................................................................

 iter      E             dE          RMSdq      gap      omega  full diag
   1    -46.7097748 -0.467098E+02  0.955E-05    4.85       0.0  T
   2    -46.7097748 -0.479332E-10  0.594E-05    4.85     284.4  T
   3    -46.7097748 -0.552802E-11  0.377E-05    4.85     448.4  T
     SCC iter.                  ...        0 min,  0.006 sec
     gradient                   ...        0 min,  0.004 sec
 * total energy  :   -46.1544199 Eh     change       -0.1101235E-08 Eh
   gradient norm :     0.0503378 Eh/α   predicted     0.0000000E+00 (-100.00%)
   displ. norm   :     0.3239346 α      lambda       -0.1013094E-01
   maximum displ.:     0.1143191 α      in ANC's #23, #29, #42, ...

........................................................................
.............................. CYCLE    2 ..............................
........................................................................

 iter      E             dE          RMSdq      gap      omega  full diag
   1    -46.7608695 -0.467609E+02  0.154E-01    5.00       0.0  T
   2    -46.7609067 -0.372518E-04  0.950E-02    5.00       1.0  T
   3    -46.7608810  0.257563E-04  0.611E-02    5.01       1.0  T
   4    -46.7609416 -0.606130E-04  0.754E-03    5.01       2.2  T
   5    -46.7609422 -0.598342E-06  0.340E-03    5.01       5.0  T
   6    -46.7609422 -0.764141E-08  0.154E-03    5.01      11.0  T
   7    -46.7609422 -0.155627E-07  0.641E-04    5.01      26.4  T
   8    -46.7609422 -0.666657E-08  0.298E-04    5.01      56.6  T
     SCC iter.                  ...        0 min,  0.014 sec
     gradient                   ...        0 min,  0.004 sec
 * total energy  :   -46.1609989 Eh     change       -0.6578981E-02 Eh
   gradient norm :     0.0149732 Eh/α   predicted    -0.5597376E-02 ( -14.92%)
   displ. norm   :     0.2438467 α      lambda       -0.1792246E-02
   maximum displ.:     0.1030941 α      in ANC's #4, #1, #23, ...

........................................................................
.............................. CYCLE    3 ..............................
........................................................................

 iter      E             dE          RMSdq      gap      omega  full diag
   1    -46.7796664 -0.467797E+02  0.827E-02    5.04       0.0  T
   2    -46.7796758 -0.940748E-05  0.516E-02    5.03       1.0  T
   3    -46.7796695  0.624046E-05  0.330E-02    5.04       1.0  T
   4    -46.7796868 -0.173082E-04  0.376E-03    5.04       4.5  T
   5    -46.7796869 -0.105461E-06  0.197E-03    5.04       8.6  T
   6    -46.7796869 -0.591404E-08  0.844E-04    5.04      20.0  T
   7    -46.7796869 -0.512799E-08  0.395E-04    5.04      42.8  T
     SCC iter.                  ...        0 min,  0.012 sec
     gradient                   ...        0 min,  0.004 sec
 * total energy  :   -46.1619559 Eh     change       -0.9570721E-03 Eh
   gradient norm :     0.0051035 Eh/α   predicted    -0.9497402E-03 (  -0.77%)
   displ. norm   :     0.0830350 α      lambda       -0.1395224E-03
   maximum displ.:     0.0495197 α      in ANC's #4, #9, #2, ...

........................................................................
.............................. CYCLE    4 ..............................
........................................................................

 iter      E             dE          RMSdq      gap      omega  full diag
   1    -46.7792622 -0.467793E+02  0.367E-02    5.02       0.0  T
   2    -46.7792626 -0.370506E-06  0.218E-02    5.02       1.0  T
   3    -46.7792607  0.192371E-05  0.931E-03    5.02       1.8  T
   4    -46.7792630 -0.226479E-05  0.883E-04    5.02      19.1  T
   5    -46.7792630 -0.547284E-08  0.510E-04    5.02      33.1  T
   6    -46.7792630 -0.709456E-09  0.165E-04    5.02     102.5  T
     SCC iter.                  ...        0 min,  0.010 sec
     gradient                   ...        0 min,  0.004 sec
 * total energy  :   -46.1620370 Eh     change       -0.8106212E-04 Eh
   gradient norm :     0.0022401 Eh/α   predicted    -0.7024570E-04 ( -13.34%)
   displ. norm   :     0.0751711 α      lambda       -0.5986533E-04
   maximum displ.:     0.0525105 α      in ANC's #4, #9, #2, ...

........................................................................
.............................. CYCLE    5 ..............................
........................................................................

 iter      E             dE          RMSdq      gap      omega  full diag
   1    -46.7780660 -0.467781E+02  0.302E-02    5.01       0.0  T
   2    -46.7780662 -0.161297E-06  0.179E-02    5.01       1.0  T
   3    -46.7780659  0.313262E-06  0.375E-03    5.01       4.5  T
   4    -46.7780663 -0.382909E-06  0.666E-04    5.01      25.4  T
   5    -46.7780663 -0.497813E-08  0.358E-04    5.01      47.2  T
     SCC iter.                  ...        0 min,  0.009 sec
     gradient                   ...        0 min,  0.004 sec
 * total energy  :   -46.1620723 Eh     change       -0.3533027E-04 Eh
   gradient norm :     0.0016008 Eh/α   predicted    -0.3011226E-04 ( -14.77%)
   displ. norm   :     0.0986464 α      lambda       -0.3232048E-04
   maximum displ.:     0.0549268 α      in ANC's #4, #1, #9, ...

........................................................................
.............................. CYCLE    6 ..............................
........................................................................

 iter      E             dE          RMSdq      gap      omega  full diag
   1    -46.7771750 -0.467772E+02  0.328E-02    5.01       0.0  T
   2    -46.7771752 -0.194671E-06  0.194E-02    5.01       1.0  T
   3    -46.7771750  0.259745E-06  0.335E-03    5.01       5.0  T
   4    -46.7771753 -0.310287E-06  0.748E-04    5.01      22.6  T
   5    -46.7771753 -0.104463E-07  0.302E-04    5.01      56.0  T
     SCC iter.                  ...        0 min,  0.009 sec
     gradient                   ...        0 min,  0.004 sec
 * total energy  :   -46.1620999 Eh     change       -0.2755111E-04 Eh
   gradient norm :     0.0022644 Eh/α   predicted    -0.1623059E-04 ( -41.09%)
   displ. norm   :     0.0810705 α      lambda       -0.3257468E-04
   maximum displ.:     0.0465854 α      in ANC's #1, #4, #9, ...

........................................................................
.............................. CYCLE    7 ..............................
........................................................................

 iter      E             dE          RMSdq      gap      omega  full diag
   1    -46.7773025 -0.467773E+02  0.234E-02    5.02       0.0  T
   2    -46.7773025 -0.518236E-07  0.138E-02    5.02       1.2  T
   3    -46.7773023  0.167587E-06  0.266E-03    5.02       6.3  T
   4    -46.7773025 -0.200215E-06  0.398E-04    5.02      42.4  T
   5    -46.7773025 -0.828692E-09  0.185E-04    5.02      91.3  T
     SCC iter.                  ...        0 min,  0.009 sec
     gradient                   ...        0 min,  0.004 sec
 * total energy  :   -46.1621261 Eh     change       -0.2623757E-04 Eh
   gradient norm :     0.0018938 Eh/α   predicted    -0.1639636E-04 ( -37.51%)
   displ. norm   :     0.2084613 α      lambda       -0.4552093E-04
   maximum displ.:     0.1188060 α      in ANC's #1, #9, #4, ...

........................................................................
.............................. CYCLE    8 ..............................
........................................................................

 iter      E             dE          RMSdq      gap      omega  full diag
   1    -46.7780736 -0.467781E+02  0.572E-02    5.03       0.0  T
   2    -46.7780739 -0.295751E-06  0.337E-02    5.03       1.0  T
   3    -46.7780732  0.639818E-06  0.534E-03    5.02       3.2  T
   4    -46.7780740 -0.800770E-06  0.940E-04    5.03      18.0  T
   5    -46.7780740 -0.466814E-08  0.498E-04    5.03      34.0  T
     SCC iter.                  ...        0 min,  0.009 sec
     gradient                   ...        0 min,  0.005 sec
 * total energy  :   -46.1621650 Eh     change       -0.3890956E-04 Eh
   gradient norm :     0.0020071 Eh/α   predicted    -0.2320047E-04 ( -40.37%)
   displ. norm   :     0.0452896 α      lambda       -0.1288262E-04
   maximum displ.:     0.0293939 α      in ANC's #1, #9, #8, ...

........................................................................
.............................. CYCLE    9 ..............................
........................................................................

 iter      E             dE          RMSdq      gap      omega  full diag
   1    -46.7783439 -0.467783E+02  0.117E-02    5.02       0.0  T
   2    -46.7783439 -0.459272E-07  0.689E-03    5.02       2.5  T
   3    -46.7783439  0.340731E-07  0.128E-03    5.02      13.2  T
   4    -46.7783439 -0.413618E-07  0.382E-04    5.02      44.2  T
   5    -46.7783439 -0.280762E-08  0.135E-04    5.02     124.8  T
     SCC iter.                  ...        0 min,  0.009 sec
     gradient                   ...        0 min,  0.005 sec
 * total energy  :   -46.1621749 Eh     change       -0.9839960E-05 Eh
   gradient norm :     0.0010870 Eh/α   predicted    -0.6456007E-05 ( -34.39%)
   displ. norm   :     0.1154535 α      lambda       -0.1334414E-04
   maximum displ.:     0.0694248 α      in ANC's #1, #9, #8, ...

........................................................................
.............................. CYCLE   10 ..............................
........................................................................

 iter      E             dE          RMSdq      gap      omega  full diag
   1    -46.7782903 -0.467783E+02  0.282E-02    5.02       0.0  T
   2    -46.7782904 -0.112269E-06  0.167E-02    5.02       1.0  T
   3    -46.7782903  0.554003E-07  0.184E-03    5.02       9.2  T
   4    -46.7782904 -0.852150E-07  0.604E-04    5.02      28.0  T
   5    -46.7782904 -0.475575E-08  0.299E-04    5.02      56.6  T
     SCC iter.                  ...        0 min,  0.009 sec
     gradient                   ...        0 min,  0.005 sec
 * total energy  :   -46.1621833 Eh     change       -0.8446167E-05 Eh
   gradient norm :     0.0009505 Eh/α   predicted    -0.6712334E-05 ( -20.53%)
   displ. norm   :     0.0327234 α      lambda       -0.4808845E-05
   maximum displ.:     0.0163451 α      in ANC's #1, #9, #8, ...

........................................................................
.............................. CYCLE   11 ..............................
........................................................................

 iter      E             dE          RMSdq      gap      omega  full diag
   1    -46.7783186 -0.467783E+02  0.105E-02    5.02       0.0  T
   2    -46.7783186 -0.195306E-07  0.624E-03    5.02       2.7  T
   3    -46.7783186  0.150595E-07  0.973E-04    5.02      17.4  T
   4    -46.7783186 -0.231911E-07  0.260E-04    5.02      64.9  T
     SCC iter.                  ...        0 min,  0.007 sec
     gradient                   ...        0 min,  0.005 sec
 * total energy  :   -46.1621857 Eh     change       -0.2419517E-05 Eh
   gradient norm :     0.0008282 Eh/α   predicted    -0.2409057E-05 (  -0.43%)
   displ. norm   :     0.0216203 α      lambda       -0.4195817E-05
   maximum displ.:     0.0089697 α      in ANC's #3, #2, #4, ...

........................................................................
.............................. CYCLE   12 ..............................
........................................................................

 iter      E             dE          RMSdq      gap      omega  full diag
   1    -46.7785480 -0.467785E+02  0.717E-03    5.02       0.0  T
   2    -46.7785481 -0.226523E-07  0.429E-03    5.02       3.9  T
   3    -46.7785480  0.607411E-07  0.173E-03    5.02       9.8  T
   4    -46.7785481 -0.733010E-07  0.243E-04    5.02      69.5  T
   5    -46.7785481 -0.577273E-09  0.129E-04    5.02     131.1  T
     SCC iter.                  ...        0 min,  0.009 sec
     gradient                   ...        0 min,  0.005 sec
 * total energy  :   -46.1621897 Eh     change       -0.3920727E-05 Eh
   gradient norm :     0.0004162 Eh/α   predicted    -0.2098901E-05 ( -46.47%)
   displ. norm   :     0.0281071 α      lambda       -0.1845386E-05
   maximum displ.:     0.0163937 α      in ANC's #9, #2, #14, ...

........................................................................
.............................. CYCLE   13 ..............................
........................................................................

 iter      E             dE          RMSdq      gap      omega  full diag
   1    -46.7782764 -0.467783E+02  0.598E-03    5.02       0.0  T
   2    -46.7782764 -0.123361E-07  0.360E-03    5.02       4.7  T
   3    -46.7782763  0.176513E-07  0.953E-04    5.02      17.7  T
   4    -46.7782764 -0.228167E-07  0.199E-04    5.02      84.8  T
     SCC iter.                  ...        0 min,  0.008 sec
     gradient                   ...        0 min,  0.005 sec
 * total energy  :   -46.1621913 Eh     change       -0.1606232E-05 Eh
   gradient norm :     0.0004134 Eh/α   predicted    -0.9242574E-06 ( -42.46%)
   displ. norm   :     0.0198209 α      lambda       -0.8687612E-06
   maximum displ.:     0.0102318 α      in ANC's #2, #9, #4, ...

........................................................................
.............................. CYCLE   14 ..............................
........................................................................

 iter      E             dE          RMSdq      gap      omega  full diag
   1    -46.7783304 -0.467783E+02  0.482E-03    5.02       0.0  T
   2    -46.7783304 -0.822006E-08  0.286E-03    5.02       5.9  T
   3    -46.7783304 -0.733102E-09  0.292E-04    5.02      58.0  T
   4    -46.7783304 -0.818552E-09  0.150E-04    5.02     112.6  T
     SCC iter.                  ...        0 min,  0.007 sec
     gradient                   ...        0 min,  0.005 sec
 * total energy  :   -46.1621921 Eh     change       -0.8672343E-06 Eh
   gradient norm :     0.0002303 Eh/α   predicted    -0.4380236E-06 ( -49.49%)
   displ. norm   :     0.0235661 α      lambda       -0.7919564E-06
   maximum displ.:     0.0164510 α      in ANC's #9, #2, #8, ...

........................................................................
.............................. CYCLE   15 ..............................
........................................................................

 iter      E             dE          RMSdq      gap      omega  full diag
   1    -46.7782899 -0.467783E+02  0.484E-03    5.02       0.0  T
   2    -46.7782899 -0.314212E-08  0.289E-03    5.02       5.9  T
   3    -46.7782899 -0.709761E-10  0.225E-04    5.02      75.2  T
   4    -46.7782899 -0.880121E-09  0.107E-04    5.02     158.1  T
     SCC iter.                  ...        0 min,  0.008 sec
     gradient                   ...        0 min,  0.004 sec
 * total energy  :   -46.1621930 Eh     change       -0.9070302E-06 Eh
   gradient norm :     0.0002781 Eh/α   predicted    -0.3996790E-06 ( -55.94%)
   displ. norm   :     0.0399993 α      lambda       -0.1362308E-05
   maximum displ.:     0.0269003 α      in ANC's #9, #2, #4, ...

........................................................................
.............................. CYCLE   16 ..............................
........................................................................

 iter      E             dE          RMSdq      gap      omega  full diag
   1    -46.7782755 -0.467783E+02  0.852E-03    5.02       0.0  T
   2    -46.7782755 -0.968839E-08  0.507E-03    5.02       3.3  T
   3    -46.7782755  0.965656E-09  0.416E-04    5.02      40.6  T
   4    -46.7782756 -0.314398E-08  0.181E-04    5.02      93.2  T
     SCC iter.                  ...        0 min,  0.007 sec
     gradient                   ...        0 min,  0.004 sec
 * total energy  :   -46.1621944 Eh     change       -0.1377181E-05 Eh
   gradient norm :     0.0003090 Eh/α   predicted    -0.6850960E-06 ( -50.25%)
   displ. norm   :     0.0372369 α      lambda       -0.1024039E-05
   maximum displ.:     0.0246083 α      in ANC's #9, #2, #1, ...

........................................................................
.............................. CYCLE   17 ..............................
........................................................................

 iter      E             dE          RMSdq      gap      omega  full diag
   1    -46.7782213 -0.467782E+02  0.814E-03    5.02       0.0  T
   2    -46.7782213 -0.884599E-08  0.486E-03    5.02       3.5  T
   3    -46.7782213 -0.354703E-09  0.381E-04    5.02      44.4  T
   4    -46.7782213 -0.222114E-08  0.190E-04    5.02      88.8  T
     SCC iter.                  ...        0 min,  0.008 sec
     gradient                   ...        0 min,  0.004 sec
 * total energy  :   -46.1621954 Eh     change       -0.9823667E-06 Eh
   gradient norm :     0.0003193 Eh/α   predicted    -0.5159070E-06 ( -47.48%)
   displ. norm   :     0.0392087 α      lambda        0.2907823E-06
   maximum displ.:     0.0258114 α      in ANC's #9, #2, #1, ...

........................................................................
.............................. CYCLE   18 ..............................
........................................................................

 iter      E             dE          RMSdq      gap      omega  full diag
   1    -46.7781316 -0.467781E+02  0.858E-03    5.02       0.0  T
   2    -46.7781316 -0.901048E-08  0.513E-03    5.02       3.3  T
   3    -46.7781316 -0.201936E-09  0.412E-04    5.02      41.0  T
   4    -46.7781316 -0.280938E-08  0.200E-04    5.02      84.6  T
     SCC iter.                  ...        0 min,  0.007 sec
     gradient                   ...        0 min,  0.004 sec
 * total energy  :   -46.1621952 Eh     change        0.2295466E-06 Eh
   gradient norm :     0.0005132 Eh/α   predicted     0.1442102E-06 ( -37.18%)
   displ. norm   :     0.0224870 α      lambda       -0.9472651E-06
   maximum displ.:     0.0177601 α      in ANC's #9, #2, #8, ...

........................................................................
.............................. CYCLE   19 ..............................
........................................................................

 iter      E             dE          RMSdq      gap      omega  full diag
   1    -46.7783616 -0.467784E+02  0.455E-03    5.02       0.0  T
   2    -46.7783617 -0.704352E-08  0.272E-03    5.02       6.2  T
   3    -46.7783617  0.116870E-09  0.289E-04    5.02      58.5  T
   4    -46.7783617 -0.116209E-08  0.132E-04    5.02     128.0  T
     SCC iter.                  ...        0 min,  0.007 sec
     gradient                   ...        0 min,  0.004 sec
 * total energy  :   -46.1621958 Eh     change       -0.6795411E-06 Eh
   gradient norm :     0.0002055 Eh/α   predicted    -0.4748117E-06 ( -30.13%)
   displ. norm   :     0.0048600 α      lambda       -0.1591146E-06
   maximum displ.:     0.0031466 α      in ANC's #9, #5, #4, ...

........................................................................
.............................. CYCLE   20 ..............................
........................................................................

 iter      E             dE          RMSdq      gap      omega  full diag
   1    -46.7783103 -0.467783E+02  0.164E-03    5.02       0.0  T
   2    -46.7783103 -0.105278E-08  0.962E-04    5.02      17.6  T
   3    -46.7783103  0.230226E-08  0.331E-04    5.02      51.1  T
     SCC iter.                  ...        0 min,  0.005 sec
     gradient                   ...        0 min,  0.004 sec
 * total energy  :   -46.1621960 Eh     change       -0.1245303E-06 Eh
   gradient norm :     0.0000844 Eh/α   predicted    -0.8071324E-07 ( -35.19%)
   displ. norm   :     0.0032816 α      lambda       -0.5369048E-07
   maximum displ.:     0.0020059 α      in ANC's #9, #5, #2, ...
 * RMSD in coord.:     0.1609243 α      energy gain  -0.7776086E-02 Eh

generating ANC from exact Hessian ...
Using Lindh-Hessian (1995)
 Shifting diagonal of input Hessian by   9.711638731260547E-003
 Lowest  eigenvalues of input Hessian
    0.000000    0.000000    0.000000    0.000000    0.000000    0.000000
    0.010000    0.010719    0.011759    0.012877    0.015218    0.016383
    0.017696    0.017805    0.018132    0.019477    0.020345    0.021561
 Highest eigenvalues
    1.475910    1.502869    1.507816    1.534754    1.907551    1.968666
 

........................................................................
.............................. CYCLE   21 ..............................
........................................................................

 iter      E             dE          RMSdq      gap      omega  full diag
   1    -46.7783013 -0.467783E+02  0.121E-03    5.02       0.0  T
   2    -46.7783013 -0.228361E-09  0.713E-04    5.02      23.7  T
   3    -46.7783013  0.150429E-09  0.926E-05    5.02     182.5  T
     SCC iter.                  ...        0 min,  0.005 sec
     gradient                   ...        0 min,  0.004 sec
 * total energy  :   -46.1621960 Eh     change       -0.5126294E-07 Eh
   gradient norm :     0.0000600 Eh/α   predicted     0.0000000E+00 (-100.00%)
   displ. norm   :     0.0000901 α      lambda        0.0000000E+00
   maximum displ.:     0.0000416 α      in ANC's #98, #84, #70, ...

   *** GEOMETRY OPTIMIZATION CONVERGED AFTER 21 ITERATIONS ***

------------------------------------------------------------------------
 total energy gain   :        -0.0077761 Eh       -4.8796 kcal/mol
 total RMSD          :         0.1609243 a0        0.0852 Å
 total power (kW/mol):        -0.9722021 (step)  -40.5008 (real)
------------------------------------------------------------------------

 ANCopt (total)                0 d,  0 h,  0 min,  0.504 sec
 optimizer setup                ...        0 min,  0.000 sec (  0.035%)
 model hessian                  ...        0 min,  0.171 sec ( 33.978%)
 ANC generation                 ...        0 min,  0.004 sec (  0.705%)
 coordinate transformation      ...        0 min,  0.000 sec (  0.081%)
 single point calculation       ...        0 min,  0.320 sec ( 63.501%)
 optimization log               ...        0 min,  0.004 sec (  0.843%)
 hessian update                 ...        0 min,  0.000 sec (  0.067%)
 rational function              ...        0 min,  0.002 sec (  0.490%)

================
 final structure:
================
$coord
       -0.13371028946141       -1.47116285950276       -0.61077262736534      c
        1.02632910638550        0.99618695867365       -1.71594450582852      c
       -0.89550973765230        3.18662057353400       -1.52049955613010      c
       -2.38776275628769        3.30283162054462        0.95328943227260      c
       -3.36283364230917        0.67657837636900        1.67884306100891      c
       -1.11598523959677       -1.11120696283998        2.11134019526516      c
       -2.63862103968740       -2.01180071437959       -2.00002440107181      c
       -4.61473486660234       -0.53147023505368       -0.57313469478013      c
        0.68255800322945       -0.38435984930240        3.92953857023025      o
        1.64334398265678       -3.75878460921616       -0.75065654358211      c
       -7.02273217352527       -0.32654941635318       -1.19436677669983      c
        3.64297497475673        1.74444140825939       -0.79684244562230      c
        4.08639448507923        3.43553660323091        1.00254765016442      c
        1.26809594372217        0.60426056790440       -3.73813454829598      h
        3.70034667244483       -3.64993718280098        0.94580460489840      o
        5.82017636610396        0.62367582457263       -2.23056267374866      c
        0.09636337192284        4.97006983244197       -1.82077077713519      h
       -2.25861538330944        2.98343769355214       -3.05492605581260      h
       -1.25727720032320        4.04999872099875        2.50752257120038      h
       -3.99207718563060        4.57592086064206        0.69969761358746      h
       -4.60034048997787        0.80107619200948        3.32460986098915      h
       -1.84108489897398       -2.92836556669503        2.80677668020930      h
       -2.56710060728028       -1.49738779562135       -3.99256389547170      h
       -3.08487577587182       -4.02574746489812       -1.90150975720138      h
        1.57818364800467        1.08222158266326        3.29027775888509      h
        2.45277136502197       -3.95121616590295       -2.64266546238040      h
        0.53260920685575       -5.47278110766755       -0.34882576051124      h
       -7.78030938453395       -1.22371333743594       -2.85720298133381      h
       -8.33223100487174        0.74544660938688       -0.06483753061048      h
        5.99337315544217        3.94832471637252        1.49976919310440      h
        2.64047407277840        4.43596535720097        2.02527680384267      h
        3.07159743085634       -3.00126497502809        2.54309091920890      h
        6.02703812562740       -1.37211264864651       -1.78981488643543      h
        5.51992431279074        0.81030066051394       -4.25839561686261      h
        7.57493755739298        1.56938273876255       -1.73415217567477      h
$end
 
 Bond Distances (Angstroems)
 ---------------------------
C1-C2=1.5568         C1-C6=1.5432         C1-C7=1.5425         C1-C10=1.5347        C2-C1=1.5568         C2-C3=1.5455         
C2-C12=1.5201        C2-H14=1.0975        C3-C2=1.5455         C3-C4=1.5300         C3-H17=1.0915        C3-H18=1.0914        
C4-C3=1.5300         C4-C5=1.5314         C4-H19=1.0912        C4-H20=1.0921        C5-C4=1.5314         C5-C6=1.5366         
C5-C8=1.5059         C5-H21=1.0916        C6-C1=1.5432         C6-C5=1.5366         C6-O9=1.4069         C6-H22=1.0988        
C7-C1=1.5425         C7-C8=1.5091         C7-H23=1.0896        C7-H24=1.0928        C8-C5=1.5059         C8-C7=1.5091         
C8-C11=1.3204        O9-C6=1.4069         O9-H25=0.9702        C10-C1=1.5347        C10-O15=1.4121       C10-H26=1.0937       
C10-H27=1.1015       C11-C8=1.3204        C11-H28=1.0772       C11-H29=1.0767       C12-C2=1.5201        C12-C13=1.3276       
C12-C16=1.5016       C13-C12=1.3276       C13-H30=1.0776       C13-H31=1.0764       H14-C2=1.0975        O15-C10=1.4121       
O15-H32=0.9711       C16-C12=1.5016       C16-H33=1.0871       C16-H34=1.0893       C16-H35=1.0871       H17-C3=1.0915        
H18-C3=1.0914        H19-C4=1.0912        H20-C4=1.0921        H21-C5=1.0916        H22-C6=1.0988        H23-C7=1.0896        
H24-C7=1.0928        H25-O9=0.9702        H26-C10=1.0937       H27-C10=1.1015       H28-C11=1.0772       H29-C11=1.0767       
H30-C13=1.0776       H31-C13=1.0764       H32-O15=0.9711       H33-C16=1.0871       H34-C16=1.0893       H35-C16=1.0871       
 C  H  Rav=1.0891 sigma=0.0074  Rmin=1.0764  Rmax=1.1015    18
 C  C  Rav=1.5004 sigma=0.0736  Rmin=1.3204  Rmax=1.5568    14
 O  H  Rav=0.9707 sigma=0.0004  Rmin=0.9702  Rmax=0.9711     2
 O  C  Rav=1.4095 sigma=0.0026  Rmin=1.4069  Rmax=1.4121     2
 
 selected bond angles (degree)
 --------------------
C6-C1-C2=112.33                C7-C1-C2=108.38                C7-C1-C6=100.27                C10-C1-C2=113.69               
C10-C1-C6=110.41               C10-C1-C7=110.93               C3-C2-C1=110.15                C12-C2-C1=117.22               
C12-C2-C3=112.50               H14-C2-C1=104.70               H14-C2-C3=106.48               H14-C2-C12=104.77              
C4-C3-C2=115.28                H17-C3-C2=108.80               H17-C3-C4=109.75               H18-C3-C2=108.13               
H18-C3-C4=107.42               H18-C3-H17=107.14              C5-C4-C3=110.61                H19-C4-C3=112.12               
H19-C4-C5=108.94               H20-C4-C3=108.72               H20-C4-C5=109.19               H20-C4-H19=107.18              
C6-C5-C4=109.60                C8-C5-C4=109.58                C8-C5-C6=101.36                H21-C5-C4=110.33               
H21-C5-C6=112.49               H21-C5-C8=113.14               C5-C6-C1=101.40                O9-C6-C1=116.37                
O9-C6-C5=117.19                H22-C6-C1=108.80               H22-C6-C5=108.57               H22-C6-O9=104.27               
C8-C7-C1=105.11                H23-C7-C1=112.64               H23-C7-C8=112.24               H24-C7-C1=110.11               
H24-C7-C8=109.43               H24-C7-H23=107.30              C7-C8-C5=108.15                C11-C8-C5=125.92               
C11-C8-C7=125.93               H25-O9-C6=108.10               O15-C10-C1=114.17              H26-C10-C1=110.95              
H26-C10-O15=106.49             H27-C10-C1=108.25              H27-C10-O15=108.80             H27-C10-H26=108.00             
 
 selected dihedral angles (degree)
 ---------------------------------
C3-C2-C1-C6=305.76            C3-C2-C1-C7= 55.62            C3-C2-C1-C10=179.46           C12-C2-C1-C6= 76.09           
C12-C2-C1-C7=185.94           C12-C2-C1-C10=309.79          H14-C2-C1-C6=191.64           H14-C2-C1-C7=301.50           
H14-C2-C1-C10= 65.35          C4-C3-C2-C1= 41.25            C4-C3-C2-C12=268.46           C4-C3-C2-H14=154.23           
H17-C3-C2-C1=165.00           H17-C3-C2-C12= 32.21          H17-C3-C2-H14=277.98          H18-C3-C2-C1=281.05           
H18-C3-C2-C12=148.25          H18-C3-C2-H14= 34.03          C5-C4-C3-C2=314.42            C5-C4-C3-H17=191.17           
C5-C4-C3-H18= 75.01           H19-C4-C3-C2= 76.23           H19-C4-C3-H17=312.98          H19-C4-C3-H18=196.83          
H20-C4-C3-C2=194.54           H20-C4-C3-H17= 71.29          H20-C4-C3-H18=315.14          C6-C5-C4-C3= 61.95            
C6-C5-C4-H19=298.29           C6-C5-C4-H20=181.54           C8-C5-C4-C3=311.56            C8-C5-C4-H19=187.89           
C8-C5-C4-H20= 71.15           H21-C5-C4-C3=186.34           H21-C5-C4-H19= 62.68          H21-C5-C4-H20=305.94          
C5-C6-C1-C2= 67.82            C5-C6-C1-C7=312.93            C5-C6-C1-C10=195.87           O9-C6-C1-C2=299.49            
O9-C6-C1-C7=184.59            O9-C6-C1-C10= 67.54           H22-C6-C1-C2=182.14           H22-C6-C1-C7= 67.25           
H22-C6-C1-C10=310.19          C1-C6-C5-C4=289.07            C1-C6-C5-C8= 44.81            C1-C6-C5-H21=165.95           
O9-C6-C5-C4= 56.88            O9-C6-C5-C8=172.62            O9-C6-C5-H21=293.76           H22-C6-C5-C4=174.59           
H22-C6-C5-C8=290.32           H22-C6-C5-H21= 51.46          C8-C7-C1-C2=273.53            C8-C7-C1-C6= 31.38            
C8-C7-C1-C10=148.04           H23-C7-C1-C2= 36.04           H23-C7-C1-C6=153.89           H23-C7-C1-C10=270.56          
H24-C7-C1-C2=155.77           H24-C7-C1-C6=273.61           H24-C7-C1-C10= 30.28          C7-C8-C5-C4= 90.50            
C7-C8-C5-C6=334.75            C7-C8-C5-H21=214.07           C11-C8-C5-C4=270.63           C11-C8-C5-C6=154.88           
C11-C8-C5-H21= 34.20          C5-C8-C7-C1=356.00            C5-C8-C7-H23=233.23           C5-C8-C7-H24=114.22           
C11-C8-C7-C1=175.87           C11-C8-C7-H23= 53.10          C11-C8-C7-H24=294.09          H25-O9-C6-C1= 51.57           
H25-O9-C6-C5=291.39           H25-O9-C6-H22=171.39          O15-C10-C1-C2= 71.59          O15-C10-C1-C6=304.28          
O15-C10-C1-C7=194.04          H26-C10-C1-C2=311.25          H26-C10-C1-C6=183.95          H26-C10-C1-C7= 73.70          
H27-C10-C1-C2=192.91          H27-C10-C1-C6= 65.61          H27-C10-C1-C7=315.36          
           -------------------------------------------------
          |                Final Singlepoint                |
           -------------------------------------------------

          ...................................................
          :                      SETUP                      :
          :.................................................:
          :  # basis functions                  80          :
          :  # atomic orbitals                  80          :
          :  # shells                           50          :
          :  # electrons                        84          :
          :  max. iterations                   250          :
          :  Hamiltonian                  GFN2-xTB          :
          :  restarted?                      false          :
          :  GBSA solvation                   true          :
          :  PC potential                    false          :
          :  electronic temp.          300.0000000     K    :
          :  accuracy                    1.0000000          :
          :  -> integral cutoff          0.2500000E+02      :
          :  -> integral neglect         0.1000000E-07      :
          :  -> SCF convergence          0.1000000E-05 Eh   :
          :  -> wf. convergence          0.1000000E-03 e    :
          :  Broyden damping             0.4000000          :
          :  net charge                          0          :
          :  unpaired electrons                  0          :
          ...................................................

 iter      E             dE          RMSdq      gap      omega  full diag
   1    -46.7783013 -0.467783E+02  0.278E-05    5.02       0.0  T
   2    -46.7783013 -0.432010E-11  0.204E-05    5.02     827.1  T
   3    -46.7783013 -0.778755E-11  0.930E-06    5.02    1816.9  T

   *** convergence criteria satisfied after 3 iterations ***

         #    Occupation            Energy/Eh            Energy/eV
      -------------------------------------------------------------
         1        2.0000           -0.7006633             -19.0660
       ...           ...                  ...                  ...
        36        2.0000           -0.4305463             -11.7158
        37        2.0000           -0.4240928             -11.5402
        38        2.0000           -0.4176873             -11.3658
        39        2.0000           -0.4110365             -11.1849
        40        2.0000           -0.4014757             -10.9247
        41        2.0000           -0.3938951             -10.7184
        42        2.0000           -0.3896357             -10.6025 (HOMO)
        43                         -0.2051046              -5.5812 (LUMO)
        44                         -0.2027794              -5.5179
        45                          0.0006104               0.0166
        46                          0.0248077               0.6751
        47                          0.0406982               1.1075
       ...                                ...                  ...
        80                          0.6451922              17.5566
      -------------------------------------------------------------
                  HL-Gap            0.1845311 Eh            5.0213 eV
             Fermi-level           -0.2973701 Eh           -8.0919 eV

 SCC (total)                   0 d,  0 h,  0 min,  0.012 sec
 SCC setup                      ...        0 min,  0.001 sec (  5.811%)
 Dispersion                     ...        0 min,  0.000 sec (  1.628%)
 classical contributions        ...        0 min,  0.000 sec (  0.194%)
 integral evaluation            ...        0 min,  0.001 sec ( 11.244%)
 iterations                     ...        0 min,  0.005 sec ( 43.857%)
 molecular gradient             ...        0 min,  0.004 sec ( 35.532%)
 printout                       ...        0 min,  0.000 sec (  1.363%)

         :::::::::::::::::::::::::::::::::::::::::::::::::::::
         ::                     SUMMARY                     ::
         :::::::::::::::::::::::::::::::::::::::::::::::::::::
         :: total energy             -46.162196025804 Eh    ::
         :: total w/o Gsasa/hb       -46.150386974060 Eh    ::
         :: gradient norm              0.000059844796 Eh/a0 ::
         :: HOMO-LUMO gap              5.021348115751 eV    ::
         ::.................................................::
         :: SCC energy               -46.777661567952 Eh    ::
         :: -> isotropic ES            0.062065241031 Eh    ::
         :: -> anisotropic ES          0.003082017971 Eh    ::
         :: -> anisotropic XC          0.017446770031 Eh    ::
         :: -> dispersion             -0.036814794551 Eh    ::
         :: -> Gsolv                  -0.018885774697 Eh    ::
         ::    -> Gelec               -0.007076722953 Eh    ::
         ::    -> Gsasa               -0.015700070988 Eh    ::
         ::    -> Ghb                  0.000000000000 Eh    ::
         ::    -> Gshift               0.003891019244 Eh    ::
         :: repulsion energy           0.615465542148 Eh    ::
         :: add. restraining           0.000000000000 Eh    ::
         :: total charge               0.000000000000 e     ::
         :::::::::::::::::::::::::::::::::::::::::::::::::::::

           ------------------------------------------------- 
          |                Numerical Hessian                |
           ------------------------------------------------- 
step length          :   0.00500
SCC accuracy         :   0.30000
Hessian scale factor :   1.00000
frozen atoms in %    :   0.00000    0
RMS gradient         :   0.00006
estimated CPU  time      2.20 min
estimated wall time      0.20 min

writing file <hessian>.

 projected vibrational frequencies (cm⁻¹)
eigval :       -0.00    -0.00    -0.00     0.00     0.00     0.00
eigval :       66.43    91.30   110.16   152.37   183.31   190.98
eigval :      194.33   230.32   257.61   276.31   302.97   312.33
eigval :      319.13   350.09   356.47   389.87   421.52   467.42
eigval :      472.44   509.18   515.74   527.80   548.33   605.52
eigval :      662.13   687.01   703.98   723.58   792.36   828.25
eigval :      876.09   889.97   900.67   902.75   915.22   935.85
eigval :      944.01   953.87   967.27   984.75  1031.81  1040.40
eigval :     1042.18  1048.35  1078.75  1093.07  1099.81  1110.91
eigval :     1134.99  1145.45  1151.82  1160.16  1184.11  1191.02
eigval :     1226.20  1233.12  1256.58  1260.75  1269.59  1277.32
eigval :     1293.99  1313.65  1327.59  1334.22  1345.47  1354.01
eigval :     1361.20  1369.65  1400.17  1410.20  1423.72  1463.83
eigval :     1473.31  1480.82  1487.80  1492.00  1498.75  1706.99
eigval :     1739.19  2846.36  2901.32  2903.14  2952.76  2956.99
eigval :     2963.26  2966.40  2975.13  2987.05  2992.57  2994.32
eigval :     3007.68  3039.62  3049.91  3100.58  3104.31  3119.16
eigval :     3122.44  3401.86  3415.29
           -------------------------------------------------
          |                Property Printout                |
           -------------------------------------------------

    * Orbital Energies and Occupations

         #    Occupation            Energy/Eh            Energy/eV
      -------------------------------------------------------------
         1        2.0000           -0.7006633             -19.0660
       ...           ...                  ...                  ...
        30        2.0000           -0.4717223             -12.8362
        31        2.0000           -0.4590989             -12.4927
        32        2.0000           -0.4536823             -12.3453
        33        2.0000           -0.4496539             -12.2357
        34        2.0000           -0.4432902             -12.0625
        35        2.0000           -0.4381463             -11.9226
        36        2.0000           -0.4305462             -11.7158
        37        2.0000           -0.4240928             -11.5402
        38        2.0000           -0.4176873             -11.3658
        39        2.0000           -0.4110364             -11.1849
        40        2.0000           -0.4014756             -10.9247
        41        2.0000           -0.3938951             -10.7184
        42        2.0000           -0.3896357             -10.6025 (HOMO)
        43                         -0.2051046              -5.5812 (LUMO)
        44                         -0.2027794              -5.5179
        45                          0.0006104               0.0166
        46                          0.0248077               0.6751
        47                          0.0406982               1.1075
        48                          0.0503407               1.3698
        49                          0.0670321               1.8240
        50                          0.0722054               1.9648
        51                          0.0825500               2.2463
        52                          0.0851699               2.3176
        53                          0.0985440               2.6815
       ...                                ...                  ...
        80                          0.6451922              17.5566
      -------------------------------------------------------------
                  HL-Gap            0.1845312 Eh            5.0213 eV
             Fermi-level           -0.2973702 Eh           -8.0919 eV

     #   Z          covCN         q      C6AA      α(0)
     1   6 c        3.928    -0.010    20.685     6.463
     2   6 c        3.854    -0.030    21.064     6.528
     3   6 c        3.803    -0.064    21.727     6.636
     4   6 c        3.807    -0.055    21.561     6.610
     5   6 c        3.885    -0.037    21.189     6.544
     6   6 c        3.783     0.116    18.708     6.161
     7   6 c        3.841    -0.077    21.935     6.663
     8   6 c        2.981     0.010    27.780     8.646
     9   8 o        1.655    -0.494    22.763     6.441
    10   6 c        3.677     0.081    19.439     6.317
    11   6 c        2.838    -0.112    30.835     9.100
    12   6 c        2.935     0.020    27.568     8.611
    13   6 c        2.844    -0.119    31.013     9.127
    14   1 h        0.924     0.047     2.358     2.401
    15   8 o        1.654    -0.491    22.693     6.431
    16   6 c        3.762    -0.118    22.807     6.808
    17   1 h        0.924     0.041     2.434     2.440
    18   1 h        0.924     0.041     2.434     2.440
    19   1 h        0.924     0.038     2.472     2.459
    20   1 h        0.924     0.038     2.476     2.461
    21   1 h        0.924     0.038     2.474     2.460
    22   1 h        0.923     0.029     2.596     2.520
    23   1 h        0.925     0.057     2.240     2.341
    24   1 h        0.924     0.049     2.335     2.390
    25   1 h        0.804     0.324     0.653     1.269
    26   1 h        0.924     0.046     2.375     2.410
    27   1 h        0.923     0.019     2.742     2.589
    28   1 h        0.926     0.038     2.480     2.463
    29   1 h        0.926     0.038     2.471     2.458
    30   1 h        0.926     0.031     2.566     2.505
    31   1 h        0.926     0.034     2.523     2.484
    32   1 h        0.804     0.318     0.668     1.284
    33   1 h        0.925     0.069     2.100     2.266
    34   1 h        0.925     0.042     2.416     2.431
    35   1 h        0.925     0.040     2.443     2.444

 Mol. C6AA /au·bohr⁶  :      10389.670474
 Mol. C8AA /au·bohr⁸  :     233672.698374
 Mol. α(0) /au        :        153.597481


Wiberg/Mayer (AO) data.
largest (>0.10) Wiberg bond orders for each atom

 ---------------------------------------------------------------------------
     #   Z sym  total        # sym  WBO       # sym  WBO       # sym  WBO
 ---------------------------------------------------------------------------
     1   6 c    3.989 --    10 c    0.981     7 c    0.981     6 c    0.960
                             2 c    0.959
     2   6 c    3.992 --    12 c    0.997     3 c    0.987     1 c    0.959
                            14 h    0.957
     3   6 c    3.996 --     4 c    1.009     2 c    0.987    18 h    0.976
                            17 h    0.975
     4   6 c    3.997 --     3 c    1.009     5 c    0.981    20 h    0.975
                            19 h    0.966
     5   6 c    3.995 --     8 c    0.995     4 c    0.981     6 c    0.966
                            21 h    0.965
     6   6 c    3.949 --     9 o    0.990     5 c    0.966    22 h    0.961
                             1 c    0.960
     7   6 c    3.995 --     8 c    1.004     1 c    0.981    23 h    0.964
                            24 h    0.958
     8   6 c    3.986 --    11 c    1.937     7 c    1.004     5 c    0.995
     9   8 o    1.966 --     6 c    0.990    25 h    0.849
    10   6 c    3.953 --    15 o    0.996     1 c    0.981    26 h    0.970
                            27 h    0.965
    11   6 c    3.988 --     8 c    1.937    28 h    0.975    29 h    0.975
    12   6 c    3.986 --    13 c    1.913    16 c    1.027     2 c    0.997
    13   6 c    3.987 --    12 c    1.913    30 h    0.974    31 h    0.962
    14   1 h    0.998 --     2 c    0.957
    15   8 o    1.935 --    10 c    0.996    32 h    0.862
    16   6 c    3.995 --    12 c    1.027    35 h    0.984    34 h    0.973
                            33 h    0.959
    17   1 h    0.998 --     3 c    0.975
    18   1 h    0.998 --     3 c    0.976
    19   1 h    0.999 --     4 c    0.966
    20   1 h    0.998 --     4 c    0.975
    21   1 h    0.998 --     5 c    0.965
    22   1 h    0.999 --     6 c    0.961
    23   1 h    0.997 --     7 c    0.964
    24   1 h    0.997 --     7 c    0.958
    25   1 h    0.895 --     9 o    0.849
    26   1 h    0.998 --    10 c    0.970
    27   1 h    0.999 --    10 c    0.965
    28   1 h    0.998 --    11 c    0.975
    29   1 h    0.998 --    11 c    0.975
    30   1 h    0.999 --    13 c    0.974
    31   1 h    0.999 --    13 c    0.962
    32   1 h    0.899 --    15 o    0.862
    33   1 h    0.995 --    16 c    0.959
    34   1 h    0.998 --    16 c    0.973
    35   1 h    0.998 --    16 c    0.984
 ---------------------------------------------------------------------------

Topologies differ in total number of bonds
Writing topology from bond orders to xtbtopo.mol

molecular dipole:
                 x           y           z       tot (Debye)
 q only:       -0.540       0.576      -0.754
   full:       -0.660       0.678      -0.779       3.115
molecular quadrupole (traceless):
                xx          xy          yy          xz          yz          zz
 q only:       -1.447       4.014       0.789      -0.847       2.874       0.659
  q+dip:       -2.258       5.796       1.307      -1.788       4.601       0.951
   full:       -2.439       5.823       1.466      -1.459       3.709       0.973

           -------------------------------------------------
          |                Geometry Summary                 |
           -------------------------------------------------

      molecular mass/u    :      208.2971915
   center of mass at/Å    :       -0.0008190      -0.0007020       0.0015200
  moments of inertia/u·Å² :        0.5180927E+03   0.9244635E+03   0.1039961E+04
rotational constants/cm⁻¹ :        0.3253787E-01   0.1823504E-01   0.1620987E-01

 * 30 selected distances

     #   Z          #   Z                                           value/Å
     3   6 c        4   6 c                                       1.5300414
     4   6 c        5   6 c                                       1.5313623
     1   6 c        6   6 c                                       1.5431965 (max)
     5   6 c        6   6 c                                       1.5365797
     1   6 c        7   6 c                                       1.5425211
     6   6 c        9   8 o                                       1.4069459
     1   6 c       10   6 c                                       1.5346782
     8   6 c       11   6 c                                       1.3204402
    12   6 c       13   6 c                                       1.3276158
     2   6 c       14   1 h                                       1.0974925
    10   6 c       15   8 o                                       1.4121290
     3   6 c       17   1 h                                       1.0915256
     3   6 c       18   1 h                                       1.0914151
     4   6 c       19   1 h                                       1.0911703
     4   6 c       20   1 h                                       1.0920672
     5   6 c       21   1 h                                       1.0916288
     6   6 c       22   1 h                                       1.0987875
     7   6 c       23   1 h                                       1.0896362
     7   6 c       24   1 h                                       1.0928285
     9   8 o       25   1 h                                       0.9702376 (min)
    10   6 c       26   1 h                                       1.0937340
    10   6 c       27   1 h                                       1.1015259
    11   6 c       28   1 h                                       1.0772170
    11   6 c       29   1 h                                       1.0766903
    13   6 c       30   1 h                                       1.0775937
    13   6 c       31   1 h                                       1.0763937
    15   8 o       32   1 h                                       0.9710691
    16   6 c       33   1 h                                       1.0870983
    16   6 c       34   1 h                                       1.0892682
    16   6 c       35   1 h                                       1.0870661

 * 4 distinct bonds (by element types)

   Z      Z             #   av. dist./Å        max./Å        min./Å
   1 H    6 C          18     1.0890633     1.1015259     1.0763937
   6 C    6 C           8     1.4833044     1.5431965     1.3204402
   1 H    8 O           2     0.9706534     0.9710691     0.9702376
   6 C    8 O           2     1.4095374     1.4121290     1.4069459

           -------------------------------------------------
          |               Frequency Printout                |
           -------------------------------------------------
 projected vibrational frequencies (cm⁻¹)
eigval :       -0.00    -0.00    -0.00     0.00     0.00     0.00
eigval :       66.43    91.30   110.16   152.37   183.31   190.98
eigval :      194.33   230.32   257.61   276.31   302.97   312.33
eigval :      319.13   350.09   356.47   389.87   421.52   467.42
eigval :      472.44   509.18   515.74   527.80   548.33   605.52
eigval :      662.13   687.01   703.98   723.58   792.36   828.25
eigval :      876.09   889.97   900.67   902.75   915.22   935.85
eigval :      944.01   953.87   967.27   984.75  1031.81  1040.40
eigval :     1042.18  1048.35  1078.75  1093.07  1099.81  1110.91
eigval :     1134.99  1145.45  1151.82  1160.16  1184.11  1191.02
eigval :     1226.20  1233.12  1256.58  1260.75  1269.59  1277.32
eigval :     1293.99  1313.65  1327.59  1334.22  1345.47  1354.01
eigval :     1361.20  1369.65  1400.17  1410.20  1423.72  1463.83
eigval :     1473.31  1480.82  1487.80  1492.00  1498.75  1706.99
eigval :     1739.19  2846.36  2901.32  2903.14  2952.76  2956.99
eigval :     2963.26  2966.40  2975.13  2987.05  2992.57  2994.32
eigval :     3007.68  3039.62  3049.91  3100.58  3104.31  3119.16
eigval :     3122.44  3401.86  3415.29
 reduced masses (amu)
   1: 11.34   2: 11.62   3: 11.21   4: 11.42   5: 10.83   6: 10.95   7: 10.16   8:  8.07
   9:  8.40  10:  7.19  11: 12.47  12: 11.84  13: 10.60  14:  9.90  15:  9.66  16:  7.98
  17: 10.45  18:  9.02  19:  8.66  20:  4.96  21:  8.95  22:  8.13  23:  9.64  24:  9.03
  25:  7.63  26:  5.87  27: 10.41  28:  7.36  29:  8.61  30:  9.87  31:  9.37  32:  7.67
  33:  2.57  34:  4.04  35:  7.91  36:  8.73  37:  7.49  38:  5.09  39:  7.62  40:  4.08
  41:  7.34  42:  6.47  43:  6.34  44:  5.62  45:  6.14  46:  6.82  47:  5.05  48:  5.54
  49:  6.66  50:  9.15  51:  9.55  52:  7.96  53:  6.57  54:  7.81  55:  6.47  56:  6.41
  57:  5.09  58:  3.09  59:  5.36  60:  4.64  61:  7.40  62:  6.68  63:  6.93  64:  6.78
  65:  6.83  66:  4.34  67:  5.13  68:  5.29  69:  3.93  70:  4.59  71:  3.97  72:  3.84
  73:  4.45  74:  3.49  75:  2.88  76:  2.36  77:  2.35  78:  1.91  79:  1.78  80:  1.68
  81:  1.83  82:  1.69  83:  1.95  84: 11.15  85: 11.58  86:  1.75  87:  1.74  88:  1.75
  89:  1.86  90:  1.68  91:  1.94  92:  1.77  93:  1.96  94:  1.54  95:  1.61  96:  1.51
  97:  1.77  98:  1.89  99:  1.47 100:  1.52 101:  1.58 102:  2.02 103:  2.08 104:  1.88
 105:  1.87
 IR intensities (km·mol⁻¹)
   1:  0.05   2:  0.63   3:  0.05   4:  0.05   5:  0.17   6:  0.20   7:  0.78   8:  0.64
   9:  0.02  10:  0.75  11:  6.31  12:  7.87  13:  4.22  14:  1.81  15:  0.71  16: 16.70
  17: 10.19  18:  8.13  19:  0.21  20:109.58  21:  4.24  22:125.97  23:  6.62  24: 32.24
  25:  2.85  26: 52.00  27:  3.97  28: 64.11  29: 16.60  30:  2.65  31:  2.09  32:  0.56
  33:  1.23  34:  4.66  35: 22.07  36:  4.20  37:  2.97  38: 17.76  39: 11.99  40:  9.73
  41: 25.76  42:  0.20  43:  0.17  44:  0.36  45:  8.39  46:  7.45  47:  7.84  48: 18.58
  49: 10.47  50: 30.60  51:127.06  52:  9.96  53:  8.32  54:125.81  55:  9.20  56:  7.07
  57: 24.94  58:  6.93  59: 16.74  60: 19.18  61: 38.50  62:  4.96  63: 10.02  64:  6.96
  65:  7.07  66:  4.91  67:  9.32  68:  2.28  69: 65.72  70:  8.60  71: 35.61  72:  3.55
  73:  2.99  74:116.55  75:  7.19  76:  5.86  77: 11.49  78:  4.29  79:  3.54  80:  2.37
  81:  0.13  82:  6.05  83:  0.55  84: 31.19  85: 30.25  86:100.44  87: 99.99  88: 56.80
  89: 48.09  90: 55.04  91: 28.78  92: 66.16  93: 70.74  94: 82.39  95: 65.32  96: 78.26
  97: 56.51  98: 41.16  99: 17.22 100: 39.13 101: 45.61 102: 63.52 103: 56.12 104:147.38
 105:289.11
 Raman intensities (Ä⁴*amu⁻¹)
   1:  0.00   2:  0.00   3:  0.00   4:  0.00   5:  0.00   6:  0.00   7:  0.00   8:  0.00
   9:  0.00  10:  0.00  11:  0.00  12:  0.00  13:  0.00  14:  0.00  15:  0.00  16:  0.00
  17:  0.00  18:  0.00  19:  0.00  20:  0.00  21:  0.00  22:  0.00  23:  0.00  24:  0.00
  25:  0.00  26:  0.00  27:  0.00  28:  0.00  29:  0.00  30:  0.00  31:  0.00  32:  0.00
  33:  0.00  34:  0.00  35:  0.00  36:  0.00  37:  0.00  38:  0.00  39:  0.00  40:  0.00
  41:  0.00  42:  0.00  43:  0.00  44:  0.00  45:  0.00  46:  0.00  47:  0.00  48:  0.00
  49:  0.00  50:  0.00  51:  0.00  52:  0.00  53:  0.00  54:  0.00  55:  0.00  56:  0.00
  57:  0.00  58:  0.00  59:  0.00  60:  0.00  61:  0.00  62:  0.00  63:  0.00  64:  0.00
  65:  0.00  66:  0.00  67:  0.00  68:  0.00  69:  0.00  70:  0.00  71:  0.00  72:  0.00
  73:  0.00  74:  0.00  75:  0.00  76:  0.00  77:  0.00  78:  0.00  79:  0.00  80:  0.00
  81:  0.00  82:  0.00  83:  0.00  84:  0.00  85:  0.00  86:  0.00  87:  0.00  88:  0.00
  89:  0.00  90:  0.00  91:  0.00  92:  0.00  93:  0.00  94:  0.00  95:  0.00  96:  0.00
  97:  0.00  98:  0.00  99:  0.00 100:  0.00 101:  0.00 102:  0.00 103:  0.00 104:  0.00
 105:  0.00
 output can be read by thermo (or use thermo option).
 writing <g98.out> molden fake output.
 recommended (thermochemical) frequency scaling factor: 1.0
           -------------------------------------------------
          |             Thermodynamic Functions             |
           -------------------------------------------------

Molecule has no symmetry elements
It seems to be the C1 point group
c1  symmetry found (for desy threshold:  0.10E+00) used in thermo

          ...................................................
          :                      SETUP                      :
          :.................................................:
          :  # frequencies                          99      :
          :  # imaginary freq.                       0      :
          :  linear?                             false      :
          :  only rotor calc.                    false      :
          :  symmetry                               c1      :
          :  rotational number                       1      :
          :  scaling factor                  1.0000000      :
          :  rotor cutoff                   50.0000000 cm⁻¹ :
          :  imag. cutoff                  -50.0000000 cm⁻¹ :
          :.................................................:

    mode    ω/cm⁻¹     T·S(HO)/kcal·mol⁻¹    T·S(FR)/kcal·mol⁻¹   T·S(vib)
   ------------------------------------------------------------------------
       1     66.43    -1.26910 ( 75.70%)    -0.97231 ( 24.30%)    -1.19697
       2     91.30    -1.08286 ( 91.75%)    -0.87809 (  8.25%)    -1.06596
       3    110.16    -0.97377 ( 95.93%)    -0.82249 (  4.07%)    -0.96762
       4    152.37    -0.78783 ( 98.85%)    -0.72641 (  1.15%)    -0.78713
       5    183.31    -0.68409 ( 99.45%)    -0.67166 (  0.55%)    -0.68403
       6    190.98    -0.66139 ( 99.53%)    -0.65951 (  0.47%)    -0.66138
       7    194.33    -0.65178 ( 99.56%)    -0.65436 (  0.44%)    -0.65180
       8    230.32    -0.55947 ( 99.78%)    -0.60403 (  0.22%)    -0.55957
       9    257.61    -0.50026 ( 99.86%)    -0.57086 (  0.14%)    -0.50036
      10    276.31    -0.46404 ( 99.89%)    -0.55010 (  0.11%)    -0.46413
   ------------------------------------------------------------------------

   temp. (K)  partition function   enthalpy   heat capacity  entropy
                                   cal/mol     cal/K/mol   cal/K/mol   J/K/mol
 298.15  VIB  0.747E+04             7381.711     53.741     42.163
         ROT  0.170E+07              888.752      2.981     31.496
         INT  0.127E+11             8270.464     56.722     73.659
         TR   0.291E+28             1481.254      4.968     41.886
         TOT                        9751.7174    61.6903   115.5457   483.4434

       T/K    H(0)-H(T)+PV         H(T)/Eh          T*S/Eh         G(T)/Eh
   ------------------------------------------------------------------------
    298.15    0.155404E-01    0.317700E+00    0.548995E-01    0.262801E+00
   ------------------------------------------------------------------------

         :::::::::::::::::::::::::::::::::::::::::::::::::::::
         ::                  THERMODYNAMIC                  ::
         :::::::::::::::::::::::::::::::::::::::::::::::::::::
         :: total free energy         -45.899395419816 Eh   ::
         ::.................................................::
         :: total energy              -46.162196025712 Eh   ::
         :: zero point energy           0.302159768472 Eh   ::
         :: G(RRHO) w/o ZPVE           -0.039359162575 Eh   ::
         :: G(RRHO) contrib.            0.262800605896 Eh   ::
         :::::::::::::::::::::::::::::::::::::::::::::::::::::

optimized geometry written to: xtbopt.coord


           -------------------------------------------------
          | TOTAL ENERGY              -46.162196025712 Eh   |
          | TOTAL ENTHALPY            -45.844495906337 Eh   |
          | TOTAL FREE ENERGY         -45.899395419816 Eh   |
          | GRADIENT NORM               0.000059890457 Eh/α |
          | HOMO-LUMO GAP               5.021348423921 eV   |
           -------------------------------------------------

------------------------------------------------------------------------
 * finished run on 2026/08/09 at 18:42:13.389     
------------------------------------------------------------------------
 total:
 * wall-time:     0 d,  0 h,  0 min,  1.648 sec
 *  cpu-time:     0 d,  0 h,  0 min, 18.518 sec
 * ratio c/w:    11.234 speedup
 SCF:
 * wall-time:     0 d,  0 h,  0 min,  0.043 sec
 *  cpu-time:     0 d,  0 h,  0 min,  0.493 sec
 * ratio c/w:    11.405 speedup
 ANC optimizer:
 * wall-time:     0 d,  0 h,  0 min,  0.518 sec
 *  cpu-time:     0 d,  0 h,  0 min,  6.202 sec
 * ratio c/w:    11.964 speedup
 analytical hessian:
 * wall-time:     0 d,  0 h,  0 min,  1.057 sec
 *  cpu-time:     0 d,  0 h,  0 min, 11.550 sec
 * ratio c/w:    10.930 speedup

normal termination of xtb
