
                                 *****************
                                 * O   R   C   A *
                                 *****************

                                            #,                                       
                                            ###                                      
                                            ####                                     
                                            #####                                    
                                            ######                                   
                                           ########,                                 
                                     ,,################,,,,,                         
                               ,,#################################,,                 
                          ,,##########################################,,             
                       ,#########################################, ''#####,          
                    ,#############################################,,   '####,        
                  ,##################################################,,,,####,       
                ,###########''''           ''''###############################       
              ,#####''   ,,,,##########,,,,          '''####'''          '####       
            ,##' ,,,,###########################,,,                        '##       
           ' ,,###''''                  '''############,,,                           
         ,,##''                                '''############,,,,        ,,,,,,###''
      ,#''                                            '''#######################'''  
     '                                                          ''''####''''         
             ,#######,   #######,   ,#######,      ##                                
            ,#'     '#,  ##    ##  ,#'     '#,    #''#        ,####,    ,#,          
            ##       ##  ##   ,#'  ##            #'  '#       #'       ,# #          
            ##       ##  #######   ##           ,######,      #####,      #          
            '#,     ,#'  ##    ##  '#,     ,#' ,#      #,     #,   #      #          
             '#######'   ##     ##  '#######'  #'      '#     '####' #    #          



                #########################################################
                #                        -***-                          #
                #          Department of theory and spectroscopy        #
                #                                                       #
                #                      Frank Neese                      #
                #                                                       #
                #     Directorship, Architecture, Infrastructure        #
                #                    SHARK, DRIVERS                     #
                #        Core code/Algorithms in most modules           #
                #                                                       #
                #        Max Planck Institute fuer Kohlenforschung      #
                #                Kaiser Wilhelm Platz 1                 #
                #                 D-45470 Muelheim/Ruhr                 #
                #                      Germany                          #
                #                                                       #
                #                  All rights reserved                  #
                #                        -***-                          #
                #########################################################


                         Program Version 6.1.1  -  RELEASE   -
                                (GIT: $487d211c$)
                          ($2025-11-21 10:33:24 +0100$)


 With contributions from (in alphabetic order):
[Max-Planck-Institut fuer Kohlenforschung]                               
  Daniel Aravena         : Magnetic Suceptibility                        
  Michael Atanasov       : Ab Initio Ligand Field Theory (pilot matlab implementation)
  Alexander A. Auer      : GIAO ZORA, VPT2 properties, NMR spectrum      
  Ute Becker             : All parallelization in ORCA, NUMFREQ, NUMCALC 
  Giovanni Bistoni       : ED, misc. LED, open-shell LED, HFLD           
  Dmytro Bykov           : pre 5.0 version of the SCF Hessian            
  Marcos Casanova-Páez   : Triplet and SCS-CIS(D). UHF-(DLPNO)-IP/EA/STEOM-CCSD. UHF-CVS-IP/STEOM-CCSD   
  Vijay G. Chilkuri      : MRCI spin determinant printing, contributions to CSF-ICE 
  Pauline Colinet        : FMM embedding                                 
  Dipayan Datta          : RHF DLPNO-CCSD density                        
  Achintya Kumar Dutta   : EOM-CC, STEOM-CC                              
  Nicolas Foglia         : Exact transition moments, OPA infrastructure, MCD improvements    
  Dmitry Ganyushin       : Spin-Orbit,Spin-Spin,Magnetic field MRCI      
  Miquel Garcia-Rates    : C-PCM and meta-GGA Hessian, CCSD/C-PCM, Gaussian charge scheme 
  Tiago L. C. Gouveia    : GS-ROHF, GS-ROCIS                             
  Yang Guo               : DLPNO-NEVPT2, F12-NEVPT2, CIM, IAO-localization        
  Andreas Hansen         : Spin unrestricted coupled pair/coupled cluster methods 
  Ingolf Harden          : AUTO-CI MPn and infrastructure                
  Benjamin Helmich-Paris : MC-RPA, TRAH-(SCF,CASSCF), AVAS, COSX integrals, SCF dyn. polar., MC-PDFT, srDFT 
  Lee Huntington         : MR-EOM, pCC                                   
  Robert Izsak           : Overlap fitted RIJCOSX, COSX-SCS-MP3, EOM     
  Riya Kayal             : Wick's Theorem for AUTO-CI, AUTO-CI UHF-CCSDT 
  Emily Kempfer          : AUTO-CI RHF CISDT and CCSDT, approximate NEVPT4
  Christian Kollmar      : KDIIS, OOCD, Brueckner-CCSD(T), CCSD density, CASPT2, CASPT2-K, improved NEVPT2 
  Axel Koslowski         : Symmetry handling                             
  Simone Kossmann        : meta-GGA functionals, TD-DFT gradient, OOMP2, (MP2 Hessian; deprecated post 5.0) 
  Lucas Lang             : DCDCAS, Hyperfine gauge corrections, ICE-SOC+SSC
  Marvin Lechner         : AUTO-CI (C++ implementation), FIC-MRCC        
  Spencer Leger          : CASSCF response                               
  Dagmar Lenk            : GEPOL surface, SMD, ORCA-2-JSON               
  Dimitrios Liakos       : Extrapolation schemes; Compound Job, Property file
  Dimitrios Manganas     : Further ROCIS development; embedding schemes. LFT, Crystal Embedding 
  Dimitrios Pantazis     : SARC Basis sets                               
  Anastasios Papadopoulos: AUTO-CI, single reference methods and gradients 
  Taras Petrenko         : pre 6.0 DFT Hessian and TD-DFT gradient,  ECA, NRVS 
  Petra Pikulova         : Analytic Raman intensities                    
  Peter Pinski           : DLPNO-MP2, DLPNO-MP2 Gradient                 
  Shashank Vittal Rao    : ES-AILFT, MagRelax                            
  Christoph Reimann      : Effective Core Potentials                     
  Marius Retegan         : Local ZFS, SOC                                
  Christoph Riplinger    : Optimizer, TS searches, QM/MM, DLPNO-CCSD(T), (RO)-DLPNO pert. Triples 
  Michael Roemelt        : Original ROCIS implementation, recursive CI coupling coefficients
  Masaaki Saitow         : Open-shell DLPNO-CCSD energy and density      
  Barbara Sandhoefer     : DKH picture change effects                    
  Yorick L. A. Schmerwitz: GMF and freeze-and-release deltaSCF, NEB S-IDPP initial path                    
  Kantharuban Sivalingam : CASSCF convergence/infrastructure, NEVPT2, NEVPT3, NEVPT4(SD), FIC-MRCI and CEPA variants
  Bernardo de Souza      : ESD, SOC TD-DFT                               
  Georgi L. Stoychev     : AutoAux, RI-MP2 NMR, DLPNO-MP2 response, X2C  
  Van Anh Tran           : RI-MP2 g-tensors                              
  Willem Van den Heuvel  : Paramagnetic NMR                              
  Zikuan Wang            : NOTCH, Electric field optimization            
  Frank Wennmohs         : Technical directorship and infrastructure     
  Hang Xu                : AUTO-CI-Response properties                   
                                                                         
[FACCTs GmbH]                                                            
  Markus Bursch, Nicolas Foglia, Miquel Garcia-Rates, Ingolf Harden, Hagen Neugebauer, Anastasios Papadopoulos, 
  Christoph Riplinger, Bernardo de Souza, Georgi L. Stoychev                                                    
                                                                 
  APM, various basis sets, CI-OPT, improved COSX, DLPNO-Multilevel,           
  DOCKER, DRACO, updates on ESD, Fragmentator, GOAT, IRC, LR-CPCM, L-BFGS, MBIS, meta-GGA TD-DFT gradient, ML-optimized integration grids, 
  MM, NACMEs, nearIR, NEB, NEB-TS, NL-DFT gradient (VV10), 2- and 3-layer-ONIOM, interface openCOSMO-RS, QMMM,   
  Crystal-QMMM, RESP, rigid body optimization, SF, symmetry and pop. for TD-DFT, various functionals, SOLVATOR                                   
                                                                         
[Other institutions]                                                     
  V. Asgeirsson          : NEB                                           
  Christoph Bannwarth    : sTDA-DFT, sTD-DFT, PBEh-3c, B97-3c, D3        
  Giovanni Bistoni       : ETS/NOCV, ADLD/ADEX, COVALED                  
  Martin Brehm           : Molecular dynamics                            
  Ronald Cardenas        : ETS/NOCV                                      
  Martina Colucci        : COVALED                                       
  Sebastian Ehlert       : rSCAN, r2SCAN, r2SCAN-3c, D4, dhf basis sets  
  Marvin Friede          : D4 for Fr, Ra, Ac-Lr                          
  Lars Goerigk           : TD-DFT with DH, B97 family of functionals     
  Stefan Grimme          : VdW corrections, initial TS optimization, DFT functionals, gCP, sTDA/sTD-DF 
  Waldemar Hujo          : DFT-NL                                        
  H. Jonsson             : NEB                                           
  Holger Kruse           : gCP                                           
  Marcel Mueller         : wB97X-3c, vDZP basis set                      
  Hagen Neugebauer       : wr2SCAN, Native XTB                           
  Gianluca Regni         : ADLD/ADEX                                     
  Tobias Risthaus        : pre 6.0 range-separated hybrid DFT and stability analysis
  Lukas Wittmann         : regularized MP2, r2SCAN double-hybrids, wr2SCAN        
                                                                         
We gratefully acknowledge several colleagues who have allowed us to      
interface, adapt or use parts of their codes:                            
  Ed Valeev, F. Pavosevic, A. Kumar             : LibInt (2-el integral package), F12 methods 
  Garnet Chan, S. Sharma, J. Yang, R. Olivares  : DMRG                   
  Ulf Ekstrom                                   : XCFun DFT Library      
  Mihaly Kallay                                 : mrcc  (arbitrary order and MRCC methods)
  Frank Weinhold                                : gennbo (NPA and NBO analysis)           
  Simon Mueller                                 : openCOSMO-RS                            
  Christopher J. Cramer and Donald G. Truhlar   : smd solvation model                     
  S Lehtola, MJT Oliveira, MAL Marques          : LibXC Library                           
  Liviu Ungur et al                             : ANISO software                          


 Your calculation uses the libint2 library for the computation of 2-el integrals
 For citations please refer to: http://libint.valeyev.net

 Your ORCA version has been built with support for libXC version: 7.0.0
 For citations please refer to: https://libxc.gitlab.io

 This ORCA versions uses:
   CBLAS   interface :  Fast vector & matrix operations
   LAPACKE interface :  Fast linear algebra routines
   SCALAPACK package :  Parallel linear algebra routines
   Shared memory     :  Shared parallel matrices
   BLAS/LAPACK       :  OpenBLAS 0.3.29  USE64BITINT DYNAMIC_ARCH NO_AFFINITY Haswell SINGLE_THREADED
        Core in use  :  Haswell
   Copyright (c) 2011-2014, The OpenBLAS Project


  ***********************************
  * Starting time: Sun Aug  9 17:03:19 2026
  * Host name:     localhost.localdomain
  * Process ID:    2961897
  * Working dir.:  /home/dinglab/calculation/templates/NMR_modules/autohnmr/alpha_diol_screening/CONF20/b3lyp-3c
  ***********************************

NOTE: MaxCore=2500 MB was set to SCF,MP2,MDCI,CIPSI,MRCI,RASCI and CIS
      => If you want to overwrite this, your respective input block should be placed after the MaxCore statement
Your calculation utilizes the geometrical counterpoise correction gCP
Please cite in your paper:
H.Kruse, S. Grimme J.Chem.Phys., 136, (2012), 154101 
   

Your calculation utilizes the atom-pairwise dispersion correction
with the Becke-Johnson damping scheme (D3BJ)


Warning: RI is on but no J-basis has been assigned. Assigning Def2/J (nothing to worry about!)
================================================================================

----- Orbital basis set information -----
Your calculation utilizes the basis: def2-mSVP

----- AuxJ basis set information -----
Your calculation utilizes the auxiliary basis: def2/J
   H-Rn: F. Weigend, Phys. Chem. Chem. Phys. 8, 1057 (2006).
   Fr-Lr: K. Eichkorn, F. Weigend, O. Treutler, R. Ahlrichs; Theor. Chem. Acc. 97, 119 (1997).

================================================================================
                                        WARNINGS
                       Please study these warnings very carefully!
================================================================================

WARNING: Old DensityContainer found on disk!
         Will remove this file - 
         If you want to keep old densities, please start your calculation with a different basename. 


================================================================================
                                       INPUT FILE
================================================================================
NAME = inp
|  1> ! b3lyp
|  2> ! d3bj ABC
|  3> ! def2-mSVP
|  4> ! GCP(DFT/SV(P))
|  5> ! DEFGRID2
|  6> ! scfconv6
|  7> ! miniprint nopop noautostart
|  8> %MaxCore 2500
|  9> %pal
| 10>     nprocs 12
| 11> end
| 12> ! CPCM(chloroform)
| 13> *xyz 0 1
| 14> C    0.0871364666  -0.6692902443   0.0913395857
| 15> C   -0.9898411412   0.3081590421   0.7169587321
| 16> C   -0.3934873863   1.7377365452   0.9051485844
| 17> C    0.4865643017   2.2286904475  -0.2660882814
| 18> C    1.4523760771   1.1181133704  -0.7594812329
| 19> C    0.6267547264  -0.0891167138  -1.2555218900
| 20> C    1.3762636597  -0.6297798374   0.9841282142
| 21> C    2.2227684927   0.5102174837   0.4093981976
| 22> O    1.4179695500  -1.0197977455  -2.0131171674
| 23> C   -0.4595210600  -2.0928133354  -0.0611903521
| 24> C    3.4350013399   0.8882438329   0.8309225411
| 25> C   -2.3670540315   0.3100111333   0.0359361728
| 26> C   -3.3567761489  -0.4454374455   0.5435804536
| 27> H   -1.1711061022  -0.0898477884   1.7267933838
| 28> O   -0.7970851156  -2.5968521357   1.2424831700
| 29> C   -2.6495353670   1.2064639447  -1.1578528618
| 30> H   -1.2037462051   2.4587549161   1.0989619303
| 31> H    0.2207488987   1.7330553616   1.8196857723
| 32> H   -0.1306778243   2.5592358025  -1.1173840901
| 33> H    1.0714915937   3.1046631942   0.0584542997
| 34> H    2.1128310753   1.5178598299  -1.5449469699
| 35> H   -0.1756504960   0.2029277183  -1.9445635808
| 36> H    1.9217941975  -1.5862873465   0.9178468759
| 37> H    1.1453358814  -0.4818884416   2.0497976351
| 38> H    2.2557943811  -1.1869587846  -1.5329088204
| 39> H    0.3117655804  -2.7244486439  -0.5360473919
| 40> H   -1.3428549144  -2.0885386872  -0.7258438611
| 41> H    3.9273835591   0.4073217748   1.6801641884
| 42> H    3.9830966896   1.6988071424   0.3439307066
| 43> H   -4.3565631996  -0.4535415703   0.1022151378
| 44> H   -3.1999198401  -1.0918321792   1.4091010960
| 45> H   -1.1420695172  -3.5048140407   1.1296832345
| 46> H   -2.4454084462   2.2646586227  -0.9284367697
| 47> H   -2.0373934099   0.9501807154  -2.0361446833
| 48> H   -3.7048652614   1.1294195423  -1.4578407259
| 49> *
| 50> 
| 51>                          ****END OF INPUT****
================================================================================

                       ****************************
                       * Single Point Calculation *
                       ****************************

---------------------------------
CARTESIAN COORDINATES (ANGSTROEM)
---------------------------------
  C      0.087136   -0.669290    0.091340
  C     -0.989841    0.308159    0.716959
  C     -0.393487    1.737737    0.905149
  C      0.486564    2.228690   -0.266088
  C      1.452376    1.118113   -0.759481
  C      0.626755   -0.089117   -1.255522
  C      1.376264   -0.629780    0.984128
  C      2.222768    0.510217    0.409398
  O      1.417970   -1.019798   -2.013117
  C     -0.459521   -2.092813   -0.061190
  C      3.435001    0.888244    0.830923
  C     -2.367054    0.310011    0.035936
  C     -3.356776   -0.445437    0.543580
  H     -1.171106   -0.089848    1.726793
  O     -0.797085   -2.596852    1.242483
  C     -2.649535    1.206464   -1.157853
  H     -1.203746    2.458755    1.098962
  H      0.220749    1.733055    1.819686
  H     -0.130678    2.559236   -1.117384
  H      1.071492    3.104663    0.058454
  H      2.112831    1.517860   -1.544947
  H     -0.175650    0.202928   -1.944564
  H      1.921794   -1.586287    0.917847
  H      1.145336   -0.481888    2.049798
  H      2.255794   -1.186959   -1.532909
  H      0.311766   -2.724449   -0.536047
  H     -1.342855   -2.088539   -0.725844
  H      3.927384    0.407322    1.680164
  H      3.983097    1.698807    0.343931
  H     -4.356563   -0.453542    0.102215
  H     -3.199920   -1.091832    1.409101
  H     -1.142070   -3.504814    1.129683
  H     -2.445408    2.264659   -0.928437
  H     -2.037393    0.950181   -2.036145
  H     -3.704865    1.129420   -1.457841

----------------------------
CARTESIAN COORDINATES (A.U.)
----------------------------
  NO LB      ZA    FRAG     MASS         X           Y           Z
   0 C     6.0000    0    12.011    0.164664   -1.264775    0.172607
   1 C     6.0000    0    12.011   -1.870529    0.582336    1.354856
   2 C     6.0000    0    12.011   -0.743583    3.283846    1.710483
   3 C     6.0000    0    12.011    0.919473    4.211615   -0.502834
   4 C     6.0000    0    12.011    2.744593    2.112928   -1.435212
   5 C     6.0000    0    12.011    1.184395   -0.168406   -2.372593
   6 C     6.0000    0    12.011    2.600761   -1.190111    1.859733
   7 C     6.0000    0    12.011    4.200424    0.964171    0.773650
   8 O     8.0000    0    15.999    2.679574   -1.927138   -3.804240
   9 C     6.0000    0    12.011   -0.868369   -3.954844   -0.115633
  10 C     6.0000    0    12.011    6.491212    1.678538    1.570216
  11 C     6.0000    0    12.011   -4.473084    0.585836    0.067910
  12 C     6.0000    0    12.011   -6.343388   -0.841755    1.027218
  13 H     1.0000    0     1.008   -2.213070   -0.169788    3.263167
  14 O     8.0000    0    15.999   -1.506273   -4.907339    2.347953
  15 C     6.0000    0    12.011   -5.006896    2.279886   -2.188025
  16 H     1.0000    0     1.008   -2.274751    4.646373    2.076737
  17 H     1.0000    0     1.008    0.417155    3.275000    3.438708
  18 H     1.0000    0     1.008   -0.246945    4.836255   -2.111550
  19 H     1.0000    0     1.008    2.024826    5.866963    0.110463
  20 H     1.0000    0     1.008    3.992672    2.868339   -2.919527
  21 H     1.0000    0     1.008   -0.331931    0.383478   -3.674693
  22 H     1.0000    0     1.008    3.631665   -2.997649    1.734479
  23 H     1.0000    0     1.008    2.164371   -0.910637    3.873556
  24 H     1.0000    0     1.008    4.262834   -2.243027   -2.896778
  25 H     1.0000    0     1.008    0.589152   -5.148462   -1.012983
  26 H     1.0000    0     1.008   -2.537628   -3.946766   -1.371646
  27 H     1.0000    0     1.008    7.421679    0.769727    3.175050
  28 H     1.0000    0     1.008    7.526962    3.210280    0.649935
  29 H     1.0000    0     1.008   -8.232711   -0.857069    0.193159
  30 H     1.0000    0     1.008   -6.046972   -2.063264    2.662815
  31 H     1.0000    0     1.008   -2.158199   -6.623139    2.134792
  32 H     1.0000    0     1.008   -4.621152    4.279585   -1.754491
  33 H     1.0000    0     1.008   -3.850116    1.795581   -3.847756
  34 H     1.0000    0     1.008   -7.001181    2.134294   -2.754920



           ************************************************************
           *        Program running with 12 parallel MPI-processes    *
           *              working on a common directory               *
           ************************************************************
------------------------------------------------------------------------------
                   ___                                                        
                  /   \      - P O W E R E D   B Y -                         
                 /     \                                                     
                 |  |  |   _    _      __       _____    __    __             
                 |  |  |  | |  | |    /  \     |  _  \  |  |  /  |          
                  \  \/   | |  | |   /    \    | | | |  |  | /  /          
                 / \  \   | |__| |  /  /\  \   | |_| |  |  |/  /          
                |  |  |   |  __  | /  /__\  \  |    /   |      \           
                |  |  |   | |  | | |   __   |  |    \   |  |\   \          
                \     /   | |  | | |  |  |  |  | |\  \  |  | \   \       
                 \___/    |_|  |_| |__|  |__|  |_| \__\ |__|  \__/        
                                                                              
                      - O R C A' S   B I G   F R I E N D -                    
                                      &                                       
                       - I N T E G R A L  F E E D E R -                       
                                                                              
 v1 FN, 2020, v2 2021, v3 2022-2024                                           
------------------------------------------------------------------------------


----------------------
SHARK INTEGRAL PACKAGE
----------------------

Number of atoms                             ...     35
Number of basis functions                   ...    265
Number of shells                            ...    145
Maximum angular momentum                    ...      2
Integral batch strategy                     ... SHARK/LIBINT Hybrid
RI-J (if used) integral strategy            ... SPLIT-RIJ (Revised 2003 algorithm where possible)
Printlevel                                  ...      1
Contraction scheme used                     ... SEGMENTED contraction
Prescreening option                         ... SCHWARTZ
   Thresh                                   ... 1.000e-10
   Tcut                                     ... 1.000e-11
   Tpresel                                  ... 1.000e-11 
Coulomb Range Separation                    ... NOT USED
Exchange Range Separation                   ... NOT USED
Multipole approximations                    ... NOT USED
Finite Nucleus Model                        ... NOT USED
CABS basis                                  ... NOT available
Auxiliary Coulomb fitting basis             ... AVAILABLE
   # of basis functions in Aux-J            ...    955
   # of shells in Aux-J                     ...    325
   Maximum angular momentum in Aux-J        ...      4
Auxiliary J/K fitting basis                 ... NOT available
Auxiliary Correlation fitting basis         ... NOT available
Auxiliary 'external' fitting basis          ... NOT available

Checking pre-screening integrals            ... done (  0.0 sec) Dimension = 145
   => SHARK Basis and OBASIS are compatible. Storing Pre-screening
Shell pair information
Shell pair cut-off parameter TPreSel        ...   1.0e-11
Total number of shell pairs                 ...     10585
Shell pairs after pre-screening             ...      8858
Total number of primitive shell pairs       ...     38205
Primitive shell pairs kept                  ...     20858
          la=0 lb=0:   3920 shell pairs
          la=1 lb=0:   2755 shell pairs
          la=1 lb=1:    454 shell pairs
          la=2 lb=0:   1199 shell pairs
          la=2 lb=1:    425 shell pairs
          la=2 lb=2:    105 shell pairs

Checking whether 4 symmetric matrices of dimension 265 fit in memory
:Max Core in MB      =   2500.00
 MB in use           =     14.33
 MB left             =   2485.67
 MB needed           =      1.08
 Data fit in memory  = YES
Calculating RI/J V-Matrix + Cholesky decomp.... done (  0.1 sec)
Calculating Nuclear repulsion               ... done (  0.0 sec) ENN=   1106.142896070481 Eh

Diagonalization of the overlap matrix:
Smallest eigenvalue                        ... 1.912e-03
Time for diagonalization                   ...    0.013 sec
Threshold for overlap eigenvalues          ... 1.000e-07
Number of eigenvalues below threshold      ... 0
Time for construction of square roots      ...    0.004 sec
Total time needed                          ...    0.019 sec

-------------------
DFT GRID GENERATION
-------------------

General Integration Accuracy     IntAcc      ... 4.388
Radial Grid Type                 RadialGrid  ... OptM3 with GC (2021)
Angular Grid (max. ang.)         AngularGrid ... 4 (Lebedev-302)
Angular grid pruning method      GridPruning ... 4 (adaptive)
Weight generation scheme         WeightScheme... mBecke (2022)
Basis function cutoff            BFCut       ... 1.0000e-10
Integration weight cutoff        WCut        ... 1.0000e-14
Partially contracted basis set               ... off
Rotationally invariant grid construction     ... off
Angular grids for H and He will be reduced by one unit

Total number of grid points                  ...   152273
Total number of batches                      ...     2395
Average number of points per batch           ...       63
Average number of grid points per atom       ...     4351

--------------------
COSX GRID GENERATION
--------------------

GRIDX 1
-------
General Integration Accuracy     IntAcc      ... 3.816
Radial Grid Type                 RadialGrid  ... OptM3 with GC (2021)
Angular Grid (max. ang.)         AngularGrid ... 1 (Lebedev-50)
Angular grid pruning method      GridPruning ... 4 (adaptive)
Weight generation scheme         WeightScheme... mBecke (2022)
Basis function cutoff            BFCut       ... 1.0000e-10
Integration weight cutoff        WCut        ... 1.0000e-14
Partially contracted basis set               ... on
Rotationally invariant grid construction     ... off
Angular grids for H and He will be reduced by one unit

Total number of grid points                  ...    19406
Total number of batches                      ...      176
Average number of points per batch           ...      110
Average number of grid points per atom       ...      554
UseSFitting                                  ... on

GRIDX 2
-------
General Integration Accuracy     IntAcc      ... 4.020
Radial Grid Type                 RadialGrid  ... OptM3 with GC (2021)
Angular Grid (max. ang.)         AngularGrid ... 2 (Lebedev-110)
Angular grid pruning method      GridPruning ... 4 (adaptive)
Weight generation scheme         WeightScheme... mBecke (2022)
Basis function cutoff            BFCut       ... 1.0000e-10
Integration weight cutoff        WCut        ... 1.0000e-14
Partially contracted basis set               ... on
Rotationally invariant grid construction     ... off
Angular grids for H and He will be reduced by one unit

Total number of grid points                  ...    40662
Total number of batches                      ...      335
Average number of points per batch           ...      121
Average number of grid points per atom       ...     1162
UseSFitting                                  ... on

GRIDX 3
-------
General Integration Accuracy     IntAcc      ... 4.338
Radial Grid Type                 RadialGrid  ... OptM3 with GC (2021)
Angular Grid (max. ang.)         AngularGrid ... 3 (Lebedev-194)
Angular grid pruning method      GridPruning ... 4 (adaptive)
Weight generation scheme         WeightScheme... mBecke (2022)
Basis function cutoff            BFCut       ... 1.0000e-10
Integration weight cutoff        WCut        ... 1.0000e-14
Partially contracted basis set               ... on
Rotationally invariant grid construction     ... off
Angular grids for H and He will be reduced by one unit

Total number of grid points                  ...    88367
Total number of batches                      ...      710
Average number of points per batch           ...      124
Average number of grid points per atom       ...     2525
UseSFitting                                  ... on
Grids setup in   1.6 sec
Initializing property integral containers    ... done (  0.0 sec)

SHARK setup successfully completed in   1.8 seconds

Maximum memory used throughout the entire STARTUP-calculation: 40.6 MB


           ************************************************************
           *        Program running with 12 parallel MPI-processes    *
           *              working on a common directory               *
           ************************************************************
Loading Hartree-Fock densities                     ... done
Calculating cut-offs                               ... done
Initializing the effective Hamiltonian             ... done
Setting up the integral package (SHARK)            ... done
Starting the Coulomb interaction                   ... done (   0.1 sec)
Making the grid                                    ... done (   0.2 sec)
Mapping shells                                     ... done
Starting the XC term evaluation                    ... done (   0.1 sec)
  promolecular density results
     # of electrons  =    113.997018415
     EX              =    -89.145034500
     EC              =     -3.803527711
     EX+EC           =    -92.948562211
Transforming the Hamiltonian                       ... done (   0.0 sec)
Diagonalizing the Hamiltonian                      ... done (   0.0 sec)
Back transforming the eigenvectors                 ... done (   0.0 sec)
Now organizing SCF variables                       ... done
             **** ENERGY FILE WAS UPDATED (inp.en.tmp) ****
Finished Guess after   0.5 sec
Maximum memory used throughout the entire GUESS-calculation: 17.7 MB


           ************************************************************
           *        Program running with 12 parallel MPI-processes    *
           *              working on a common directory               *
           ************************************************************
--------------------
CPCM SOLVATION MODEL
--------------------
CPCM parameters:
  Epsilon                                         ...       4.8030
  Refrac                                          ...       1.4459
  Rsolv                                           ...       1.3000
  Surface type                                    ... GAUSSIAN VDW
  Discretization scheme                           ... Constant charge density
    Threshold for H atoms                         ...       5.0000 (charges/Ang^2)
    Threshold for non-H atoms                     ...       5.0000 (charges/Ang^2)
  Epsilon function type                           ...         CPCM
Solvent:                                          ... CHLOROFORM
Radii:
  Scheme                                          ... Element-dependent radii
  Radius for C  used is    3.8550 Bohr (=   2.0400 Ang.)
  Radius for O  used is    3.4469 Bohr (=   1.8240 Ang.)
  Radius for H  used is    2.4944 Bohr (=   1.3200 Ang.)
Calculating surface                               ...        done! (  0.0s)
Cavity surface points                             ...         2582
Cavity Volume                                     ...    1816.2113
Cavity Surface-area                               ...     914.8414
Calculating surface distance matrix               ...        done! (  0.1s)
Performing Cholesky decomposition & store         ...        done! (  0.2s)
Overall time for CPCM initialization              ...                 0.3s

----------------------------------------D-I-I-S--------------------------------------------
Iteration    Energy (Eh)           Delta-E    RMSDP     MaxDP     DIISErr   Damp  Time(sec)
-------------------------------------------------------------------------------------------
               ***  Starting incremental Fock matrix formation  ***
    1    -656.9423399735971998     0.00e+00  8.89e-03  7.44e-02  2.43e-01  0.700   2.2
    2    -657.1330698122289959    -1.91e-01  6.39e-03  4.12e-02  1.05e-01  0.700   1.4
                               ***Turning on AO-DIIS***
    3    -657.2121331532189288    -7.91e-02  2.54e-03  1.58e-02  3.68e-02  0.700   1.3
    4    -657.2584612105872566    -4.63e-02  4.27e-03  2.53e-02  1.83e-02  0.000   1.2
    5    -657.3590270402407896    -1.01e-01  8.31e-04  5.01e-03  4.68e-03  0.000   1.3
                              *** Initializing SOSCF ***
---------------------------------------S-O-S-C-F--------------------------------------
Iteration    Energy (Eh)           Delta-E    RMSDP     MaxDP     MaxGrad    Time(sec)
--------------------------------------------------------------------------------------
    6    -657.3593647409556979    -3.38e-04  2.75e-04  1.77e-03  9.65e-04     1.2
               *** Restarting incremental Fock matrix formation ***
    7    -657.3593384755072293     2.63e-05  1.73e-04  1.35e-03  2.70e-04     2.2
    8    -657.3593327621435947     5.71e-06  9.60e-05  7.34e-04  5.08e-04     1.5
    9    -657.3593423419838473    -9.58e-06  1.47e-05  1.12e-04  2.47e-05     1.4
                  *** Gradient check signals convergence ***

               *****************************************************
               *                     SUCCESS                       *
               *           SCF CONVERGED AFTER   9 CYCLES          *
               *****************************************************

Recomputing exchange energy using gridx3       ... done (    2.856 sec)
Old exchange energy                            :    -18.196040789 Eh
New exchange energy                            :    -18.196133957 Eh
Exchange energy change after final integration :     -0.000093169 Eh
Total energy after final integration           :   -657.359435409 Eh
             **** ENERGY FILE WAS UPDATED (inp.en.tmp) ****

----------------
TOTAL SCF ENERGY
----------------

Total Energy       :       -657.35943540888650 Eh          -17887.65963 eV

Components:
Nuclear Repulsion  :       1106.14289607048090 Eh           30099.67844 eV
Electronic Energy  :      -1763.49102534415329 Eh          -47987.03041 eV
One Electron Energy:      -3089.82516613241523 Eh          -84078.41723 eV
Two Electron Energy:       1326.33414078826195 Eh           36091.38682 eV
CPCM Dielectric    :         -0.01121296661276 Eh              -0.30512 eV

Virial components:
Potential Energy   :      -1309.67830931476146 Eh          -35638.15861 eV
Kinetic Energy     :        652.31887390587508 Eh           17750.49898 eV
Virial Ratio       :          2.00772714343344

DFT components:
N(Alpha)           :       56.999968020707 electrons
N(Beta)            :       56.999968020707 electrons
N(Total)           :      113.999936041414 electrons
E(X)               :      -72.172865916881 Eh       
E(C)               :       -4.481213877675 Eh       
E(XC)              :      -76.654079794556 Eh       

CPCM Solvation Model Properties:
Surface-charge          :         -0.02153662406567
Corrected charge        :         -0.00000000000000
Outlying charge corr.   :          0.00002288408011 Eh               0.00062 eV
Free-energy (cav+disp)  :  This term is not implemented in the current solvation scheme

---------------
SCF CONVERGENCE
---------------

  Last Energy change         ...    9.5798e-06  Tolerance :   1.0000e-06
  Last MAX-Density change    ...    1.1219e-04  Tolerance :   1.0000e-05
  Last RMS-Density change    ...    1.4746e-05  Tolerance :   1.0000e-06
  Last DIIS Error            ...    9.6468e-04  Tolerance :   1.0000e-06
  Last Orbital Gradient      ...    2.4676e-05  Tolerance :   3.3300e-04
  Last Orbital Rotation      ...    8.3048e-05  Tolerance :   3.3300e-04


----------------
ORBITAL ENERGIES
----------------

  NO   OCC          E(Eh)            E(eV) 
   0   2.0000     -19.129195      -520.5319 
   1   2.0000     -19.123684      -520.3819 
   2   2.0000     -10.221323      -278.1363 
   3   2.0000     -10.209394      -277.8117 
   4   2.0000     -10.185405      -277.1590 
   5   2.0000     -10.184827      -277.1432 
   6   2.0000     -10.184330      -277.1297 
   7   2.0000     -10.179669      -277.0029 
   8   2.0000     -10.177794      -276.9519 
   9   2.0000     -10.172469      -276.8070 
  10   2.0000     -10.172118      -276.7974 
  11   2.0000     -10.169411      -276.7237 
  12   2.0000     -10.166634      -276.6482 
  13   2.0000     -10.163544      -276.5641 
  14   2.0000     -10.157906      -276.4107 
  15   2.0000      -1.006782       -27.3959 
  16   2.0000      -0.997309       -27.1381 
  17   2.0000      -0.852156       -23.1883 
  18   2.0000      -0.797393       -21.6982 
  19   2.0000      -0.757798       -20.6207 
  20   2.0000      -0.751047       -20.4370 
  21   2.0000      -0.713617       -19.4185 
  22   2.0000      -0.674773       -18.3615 
  23   2.0000      -0.666930       -18.1481 
  24   2.0000      -0.655901       -17.8480 
  25   2.0000      -0.608322       -16.5533 
  26   2.0000      -0.579503       -15.7691 
  27   2.0000      -0.549400       -14.9499 
  28   2.0000      -0.526157       -14.3175 
  29   2.0000      -0.504979       -13.7412 
  30   2.0000      -0.492370       -13.3981 
  31   2.0000      -0.481803       -13.1105 
  32   2.0000      -0.469598       -12.7784 
  33   2.0000      -0.451707       -12.2916 
  34   2.0000      -0.441198       -12.0056 
  35   2.0000      -0.431246       -11.7348 
  36   2.0000      -0.426505       -11.6058 
  37   2.0000      -0.411156       -11.1881 
  38   2.0000      -0.405849       -11.0437 
  39   2.0000      -0.396038       -10.7767 
  40   2.0000      -0.395348       -10.7580 
  41   2.0000      -0.387163       -10.5352 
  42   2.0000      -0.374368       -10.1871 
  43   2.0000      -0.369880       -10.0650 
  44   2.0000      -0.367762       -10.0073 
  45   2.0000      -0.349501        -9.5104 
  46   2.0000      -0.343548        -9.3484 
  47   2.0000      -0.329926        -8.9777 
  48   2.0000      -0.323488        -8.8026 
  49   2.0000      -0.318751        -8.6737 
  50   2.0000      -0.305446        -8.3116 
  51   2.0000      -0.301442        -8.2027 
  52   2.0000      -0.289855        -7.8874 
  53   2.0000      -0.259281        -7.0554 
  54   2.0000      -0.252301        -6.8655 
  55   2.0000      -0.240604        -6.5472 
  56   2.0000      -0.234851        -6.3906 
  57   0.0000       0.011585         0.3152 
  58   0.0000       0.023607         0.6424 
  59   0.0000       0.095071         2.5870 
  60   0.0000       0.097445         2.6516 
  61   0.0000       0.107810         2.9337 
  62   0.0000       0.120737         3.2854 
  63   0.0000       0.138170         3.7598 
  64   0.0000       0.145196         3.9510 
  65   0.0000       0.152083         4.1384 
  66   0.0000       0.157689         4.2909 
  67   0.0000       0.164465         4.4753 
*Only the first 10 virtual orbitals were printed.
Total SCF time: 0 days 0 hours 0 min 18 sec 
Finished LeanSCF after  18.3 sec

Maximum memory used throughout the entire LEANSCF-calculation: 31.6 MB


-------------------------------------------------------------------------------
                          DFT DISPERSION CORRECTION                            
                                                                               
                              DFTD3 V3.1  Rev 1                                
                          USING Becke-Johnson damping                          
-------------------------------------------------------------------------------
-------------------------   ----------------
Dispersion correction           -0.073901488
-------------------------   ----------------

NOTIFICATION: Different basis set in ORCA and otool_gcp:
ORCA: 265  gCP: 250 
If you are NOT using ECPs, check your basis set inputs!
------------------   -----------------
gCP correction             0.161523863
------------------   -----------------

-------------------------   --------------------
FINAL SINGLE POINT ENERGY      -657.271813033878
-------------------------   --------------------



           ************************************************************
           *        Program running with 12 parallel MPI-processes    *
           *              working on a common directory               *
           ************************************************************

------------------------------------------------------------------------------
                              ORCA PROPERTY CALCULATIONS
------------------------------------------------------------------------------

GBWName                                 ... inp.gbw
Number of atoms                         ...     35
Number of basis functions               ...    265
Max core memory                         ...   2500 MB

Electric properties:
Dipole moment                           ... YES
Quadrupole moment                       ...  NO
Static polarizability (Dipole/Dipole)   ...  NO
Static polarizability (Dipole/Quad.)    ...  NO
Static polarizability (Quad./Quad.)     ...  NO
Static polarizability (Velocity)        ...  NO
Static hyperpolarizability              ...  NO

Atomic electric properties:
Dipole moment                           ...  NO
Quadrupole moment                       ...  NO
Static polarizability                   ...  NO

Choice of electric origin               ... Center of mass
Position of electric origin             ...    -0.003776    -0.003474     0.003681

General magnetic properties:
Magnetizability                         ...  NO

EPR properties:
g-Tensor (aka g-matrix)                 ...  NO
Zero-Field splitting spin-orbit         ...  NO
Zero-field splitting spin-spin          ...  NO
Hyperfine couplings                     ...  NO (   0 nuclei)
Quadrupole couplings                    ...  NO (   0 nuclei)
Contact density                         ...  NO (   0 nuclei)

NMR properties:
Chemical shifts                         ...  NO (   0 nuclei)
Spin-rotation constants                 ...  NO (   0 nuclei)
Spin-spin couplings                     ...  NO (   0 nuclei,    0 pairs)

Choice of magnetic origin               ... GIAO
Position of magnetic origin             ...     0.000000     0.000000     0.000000

Properties with geometric perturbations:
SCF Hessian                             ...  NO
IR spectrum                             ...  NO
VCD spectrum                            ...  NO
X-ray spectroscopy properties:
SCF XES/XAS/RIXS spectra                ...  NO

SCF SOC stabilization energy            ...  NO
Diagonal Born-Oppenheimer correction    ...  NO

-------------
DIPOLE MOMENT
-------------

Method             : SCF
Type of density    : Electron Density
Multiplicity       :   1
Irrep              :   0
Energy             :  -657.3594354088864975 Eh
Basis              : AO
                                X                 Y                 Z
Electronic contribution:      3.746925726      -4.555564211      -0.415235531
Nuclear contribution   :     -3.668459916       4.501876978       0.432825757
                        -----------------------------------------
Total Dipole Moment    :      0.078465809      -0.053687233       0.017590226
                        -----------------------------------------
Magnitude (a.u.)       :      0.096688253
Magnitude (Debye)      :      0.245762009



--------------------
Rotational spectrum 
--------------------
 
Rotational constants in cm-1:             0.028048             0.018232             0.015093 
Rotational constants in MHz :           840.860672           546.569043           452.489996 

Dipole components along the rotational axes: 
x,y,z [a.u.] :     0.066797    -0.069400     0.008389 
x,y,z [Debye]:     0.169784    -0.176402     0.021323 

 

Dipole moment calculation done in   0.0 sec 

Maximum memory used throughout the entire PROP-calculation: 16.6 MB

--------------------------------
SUGGESTED CITATIONS FOR THIS RUN
--------------------------------

Below you find a list of papers that are relevant to this ORCA run
We neither can nor want to force you to cite these papers, but we appreciate if you do
You receive ORCA, which is the product of decades of hard work by many enthusiastic individuals, for free
The only thing we kindly ask in return is that you cite our papers,
We deeply appreciate it, if you show your appreciation for ORCA by not just citing the generic ORCA reference.

Please note that relegating all ORCA citations to the supporting information does *not* help us.
SI sections are not indexed - citations you put there will not count into any citation statistics
But we need these citations in order to attract the funding resources that allow us to do what we are doing

Therefore, if you are a happy ORCA user, please consider citing a few of the papers listed below in the main body of your paper

In addition to the list printed below, the program has created the file inp.bibtex that contains the list in bibtex format
You can import this file easily into all common literature databanks and citation aid programs

It goes without saying that in many instances, there are alternative algorithms to achieve similar
results as the ones you have gotten from ORCA. It is, of course, also the case that in some instances
ORCA just re-implements algorithms worked out by others. We are fully aware of that and we are also
fully appreciative of our colleagues work. Hence this citation list should not be read as indicating
that the listed papers, which are focused on our own work, are the only ones worth citing. It simply
meant to make it easier for users to cite ORCA specific papers. It is not a substitute for doing your
own literature research and citing the relevant literature in a scientifically appropriate manner.

List of essential papers. We consider these as the minimum necessary citations

  1. Neese, F.
     Software update: the ORCA program system, version 6.0
     WIRES Comput. Molec. Sci. 2025 15(1), e70019
     doi.org/10.1002/wcms.70019

List of papers to cite with high priority. The work reported in these papers was absolutely
necessary for this run to complete.
Our perspective: the developers of density functionals and basis sets usually get cited in chemistry papers
Good! But without the algorithms to do something with them, the functionals or basis sets would not do anything.
Hence, in our opinion, the algorithm design and method developments papers are equally worthy of getting cited

  1. Neese, F.
     An improvement of the resolution of the identity approximation for the formation of the Coulomb matrix
     J. Comp. Chem. 2003 24(14), 1740-1747
     doi.org/10.1002/jcc.10318
  2. Neese, F.; Wennmohs, F.; Hansen, A.; Becker, U.
     Efficient, approximate and parallel Hartree-Fock and hybrid DFT calculations. A 'chain-of-spheres' algorithm for the Hartree-Fock exchange
     Chem. Phys. 2009 356(1-3), 98-109
     doi.org/10.1016/j.chemphys.2008.10.036
  3. Grimme, S.; Antony, J.; Ehrlich, S.; Krieg, H.
     A consistent and accurate ab initio parametrization of density functional dispersion correction (DFT-D) for the 94 elements H-Pu
     J. Chem. Phys. 2010 132 , 154104
     doi.org/10.1063/1.3382344
  4. Grimme, S.; Ehrlich, S.; Goerigk, L.
     Effect of the damping function in dispersion corrected density functional theory
     J. Comput. Chem. 2011 32(7), 1456-1465
     doi.org/10.1002/jcc.21759
  5. Garcia-Rates, M.; Neese, F.
     Effect of the Solute Cavity on the Solvation Energy and its Derivatives within the Framework of the Gaussian Charge Scheme
     J. Comput. Chem. 2020 41 , 922-939
     doi.org/10.1002/jcc.26139
  6. Helmich-Paris, B.; de Souza, B.; Neese, F.; Izsák, R.
     An improved chain of spheres for exchange algorithm
     J. Chem. Phys. 2021 155(10), 104109
     doi.org/10.1063/5.0058766
  7. Neese, F.
     The SHARK Integral Generation and Digestion System
     J. Comp. Chem. 2022 44(3), 381
     doi.org/10.1002/jcc.26942

List of suggested additional citations. These are papers that are important in the 'surrounding' of 
of this run, or papers that preceded the highly important papers. If you like your results we are grateful for a citation.

  1. Izsak, R.; Neese, F.
     An overlap fitted chain of spheres exchange method
     J. Chem. Phys. 2011 135 , 144105
     doi.org/10.1063/1.3646921
  2. Izsak, R.; Hansen, A.; Neese, F.
     The resolution of identity and chain of spheres approximations for the LPNO-CCSD singles Fock term
     Molec. Phys. 2012 110 , 2413-2417
     doi.org/10.1080/00268976.2012.687466
  3. Neese, F.
     The ORCA program system
     WIRES Comput. Molec. Sci. 2012 2(1), 73-78
     doi.org/10.1002/wcms.81
  4. Izsak, R.; Neese, F.; Klopper, W.
     Robust fitting techniques in the chain of spheres approximation to the Fock exchange: The role of the complementary space
     J. Chem. Phys. 2013 139 , 
     doi.org/10.1063/1.4819264
  5. Neese, F.
     Software update: the ORCA program system, version 4.0
     WIRES Comput. Molec. Sci. 2018 8(1), 1-6
     doi.org/10.1002/wcms.1327
  6. Neese, F.; Wennmohs, F.; Becker, U.; Riplinger, C.
     The ORCA quantum chemistry program package
     J. Chem. Phys. 2020 152(22), 224108
     doi.org/10.1063/5.0004608
  7. Neese, F.
     Software update: The ORCA program system—Version 5.0
     WIRES Comput. Molec. Sci. 2022 12(1), e1606
     doi.org/10.1002/wcms.1606

List of optional additional citations

  1. Neese, F.
     Approximate second-order SCF convergence for spin unrestricted wavefunctions
     Chem. Phys. Lett. 2000 325(1-3), 93-98
     doi.org/10.1016/s0009-2614(00)00662-x

Timings for individual modules:

Sum of individual times          ...       21.553 sec (=   0.359 min)
Startup calculation              ...        2.044 sec (=   0.034 min)   9.5 %
SCF iterations                   ...       19.210 sec (=   0.320 min)  89.1 %
Property calculations            ...        0.299 sec (=   0.005 min)   1.4 %
                             ****ORCA TERMINATED NORMALLY****
TOTAL RUN TIME: 0 days 0 hours 0 minutes 21 seconds 884 msec
