 Entering Gaussian System
 *********************************************
 Gaussian 98:
 frequency output generated by the xtb code
 *********************************************
                         Standard orientation:
 --------------------------------------------------------------------
  Center     Atomic     Atomic              Coordinates (Angstroms)
  Number     Number      Type              X           Y           Z
 --------------------------------------------------------------------
    1          6             0        0.027699   -0.772695   -0.028625
    2          6             0        0.644069    0.421654   -0.811943
    3          6             0       -0.402885    1.536271   -0.987122
    4          6             0       -1.234773    1.807533    0.265112
    5          6             0       -1.783544    0.494597    0.836803
    6          6             0       -0.605155   -0.367323    1.314413
    7          6             0       -1.238276   -1.248021   -0.777228
    8          6             0       -2.347758   -0.362746   -0.264309
    9          8             0        0.284436    0.246870    2.213856
   10          6             0        1.035996   -1.912331    0.156904
   11          6             0       -3.593775   -0.347172   -0.701447
   12          6             0        1.993432    0.910436   -0.313008
   13          6             0        3.097488    0.324273   -0.757395
   14          1             0        0.852089    0.015895   -1.810202
   15          8             0        1.498252   -2.462282   -1.057941
   16          6             0        2.088082    2.079090    0.620260
   17          1             0        0.094058    2.451417   -1.311476
   18          1             0       -1.085925    1.246740   -1.788611
   19          1             0       -0.631525    2.295242    1.030469
   20          1             0       -2.064078    2.469749    0.008184
   21          1             0       -2.508509    0.699128    1.628853
   22          1             0       -1.002455   -1.284030    1.785141
   23          1             0       -1.137575   -1.184291   -1.860807
   24          1             0       -1.458771   -2.288392   -0.518526
   25          1             0       -0.206770    0.469881    3.014658
   26          1             0        0.577018   -2.700577    0.772284
   27          1             0        1.921668   -1.542982    0.676514
   28          1             0       -3.921582   -0.984514   -1.505802
   29          1             0       -4.335805    0.306091   -0.274744
   30          1             0        4.076121    0.644102   -0.438031
   31          1             0        3.073342   -0.513233   -1.434368
   32          1             0        0.731884   -2.777167   -1.555141
   33          1             0        1.601972    2.958836    0.203547
   34          1             0        1.615830    1.836590    1.567728
   35          1             0        3.131945    2.320800    0.805832
 --------------------------------------------------------------------
     1 basis functions        1 primitive gaussians
     1 alpha electrons        1 beta electrons
 
 Harmonic frequencies (cm**-1), IR intensities (km*mol⁻¹),
 Raman scattering activities (A**4/amu), Raman depolarization ratios,
 reduced masses (AMU), force constants (mDyne/A) and normal coordinates:
                      1                      2                      3
                        a                      a                      a 
 Frequencies --    53.3514                98.0623               113.3638
 Red. masses --     9.9519                 9.5762                12.5336
 Frc consts  --     0.0000                 0.0000                 0.0000
 IR Inten    --     0.2800                 0.5544                 3.2468
 Raman Activ --     0.0000                 0.0000                 0.0000
 Depolar     --     0.0000                 0.0000                 0.0000
 Atom AN      X      Y      Z        X      Y      Z        X      Y      Z
   1   6     0.00  -0.02  -0.08     0.01  -0.08   0.04     0.09   0.03   0.02
   2   6     0.05   0.01  -0.01    -0.10  -0.03   0.02     0.07   0.05   0.03
   3   6     0.01  -0.04  -0.07    -0.15  -0.06   0.10     0.03   0.01  -0.01
   4   6     0.01  -0.01  -0.07    -0.04  -0.08   0.17     0.00  -0.00  -0.03
   5   6     0.06   0.01   0.01     0.02  -0.12   0.12     0.04  -0.02  -0.02
   6   6     0.08   0.00  -0.05     0.07  -0.08   0.07     0.05   0.02   0.01
   7   6    -0.03   0.05  -0.06    -0.01  -0.14   0.12     0.12  -0.00   0.00
   8   6    -0.02  -0.01   0.06     0.06   0.03  -0.02     0.08  -0.04  -0.03
   9   8     0.19   0.02  -0.16     0.15  -0.04  -0.03     0.00   0.05   0.05
  10   6    -0.07  -0.09  -0.14     0.07  -0.04   0.02     0.06  -0.01  -0.04
  11   6    -0.07  -0.08   0.21     0.20   0.46  -0.41     0.09  -0.10  -0.06
  12   6    -0.02   0.03   0.16    -0.10   0.04  -0.04     0.03   0.15   0.05
  13   6     0.03  -0.18   0.58    -0.10  -0.02   0.07     0.07   0.27  -0.02
  14   1     0.05   0.01   0.00    -0.04  -0.00   0.00     0.03   0.01   0.01
  15   8    -0.09  -0.02  -0.20     0.01  -0.08   0.01    -0.61  -0.48  -0.10
  16   6    -0.11   0.30  -0.15    -0.12   0.20  -0.23    -0.05   0.09   0.13
  17   1    -0.01  -0.01  -0.03    -0.06  -0.02   0.01     0.00   0.01  -0.00
  18   1     0.00  -0.03  -0.01    -0.06  -0.03   0.05     0.02  -0.01  -0.01
  19   1    -0.00   0.02  -0.03     0.00  -0.03   0.04    -0.01   0.01  -0.01
  20   1    -0.01  -0.02  -0.03    -0.02  -0.02   0.07    -0.01  -0.01  -0.01
  21   1     0.03   0.01   0.01     0.00  -0.06   0.04     0.00  -0.01  -0.01
  22   1     0.03   0.01  -0.00     0.04  -0.02   0.04     0.02   0.00   0.00
  23   1    -0.02   0.04  -0.02    -0.00  -0.10   0.03     0.04  -0.00   0.00
  24   1    -0.00   0.01  -0.04    -0.02  -0.02   0.09     0.04  -0.00   0.00
  25   1     0.07  -0.00  -0.02     0.06  -0.01   0.01    -0.01   0.02   0.00
  26   1    -0.04  -0.03  -0.06     0.04  -0.01   0.02     0.07   0.06   0.11
  27   1    -0.02  -0.05  -0.02     0.02   0.00  -0.01     0.09   0.01  -0.15
  28   1    -0.04  -0.03   0.07     0.07   0.19  -0.17     0.04  -0.03  -0.02
  29   1    -0.02  -0.04   0.09     0.08   0.18  -0.16     0.01  -0.04  -0.03
  30   1    -0.00  -0.05   0.21    -0.03   0.01   0.01     0.02   0.10  -0.01
  31   1     0.04  -0.10   0.23    -0.02  -0.03   0.06     0.03   0.09  -0.02
  32   1    -0.03   0.02  -0.06    -0.00  -0.04   0.02    -0.23  -0.14   0.10
  33   1    -0.01   0.06  -0.13    -0.04   0.04  -0.10    -0.05   0.02   0.06
  34   1    -0.07   0.17  -0.04    -0.02   0.10  -0.05     0.00  -0.01   0.04
  35   1    -0.04   0.09  -0.02    -0.04   0.07  -0.08    -0.02   0.05   0.03
                      4                      5                      6
                        a                      a                      a 
 Frequencies --   129.7934               153.8812               178.5829
 Red. masses --     9.9099                12.5253                 3.3294
 Frc consts  --     0.0000                 0.0000                 0.0000
 IR Inten    --     0.3888                 0.5673                 2.3713
 Raman Activ --     0.0000                 0.0000                 0.0000
 Depolar     --     0.0000                 0.0000                 0.0000
 Atom AN      X      Y      Z        X      Y      Z        X      Y      Z
   1   6    -0.03  -0.08  -0.00    -0.02   0.03  -0.16    -0.02  -0.02  -0.05
   2   6     0.03  -0.15  -0.07    -0.02   0.11  -0.06    -0.02   0.01   0.01
   3   6     0.04  -0.19  -0.27    -0.03   0.14   0.08    -0.05  -0.01   0.02
   4   6     0.16   0.02  -0.24     0.02   0.04   0.13     0.01  -0.02   0.06
   5   6     0.13   0.13  -0.02     0.00  -0.00  -0.01    -0.01  -0.04  -0.00
   6   6     0.01  -0.02  -0.00    -0.02  -0.08  -0.13     0.03   0.02  -0.04
   7   6    -0.10  -0.03   0.08    -0.02   0.15  -0.24    -0.03  -0.00  -0.05
   8   6    -0.01   0.10   0.08    -0.02   0.07  -0.07    -0.02  -0.01  -0.02
   9   8     0.08  -0.29   0.10     0.13  -0.32  -0.15     0.11   0.17  -0.24
  10   6    -0.03  -0.08   0.00    -0.06   0.03   0.13    -0.05  -0.04  -0.00
  11   6    -0.03   0.25   0.15    -0.08  -0.00   0.11    -0.03   0.01  -0.01
  12   6    -0.08   0.04   0.04    -0.02   0.10  -0.06    -0.03   0.02   0.06
  13   6     0.06   0.33  -0.01    -0.03   0.08  -0.04    -0.05  -0.02   0.07
  14   1     0.05  -0.08   0.00    -0.01   0.06  -0.03     0.00   0.02  -0.00
  15   8     0.11   0.02   0.01     0.18  -0.41   0.46     0.07  -0.06   0.05
  16   6    -0.33  -0.03   0.15    -0.02   0.12  -0.08     0.06  -0.04   0.13
  17   1     0.01  -0.08  -0.14    -0.01   0.05   0.04    -0.02  -0.00  -0.01
  18   1    -0.00  -0.10  -0.05    -0.02   0.07   0.02    -0.02  -0.01   0.01
  19   1     0.07   0.03  -0.10     0.02  -0.02   0.05     0.02  -0.04   0.02
  20   1     0.05   0.00  -0.07     0.01   0.03   0.07     0.01   0.01   0.04
  21   1     0.06   0.08  -0.00     0.00  -0.02   0.01    -0.00  -0.02   0.00
  22   1    -0.05   0.00  -0.02    -0.02  -0.03  -0.07     0.03   0.01   0.02
  23   1    -0.04  -0.03   0.02    -0.00   0.10  -0.07    -0.01   0.01  -0.01
  24   1    -0.05   0.00   0.05    -0.01   0.03  -0.13    -0.01  -0.00  -0.02
  25   1     0.02  -0.06   0.02     0.07  -0.14   0.00     0.01   0.19  -0.11
  26   1    -0.01  -0.04  -0.02    -0.05   0.06   0.08    -0.03  -0.01  -0.01
  27   1    -0.02  -0.02   0.03    -0.04   0.04   0.06    -0.02  -0.01   0.02
  28   1    -0.05   0.08   0.06    -0.04   0.01   0.03    -0.01   0.01  -0.01
  29   1     0.03   0.11   0.05    -0.02  -0.03   0.08    -0.01   0.00   0.01
  30   1    -0.01   0.15   0.01    -0.01   0.02  -0.02    -0.01  -0.01   0.02
  31   1     0.07   0.11  -0.02    -0.01   0.02  -0.01    -0.02  -0.01   0.03
  32   1     0.04   0.00  -0.02     0.07  -0.12   0.09     0.03  -0.01  -0.01
  33   1    -0.17  -0.03   0.08     0.03   0.04  -0.05    -0.40  -0.12   0.30
  34   1    -0.05  -0.08   0.05    -0.04   0.05  -0.03     0.46  -0.21   0.21
  35   1    -0.11   0.07   0.03    -0.01   0.01   0.00     0.02   0.27  -0.35
                      7                      8                      9
                        a                      a                      a 
 Frequencies --   200.5664               206.3499               250.7925
 Red. masses --    10.4648                 9.1407                 8.3776
 Frc consts  --     0.0000                 0.0000                 0.0000
 IR Inten    --     1.3212                 4.1249                23.4108
 Raman Activ --     0.0000                 0.0000                 0.0000
 Depolar     --     0.0000                 0.0000                 0.0000
 Atom AN      X      Y      Z        X      Y      Z        X      Y      Z
   1   6    -0.03  -0.06  -0.06    -0.06  -0.11   0.09     0.08  -0.01  -0.09
   2   6    -0.01  -0.02   0.04     0.14  -0.14   0.19     0.03   0.02  -0.09
   3   6    -0.02  -0.01   0.04     0.14  -0.14   0.14    -0.02  -0.01   0.02
   4   6    -0.21  -0.04  -0.07     0.07  -0.12   0.09    -0.02  -0.10   0.05
   5   6    -0.02  -0.07   0.04    -0.08  -0.08   0.03     0.05  -0.13   0.03
   6   6     0.11   0.06  -0.04    -0.10  -0.07   0.06     0.06  -0.07  -0.04
   7   6    -0.07  -0.05   0.00    -0.05   0.08  -0.09     0.01   0.03  -0.09
   8   6    -0.05  -0.06   0.05    -0.08   0.00  -0.03     0.00  -0.02   0.00
   9   8     0.30   0.34  -0.42    -0.12   0.12  -0.06    -0.37   0.19   0.20
  10   6    -0.06  -0.09  -0.02    -0.25  -0.28   0.04     0.15  -0.00  -0.12
  11   6    -0.03   0.13   0.00    -0.09   0.01  -0.02    -0.08   0.27   0.24
  12   6    -0.03  -0.04   0.15     0.15   0.04   0.04     0.02   0.00  -0.07
  13   6    -0.02   0.14  -0.05     0.21   0.30  -0.17     0.05  -0.03   0.05
  14   1     0.01   0.02   0.01     0.05  -0.05   0.06     0.00   0.02  -0.03
  15   8     0.10  -0.11   0.04    -0.01   0.03  -0.01     0.19  -0.22  -0.05
  16   6    -0.00  -0.17   0.32     0.12   0.24  -0.19    -0.06  -0.03  -0.03
  17   1     0.01   0.00   0.05     0.04  -0.04   0.04    -0.02   0.01   0.02
  18   1     0.03   0.01  -0.02     0.05  -0.04   0.03    -0.01   0.01   0.00
  19   1    -0.11   0.06  -0.03     0.02  -0.06   0.04    -0.01  -0.01   0.01
  20   1    -0.09  -0.07  -0.07     0.04  -0.01   0.01    -0.02  -0.04   0.02
  21   1     0.01  -0.03   0.03    -0.03  -0.01   0.00     0.02  -0.05   0.02
  22   1     0.08   0.03   0.06    -0.01  -0.01   0.05     0.04  -0.04  -0.02
  23   1    -0.03  -0.02  -0.00     0.01   0.08  -0.02     0.00   0.03  -0.03
  24   1    -0.02  -0.02   0.01    -0.03   0.01  -0.09     0.01   0.00  -0.05
  25   1     0.14   0.07  -0.06    -0.04   0.09  -0.04    -0.30   0.41  -0.18
  26   1    -0.04  -0.03  -0.02    -0.14  -0.12  -0.09     0.06   0.02   0.00
  27   1    -0.03  -0.03   0.02    -0.09  -0.15   0.10     0.04   0.03  -0.06
  28   1    -0.03   0.07  -0.01    -0.02   0.02  -0.02    -0.12   0.14   0.06
  29   1     0.01   0.05   0.01    -0.03  -0.01   0.01     0.05   0.10   0.16
  30   1    -0.01   0.03  -0.01     0.06   0.17  -0.12     0.01  -0.01   0.04
  31   1    -0.00   0.08  -0.07     0.08   0.06  -0.01     0.03  -0.01   0.01
  32   1     0.04  -0.01  -0.02     0.02   0.12  -0.11     0.06  -0.16   0.04
  33   1     0.19   0.02   0.02     0.03   0.04  -0.11     0.02   0.00  -0.02
  34   1    -0.18   0.02   0.01     0.03   0.13  -0.04    -0.07  -0.01  -0.03
  35   1     0.00  -0.20   0.26     0.03   0.09  -0.07    -0.02  -0.03   0.05
                     10                     11                     12
                        a                      a                      a 
 Frequencies --   271.2738               278.1736               286.6524
 Red. masses --     9.2001                 5.8356                 7.5462
 Frc consts  --     0.0000                 0.0000                 0.0000
 IR Inten    --     5.4413                87.4516                76.7870
 Raman Activ --     0.0000                 0.0000                 0.0000
 Depolar     --     0.0000                 0.0000                 0.0000
 Atom AN      X      Y      Z        X      Y      Z        X      Y      Z
   1   6     0.00   0.06   0.04    -0.07  -0.07   0.04    -0.11  -0.06  -0.02
   2   6     0.08   0.06   0.09    -0.07  -0.02   0.10     0.04  -0.07   0.06
   3   6    -0.03  -0.06  -0.08     0.04   0.06   0.02     0.10  -0.05   0.04
   4   6    -0.43  -0.11  -0.31     0.08   0.13   0.01     0.14  -0.08   0.06
   5   6    -0.06  -0.10   0.07     0.04   0.11  -0.06    -0.12  -0.04  -0.09
   6   6    -0.02  -0.05   0.04    -0.08  -0.04  -0.01    -0.15  -0.07  -0.06
   7   6     0.02   0.08  -0.05    -0.05  -0.11   0.07    -0.16  -0.18   0.07
   8   6    -0.07  -0.10   0.09     0.02   0.04  -0.04    -0.16  -0.04  -0.07
   9   8     0.09  -0.32   0.10     0.18  -0.37  -0.11    -0.08   0.02  -0.26
  10   6     0.03   0.11   0.06     0.01   0.02   0.03     0.22   0.24  -0.01
  11   6    -0.04   0.19   0.03     0.02  -0.14  -0.05    -0.22   0.10   0.07
  12   6     0.14   0.05   0.02    -0.07   0.01   0.11     0.07  -0.03   0.09
  13   6     0.08  -0.04  -0.02    -0.11   0.04  -0.03     0.13   0.08   0.06
  14   1     0.04   0.00   0.03    -0.01  -0.01   0.03     0.03  -0.03   0.02
  15   8    -0.09   0.09   0.05    -0.04   0.10  -0.02    -0.02   0.14  -0.05
  16   6     0.29   0.08  -0.03     0.08   0.08   0.02     0.17   0.06  -0.01
  17   1    -0.02   0.01   0.02     0.04  -0.00  -0.00     0.03  -0.01   0.02
  18   1     0.07  -0.04  -0.08     0.00   0.02   0.01     0.03  -0.01   0.01
  19   1    -0.23   0.13  -0.11     0.03   0.03  -0.00     0.07  -0.10   0.04
  20   1    -0.20  -0.17  -0.21     0.03   0.05   0.01     0.08   0.05   0.05
  21   1    -0.00  -0.02   0.03    -0.00   0.03  -0.03    -0.04   0.01  -0.03
  22   1    -0.02  -0.02  -0.02    -0.08   0.01   0.01    -0.03  -0.01  -0.00
  23   1     0.00   0.08  -0.01    -0.01  -0.08   0.02    -0.05  -0.13   0.02
  24   1     0.03   0.00  -0.06    -0.03  -0.02   0.07    -0.04  -0.03   0.10
  25   1     0.01   0.03  -0.02    -0.10   0.65  -0.32     0.08  -0.21   0.05
  26   1     0.03   0.04   0.04     0.04  -0.00   0.02     0.21   0.07   0.11
  27   1     0.02   0.05  -0.01     0.00   0.03  -0.01     0.08   0.21  -0.12
  28   1    -0.05   0.12  -0.03     0.04  -0.09   0.02    -0.13   0.03   0.05
  29   1     0.02   0.06   0.06    -0.02  -0.03  -0.06    -0.01   0.08   0.04
  30   1     0.04  -0.02  -0.03    -0.02   0.01  -0.04     0.03   0.06   0.01
  31   1    -0.00  -0.02   0.01    -0.05   0.01  -0.01     0.06   0.02   0.02
  32   1    -0.03   0.01   0.04    -0.01  -0.08   0.05     0.00  -0.32   0.20
  33   1     0.02   0.01   0.02     0.11   0.05  -0.04     0.05   0.01  -0.02
  34   1     0.15   0.01   0.02    -0.03   0.09  -0.00     0.06   0.06   0.01
  35   1     0.09   0.05  -0.08     0.04  -0.05   0.04     0.06   0.01  -0.03
                     13                     14                     15
                        a                      a                      a 
 Frequencies --   315.0126               325.9008               341.5759
 Red. masses --     9.5813                 8.1624                 5.2734
 Frc consts  --     0.0000                 0.0000                 0.0000
 IR Inten    --    10.9012                 3.1192               113.0086
 Raman Activ --     0.0000                 0.0000                 0.0000
 Depolar     --     0.0000                 0.0000                 0.0000
 Atom AN      X      Y      Z        X      Y      Z        X      Y      Z
   1   6    -0.03   0.07  -0.00    -0.00  -0.04  -0.03     0.03   0.07  -0.12
   2   6     0.08  -0.07  -0.11     0.00   0.01   0.03     0.02   0.11  -0.15
   3   6     0.10   0.01   0.12     0.23   0.31   0.23    -0.03   0.09  -0.04
   4   6    -0.01  -0.10   0.10    -0.23   0.20  -0.04     0.05  -0.05   0.04
   5   6    -0.06  -0.08   0.10    -0.01   0.12  -0.05    -0.01  -0.07  -0.06
   6   6     0.00  -0.00   0.01    -0.00   0.07  -0.04     0.01  -0.03  -0.12
   7   6     0.01   0.11  -0.09    -0.11  -0.17   0.23    -0.07  -0.27   0.17
   8   6    -0.04  -0.02   0.04    -0.04   0.03   0.03    -0.05  -0.13   0.01
   9   8     0.15  -0.04  -0.13    -0.03  -0.06   0.07    -0.08  -0.08  -0.05
  10   6     0.00   0.20   0.14    -0.01  -0.14  -0.13    -0.01   0.10   0.03
  11   6    -0.01  -0.01  -0.05    -0.02  -0.06  -0.02    -0.07   0.06   0.04
  12   6     0.12  -0.18  -0.19     0.08  -0.08  -0.06     0.06   0.09  -0.08
  13   6     0.32  -0.01   0.06     0.17   0.03   0.00     0.12   0.07   0.10
  14   1    -0.02  -0.03  -0.04    -0.05   0.04  -0.01     0.01   0.05  -0.05
  15   8    -0.21   0.23   0.12     0.17  -0.18  -0.10    -0.08  -0.12   0.14
  16   6    -0.37  -0.23  -0.12    -0.14  -0.01  -0.13     0.15   0.01   0.03
  17   1     0.02   0.02   0.08     0.14   0.09   0.17    -0.03   0.04   0.00
  18   1     0.03   0.04   0.02     0.12   0.19  -0.02    -0.02   0.03  -0.01
  19   1    -0.03  -0.02   0.05    -0.20   0.15   0.03     0.04  -0.06   0.02
  20   1    -0.00  -0.03   0.00    -0.11  -0.04  -0.12     0.03   0.02   0.06
  21   1    -0.01  -0.03   0.03     0.00   0.02  -0.00     0.00  -0.02  -0.01
  22   1     0.03  -0.01   0.01    -0.04   0.03  -0.02     0.01  -0.03  -0.06
  23   1     0.00   0.09  -0.02    -0.06  -0.16   0.06    -0.09  -0.20   0.03
  24   1     0.01   0.02  -0.08    -0.03  -0.02   0.18     0.02  -0.05   0.19
  25   1     0.02   0.19  -0.10    -0.01  -0.07   0.03    -0.06   0.03  -0.05
  26   1     0.04   0.06   0.08    -0.03  -0.04  -0.06    -0.04   0.05   0.02
  27   1     0.01   0.10  -0.00    -0.01  -0.06  -0.01    -0.00   0.01   0.02
  28   1     0.03   0.02  -0.05     0.01  -0.07   0.03    -0.08   0.01   0.04
  29   1    -0.03  -0.04  -0.01    -0.01   0.01  -0.06     0.03   0.08   0.01
  30   1     0.05   0.06   0.08     0.03   0.06  -0.00     0.02   0.02   0.08
  31   1     0.18  -0.01   0.02     0.09  -0.01   0.02     0.07   0.02   0.03
  32   1    -0.08   0.09   0.05     0.07  -0.13  -0.02    -0.10   0.62  -0.26
  33   1    -0.16  -0.10  -0.04    -0.13  -0.05  -0.02     0.07   0.03   0.04
  34   1    -0.14  -0.14  -0.07     0.01  -0.04  -0.02     0.03  -0.01   0.00
  35   1    -0.14   0.03   0.04    -0.06   0.10  -0.07     0.05  -0.04   0.02
                     16                     17                     18
                        a                      a                      a 
 Frequencies --   348.3767               400.1060               415.5501
 Red. masses --     8.5828                 7.9995                 8.7546
 Frc consts  --     0.0000                 0.0000                 0.0000
 IR Inten    --     2.4826                65.6515                 3.4043
 Raman Activ --     0.0000                 0.0000                 0.0000
 Depolar     --     0.0000                 0.0000                 0.0000
 Atom AN      X      Y      Z        X      Y      Z        X      Y      Z
   1   6     0.03  -0.14   0.11     0.02   0.10  -0.06    -0.07   0.04  -0.04
   2   6    -0.07  -0.08   0.16     0.00   0.11  -0.16     0.01  -0.03  -0.08
   3   6     0.17   0.11   0.11    -0.00   0.14  -0.06     0.38   0.20  -0.12
   4   6    -0.03   0.07  -0.04     0.03  -0.09   0.01     0.21  -0.25  -0.14
   5   6     0.07  -0.03  -0.20     0.06  -0.13  -0.08     0.06  -0.16   0.07
   6   6    -0.06  -0.04   0.00     0.08   0.00  -0.04     0.10  -0.08   0.07
   7   6     0.19  -0.15  -0.16     0.10  -0.21   0.02    -0.12   0.04   0.01
   8   6     0.23  -0.06  -0.24     0.13  -0.18  -0.08    -0.18  -0.18   0.23
   9   8    -0.03   0.03  -0.11     0.02  -0.01   0.05     0.03   0.07   0.11
  10   6     0.12  -0.02   0.15    -0.36  -0.12   0.11    -0.03   0.10  -0.03
  11   6     0.06   0.15   0.26     0.08   0.05   0.10    -0.06  -0.00  -0.14
  12   6    -0.11  -0.07   0.11     0.00   0.13  -0.14    -0.12   0.05   0.09
  13   6    -0.21  -0.07  -0.11     0.03   0.04   0.06    -0.25  -0.04  -0.06
  14   1    -0.02  -0.02   0.04    -0.01   0.02  -0.04     0.03  -0.04  -0.00
  15   8    -0.13   0.11   0.02    -0.19   0.31   0.07     0.00  -0.01   0.05
  16   6    -0.17   0.05  -0.04     0.05   0.00   0.03    -0.08   0.12   0.03
  17   1     0.12   0.01   0.09     0.00   0.06   0.03     0.21   0.08   0.16
  18   1     0.08   0.10  -0.02     0.00   0.07  -0.03     0.17   0.23  -0.15
  19   1    -0.07   0.04   0.02     0.02  -0.06   0.02     0.06  -0.10  -0.02
  20   1    -0.03  -0.02  -0.05     0.01  -0.01   0.05     0.07  -0.06  -0.01
  21   1    -0.03  -0.03  -0.10    -0.00  -0.05  -0.04     0.06   0.05   0.04
  22   1    -0.04   0.01   0.02     0.04  -0.02  -0.02     0.07  -0.04   0.02
  23   1     0.11  -0.00  -0.04     0.03  -0.14   0.00    -0.07   0.10   0.01
  24   1     0.02  -0.04  -0.09     0.06  -0.05   0.09     0.01  -0.02  -0.07
  25   1     0.04  -0.07   0.02    -0.02  -0.01   0.00    -0.02   0.02   0.01
  26   1     0.07  -0.02   0.05    -0.23  -0.04  -0.09     0.01   0.04   0.01
  27   1     0.05   0.01   0.01    -0.13  -0.15   0.16    -0.02   0.06  -0.02
  28   1    -0.15   0.09   0.11    -0.07   0.05   0.04     0.05   0.01  -0.08
  29   1     0.14   0.11   0.19     0.10   0.07   0.08    -0.06  -0.02  -0.08
  30   1    -0.04  -0.03  -0.10    -0.00  -0.00   0.06    -0.04  -0.06  -0.06
  31   1    -0.11  -0.03  -0.02     0.02   0.01   0.02    -0.14  -0.01  -0.02
  32   1    -0.09   0.24  -0.05     0.03  -0.38   0.19     0.00   0.03  -0.01
  33   1    -0.09  -0.02  -0.03     0.04   0.04   0.06    -0.02   0.04   0.01
  34   1    -0.02   0.04   0.01     0.01  -0.05  -0.01     0.00   0.05   0.03
  35   1    -0.05   0.06  -0.05     0.02  -0.03   0.03    -0.01   0.02  -0.02
                     19                     20                     21
                        a                      a                      a 
 Frequencies --   471.8970               496.2039               511.3302
 Red. masses --     7.6649                 9.5780                11.7213
 Frc consts  --     0.0000                 0.0000                 0.0000
 IR Inten    --     0.0550                 6.6418                13.3113
 Raman Activ --     0.0000                 0.0000                 0.0000
 Depolar     --     0.0000                 0.0000                 0.0000
 Atom AN      X      Y      Z        X      Y      Z        X      Y      Z
   1   6     0.11   0.16  -0.08    -0.07   0.03  -0.26     0.04  -0.10  -0.02
   2   6     0.28   0.15   0.09    -0.02   0.01  -0.03     0.03  -0.03  -0.01
   3   6     0.04  -0.13   0.05    -0.06   0.00   0.01     0.05  -0.02   0.03
   4   6     0.03  -0.05   0.03    -0.02   0.08   0.03     0.01   0.08  -0.01
   5   6    -0.05  -0.02  -0.00     0.16   0.01   0.06     0.06   0.12   0.17
   6   6     0.02   0.01  -0.12     0.14   0.00  -0.18    -0.17  -0.17  -0.17
   7   6     0.02   0.01   0.14    -0.07  -0.10  -0.09     0.01   0.01   0.06
   8   6    -0.07   0.03  -0.03     0.12  -0.06   0.16     0.12  -0.03   0.40
   9   8    -0.03  -0.05  -0.10    -0.13   0.04   0.06    -0.37  -0.03  -0.43
  10   6    -0.06   0.04  -0.02    -0.13   0.15  -0.03     0.04  -0.08   0.09
  11   6    -0.08   0.00  -0.00     0.20  -0.01   0.02     0.29   0.03   0.06
  12   6     0.29   0.07   0.17    -0.04  -0.42   0.44     0.02   0.20  -0.18
  13   6    -0.05  -0.27  -0.25     0.03   0.11  -0.09    -0.03  -0.05   0.03
  14   1     0.09   0.06   0.02     0.03   0.07  -0.03    -0.00  -0.01  -0.01
  15   8    -0.01   0.01   0.02    -0.08   0.09   0.10    -0.05   0.08   0.00
  16   6    -0.25   0.16   0.12     0.03  -0.03  -0.07     0.01   0.05   0.04
  17   1    -0.09  -0.02  -0.08    -0.05  -0.00  -0.06     0.03  -0.02   0.01
  18   1     0.01  -0.16   0.07    -0.04  -0.05   0.04     0.01   0.01   0.01
  19   1    -0.00  -0.01   0.02    -0.02   0.07  -0.01    -0.03   0.09  -0.02
  20   1     0.02  -0.01  -0.01    -0.04  -0.02  -0.00    -0.03  -0.03  -0.05
  21   1     0.00  -0.02   0.01     0.07  -0.02   0.05     0.06   0.05   0.09
  22   1     0.03  -0.02  -0.06     0.05  -0.02  -0.08    -0.07  -0.05  -0.06
  23   1    -0.03  -0.14   0.03    -0.08  -0.01  -0.03    -0.07   0.11   0.02
  24   1     0.04   0.03   0.19     0.01  -0.03  -0.03     0.01  -0.02  -0.07
  25   1    -0.02   0.01  -0.04    -0.11  -0.06  -0.02    -0.07  -0.08  -0.07
  26   1    -0.07   0.02  -0.03    -0.05   0.06   0.01     0.02  -0.03   0.02
  27   1    -0.02  -0.03   0.03    -0.05   0.07   0.01     0.01  -0.02   0.02
  28   1    -0.03   0.00  -0.00     0.10  -0.03   0.01     0.16  -0.04   0.02
  29   1    -0.02   0.00   0.01     0.04   0.00  -0.04     0.04   0.01  -0.07
  30   1     0.07  -0.24  -0.18    -0.00   0.06  -0.01     0.00  -0.02  -0.01
  31   1    -0.23  -0.06  -0.09     0.05   0.09  -0.09    -0.04  -0.04   0.05
  32   1     0.01  -0.03   0.01    -0.01  -0.01   0.03    -0.02  -0.02   0.04
  33   1    -0.15  -0.04  -0.05    -0.02  -0.11  -0.19     0.01   0.06   0.09
  34   1    -0.14   0.01  -0.01     0.06   0.20   0.06    -0.01  -0.08  -0.02
  35   1    -0.12   0.18   0.12     0.01   0.05  -0.13     0.00  -0.01   0.05
                     22                     23                     24
                        a                      a                      a 
 Frequencies --   527.1367               565.1449               599.8531
 Red. masses --     8.6681                 9.9704                 9.7012
 Frc consts  --     0.0000                 0.0000                 0.0000
 IR Inten    --     3.1740                12.6640                 2.7530
 Raman Activ --     0.0000                 0.0000                 0.0000
 Depolar     --     0.0000                 0.0000                 0.0000
 Atom AN      X      Y      Z        X      Y      Z        X      Y      Z
   1   6     0.03  -0.07  -0.09     0.03  -0.20  -0.16     0.36   0.02   0.07
   2   6     0.02  -0.13  -0.10     0.07  -0.14  -0.04     0.02   0.02  -0.16
   3   6     0.08  -0.11   0.05     0.04  -0.16   0.24    -0.04   0.06  -0.02
   4   6    -0.05  -0.14   0.01    -0.03   0.21   0.10    -0.04   0.00   0.01
   5   6     0.16  -0.12   0.12     0.12   0.08  -0.13    -0.08   0.01  -0.05
   6   6     0.17  -0.17  -0.07     0.26   0.16  -0.20     0.09   0.06  -0.21
   7   6    -0.12   0.11   0.03    -0.18  -0.15  -0.17     0.17   0.20   0.20
   8   6     0.09   0.52  -0.28    -0.17  -0.15   0.05    -0.22  -0.01   0.06
   9   8    -0.07   0.06   0.01     0.10   0.05   0.25    -0.06  -0.10  -0.11
  10   6     0.01   0.01   0.09     0.07  -0.08   0.14     0.26  -0.28   0.24
  11   6    -0.03  -0.11   0.05    -0.16   0.01  -0.11    -0.23   0.04  -0.07
  12   6    -0.10   0.07  -0.05     0.02   0.18  -0.12    -0.13  -0.16   0.13
  13   6    -0.10   0.03   0.04    -0.05  -0.04   0.02    -0.07   0.09   0.00
  14   1     0.01  -0.02  -0.03     0.01   0.03  -0.04     0.01   0.02  -0.05
  15   8    -0.08   0.12   0.07    -0.09   0.14   0.04    -0.06   0.09  -0.04
  16   6     0.05   0.03   0.01     0.02   0.09   0.07     0.01  -0.06  -0.05
  17   1     0.05  -0.02   0.08     0.01  -0.08  -0.03     0.01   0.03   0.04
  18   1     0.05   0.03  -0.03    -0.04  -0.08   0.12    -0.00   0.07  -0.03
  19   1    -0.09   0.10  -0.03    -0.08   0.10   0.06     0.03  -0.06   0.01
  20   1    -0.08  -0.16  -0.08    -0.01   0.03  -0.06     0.02   0.06   0.04
  21   1     0.06  -0.07   0.06     0.07  -0.03   0.01     0.04  -0.00   0.05
  22   1     0.09  -0.07  -0.03     0.05   0.05  -0.06     0.02  -0.01  -0.10
  23   1    -0.02  -0.20  -0.00    -0.08   0.09  -0.05     0.05   0.07   0.06
  24   1    -0.17   0.11   0.23    -0.03  -0.08  -0.17     0.06   0.05   0.04
  25   1    -0.07  -0.05  -0.01    -0.09  -0.03   0.01    -0.04  -0.02  -0.05
  26   1     0.02   0.00   0.04     0.07  -0.03   0.06    -0.01  -0.09  -0.00
  27   1    -0.00   0.04   0.02     0.01   0.04   0.01     0.10  -0.20   0.10
  28   1     0.09  -0.02  -0.04    -0.06  -0.08   0.04    -0.07   0.03  -0.03
  29   1    -0.11  -0.17   0.06    -0.02   0.09  -0.13    -0.07   0.00  -0.01
  30   1    -0.03   0.02   0.01     0.01  -0.01  -0.06    -0.04  -0.03   0.12
  31   1    -0.03  -0.00   0.03    -0.07  -0.05   0.06     0.02   0.11  -0.10
  32   1    -0.04   0.04   0.04    -0.04   0.02   0.05    -0.06  -0.01   0.08
  33   1     0.04   0.04   0.05     0.02   0.07   0.09     0.01  -0.05  -0.09
  34   1     0.04   0.00   0.01    -0.00  -0.06  -0.01     0.04   0.11   0.04
  35   1     0.03  -0.04  -0.03     0.01  -0.01   0.05     0.02  -0.02  -0.10
                     25                     26                     27
                        a                      a                      a 
 Frequencies --   616.5024               688.4373               701.8012
 Red. masses --    10.2401                 7.3165                 2.3970
 Frc consts  --     0.0000                 0.0000                 0.0000
 IR Inten    --     5.4608                 1.4125                 0.4673
 Raman Activ --     0.0000                 0.0000                 0.0000
 Depolar     --     0.0000                 0.0000                 0.0000
 Atom AN      X      Y      Z        X      Y      Z        X      Y      Z
   1   6    -0.03  -0.19   0.09     0.09   0.22   0.09     0.03  -0.02  -0.06
   2   6    -0.12   0.24   0.21    -0.04   0.03   0.24    -0.06  -0.01   0.14
   3   6    -0.20   0.33  -0.24     0.09  -0.06   0.09    -0.05   0.07  -0.06
   4   6     0.04   0.10  -0.08     0.10   0.05  -0.01    -0.02   0.08  -0.05
   5   6     0.31  -0.11  -0.06     0.21  -0.08  -0.11    -0.04   0.02   0.01
   6   6     0.11  -0.33   0.10     0.12  -0.17  -0.03     0.06   0.12  -0.15
   7   6    -0.15  -0.05  -0.04     0.17   0.16   0.16     0.02  -0.02  -0.04
   8   6    -0.10   0.07  -0.03    -0.12  -0.07  -0.03    -0.02  -0.10   0.08
   9   8    -0.03   0.09  -0.02    -0.06  -0.01  -0.11     0.00  -0.02   0.02
  10   6     0.09  -0.14   0.13    -0.11   0.19  -0.14     0.05  -0.04   0.04
  11   6    -0.13  -0.02  -0.06    -0.15   0.01  -0.07     0.01   0.01  -0.01
  12   6     0.19  -0.01   0.01    -0.16  -0.04  -0.04     0.01  -0.05   0.05
  13   6     0.18  -0.07  -0.05    -0.12   0.05   0.06     0.01  -0.02   0.00
  14   1    -0.04   0.06   0.06    -0.03  -0.02   0.07    -0.00   0.03   0.03
  15   8    -0.05   0.07   0.03    -0.00  -0.04   0.04    -0.01   0.01  -0.01
  16   6    -0.02   0.00   0.02    -0.00  -0.15  -0.12    -0.01  -0.02  -0.01
  17   1    -0.08   0.08  -0.12    -0.01  -0.05  -0.11     0.02   0.00  -0.01
  18   1    -0.05   0.02  -0.04    -0.01  -0.13   0.10     0.01   0.01  -0.04
  19   1     0.06   0.03  -0.06    -0.06   0.11   0.01     0.08  -0.09  -0.01
  20   1    -0.07  -0.02   0.11    -0.03  -0.09  -0.07     0.04   0.11   0.07
  21   1     0.12   0.00   0.01     0.10  -0.01  -0.00     0.03   0.01   0.04
  22   1     0.03  -0.06   0.08     0.05  -0.07  -0.03     0.01   0.03  -0.05
  23   1    -0.01   0.04  -0.01     0.07   0.04   0.05    -0.01  -0.10  -0.02
  24   1    -0.09  -0.02  -0.08     0.14   0.02   0.04    -0.02   0.02   0.09
  25   1    -0.02  -0.03   0.00    -0.03  -0.03  -0.03    -0.05  -0.02  -0.02
  26   1     0.06  -0.06   0.04    -0.11   0.08  -0.06     0.01  -0.01   0.00
  27   1     0.02  -0.02   0.02    -0.03  -0.02   0.01     0.01  -0.01   0.02
  28   1     0.00  -0.06   0.01    -0.12  -0.13   0.12     0.11   0.33  -0.30
  29   1    -0.07   0.00  -0.08     0.02   0.16  -0.14    -0.10  -0.32   0.31
  30   1     0.06  -0.02  -0.02    -0.06   0.26  -0.16     0.02   0.29  -0.34
  31   1     0.04  -0.02  -0.01     0.04  -0.15   0.21     0.00  -0.26   0.31
  32   1    -0.03   0.01   0.04     0.02  -0.02  -0.02    -0.02   0.01   0.01
  33   1    -0.06  -0.04  -0.03     0.03   0.01   0.04     0.00   0.03   0.06
  34   1    -0.05  -0.03  -0.03     0.01  -0.09  -0.04    -0.02  -0.09  -0.03
  35   1    -0.04   0.08   0.07     0.01  -0.11  -0.03    -0.01  -0.03   0.05
                     28                     29                     30
                        a                      a                      a 
 Frequencies --   722.4527               792.7407               825.6027
 Red. masses --     4.1073                 7.5685                 8.9834
 Frc consts  --     0.0000                 0.0000                 0.0000
 IR Inten    --     3.1115                 3.5964                 7.0874
 Raman Activ --     0.0000                 0.0000                 0.0000
 Depolar     --     0.0000                 0.0000                 0.0000
 Atom AN      X      Y      Z        X      Y      Z        X      Y      Z
   1   6    -0.03   0.02   0.05    -0.02  -0.03   0.05    -0.03  -0.02   0.13
   2   6     0.03   0.05   0.06    -0.14  -0.05   0.49    -0.14  -0.38  -0.27
   3   6     0.15  -0.00   0.11    -0.10  -0.13   0.06    -0.15  -0.04  -0.07
   4   6     0.15   0.23   0.01    -0.12  -0.10  -0.12    -0.08   0.24   0.10
   5   6     0.14  -0.01  -0.03     0.08   0.00  -0.17     0.12  -0.00  -0.01
   6   6    -0.03  -0.13   0.10     0.20   0.14  -0.28     0.09  -0.10   0.01
   7   6     0.05  -0.05  -0.04    -0.02   0.09   0.08     0.18   0.06   0.20
   8   6    -0.10  -0.19   0.03     0.03   0.01   0.05    -0.05  -0.05  -0.07
   9   8    -0.03   0.02  -0.04    -0.01  -0.03   0.00    -0.06  -0.02  -0.07
  10   6    -0.06   0.05  -0.05    -0.11   0.08  -0.09    -0.16   0.14  -0.13
  11   6    -0.10  -0.00  -0.07     0.07   0.02   0.03    -0.09  -0.03  -0.06
  12   6    -0.07   0.07  -0.11     0.02   0.09  -0.14     0.12  -0.06   0.02
  13   6    -0.06   0.04   0.03     0.03  -0.02   0.01     0.17  -0.09  -0.05
  14   1    -0.02  -0.01   0.02    -0.05  -0.04   0.14    -0.05  -0.15  -0.05
  15   8     0.00  -0.01   0.02    -0.00   0.01   0.05     0.00  -0.01   0.04
  16   6     0.01  -0.05  -0.05    -0.01  -0.04  -0.07     0.02   0.25   0.22
  17   1    -0.01  -0.05  -0.18     0.09  -0.05   0.18     0.14  -0.07   0.09
  18   1    -0.05  -0.14   0.16     0.11   0.07  -0.13    -0.07   0.20  -0.07
  19   1    -0.10   0.18   0.04     0.14  -0.22  -0.04     0.02   0.07  -0.00
  20   1    -0.02  -0.05  -0.12     0.05   0.14   0.13    -0.04   0.06   0.07
  21   1     0.06   0.05  -0.00     0.09  -0.04   0.02     0.06  -0.06   0.04
  22   1    -0.02  -0.02   0.04     0.01   0.05  -0.08     0.01  -0.03  -0.01
  23   1     0.03  -0.08  -0.01    -0.00   0.01   0.02     0.17   0.10   0.07
  24   1     0.03  -0.01   0.05    -0.01   0.03   0.03     0.06  -0.01  -0.05
  25   1     0.02  -0.00   0.01    -0.11  -0.06  -0.06    -0.03  -0.03  -0.02
  26   1    -0.02   0.02  -0.01     0.00   0.03   0.01    -0.00   0.04   0.01
  27   1    -0.02   0.01  -0.02    -0.03   0.07  -0.05    -0.05   0.08  -0.06
  28   1     0.03   0.29  -0.28     0.05   0.00  -0.00    -0.08   0.07  -0.05
  29   1    -0.10  -0.27   0.26     0.00  -0.03   0.02     0.01  -0.02   0.07
  30   1    -0.04  -0.20   0.30    -0.02  -0.14   0.23     0.08  -0.06  -0.08
  31   1     0.02   0.21  -0.23     0.05   0.15  -0.19    -0.00  -0.02  -0.02
  32   1     0.01  -0.00  -0.02     0.03  -0.00  -0.03     0.05  -0.01  -0.06
  33   1     0.01  -0.02  -0.04    -0.01  -0.01  -0.01     0.00   0.06   0.03
  34   1     0.02   0.03   0.00    -0.02  -0.04  -0.03     0.01   0.09   0.07
  35   1     0.01  -0.02  -0.06    -0.02   0.02   0.00    -0.00   0.10   0.06
                     31                     32                     33
                        a                      a                      a 
 Frequencies --   877.5319               890.9858               901.0598
 Red. masses --     8.3651                 4.1119                 7.4943
 Frc consts  --     0.0000                 0.0000                 0.0000
 IR Inten    --     0.5258                26.0778                 9.1790
 Raman Activ --     0.0000                 0.0000                 0.0000
 Depolar     --     0.0000                 0.0000                 0.0000
 Atom AN      X      Y      Z        X      Y      Z        X      Y      Z
   1   6     0.07   0.05  -0.11    -0.03  -0.01   0.06     0.03   0.11   0.06
   2   6     0.03  -0.05   0.18     0.01   0.04  -0.01    -0.20   0.04   0.03
   3   6     0.03  -0.07  -0.16     0.04   0.04  -0.00    -0.13  -0.12   0.12
   4   6    -0.06   0.29  -0.00     0.03  -0.05   0.01     0.17  -0.25   0.00
   5   6    -0.19   0.09   0.48     0.01  -0.03  -0.01     0.23   0.14   0.08
   6   6     0.03  -0.16   0.02     0.03   0.09  -0.07    -0.11   0.22  -0.02
   7   6     0.15  -0.18  -0.28    -0.04  -0.07   0.13     0.06  -0.30  -0.13
   8   6    -0.05   0.01  -0.06     0.04   0.11  -0.09    -0.06   0.08  -0.03
   9   8     0.02   0.05   0.03    -0.02  -0.03  -0.02    -0.05  -0.03  -0.04
  10   6     0.06   0.06  -0.01    -0.03   0.00  -0.01     0.14   0.17   0.01
  11   6    -0.15  -0.09  -0.01    -0.10  -0.32   0.30    -0.14   0.07  -0.00
  12   6    -0.01   0.04  -0.02    -0.00   0.00   0.00     0.03  -0.06   0.01
  13   6    -0.03   0.02   0.01    -0.01   0.01  -0.00     0.06   0.02  -0.13
  14   1     0.05  -0.04   0.07     0.00   0.01  -0.00    -0.07   0.02   0.00
  15   8    -0.02  -0.00   0.01     0.01  -0.01  -0.00     0.01  -0.07  -0.07
  16   6    -0.01  -0.05  -0.07     0.00  -0.01  -0.01     0.02   0.09   0.06
  17   1     0.14  -0.05   0.05    -0.04   0.02  -0.05     0.00  -0.00   0.18
  18   1     0.10   0.06  -0.15    -0.01  -0.04   0.04    -0.02   0.09  -0.03
  19   1     0.14   0.07  -0.12    -0.03  -0.00   0.02     0.00   0.09  -0.07
  20   1     0.03   0.16   0.06     0.00  -0.03  -0.02    -0.03  -0.19  -0.07
  21   1    -0.01  -0.04   0.18     0.01  -0.01  -0.00     0.12   0.12   0.06
  22   1     0.10  -0.09  -0.01    -0.01   0.02  -0.03    -0.10   0.08  -0.02
  23   1     0.01  -0.17  -0.09     0.06   0.13   0.05     0.09   0.00  -0.03
  24   1     0.09  -0.03   0.06    -0.03  -0.05  -0.13     0.01  -0.10  -0.12
  25   1    -0.02  -0.01  -0.01    -0.03  -0.02  -0.02     0.03   0.00   0.01
  26   1    -0.08   0.03  -0.06     0.01   0.00   0.01    -0.19   0.05  -0.15
  27   1     0.01  -0.07   0.07    -0.00   0.01  -0.02     0.03  -0.19   0.17
  28   1    -0.10   0.03  -0.02     0.16   0.44  -0.41     0.07  -0.02  -0.02
  29   1     0.04   0.16  -0.13     0.13   0.37  -0.34    -0.16  -0.09  -0.04
  30   1    -0.01  -0.03   0.06    -0.00   0.00   0.00    -0.01  -0.07   0.13
  31   1    -0.00   0.03  -0.03    -0.00  -0.00   0.01     0.06  -0.11   0.10
  32   1    -0.03   0.01   0.04     0.01  -0.00  -0.02    -0.06   0.00   0.08
  33   1    -0.00  -0.00   0.00    -0.00  -0.00  -0.00    -0.01   0.02   0.02
  34   1    -0.01  -0.05  -0.03    -0.00  -0.00  -0.00    -0.01  -0.00   0.00
  35   1    -0.00  -0.01  -0.01     0.00  -0.01  -0.00    -0.01   0.06   0.05
                     34                     35                     36
                        a                      a                      a 
 Frequencies --   905.2937               918.6323               931.9561
 Red. masses --     3.9740                 6.9807                 6.1045
 Frc consts  --     0.0000                 0.0000                 0.0000
 IR Inten    --    27.5551                 6.3553                 2.9598
 Raman Activ --     0.0000                 0.0000                 0.0000
 Depolar     --     0.0000                 0.0000                 0.0000
 Atom AN      X      Y      Z        X      Y      Z        X      Y      Z
   1   6     0.01   0.04   0.01     0.13   0.12  -0.08    -0.03  -0.02  -0.12
   2   6    -0.05   0.00   0.01    -0.10  -0.12  -0.02    -0.12   0.01  -0.00
   3   6    -0.02   0.00   0.02    -0.03  -0.11   0.11    -0.14  -0.05   0.12
   4   6     0.05  -0.07   0.00    -0.09   0.15  -0.08     0.12  -0.11  -0.05
   5   6     0.04   0.03   0.04    -0.01  -0.07  -0.31     0.17   0.10  -0.01
   6   6    -0.03   0.07  -0.01    -0.03  -0.25   0.17    -0.12   0.03   0.06
   7   6     0.02  -0.07  -0.06    -0.20   0.18  -0.09     0.17   0.30  -0.24
   8   6    -0.01   0.02  -0.01     0.03  -0.06   0.11    -0.06  -0.17   0.09
   9   8    -0.01  -0.01  -0.01     0.04   0.05   0.03     0.00   0.02   0.03
  10   6     0.04   0.02   0.00     0.23   0.17  -0.00    -0.07  -0.21   0.07
  11   6    -0.04   0.01   0.01     0.09  -0.03   0.12    -0.05  -0.11  -0.00
  12   6     0.01   0.07  -0.11     0.01  -0.05  -0.03     0.00  -0.06  -0.01
  13   6     0.00  -0.30   0.35     0.04  -0.04  -0.03     0.03  -0.05  -0.05
  14   1    -0.04  -0.01  -0.00    -0.07  -0.03  -0.02    -0.07   0.06  -0.03
  15   8     0.00  -0.01  -0.01    -0.01  -0.04  -0.02     0.00   0.05   0.01
  16   6     0.00  -0.00   0.06    -0.00   0.09   0.08     0.01   0.08   0.07
  17   1    -0.01   0.01   0.02     0.09  -0.09   0.03     0.01  -0.01   0.13
  18   1    -0.01   0.01   0.00    -0.01   0.03   0.01    -0.03   0.08  -0.01
  19   1    -0.01   0.03  -0.01    -0.00  -0.09   0.04     0.01   0.06  -0.05
  20   1    -0.01  -0.06  -0.02     0.03   0.13   0.02    -0.02  -0.10  -0.04
  21   1     0.03   0.03   0.02    -0.10  -0.00  -0.18     0.09   0.14   0.01
  22   1    -0.02   0.02  -0.01     0.01  -0.06   0.06    -0.09   0.05   0.04
  23   1     0.01  -0.02  -0.02    -0.24  -0.06  -0.05    -0.10  -0.29  -0.10
  24   1     0.01  -0.02  -0.02    -0.04   0.08   0.11     0.15   0.15   0.33
  25   1     0.01   0.00   0.00     0.07   0.04   0.04     0.05   0.02   0.03
  26   1    -0.05   0.01  -0.04    -0.22   0.05  -0.19     0.17  -0.06   0.15
  27   1     0.02  -0.06   0.03     0.03  -0.20   0.22    -0.01   0.14  -0.13
  28   1     0.02  -0.01  -0.00     0.13   0.07  -0.07    -0.07   0.07  -0.05
  29   1    -0.04  -0.01  -0.02     0.02   0.07  -0.09     0.10   0.18  -0.12
  30   1     0.03   0.36  -0.45     0.00   0.00   0.01    -0.02   0.03   0.02
  31   1     0.04   0.37  -0.47     0.04  -0.01  -0.02     0.08  -0.03   0.01
  32   1    -0.02   0.00   0.02    -0.12   0.02   0.16     0.05  -0.00  -0.07
  33   1    -0.01  -0.04  -0.07     0.01   0.03   0.02    -0.01   0.01   0.01
  34   1     0.01   0.09   0.04     0.01   0.04   0.03    -0.00   0.03   0.02
  35   1    -0.00   0.04  -0.02     0.00   0.03   0.02    -0.01   0.05   0.03
                     37                     38                     39
                        a                      a                      a 
 Frequencies --   942.8949               958.1579               964.3725
 Red. masses --     7.1107                 5.9162                 7.2113
 Frc consts  --     0.0000                 0.0000                 0.0000
 IR Inten    --     6.5639                 3.1036                11.4341
 Raman Activ --     0.0000                 0.0000                 0.0000
 Depolar     --     0.0000                 0.0000                 0.0000
 Atom AN      X      Y      Z        X      Y      Z        X      Y      Z
   1   6     0.08  -0.06  -0.02     0.03  -0.06  -0.08     0.07  -0.13  -0.13
   2   6     0.26   0.04  -0.14     0.03   0.17  -0.05    -0.10   0.19  -0.04
   3   6    -0.12  -0.12   0.13    -0.14  -0.18   0.19     0.04  -0.09   0.19
   4   6    -0.18   0.05  -0.06     0.06  -0.02  -0.12     0.04  -0.00  -0.21
   5   6     0.19   0.09  -0.18     0.06   0.19   0.05    -0.23   0.08  -0.00
   6   6    -0.08  -0.15   0.17     0.00  -0.15   0.08     0.07  -0.26   0.02
   7   6     0.16  -0.14  -0.05    -0.16   0.03   0.20     0.17  -0.12   0.12
   8   6    -0.06   0.06   0.07     0.04  -0.02  -0.10    -0.01   0.11   0.01
   9   8    -0.01   0.03  -0.00    -0.00   0.03  -0.00     0.06   0.06   0.05
  10   6    -0.12   0.02  -0.07     0.03   0.04  -0.03    -0.08  -0.06  -0.09
  11   6    -0.13   0.13   0.13     0.08  -0.22  -0.22    -0.04   0.08   0.06
  12   6     0.01   0.08   0.08     0.03   0.05   0.05    -0.04  -0.10  -0.06
  13   6    -0.02   0.13   0.12     0.01   0.06   0.07    -0.07  -0.17  -0.14
  14   1     0.08   0.08  -0.06     0.00   0.17  -0.06    -0.06   0.20  -0.08
  15   8    -0.02   0.03   0.05    -0.01   0.01   0.02    -0.05   0.07   0.11
  16   6    -0.06  -0.19  -0.14    -0.01  -0.11  -0.08     0.06   0.15   0.13
  17   1    -0.03   0.03   0.20    -0.02   0.01   0.23    -0.02  -0.01   0.04
  18   1     0.07   0.04  -0.08     0.05   0.07  -0.07     0.03  -0.05   0.04
  19   1     0.10  -0.12  -0.04     0.10   0.04  -0.12     0.04  -0.06  -0.04
  20   1     0.00   0.13   0.12     0.05   0.03  -0.06     0.13   0.12  -0.14
  21   1     0.06   0.04  -0.05     0.05   0.13   0.03    -0.10   0.11  -0.05
  22   1    -0.11   0.01   0.07    -0.02  -0.03   0.02     0.09  -0.09   0.01
  23   1     0.08  -0.03  -0.01    -0.07   0.16   0.06     0.12   0.08   0.04
  24   1     0.08  -0.05  -0.02    -0.10  -0.02  -0.10     0.03  -0.06  -0.10
  25   1     0.09   0.05   0.04     0.02   0.01   0.01    -0.03   0.00  -0.01
  26   1     0.03   0.02   0.05    -0.04   0.01  -0.04     0.04   0.01   0.05
  27   1    -0.02   0.06  -0.08    -0.01  -0.02   0.04    -0.01   0.06  -0.08
  28   1     0.24  -0.01  -0.05    -0.36   0.13  -0.04     0.09  -0.02   0.01
  29   1    -0.23  -0.07  -0.16     0.29   0.05   0.26    -0.11  -0.06  -0.03
  30   1     0.08  -0.07  -0.13     0.05  -0.02  -0.08    -0.15   0.21   0.13
  31   1    -0.22   0.03   0.04    -0.11   0.02   0.01     0.31  -0.06  -0.03
  32   1     0.05  -0.01  -0.06    -0.03   0.00   0.05     0.04  -0.01  -0.04
  33   1     0.02  -0.03  -0.03    -0.00  -0.04  -0.04    -0.03  -0.00  -0.00
  34   1     0.02  -0.02  -0.01    -0.00  -0.02  -0.02    -0.03   0.02   0.01
  35   1     0.01  -0.12  -0.10    -0.00  -0.02  -0.03    -0.02   0.14   0.10
                     40                     41                     42
                        a                      a                      a 
 Frequencies --   996.6777              1016.9498              1037.0865
 Red. masses --     6.3501                 4.9812                 5.6268
 Frc consts  --     0.0000                 0.0000                 0.0000
 IR Inten    --     8.2471                 5.7341                 8.6122
 Raman Activ --     0.0000                 0.0000                 0.0000
 Depolar     --     0.0000                 0.0000                 0.0000
 Atom AN      X      Y      Z        X      Y      Z        X      Y      Z
   1   6    -0.02  -0.05  -0.07     0.05   0.02  -0.08    -0.01   0.21   0.14
   2   6    -0.36  -0.02   0.08    -0.07  -0.02   0.00    -0.02   0.11   0.00
   3   6    -0.03   0.05   0.06    -0.12  -0.11  -0.13    -0.04  -0.14   0.02
   4   6     0.21  -0.07  -0.12     0.16   0.06   0.16     0.09   0.11   0.00
   5   6    -0.28   0.00   0.02    -0.06  -0.05  -0.09    -0.02  -0.08   0.00
   6   6     0.08  -0.09  -0.10    -0.05  -0.00  -0.03     0.10   0.03   0.03
   7   6     0.14   0.02   0.01    -0.01   0.02   0.08    -0.15  -0.04  -0.05
   8   6    -0.00   0.03   0.04     0.01  -0.03   0.00     0.03  -0.05  -0.04
   9   8     0.08   0.03   0.05     0.03   0.01   0.03    -0.03  -0.04  -0.06
  10   6     0.02  -0.03  -0.03    -0.00  -0.05  -0.02    -0.06  -0.05   0.17
  11   6    -0.00   0.06   0.06    -0.00   0.04   0.05     0.02   0.03   0.04
  12   6     0.06   0.02   0.02     0.05   0.08   0.17     0.02   0.18  -0.19
  13   6     0.25   0.16   0.13    -0.14   0.08   0.08    -0.01   0.02  -0.02
  14   1    -0.18   0.07  -0.03     0.11   0.01   0.02    -0.03  -0.03   0.02
  15   8    -0.02   0.02   0.04    -0.01   0.03   0.04     0.04  -0.04  -0.12
  16   6    -0.08  -0.05  -0.05     0.30  -0.10  -0.19    -0.00  -0.24   0.24
  17   1     0.04  -0.04  -0.06     0.15  -0.08   0.08     0.06  -0.04   0.11
  18   1    -0.11   0.03   0.09    -0.07   0.20  -0.08     0.02   0.09  -0.06
  19   1    -0.07   0.06   0.01    -0.08   0.18   0.03     0.03   0.10  -0.06
  20   1     0.07  -0.06  -0.20    -0.04  -0.12  -0.07     0.04   0.02  -0.08
  21   1    -0.13   0.10  -0.07    -0.14  -0.05  -0.13    -0.10  -0.10  -0.07
  22   1     0.14  -0.07  -0.03     0.05  -0.03  -0.02     0.10  -0.06  -0.04
  23   1     0.06  -0.01   0.01    -0.06   0.05   0.02    -0.05   0.00  -0.01
  24   1     0.03   0.01   0.02     0.05  -0.01  -0.01     0.02  -0.02  -0.02
  25   1    -0.09  -0.04  -0.04     0.03   0.02   0.02    -0.05  -0.03  -0.04
  26   1    -0.00  -0.01  -0.01     0.02   0.00   0.03     0.07  -0.02   0.09
  27   1    -0.01   0.01   0.00     0.02   0.00  -0.04     0.02   0.03  -0.05
  28   1     0.08  -0.03   0.02     0.08   0.01  -0.02     0.07  -0.01  -0.00
  29   1    -0.06  -0.01  -0.05    -0.06  -0.03  -0.02    -0.04  -0.03  -0.02
  30   1     0.24  -0.28  -0.18    -0.05   0.04   0.02    -0.01   0.03  -0.01
  31   1    -0.33   0.05   0.03    -0.06   0.07  -0.03    -0.01  -0.14   0.17
  32   1    -0.01   0.01   0.01     0.02  -0.01  -0.02     0.05  -0.02  -0.08
  33   1     0.05   0.05   0.04    -0.17  -0.18  -0.08    -0.01  -0.26  -0.36
  34   1     0.04   0.03   0.03    -0.17  -0.31  -0.24     0.00   0.38   0.17
  35   1     0.02  -0.13  -0.10    -0.06   0.28   0.27    -0.01   0.12  -0.13
                     43                     44                     45
                        a                      a                      a 
 Frequencies --  1044.8480              1050.7554              1066.3962
 Red. masses --     5.5520                10.5113                 7.4289
 Frc consts  --     0.0000                 0.0000                 0.0000
 IR Inten    --    31.7641               113.8400                10.9628
 Raman Activ --     0.0000                 0.0000                 0.0000
 Depolar     --     0.0000                 0.0000                 0.0000
 Atom AN      X      Y      Z        X      Y      Z        X      Y      Z
   1   6    -0.10  -0.28  -0.05     0.24  -0.08   0.01     0.02   0.20   0.28
   2   6    -0.04  -0.13  -0.06     0.03  -0.09   0.09    -0.18   0.03  -0.19
   3   6     0.10   0.14   0.03    -0.02   0.08  -0.10     0.14  -0.02   0.18
   4   6    -0.12  -0.11  -0.05     0.02  -0.08   0.11    -0.10   0.03  -0.22
   5   6    -0.02   0.09   0.01    -0.04   0.08  -0.01     0.06  -0.09   0.10
   6   6    -0.01  -0.05  -0.05    -0.07   0.03  -0.01     0.14   0.11   0.13
   7   6     0.20   0.08  -0.01    -0.05  -0.04  -0.05    -0.16  -0.03  -0.19
   8   6    -0.04   0.03   0.08    -0.00   0.03   0.02     0.01  -0.02  -0.02
   9   8     0.04   0.04   0.05     0.01   0.01   0.02    -0.13  -0.10  -0.13
  10   6     0.03   0.16  -0.05     0.13  -0.12  -0.51     0.03  -0.08  -0.07
  11   6    -0.01  -0.03  -0.03     0.00  -0.02  -0.02     0.03  -0.02  -0.01
  12   6     0.01   0.16  -0.09     0.00   0.07  -0.08    -0.01  -0.07   0.07
  13   6    -0.07   0.09   0.05     0.00   0.00  -0.03     0.01   0.09   0.07
  14   1    -0.01  -0.02  -0.02     0.01  -0.08   0.05    -0.15   0.02  -0.07
  15   8     0.01  -0.05  -0.03    -0.17   0.21   0.47    -0.04   0.05   0.12
  16   6     0.20  -0.17   0.10    -0.04  -0.07   0.10     0.16   0.04  -0.05
  17   1    -0.07   0.04  -0.12    -0.01   0.02  -0.03    -0.00  -0.03  -0.07
  18   1    -0.03  -0.06   0.09    -0.03   0.03  -0.01     0.01  -0.09   0.10
  19   1    -0.06  -0.17   0.10    -0.06   0.03   0.04     0.04  -0.16   0.00
  20   1     0.02   0.06   0.04    -0.06  -0.10   0.03     0.13   0.20  -0.05
  21   1     0.15   0.12   0.12    -0.01   0.05  -0.01     0.13  -0.04   0.13
  22   1    -0.10   0.07   0.06    -0.07   0.04   0.01     0.03  -0.00  -0.01
  23   1     0.16  -0.08   0.00    -0.14   0.01  -0.02     0.07  -0.10  -0.05
  24   1    -0.07   0.06   0.07    -0.03  -0.01  -0.02    -0.14   0.02   0.00
  25   1    -0.04  -0.01  -0.01     0.05   0.03   0.03     0.01  -0.00  -0.01
  26   1    -0.08  -0.01  -0.14    -0.05   0.08  -0.03     0.02   0.03   0.06
  27   1    -0.11   0.05   0.17     0.14  -0.18  -0.20     0.15  -0.14  -0.16
  28   1    -0.06  -0.00   0.02    -0.04   0.02  -0.01    -0.02  -0.03   0.03
  29   1     0.05   0.05  -0.01     0.02   0.00   0.02     0.03   0.03  -0.01
  30   1    -0.01  -0.01   0.00    -0.00  -0.01   0.01     0.04  -0.04  -0.05
  31   1    -0.09  -0.04   0.10     0.01  -0.06   0.07    -0.12   0.04   0.01
  32   1    -0.12   0.05   0.14     0.10  -0.03  -0.06     0.12  -0.05  -0.13
  33   1    -0.11  -0.27  -0.28     0.02  -0.06  -0.11    -0.08  -0.05   0.00
  34   1    -0.10   0.10  -0.02     0.02   0.15   0.08    -0.07  -0.15  -0.11
  35   1    -0.03   0.25   0.09     0.01  -0.00  -0.08    -0.02   0.14   0.16
                     46                     47                     48
                        a                      a                      a 
 Frequencies --  1081.2066              1093.9239              1126.7011
 Red. masses --     6.5034                 5.9654                 6.8008
 Frc consts  --     0.0000                 0.0000                 0.0000
 IR Inten    --    12.1978                 2.0269                22.1852
 Raman Activ --     0.0000                 0.0000                 0.0000
 Depolar     --     0.0000                 0.0000                 0.0000
 Atom AN      X      Y      Z        X      Y      Z        X      Y      Z
   1   6     0.03  -0.13  -0.25     0.14   0.22  -0.16     0.18  -0.06   0.14
   2   6    -0.21   0.14   0.04    -0.11  -0.19   0.07    -0.04   0.19  -0.03
   3   6     0.17  -0.13  -0.03     0.08   0.09   0.02     0.01  -0.12  -0.13
   4   6    -0.02   0.11  -0.03    -0.15  -0.12  -0.02     0.02   0.01   0.10
   5   6     0.12  -0.31   0.09     0.04   0.11  -0.01    -0.10   0.00  -0.10
   6   6    -0.23   0.22   0.04    -0.12  -0.15  -0.03    -0.22  -0.22  -0.27
   7   6     0.07   0.06   0.17     0.02  -0.16   0.05    -0.05  -0.01  -0.07
   8   6     0.01   0.02  -0.06     0.02   0.20  -0.06    -0.03  -0.02   0.11
   9   8    -0.07  -0.02   0.03     0.06   0.07   0.07     0.17   0.14   0.16
  10   6     0.03  -0.05  -0.05    -0.09  -0.03   0.24    -0.11   0.16   0.15
  11   6    -0.03   0.02   0.00    -0.01  -0.04  -0.04     0.06  -0.02   0.00
  12   6     0.01   0.01  -0.05    -0.02  -0.01  -0.04     0.02   0.00   0.04
  13   6     0.07   0.01   0.01     0.01   0.04   0.03     0.02  -0.03  -0.02
  14   1    -0.09   0.30  -0.11    -0.08  -0.08   0.02     0.03   0.02   0.02
  15   8    -0.02   0.03   0.04     0.02  -0.01  -0.14     0.00  -0.02  -0.10
  16   6    -0.02  -0.02   0.04     0.06   0.00   0.04    -0.05  -0.01  -0.01
  17   1     0.24  -0.19  -0.15     0.06  -0.06  -0.16     0.13  -0.09   0.00
  18   1     0.07  -0.05  -0.03    -0.02  -0.07   0.07    -0.07   0.10  -0.02
  19   1     0.07  -0.01  -0.05    -0.04  -0.16   0.08    -0.14  -0.03   0.16
  20   1    -0.03   0.03   0.07    -0.07  -0.01   0.15     0.06   0.01  -0.12
  21   1     0.06  -0.30   0.11     0.10   0.21   0.03     0.21  -0.08   0.21
  22   1    -0.13   0.09   0.02     0.00  -0.08  -0.08    -0.16   0.03  -0.01
  23   1    -0.04   0.09   0.04    -0.33   0.14  -0.01     0.17  -0.09  -0.00
  24   1     0.05  -0.00  -0.02     0.31  -0.12  -0.09    -0.30   0.06  -0.00
  25   1     0.23   0.11   0.13     0.10   0.07   0.06     0.04   0.03   0.04
  26   1    -0.01   0.00  -0.01     0.00   0.07   0.16    -0.09   0.12   0.09
  27   1    -0.04   0.04   0.02     0.07  -0.01  -0.09     0.10  -0.09  -0.08
  28   1     0.01  -0.03   0.02    -0.07   0.04  -0.02     0.00  -0.00   0.01
  29   1    -0.03  -0.01  -0.01     0.02  -0.04   0.08     0.06   0.04   0.01
  30   1     0.04  -0.03  -0.02     0.02  -0.04  -0.00     0.00   0.02  -0.01
  31   1    -0.03  -0.01   0.02    -0.05   0.01   0.01     0.03  -0.01  -0.00
  32   1    -0.04   0.01   0.05     0.11  -0.06  -0.16     0.15  -0.08  -0.20
  33   1     0.01  -0.02  -0.04    -0.03  -0.04  -0.04     0.02   0.02   0.02
  34   1     0.01   0.06   0.03    -0.03   0.01  -0.01     0.02   0.03   0.02
  35   1     0.00   0.00  -0.03    -0.01   0.07   0.04     0.01  -0.06  -0.04
                     49                     50                     51
                        a                      a                      a 
 Frequencies --  1137.3544              1143.5500              1155.8817
 Red. masses --     5.9341                 8.3430                 4.7317
 Frc consts  --     0.0000                 0.0000                 0.0000
 IR Inten    --    86.7314                11.4730                41.9628
 Raman Activ --     0.0000                 0.0000                 0.0000
 Depolar     --     0.0000                 0.0000                 0.0000
 Atom AN      X      Y      Z        X      Y      Z        X      Y      Z
   1   6    -0.22   0.11   0.10    -0.32   0.21   0.04    -0.16   0.18  -0.05
   2   6     0.00   0.01  -0.07    -0.13   0.31  -0.09     0.02  -0.11  -0.02
   3   6    -0.00   0.01   0.09     0.18  -0.27  -0.17     0.06   0.02   0.12
   4   6     0.07   0.07  -0.07    -0.19  -0.06   0.23    -0.03   0.04  -0.02
   5   6     0.01  -0.08  -0.01     0.08   0.20  -0.07     0.07  -0.00   0.01
   6   6    -0.25  -0.16  -0.28     0.06  -0.11   0.02    -0.26  -0.08  -0.22
   7   6    -0.00   0.03   0.07     0.01  -0.03  -0.00    -0.08   0.06   0.05
   8   6     0.03  -0.01  -0.10    -0.00   0.03   0.00    -0.02  -0.11   0.03
   9   8     0.19   0.14   0.15     0.07   0.03  -0.01     0.15   0.10   0.11
  10   6     0.11  -0.10  -0.10     0.14  -0.20  -0.10     0.10  -0.07   0.00
  11   6     0.02   0.03   0.04     0.01  -0.01  -0.01     0.03   0.01   0.02
  12   6    -0.03  -0.04  -0.01     0.01  -0.01   0.02    -0.02  -0.01  -0.05
  13   6     0.00   0.03   0.02     0.04  -0.01  -0.00    -0.01   0.02   0.02
  14   1    -0.05  -0.22   0.06     0.02   0.01   0.01    -0.04   0.08  -0.06
  15   8    -0.01   0.01   0.08    -0.00   0.02   0.10    -0.02   0.02   0.04
  16   6     0.04   0.03   0.02    -0.03  -0.01  -0.01     0.03   0.01   0.03
  17   1    -0.27   0.19   0.14     0.21  -0.16  -0.05     0.01  -0.02  -0.04
  18   1     0.05  -0.05   0.00     0.05   0.01  -0.07     0.14  -0.14  -0.02
  19   1     0.08   0.07  -0.11    -0.15  -0.11   0.21     0.20   0.08  -0.22
  20   1     0.13   0.10  -0.18    -0.03   0.00   0.07    -0.24  -0.15   0.33
  21   1     0.14  -0.31   0.19     0.05   0.11  -0.00    -0.10   0.14  -0.14
  22   1    -0.13   0.03  -0.01    -0.04   0.02   0.04     0.15  -0.15  -0.16
  23   1    -0.17   0.07   0.01     0.07   0.00   0.01     0.38  -0.05   0.05
  24   1     0.27  -0.05   0.02     0.16  -0.04   0.01    -0.19   0.04  -0.01
  25   1    -0.04  -0.02  -0.01    -0.20  -0.09  -0.10     0.00   0.01   0.01
  26   1     0.05  -0.07  -0.06     0.10  -0.13  -0.06     0.01  -0.01   0.00
  27   1    -0.00  -0.02   0.02    -0.01  -0.00   0.02     0.09  -0.11  -0.05
  28   1     0.07  -0.01  -0.00    -0.01   0.02  -0.02     0.03  -0.01   0.00
  29   1    -0.03  -0.03   0.01     0.01  -0.01   0.02     0.01   0.02  -0.01
  30   1     0.02  -0.02  -0.02     0.02   0.00  -0.03     0.00  -0.02   0.01
  31   1    -0.04   0.01   0.01     0.01  -0.01   0.00    -0.03   0.00   0.01
  32   1    -0.05   0.03   0.07    -0.09   0.06   0.13     0.04  -0.01  -0.05
  33   1    -0.01  -0.01  -0.01     0.01   0.02   0.02    -0.01  -0.02  -0.03
  34   1    -0.01  -0.02  -0.01     0.01   0.02   0.01    -0.01   0.00  -0.00
  35   1    -0.01   0.04   0.04     0.00  -0.04  -0.02    -0.01   0.05   0.02
                     52                     53                     54
                        a                      a                      a 
 Frequencies --  1166.2461              1195.3939              1196.4551
 Red. masses --     3.7292                 5.8922                 5.7229
 Frc consts  --     0.0000                 0.0000                 0.0000
 IR Inten    --    33.3005                12.4198                31.9525
 Raman Activ --     0.0000                 0.0000                 0.0000
 Depolar     --     0.0000                 0.0000                 0.0000
 Atom AN      X      Y      Z        X      Y      Z        X      Y      Z
   1   6    -0.06   0.24  -0.04    -0.33  -0.01  -0.20     0.20  -0.03   0.36
   2   6     0.09  -0.10   0.07     0.12  -0.13   0.02     0.13   0.04  -0.10
   3   6    -0.16   0.05   0.05    -0.15   0.07   0.09    -0.08   0.04   0.13
   4   6     0.05   0.04  -0.12     0.04   0.06  -0.18     0.05   0.03  -0.15
   5   6    -0.04  -0.11  -0.04     0.05  -0.20   0.09    -0.10  -0.14   0.07
   6   6    -0.05   0.03  -0.02    -0.06   0.06   0.07    -0.16   0.03  -0.11
   7   6    -0.07  -0.07   0.00    -0.00   0.07   0.09    -0.04  -0.03  -0.06
   8   6     0.01   0.02  -0.03     0.02   0.02  -0.07     0.04  -0.03  -0.11
   9   8    -0.10  -0.01   0.03     0.07  -0.01  -0.02     0.15   0.03   0.02
  10   6     0.03  -0.17  -0.11     0.16   0.03   0.09    -0.11   0.06  -0.12
  11   6     0.05   0.00   0.02     0.01   0.01   0.01     0.01   0.03   0.03
  12   6     0.06   0.09   0.04     0.11   0.15   0.07     0.04   0.02   0.07
  13   6    -0.03  -0.04  -0.03    -0.05  -0.05  -0.04    -0.05  -0.01  -0.01
  14   1     0.12  -0.04   0.05     0.17   0.09  -0.01    -0.08   0.11  -0.09
  15   8     0.03   0.01   0.05    -0.06   0.02   0.02     0.03  -0.03   0.01
  16   6    -0.05  -0.04  -0.02    -0.06  -0.07  -0.04    -0.01  -0.02  -0.03
  17   1     0.07  -0.05   0.01     0.10  -0.08  -0.03     0.25  -0.19  -0.13
  18   1    -0.18   0.16   0.07    -0.19   0.16   0.10    -0.10   0.08   0.07
  19   1    -0.12  -0.09   0.14    -0.05  -0.08   0.06     0.07   0.00  -0.09
  20   1     0.08   0.07  -0.10     0.05   0.07  -0.05    -0.14  -0.10   0.18
  21   1     0.25   0.17   0.17     0.06   0.09   0.02     0.09   0.19   0.07
  22   1     0.20  -0.19  -0.21    -0.04   0.10   0.16     0.01   0.04   0.07
  23   1     0.18   0.00   0.02     0.10   0.03   0.04    -0.27   0.02  -0.04
  24   1    -0.07  -0.01  -0.02     0.17  -0.01   0.03     0.01  -0.01   0.01
  25   1     0.34   0.19   0.18    -0.24  -0.13  -0.12    -0.26  -0.14  -0.14
  26   1     0.14  -0.14  -0.06    -0.12   0.10   0.03     0.10  -0.11  -0.09
  27   1    -0.10   0.14   0.04     0.21  -0.27  -0.06    -0.13   0.15   0.06
  28   1     0.03  -0.02   0.02     0.02  -0.03   0.02     0.04  -0.03   0.02
  29   1     0.03   0.01   0.01     0.00   0.00   0.00    -0.02  -0.01  -0.02
  30   1    -0.03   0.03   0.03    -0.05   0.05   0.05    -0.04   0.05   0.02
  31   1     0.06  -0.01  -0.01     0.08  -0.01  -0.01     0.02   0.00  -0.00
  32   1    -0.14   0.08   0.18     0.13  -0.07  -0.17    -0.09   0.03   0.12
  33   1     0.02   0.00  -0.00     0.02   0.00  -0.01    -0.00   0.01   0.01
  34   1     0.01   0.02   0.01     0.02   0.01   0.01     0.01  -0.01  -0.00
  35   1     0.01  -0.06  -0.06     0.01  -0.07  -0.07    -0.00  -0.02  -0.00
                     55                     56                     57
                        a                      a                      a 
 Frequencies --  1238.2237              1247.1707              1256.9204
 Red. masses --     5.6884                 9.0608                 5.3608
 Frc consts  --     0.0000                 0.0000                 0.0000
 IR Inten    --     9.6636                16.8421                21.0650
 Raman Activ --     0.0000                 0.0000                 0.0000
 Depolar     --     0.0000                 0.0000                 0.0000
 Atom AN      X      Y      Z        X      Y      Z        X      Y      Z
   1   6     0.12   0.16  -0.00     0.22   0.14  -0.16     0.05   0.11  -0.21
   2   6    -0.02  -0.05   0.01    -0.06  -0.10   0.07    -0.03   0.09   0.03
   3   6    -0.03   0.07   0.06     0.02   0.07  -0.02     0.01  -0.10  -0.01
   4   6    -0.05  -0.08  -0.15    -0.08  -0.13   0.04     0.00   0.17   0.00
   5   6     0.29   0.01   0.15     0.06   0.23   0.22     0.10  -0.28   0.04
   6   6    -0.14  -0.04  -0.07     0.03  -0.12   0.06    -0.19   0.12   0.07
   7   6     0.04  -0.12  -0.07    -0.24   0.13   0.13     0.27  -0.07   0.08
   8   6    -0.08   0.21   0.27     0.13  -0.41  -0.37     0.01  -0.00  -0.00
   9   8     0.10   0.07   0.02     0.03   0.05  -0.02     0.07  -0.01  -0.01
  10   6    -0.05  -0.08  -0.05    -0.03  -0.12  -0.01    -0.03  -0.13  -0.01
  11   6    -0.04  -0.09  -0.11    -0.03   0.11   0.10    -0.04   0.01  -0.01
  12   6     0.06   0.06   0.06     0.01   0.01  -0.00    -0.09  -0.09  -0.07
  13   6    -0.02  -0.02  -0.02     0.00  -0.00  -0.00     0.04   0.03   0.02
  14   1     0.02  -0.07   0.03     0.03  -0.00   0.01     0.03  -0.25   0.12
  15   8     0.04   0.00  -0.00     0.05   0.02  -0.04     0.06   0.03  -0.02
  16   6    -0.02  -0.03  -0.03    -0.00  -0.00  -0.00     0.03   0.03   0.03
  17   1     0.08  -0.06  -0.06     0.02  -0.01  -0.06    -0.11   0.08   0.11
  18   1    -0.17   0.10   0.12    -0.06   0.02   0.05     0.08  -0.04  -0.06
  19   1    -0.01  -0.12   0.02     0.01  -0.01  -0.03    -0.08  -0.04   0.12
  20   1     0.09   0.09  -0.09     0.09   0.07  -0.08     0.03   0.07  -0.02
  21   1    -0.37  -0.32  -0.29    -0.01   0.03   0.04     0.06   0.27  -0.04
  22   1    -0.17   0.02  -0.08    -0.27   0.09   0.01     0.09   0.01   0.10
  23   1     0.11  -0.03  -0.01     0.12   0.03   0.05    -0.18   0.08   0.00
  24   1    -0.08  -0.01  -0.02    -0.11   0.03  -0.03    -0.45   0.07  -0.06
  25   1    -0.10  -0.05  -0.05    -0.08  -0.04  -0.04    -0.19  -0.10  -0.10
  26   1     0.05  -0.03   0.02    -0.05   0.10   0.11    -0.05   0.09   0.11
  27   1    -0.06   0.10  -0.02    -0.06   0.11  -0.01    -0.00   0.05  -0.07
  28   1    -0.18   0.05  -0.01     0.15  -0.05   0.01    -0.04  -0.01   0.02
  29   1     0.04   0.02   0.03    -0.12  -0.04  -0.09    -0.03   0.00  -0.04
  30   1    -0.02   0.02   0.02     0.00  -0.01   0.00     0.04  -0.04  -0.04
  31   1     0.03  -0.00  -0.00     0.01   0.00  -0.00    -0.04   0.00   0.01
  32   1    -0.08   0.05   0.11    -0.08   0.05   0.10    -0.07   0.04   0.09
  33   1     0.00   0.00   0.00    -0.00   0.00   0.00    -0.01   0.00   0.01
  34   1     0.01  -0.00   0.00    -0.00   0.00  -0.00    -0.01   0.01   0.00
  35   1     0.00  -0.03  -0.02     0.00  -0.00  -0.00    -0.01   0.04   0.04
                     58                     59                     60
                        a                      a                      a 
 Frequencies --  1269.4569              1275.6630              1286.0038
 Red. masses --     6.5641                 6.3993                 4.7971
 Frc consts  --     0.0000                 0.0000                 0.0000
 IR Inten    --     9.8284                21.5504                10.4688
 Raman Activ --     0.0000                 0.0000                 0.0000
 Depolar     --     0.0000                 0.0000                 0.0000
 Atom AN      X      Y      Z        X      Y      Z        X      Y      Z
   1   6    -0.04  -0.26   0.15     0.20  -0.02   0.02    -0.03   0.14   0.05
   2   6    -0.06   0.12  -0.05     0.17  -0.08   0.14    -0.06  -0.33   0.09
   3   6     0.07  -0.06  -0.05    -0.11  -0.01  -0.14     0.01   0.04  -0.14
   4   6    -0.12   0.00   0.01     0.05   0.10   0.04     0.00  -0.06   0.09
   5   6     0.30   0.03   0.27     0.09  -0.17   0.08     0.06   0.17  -0.11
   6   6    -0.14   0.06  -0.17    -0.16   0.06   0.00    -0.15   0.02   0.16
   7   6     0.03   0.12   0.05    -0.29   0.01  -0.04     0.14  -0.03   0.00
   8   6     0.08  -0.18  -0.18    -0.02   0.08   0.03     0.01  -0.04  -0.00
   9   8    -0.00   0.03   0.04     0.07   0.01  -0.00     0.08   0.01  -0.03
  10   6     0.03   0.18   0.02    -0.02   0.03  -0.03    -0.04   0.01   0.01
  11   6    -0.07   0.04   0.02     0.04  -0.03  -0.02    -0.02   0.01   0.00
  12   6     0.04   0.04   0.05    -0.21  -0.24  -0.22     0.12   0.13   0.07
  13   6     0.00  -0.02  -0.01     0.05   0.06   0.05    -0.04  -0.03  -0.02
  14   1     0.02  -0.04   0.02    -0.05   0.25  -0.10    -0.07   0.48  -0.22
  15   8    -0.10  -0.03   0.04    -0.02  -0.01   0.01     0.02  -0.01   0.01
  16   6    -0.02  -0.02  -0.02     0.07   0.09   0.07    -0.03  -0.04  -0.03
  17   1    -0.04   0.03   0.01    -0.06   0.06   0.09    -0.13   0.10   0.03
  18   1    -0.03   0.03   0.01     0.10  -0.04  -0.13     0.10  -0.07  -0.09
  19   1    -0.09  -0.12   0.13    -0.17  -0.06   0.22    -0.08  -0.02   0.09
  20   1     0.11   0.14  -0.09     0.09   0.07  -0.11     0.07   0.03  -0.10
  21   1    -0.17   0.17  -0.20    -0.02   0.15  -0.07     0.10  -0.22   0.12
  22   1     0.20  -0.18  -0.22     0.00   0.00   0.01     0.20  -0.15  -0.07
  23   1    -0.19   0.00  -0.01     0.27  -0.06   0.02    -0.18   0.03  -0.02
  24   1     0.01   0.03   0.02     0.30  -0.07   0.00    -0.20   0.04  -0.02
  25   1     0.11   0.06   0.06    -0.11  -0.06  -0.06    -0.17  -0.09  -0.10
  26   1     0.07  -0.14  -0.17     0.03  -0.03  -0.03     0.07  -0.07  -0.04
  27   1     0.00  -0.05   0.08    -0.06   0.06   0.05     0.04  -0.05  -0.05
  28   1    -0.01  -0.01   0.00     0.00  -0.01   0.01    -0.01   0.01  -0.01
  29   1    -0.10  -0.03  -0.07     0.06   0.02   0.04    -0.03  -0.01  -0.02
  30   1    -0.00   0.01  -0.00     0.04  -0.06  -0.04    -0.04   0.03   0.06
  31   1     0.03  -0.00  -0.00    -0.12   0.02   0.01     0.03   0.00  -0.01
  32   1     0.13  -0.08  -0.18     0.00  -0.00  -0.01    -0.02   0.00   0.03
  33   1    -0.00   0.00   0.00    -0.03   0.01   0.04     0.01  -0.00  -0.01
  34   1     0.00   0.00   0.00    -0.03   0.04   0.00     0.01  -0.01  -0.00
  35   1     0.01  -0.03  -0.02    -0.01   0.10   0.08     0.01  -0.05  -0.04
                     61                     62                     63
                        a                      a                      a 
 Frequencies --  1297.9000              1314.5052              1321.5954
 Red. masses --     7.9337                 4.5352                 4.2714
 Frc consts  --     0.0000                 0.0000                 0.0000
 IR Inten    --    10.5540                29.4838                43.3815
 Raman Activ --     0.0000                 0.0000                 0.0000
 Depolar     --     0.0000                 0.0000                 0.0000
 Atom AN      X      Y      Z        X      Y      Z        X      Y      Z
   1   6    -0.20   0.05  -0.05    -0.22  -0.08   0.19     0.09  -0.22   0.03
   2   6     0.37   0.09   0.13     0.15  -0.02   0.01    -0.06   0.12  -0.03
   3   6    -0.15   0.07   0.02    -0.05  -0.02  -0.05     0.07  -0.01   0.04
   4   6     0.02  -0.12  -0.06     0.03   0.04  -0.00    -0.05  -0.06  -0.05
   5   6     0.01   0.20  -0.01     0.02  -0.07   0.12     0.07   0.21  -0.06
   6   6     0.05  -0.04   0.05     0.15  -0.07  -0.19    -0.23   0.10   0.06
   7   6     0.16  -0.02   0.05     0.08   0.02  -0.01    -0.11   0.05  -0.01
   8   6     0.03  -0.08  -0.04     0.02  -0.02  -0.03    -0.00  -0.02  -0.02
   9   8    -0.01   0.01  -0.00    -0.04   0.03   0.04     0.01  -0.05  -0.01
  10   6     0.04   0.05   0.03    -0.16  -0.02  -0.03    -0.13  -0.01  -0.03
  11   6    -0.03   0.02   0.01    -0.02   0.01   0.00     0.00   0.00   0.00
  12   6    -0.27  -0.31  -0.28     0.00  -0.02  -0.01    -0.09  -0.05  -0.05
  13   6     0.05   0.08   0.07    -0.02   0.01   0.00     0.04   0.01   0.01
  14   1     0.00   0.04   0.00    -0.18   0.17  -0.11     0.26  -0.07   0.09
  15   8    -0.04  -0.01   0.03     0.22   0.02  -0.07     0.13   0.02  -0.05
  16   6     0.08   0.09   0.08     0.01   0.01   0.01     0.01   0.01   0.01
  17   1     0.21  -0.15  -0.08     0.00  -0.00   0.01     0.01  -0.01  -0.00
  18   1    -0.15   0.13   0.07     0.03   0.01  -0.06    -0.13   0.07   0.11
  19   1    -0.01  -0.03  -0.01    -0.07  -0.02   0.09     0.03  -0.05  -0.03
  20   1     0.01  -0.02  -0.02     0.01   0.02  -0.01    -0.03  -0.02   0.04
  21   1    -0.01  -0.22   0.06    -0.10   0.13  -0.11     0.05  -0.21   0.08
  22   1     0.00  -0.04  -0.06    -0.16   0.03  -0.12     0.50  -0.17   0.11
  23   1    -0.14   0.04  -0.00    -0.12   0.01  -0.01     0.07  -0.02   0.00
  24   1    -0.22   0.04  -0.01     0.03   0.01   0.03     0.17  -0.02   0.04
  25   1     0.01   0.01   0.01     0.16   0.09   0.09    -0.07  -0.04  -0.04
  26   1     0.08  -0.11  -0.09    -0.13   0.21   0.20    -0.13   0.19   0.17
  27   1     0.05  -0.08   0.00     0.20  -0.25  -0.26     0.09  -0.10  -0.14
  28   1    -0.01   0.01  -0.01    -0.02   0.00   0.01     0.02   0.00  -0.01
  29   1    -0.05  -0.02  -0.04    -0.03  -0.01  -0.02     0.01  -0.00   0.01
  30   1     0.05  -0.06  -0.05    -0.02   0.02   0.02     0.05  -0.06  -0.06
  31   1    -0.15   0.02   0.02    -0.03  -0.00   0.01     0.03  -0.01   0.01
  32   1     0.06  -0.03  -0.07    -0.24   0.14   0.34    -0.15   0.09   0.21
  33   1    -0.02   0.02   0.05    -0.00  -0.00  -0.01    -0.00   0.00   0.01
  34   1    -0.02   0.06   0.01    -0.00  -0.00  -0.00    -0.00   0.02   0.00
  35   1    -0.02   0.13   0.11     0.00  -0.01  -0.01    -0.01   0.03   0.02
                     64                     65                     66
                        a                      a                      a 
 Frequencies --  1332.7060              1340.1131              1348.2005
 Red. masses --     3.8280                 3.7927                 3.9292
 Frc consts  --     0.0000                 0.0000                 0.0000
 IR Inten    --    25.0061                 0.4247                31.4749
 Raman Activ --     0.0000                 0.0000                 0.0000
 Depolar     --     0.0000                 0.0000                 0.0000
 Atom AN      X      Y      Z        X      Y      Z        X      Y      Z
   1   6    -0.03  -0.01  -0.04     0.04   0.06   0.05     0.15  -0.03  -0.26
   2   6     0.12   0.04   0.02    -0.21  -0.05   0.00     0.01   0.04   0.00
   3   6     0.04  -0.15  -0.05     0.13  -0.12   0.01    -0.05   0.01   0.03
   4   6     0.19   0.13  -0.27     0.14   0.16  -0.23     0.06   0.01  -0.04
   5   6    -0.02   0.16   0.09    -0.08  -0.01   0.08    -0.01   0.05   0.02
   6   6    -0.00  -0.00  -0.01     0.11  -0.06   0.00    -0.03   0.02   0.06
   7   6    -0.03   0.02   0.03     0.00  -0.01  -0.01    -0.07   0.03   0.04
   8   6     0.04  -0.06  -0.05     0.03  -0.02  -0.03     0.00  -0.03  -0.03
   9   8    -0.03  -0.02  -0.00     0.01   0.03  -0.00    -0.01  -0.02  -0.01
  10   6     0.12  -0.09  -0.03    -0.08   0.07   0.03    -0.26   0.22   0.11
  11   6    -0.01   0.01   0.01    -0.01   0.01   0.01    -0.00   0.01   0.01
  12   6     0.09   0.02   0.06    -0.12  -0.02  -0.07     0.08   0.04   0.06
  13   6    -0.04   0.00  -0.00     0.06  -0.00   0.00    -0.03  -0.00  -0.00
  14   1    -0.44  -0.10  -0.05     0.51   0.18   0.04    -0.28  -0.25   0.04
  15   8    -0.05   0.01  -0.02     0.01  -0.02   0.02     0.07  -0.02   0.05
  16   6    -0.00  -0.01  -0.02     0.01  -0.00   0.01    -0.01   0.00  -0.00
  17   1    -0.12   0.08   0.13    -0.19   0.14   0.15     0.02  -0.02  -0.01
  18   1    -0.08   0.08   0.02    -0.09   0.04   0.09     0.09  -0.06  -0.06
  19   1    -0.22  -0.18   0.28    -0.11  -0.10   0.15    -0.06  -0.04   0.07
  20   1    -0.21  -0.15   0.28    -0.20  -0.13   0.28    -0.03  -0.04   0.03
  21   1    -0.05  -0.21   0.05    -0.04  -0.05   0.01     0.01  -0.06   0.03
  22   1     0.10  -0.01   0.08    -0.23   0.05  -0.09     0.01   0.05   0.12
  23   1     0.04  -0.02   0.01    -0.06   0.03  -0.00     0.13  -0.01   0.02
  24   1     0.00  -0.01  -0.03    -0.02   0.01   0.03     0.02  -0.01  -0.03
  25   1     0.02   0.01   0.01     0.01   0.01   0.00    -0.03  -0.01  -0.01
  26   1    -0.13   0.15   0.09     0.13  -0.15  -0.10     0.32  -0.37  -0.24
  27   1    -0.10   0.13   0.11     0.06  -0.08  -0.06     0.23  -0.28  -0.24
  28   1    -0.02   0.01  -0.00    -0.02   0.00   0.01     0.02  -0.01  -0.00
  29   1    -0.04  -0.02  -0.03    -0.03  -0.01  -0.03     0.00   0.00   0.00
  30   1    -0.06   0.08   0.06     0.08  -0.11  -0.08    -0.03   0.04   0.03
  31   1    -0.06   0.01   0.00     0.08  -0.01  -0.01    -0.01  -0.00   0.01
  32   1     0.05  -0.03  -0.08    -0.02   0.00   0.03    -0.09   0.05   0.14
  33   1    -0.01  -0.00   0.01    -0.01   0.01   0.03     0.00  -0.01  -0.03
  34   1     0.00   0.00  -0.00    -0.02   0.04   0.00     0.01  -0.03  -0.01
  35   1     0.01  -0.03  -0.01    -0.01   0.03   0.02     0.01  -0.03  -0.02
                     67                     68                     69
                        a                      a                      a 
 Frequencies --  1354.6562              1377.1482              1390.4282
 Red. masses --     4.3284                 3.7814                 3.1876
 Frc consts  --     0.0000                 0.0000                 0.0000
 IR Inten    --     4.3638                21.1143                11.2370
 Raman Activ --     0.0000                 0.0000                 0.0000
 Depolar     --     0.0000                 0.0000                 0.0000
 Atom AN      X      Y      Z        X      Y      Z        X      Y      Z
   1   6     0.03   0.03  -0.05     0.00   0.18   0.06     0.00   0.03   0.01
   2   6     0.06   0.00   0.14    -0.01  -0.09   0.02    -0.05  -0.03  -0.02
   3   6     0.34  -0.20  -0.22    -0.01   0.02  -0.01    -0.01   0.02  -0.01
   4   6    -0.19  -0.00   0.10    -0.02  -0.02   0.01    -0.00   0.00   0.01
   5   6    -0.00  -0.10  -0.06     0.06   0.06   0.07     0.01   0.01   0.01
   6   6    -0.01   0.01  -0.00     0.01  -0.11  -0.36     0.00  -0.02  -0.08
   7   6    -0.00  -0.03  -0.01     0.01  -0.04  -0.01    -0.00  -0.00  -0.00
   8   6    -0.03   0.04   0.02     0.04  -0.03  -0.00     0.01  -0.01  -0.00
   9   8     0.00  -0.00   0.00    -0.12  -0.09   0.04    -0.03  -0.02   0.01
  10   6    -0.04   0.03   0.02     0.01  -0.02   0.01    -0.01   0.00   0.00
  11   6     0.01  -0.01  -0.00     0.00   0.00   0.00     0.00   0.00   0.00
  12   6     0.01  -0.05  -0.03    -0.04  -0.01  -0.03     0.10   0.03   0.02
  13   6    -0.00   0.01   0.01     0.01   0.01   0.01     0.01  -0.03  -0.02
  14   1    -0.23   0.11  -0.06     0.09   0.14  -0.04     0.04   0.01   0.00
  15   8     0.01  -0.00   0.01    -0.01  -0.01   0.01     0.00  -0.00   0.00
  16   6    -0.01   0.01   0.01     0.00   0.06   0.07    -0.00  -0.31  -0.27
  17   1    -0.21   0.17   0.11    -0.01   0.00  -0.01     0.01   0.01   0.03
  18   1    -0.46   0.33   0.27     0.01  -0.01  -0.01     0.02  -0.07   0.01
  19   1     0.17   0.11  -0.22    -0.01  -0.01   0.02     0.01  -0.00  -0.01
  20   1     0.00   0.06   0.02     0.03   0.03  -0.03     0.01  -0.00  -0.02
  21   1     0.04   0.14  -0.02    -0.07   0.02  -0.07    -0.01   0.01  -0.01
  22   1    -0.00   0.02   0.04     0.25   0.27   0.68     0.06   0.06   0.14
  23   1     0.03   0.02   0.00    -0.02   0.08   0.00    -0.00   0.01   0.00
  24   1    -0.01   0.00   0.02    -0.07   0.02   0.04    -0.00   0.00   0.01
  25   1    -0.00  -0.01  -0.00     0.17   0.08   0.10     0.05   0.02   0.03
  26   1     0.07  -0.07  -0.04     0.05  -0.06  -0.05     0.02  -0.02  -0.01
  27   1     0.03  -0.04  -0.03    -0.01   0.03   0.00     0.01  -0.01  -0.01
  28   1     0.03  -0.01  -0.00    -0.07   0.03   0.00    -0.02   0.01   0.00
  29   1     0.04   0.02   0.03    -0.06  -0.03  -0.05    -0.02  -0.01  -0.01
  30   1    -0.03   0.05   0.04     0.03  -0.04  -0.03    -0.08   0.13   0.10
  31   1    -0.08   0.01   0.00     0.04  -0.00  -0.00    -0.16   0.01  -0.00
  32   1    -0.01   0.00   0.02     0.02  -0.01  -0.02    -0.01   0.00   0.01
  33   1     0.02   0.02   0.00     0.00  -0.04  -0.09     0.02   0.21   0.44
  34   1     0.02  -0.01   0.01    -0.03  -0.09  -0.03     0.08   0.49   0.15
  35   1    -0.01   0.02   0.01     0.03  -0.05  -0.08    -0.13   0.28   0.31
                     70                     71                     72
                        a                      a                      a 
 Frequencies --  1411.9866              1430.5515              1461.1280
 Red. masses --     2.3948                 2.4773                 1.8631
 Frc consts  --     0.0000                 0.0000                 0.0000
 IR Inten    --     4.2817                 9.0419                 0.3636
 Raman Activ --     0.0000                 0.0000                 0.0000
 Depolar     --     0.0000                 0.0000                 0.0000
 Atom AN      X      Y      Z        X      Y      Z        X      Y      Z
   1   6    -0.01   0.02   0.02    -0.01   0.01  -0.02    -0.02   0.03   0.02
   2   6     0.00  -0.01  -0.00     0.11  -0.01   0.03    -0.01  -0.00  -0.00
   3   6    -0.01   0.00   0.00     0.01  -0.01  -0.03    -0.00   0.02  -0.05
   4   6     0.01  -0.01  -0.03    -0.01  -0.03   0.01     0.01  -0.07  -0.04
   5   6     0.07   0.06   0.08    -0.00  -0.01  -0.01    -0.00  -0.02  -0.01
   6   6     0.02  -0.01  -0.04    -0.00   0.00  -0.00     0.00  -0.01  -0.03
   7   6     0.09  -0.04  -0.00    -0.00   0.01   0.01     0.03   0.17   0.15
   8   6    -0.24  -0.01  -0.10     0.00   0.00   0.01     0.00   0.02   0.02
   9   8    -0.02  -0.01   0.00    -0.00  -0.00   0.00    -0.00  -0.00   0.00
  10   6     0.00  -0.00   0.00     0.01  -0.00   0.02     0.04  -0.04   0.08
  11   6    -0.16   0.00  -0.05     0.01  -0.00   0.00     0.01  -0.00   0.00
  12   6    -0.01   0.01   0.00    -0.20   0.15   0.13     0.01  -0.01  -0.01
  13   6     0.00  -0.00  -0.00    -0.09   0.04   0.02     0.02  -0.01  -0.01
  14   1     0.01   0.02  -0.00    -0.23  -0.00  -0.04     0.06   0.02   0.00
  15   8    -0.00  -0.00   0.00    -0.00   0.00   0.00     0.00  -0.00   0.01
  16   6     0.01  -0.01  -0.00     0.09  -0.10  -0.10     0.01  -0.02   0.05
  17   1     0.01  -0.00   0.01    -0.00   0.00  -0.00     0.08   0.00   0.13
  18   1     0.01  -0.01  -0.00    -0.02   0.03   0.00    -0.06  -0.10   0.09
  19   1    -0.04  -0.01   0.04    -0.01   0.06  -0.03    -0.10   0.14  -0.02
  20   1     0.00   0.02   0.03     0.03   0.04   0.02     0.06   0.12   0.12
  21   1    -0.07  -0.03  -0.05     0.01   0.01   0.00     0.00   0.01  -0.00
  22   1     0.02   0.03   0.06     0.01   0.00   0.01     0.01   0.02   0.04
  23   1    -0.07   0.02  -0.01     0.00  -0.04  -0.00    -0.10  -0.55  -0.04
  24   1    -0.06   0.01   0.00    -0.00  -0.01  -0.04     0.02  -0.14  -0.54
  25   1     0.02   0.01   0.01     0.00   0.00   0.00     0.01   0.00   0.00
  26   1    -0.00  -0.00  -0.01    -0.03  -0.01  -0.03    -0.17  -0.04  -0.18
  27   1    -0.00   0.01  -0.00     0.01   0.02  -0.02     0.05   0.15  -0.20
  28   1     0.60  -0.25  -0.05    -0.02   0.01   0.00    -0.00   0.00   0.00
  29   1     0.44   0.23   0.41    -0.01  -0.01  -0.01    -0.00  -0.00  -0.00
  30   1     0.01  -0.01  -0.01     0.24  -0.40  -0.31    -0.02   0.04   0.03
  31   1     0.02  -0.00  -0.00     0.60  -0.04   0.01    -0.05  -0.00  -0.00
  32   1     0.01  -0.00  -0.01     0.00  -0.00  -0.00    -0.02   0.01   0.03
  33   1    -0.01   0.00   0.01    -0.17  -0.02   0.19     0.06   0.05   0.03
  34   1    -0.01   0.02  -0.00    -0.12   0.20  -0.02    -0.10  -0.02  -0.05
  35   1     0.00   0.00  -0.00    -0.01   0.00   0.06     0.01   0.08  -0.14
                     73                     74                     75
                        a                      a                      a 
 Frequencies --  1465.3319              1472.3221              1479.2546
 Red. masses --     1.8421                 1.8222                 1.7516
 Frc consts  --     0.0000                 0.0000                 0.0000
 IR Inten    --     6.8557                 6.0655                 2.0190
 Raman Activ --     0.0000                 0.0000                 0.0000
 Depolar     --     0.0000                 0.0000                 0.0000
 Atom AN      X      Y      Z        X      Y      Z        X      Y      Z
   1   6    -0.01   0.01   0.01     0.01  -0.03   0.03    -0.00   0.01  -0.00
   2   6     0.01  -0.02   0.02     0.00   0.01  -0.01    -0.02  -0.00   0.01
   3   6     0.01  -0.01   0.02     0.00  -0.02   0.03     0.02  -0.04   0.08
   4   6    -0.04   0.20   0.09     0.01  -0.03  -0.01     0.01  -0.08  -0.03
   5   6    -0.00   0.02   0.02     0.00   0.00  -0.01    -0.00  -0.01  -0.01
   6   6     0.02  -0.01  -0.01    -0.01   0.01   0.01    -0.00  -0.00  -0.01
   7   6     0.01   0.06   0.05    -0.03  -0.08  -0.08     0.01   0.04   0.03
   8   6     0.00  -0.00  -0.01    -0.00  -0.00  -0.00    -0.00   0.01   0.01
   9   8    -0.01  -0.00  -0.00     0.01   0.00   0.00    -0.01  -0.00   0.00
  10   6     0.03  -0.02   0.06     0.09  -0.07   0.20    -0.01   0.01  -0.02
  11   6    -0.01   0.00  -0.00     0.01  -0.00   0.00     0.01  -0.00   0.00
  12   6    -0.02   0.01  -0.01    -0.00  -0.01  -0.00     0.01  -0.01  -0.05
  13   6    -0.03   0.02   0.01     0.02  -0.01  -0.01     0.04  -0.02  -0.01
  14   1     0.01   0.02  -0.01     0.00  -0.01  -0.00     0.06   0.01   0.01
  15   8    -0.00  -0.00   0.01    -0.00   0.00   0.03     0.00  -0.00  -0.00
  16   6    -0.06   0.04  -0.08     0.02   0.02  -0.00     0.07   0.17  -0.10
  17   1    -0.05   0.01  -0.07    -0.03  -0.01  -0.06    -0.10  -0.00  -0.15
  18   1     0.00   0.09  -0.04     0.03   0.05  -0.04     0.05   0.16  -0.10
  19   1     0.30  -0.41   0.03    -0.05   0.07  -0.01    -0.10   0.18  -0.03
  20   1    -0.17  -0.34  -0.36     0.03   0.06   0.06     0.07   0.13   0.14
  21   1    -0.01   0.01  -0.00     0.00  -0.01   0.00     0.00  -0.00  -0.00
  22   1    -0.00   0.01   0.02    -0.00  -0.02  -0.05     0.01   0.01   0.02
  23   1    -0.04  -0.19  -0.01     0.05   0.27   0.02    -0.02  -0.13  -0.01
  24   1     0.01  -0.05  -0.18     0.02   0.06   0.27     0.00  -0.03  -0.12
  25   1     0.01   0.01   0.00    -0.01  -0.00  -0.00     0.01   0.00   0.01
  26   1    -0.12  -0.03  -0.13    -0.43  -0.08  -0.42     0.05   0.01   0.04
  27   1     0.03   0.11  -0.13     0.12   0.38  -0.45    -0.01  -0.04   0.04
  28   1     0.02  -0.01  -0.00    -0.01   0.01   0.00    -0.01   0.00   0.00
  29   1     0.01   0.01   0.01    -0.01  -0.00  -0.01    -0.00  -0.00  -0.00
  30   1     0.03  -0.05  -0.04    -0.02   0.04   0.03    -0.04   0.07   0.06
  31   1     0.07  -0.00   0.01    -0.05  -0.00   0.00    -0.11   0.00  -0.00
  32   1    -0.00   0.00   0.01    -0.00   0.00   0.01    -0.00   0.00   0.00
  33   1     0.01  -0.05  -0.14    -0.07  -0.02   0.03    -0.48  -0.25   0.01
  34   1     0.30  -0.05   0.13    -0.04   0.04  -0.01     0.13   0.17   0.10
  35   1    -0.04  -0.07   0.29     0.02  -0.06  -0.00     0.06  -0.50   0.32
                     76                     77                     78
                        a                      a                      a 
 Frequencies --  1489.9550              1505.7794              1704.3430
 Red. masses --     1.7005                 1.8498                11.2202
 Frc consts  --     0.0000                 0.0000                 0.0000
 IR Inten    --     4.3254                 0.8348                26.4529
 Raman Activ --     0.0000                 0.0000                 0.0000
 Depolar     --     0.0000                 0.0000                 0.0000
 Atom AN      X      Y      Z        X      Y      Z        X      Y      Z
   1   6    -0.00  -0.00  -0.00    -0.00  -0.01   0.00     0.00   0.01  -0.00
   2   6     0.01   0.00  -0.00    -0.01   0.00  -0.02     0.07  -0.02   0.00
   3   6    -0.01   0.01  -0.03    -0.03   0.13  -0.22     0.01   0.01   0.00
   4   6     0.03  -0.11  -0.06    -0.02   0.04   0.01    -0.00   0.00   0.00
   5   6     0.00  -0.01  -0.00    -0.00  -0.01   0.00     0.00   0.00   0.00
   6   6    -0.01  -0.00  -0.00     0.00   0.00   0.00    -0.00  -0.00   0.00
   7   6    -0.00  -0.01  -0.01    -0.00  -0.02  -0.02    -0.00  -0.00   0.00
   8   6    -0.00   0.00   0.00     0.01  -0.00  -0.01    -0.00   0.00  -0.00
   9   8    -0.00   0.00   0.00    -0.00   0.00   0.00     0.00  -0.00  -0.00
  10   6     0.01  -0.00   0.01     0.00   0.00   0.00    -0.00   0.00  -0.00
  11   6     0.01   0.00   0.00    -0.00   0.00   0.00     0.00  -0.00   0.00
  12   6    -0.01   0.01   0.00     0.01   0.02  -0.00    -0.59   0.34   0.26
  13   6    -0.06   0.04   0.03     0.00  -0.01  -0.00     0.52  -0.28  -0.21
  14   1    -0.03   0.00  -0.01    -0.01  -0.00  -0.01    -0.06  -0.00  -0.01
  15   8    -0.00   0.00   0.00     0.00  -0.00   0.00     0.00  -0.00  -0.00
  16   6    -0.17  -0.01  -0.09     0.04   0.08  -0.02     0.03  -0.06  -0.04
  17   1     0.05  -0.01   0.07     0.32   0.01   0.53     0.00   0.00   0.00
  18   1    -0.01  -0.07   0.04    -0.16  -0.50   0.32     0.00  -0.01   0.00
  19   1    -0.21   0.24   0.01     0.07  -0.06  -0.02     0.00  -0.00   0.00
  20   1     0.10   0.20   0.21    -0.02  -0.05  -0.07    -0.00  -0.00  -0.00
  21   1     0.00  -0.01  -0.00     0.00   0.01  -0.00     0.00  -0.00  -0.00
  22   1     0.00  -0.00   0.00    -0.00  -0.00  -0.01    -0.00   0.00   0.00
  23   1     0.01   0.04   0.00     0.01   0.10   0.01     0.00   0.00   0.00
  24   1    -0.00   0.01   0.04    -0.00   0.02   0.08    -0.00   0.00   0.00
  25   1     0.01  -0.01   0.00     0.00   0.00   0.00    -0.00  -0.00  -0.00
  26   1    -0.02  -0.00  -0.01    -0.01   0.00  -0.01     0.01   0.00   0.01
  27   1     0.00   0.01  -0.01     0.00   0.00  -0.01    -0.00  -0.01   0.01
  28   1    -0.01   0.00   0.00    -0.00   0.00   0.00    -0.00   0.00   0.00
  29   1    -0.00  -0.00  -0.00    -0.00  -0.00  -0.00    -0.00  -0.00  -0.00
  30   1     0.05  -0.10  -0.07    -0.01   0.02   0.01     0.04   0.12   0.10
  31   1     0.12  -0.00   0.01    -0.01  -0.00   0.00    -0.13  -0.07  -0.07
  32   1     0.00  -0.00  -0.00     0.00  -0.00  -0.00    -0.00   0.00   0.00
  33   1     0.29   0.03  -0.29    -0.22  -0.13  -0.03     0.02  -0.03  -0.07
  34   1     0.53  -0.20   0.21     0.02   0.05   0.02     0.02  -0.07  -0.01
  35   1    -0.11   0.13   0.36     0.04  -0.22   0.10    -0.02   0.05   0.04
                     79                     80                     81
                        a                      a                      a 
 Frequencies --  1738.9785              2808.5766              2862.2514
 Red. masses --    11.5820                 1.7138                 1.7274
 Frc consts  --     0.0000                 0.0000                 0.0000
 IR Inten    --    30.9611               138.5936               114.6789
 Raman Activ --     0.0000                 0.0000                 0.0000
 Depolar     --     0.0000                 0.0000                 0.0000
 Atom AN      X      Y      Z        X      Y      Z        X      Y      Z
   1   6    -0.02   0.01   0.00     0.00   0.01  -0.01    -0.00  -0.01   0.01
   2   6     0.00   0.00  -0.00     0.00  -0.00  -0.00     0.00  -0.00  -0.00
   3   6     0.00  -0.00   0.00    -0.00  -0.00   0.00    -0.00  -0.00   0.00
   4   6    -0.00  -0.01   0.00    -0.00  -0.00   0.00     0.00  -0.00  -0.00
   5   6    -0.06  -0.03  -0.06    -0.00   0.01  -0.00     0.00  -0.00  -0.00
   6   6    -0.01  -0.01  -0.01     0.08   0.21  -0.12    -0.00  -0.01   0.01
   7   6    -0.08   0.03   0.00    -0.00  -0.01   0.00     0.00   0.01  -0.00
   8   6     0.71  -0.01   0.25    -0.00   0.00   0.00     0.00   0.00  -0.00
   9   8     0.00   0.00   0.00     0.01   0.01   0.01    -0.00  -0.00  -0.00
  10   6     0.00  -0.00   0.00    -0.01  -0.01   0.01    -0.12  -0.19   0.12
  11   6    -0.58   0.01  -0.20    -0.00  -0.00  -0.00     0.00   0.00   0.00
  12   6    -0.00   0.00   0.00    -0.00   0.00   0.00     0.00   0.00   0.00
  13   6     0.00  -0.00  -0.00     0.00  -0.00   0.00    -0.00  -0.00  -0.00
  14   1    -0.00  -0.00  -0.00    -0.00   0.00   0.01    -0.00   0.00   0.01
  15   8     0.00  -0.00  -0.00    -0.00  -0.00   0.00    -0.01   0.00   0.02
  16   6     0.00  -0.00  -0.00     0.00  -0.00   0.00    -0.00  -0.00   0.00
  17   1     0.00  -0.00  -0.00     0.00   0.00  -0.00     0.00  -0.00   0.00
  18   1     0.00  -0.00  -0.00     0.00   0.00   0.00    -0.00  -0.00  -0.00
  19   1    -0.00   0.01  -0.01     0.00  -0.00   0.00     0.00   0.00   0.00
  20   1     0.00   0.00   0.01     0.00  -0.00  -0.00    -0.00   0.00  -0.00
  21   1     0.03   0.01   0.02     0.02  -0.01  -0.02    -0.00   0.00   0.00
  22   1     0.00  -0.00   0.00    -0.35  -0.80   0.41     0.02   0.04  -0.02
  23   1     0.02   0.00   0.00     0.00  -0.00  -0.00    -0.00   0.00   0.00
  24   1     0.01   0.00   0.01     0.00   0.02  -0.01    -0.00  -0.02   0.01
  25   1    -0.00   0.00  -0.00     0.00  -0.00   0.00     0.00  -0.00  -0.00
  26   1    -0.00  -0.00  -0.00     0.02   0.03  -0.03     0.41   0.69  -0.53
  27   1     0.00   0.00  -0.00    -0.00  -0.00   0.00     0.03  -0.01   0.05
  28   1     0.05  -0.09  -0.08     0.00   0.00   0.00    -0.00  -0.00  -0.00
  29   1    -0.01   0.09   0.10     0.00   0.00   0.00    -0.00   0.00   0.00
  30   1     0.00   0.00   0.00    -0.00  -0.00  -0.00     0.00   0.00   0.00
  31   1    -0.00  -0.00  -0.00     0.00   0.00   0.00     0.00   0.00   0.00
  32   1    -0.00   0.00   0.00    -0.00   0.00  -0.00     0.00   0.00  -0.00
  33   1    -0.00  -0.00  -0.00    -0.00   0.00  -0.00    -0.00   0.00   0.00
  34   1    -0.00  -0.00  -0.00     0.00  -0.00  -0.00     0.00   0.00  -0.00
  35   1    -0.00   0.00   0.00    -0.00  -0.00  -0.00    -0.00   0.00   0.00
                     82                     83                     84
                        a                      a                      a 
 Frequencies --  2904.9617              2933.4377              2945.1311
 Red. masses --     1.7523                 1.8194                 1.7709
 Frc consts  --     0.0000                 0.0000                 0.0000
 IR Inten    --    61.9938                56.9012                92.2666
 Raman Activ --     0.0000                 0.0000                 0.0000
 Depolar     --     0.0000                 0.0000                 0.0000
 Atom AN      X      Y      Z        X      Y      Z        X      Y      Z
   1   6     0.00   0.00  -0.01     0.00   0.01  -0.00    -0.00  -0.00   0.00
   2   6     0.05  -0.10  -0.23     0.00  -0.00  -0.00     0.00  -0.00  -0.00
   3   6     0.02   0.00   0.01     0.00   0.00   0.00     0.00   0.00   0.01
   4   6     0.00  -0.00   0.00     0.00  -0.00   0.00    -0.02   0.02  -0.01
   5   6    -0.00   0.00   0.00    -0.01   0.00   0.00     0.17  -0.05  -0.19
   6   6    -0.00  -0.00   0.00     0.00   0.00  -0.00     0.00   0.00  -0.01
   7   6    -0.00  -0.00   0.01     0.06   0.24  -0.11     0.00   0.01  -0.00
   8   6     0.00  -0.00  -0.00    -0.00   0.01  -0.00     0.01  -0.00  -0.00
   9   8    -0.00   0.00   0.00     0.00  -0.00   0.00     0.00   0.00   0.00
  10   6     0.00   0.00  -0.00     0.00   0.00  -0.00     0.00   0.00  -0.00
  11   6    -0.00   0.00   0.00     0.00  -0.00  -0.00    -0.00   0.00   0.00
  12   6    -0.00  -0.01  -0.01    -0.00   0.00  -0.00    -0.00  -0.00  -0.00
  13   6     0.00   0.00   0.00     0.00   0.00   0.00     0.00   0.00   0.00
  14   1    -0.18   0.35   0.88    -0.00   0.00   0.01    -0.00   0.00   0.01
  15   8     0.00  -0.00   0.00     0.00  -0.00  -0.00     0.00  -0.00  -0.00
  16   6    -0.00   0.00   0.00     0.00  -0.00   0.00     0.00   0.00  -0.00
  17   1     0.00   0.00   0.00     0.00   0.00  -0.00    -0.00  -0.00   0.00
  18   1    -0.05  -0.02  -0.05    -0.01  -0.01  -0.01    -0.01  -0.01  -0.02
  19   1    -0.00  -0.00  -0.00     0.00  -0.00   0.00    -0.01  -0.00  -0.01
  20   1    -0.00   0.00  -0.00    -0.00   0.00  -0.00     0.09  -0.07   0.03
  21   1     0.01  -0.00  -0.01     0.02  -0.01  -0.02    -0.64   0.18   0.69
  22   1     0.00   0.01  -0.00    -0.01  -0.01   0.01    -0.01  -0.02   0.01
  23   1     0.00   0.00  -0.02    -0.01   0.03   0.16     0.00   0.00  -0.00
  24   1     0.00   0.01  -0.00    -0.19  -0.90   0.23    -0.01  -0.03   0.01
  25   1     0.00  -0.00  -0.00    -0.00   0.00   0.00     0.00  -0.00   0.00
  26   1    -0.00  -0.01   0.00    -0.01  -0.02   0.01    -0.00  -0.00   0.00
  27   1     0.00   0.00   0.00     0.00   0.00   0.00     0.00   0.00  -0.00
  28   1    -0.00  -0.00  -0.00     0.00   0.00   0.00    -0.00   0.00   0.00
  29   1     0.00  -0.00  -0.00    -0.00  -0.00  -0.00     0.00  -0.00  -0.00
  30   1    -0.00  -0.00   0.00    -0.00  -0.00  -0.00    -0.00  -0.00  -0.00
  31   1    -0.00  -0.01  -0.01     0.00  -0.00  -0.00    -0.00  -0.00  -0.00
  32   1    -0.00   0.00  -0.00     0.00  -0.00  -0.00    -0.00   0.00  -0.00
  33   1     0.00  -0.00   0.00    -0.00   0.00  -0.00     0.00  -0.00   0.00
  34   1     0.00   0.00  -0.00    -0.00  -0.00   0.00    -0.00  -0.00   0.00
  35   1     0.01   0.00   0.00    -0.00  -0.00  -0.00     0.00   0.00   0.00
                     85                     86                     87
                        a                      a                      a 
 Frequencies --  2965.7062              2973.2427              2985.5658
 Red. masses --     1.9076                 1.8489                 1.6628
 Frc consts  --     0.0000                 0.0000                 0.0000
 IR Inten    --    43.9596                86.7390                43.5758
 Raman Activ --     0.0000                 0.0000                 0.0000
 Depolar     --     0.0000                 0.0000                 0.0000
 Atom AN      X      Y      Z        X      Y      Z        X      Y      Z
   1   6    -0.00  -0.00   0.00    -0.00  -0.00   0.00     0.00  -0.00  -0.01
   2   6     0.00   0.01   0.02     0.00   0.01   0.00     0.00  -0.00  -0.00
   3   6     0.18   0.15   0.12     0.09   0.09   0.03    -0.01  -0.01  -0.00
   4   6    -0.10   0.05  -0.05     0.19  -0.12   0.08    -0.00   0.01   0.00
   5   6    -0.01   0.00   0.01     0.02  -0.01  -0.02     0.00   0.00  -0.00
   6   6     0.00  -0.00   0.00    -0.00   0.00  -0.00    -0.00   0.00   0.00
   7   6     0.00  -0.00  -0.01     0.00  -0.00  -0.01     0.01  -0.02  -0.24
   8   6    -0.00  -0.00  -0.00     0.00  -0.00  -0.00     0.00  -0.00  -0.01
   9   8    -0.00  -0.00  -0.00     0.00  -0.00  -0.00    -0.00  -0.00   0.00
  10   6     0.00   0.00   0.00    -0.00   0.00  -0.00     0.01   0.00   0.00
  11   6     0.00   0.00  -0.00    -0.00   0.00   0.00    -0.00   0.00   0.00
  12   6    -0.00  -0.00   0.00    -0.00  -0.00   0.00    -0.00  -0.00  -0.00
  13   6    -0.00  -0.00  -0.00     0.00   0.00   0.00     0.00   0.00   0.00
  14   1     0.01  -0.02  -0.05     0.00  -0.01  -0.02    -0.00   0.01   0.02
  15   8    -0.00   0.00  -0.00     0.00  -0.00  -0.00     0.00   0.00   0.00
  16   6     0.00  -0.00   0.00     0.01  -0.01   0.00    -0.00   0.00  -0.00
  17   1    -0.16  -0.31   0.13    -0.15  -0.28   0.10     0.02   0.05  -0.02
  18   1    -0.48  -0.21  -0.57    -0.17  -0.07  -0.20     0.03   0.01   0.03
  19   1     0.08   0.08   0.11    -0.04  -0.07  -0.07    -0.01  -0.01  -0.02
  20   1     0.28  -0.23   0.09    -0.65   0.51  -0.21     0.02  -0.01   0.01
  21   1     0.04  -0.01  -0.04    -0.06   0.02   0.07    -0.00   0.00   0.00
  22   1    -0.00   0.00  -0.00    -0.00  -0.01   0.00     0.00   0.00   0.00
  23   1    -0.01  -0.00   0.05    -0.00  -0.00   0.04    -0.09  -0.08   0.94
  24   1     0.00   0.02  -0.01     0.00   0.01  -0.01     0.04   0.16  -0.08
  25   1    -0.00   0.00   0.00    -0.00   0.00   0.00     0.00  -0.00  -0.00
  26   1     0.00   0.00  -0.00    -0.00  -0.00   0.00     0.00   0.00   0.00
  27   1    -0.00  -0.00  -0.00     0.00   0.00   0.00    -0.03  -0.01  -0.02
  28   1    -0.00  -0.00  -0.00    -0.00  -0.00  -0.00    -0.00  -0.01  -0.01
  29   1    -0.00   0.00   0.00     0.00  -0.00  -0.00     0.00   0.00   0.00
  30   1     0.00   0.00  -0.00    -0.00  -0.00  -0.00    -0.00  -0.00  -0.00
  31   1     0.00   0.00   0.00     0.00   0.00   0.00    -0.00  -0.00  -0.00
  32   1     0.00   0.00   0.00    -0.00   0.00   0.00    -0.00   0.00   0.00
  33   1    -0.01   0.01  -0.01    -0.01   0.02  -0.01     0.00  -0.00   0.00
  34   1    -0.00  -0.00   0.00    -0.00  -0.00   0.01    -0.00  -0.00   0.00
  35   1     0.00  -0.00   0.00    -0.00  -0.00  -0.00     0.00   0.00   0.00
                     88                     89                     90
                        a                      a                      a 
 Frequencies --  2994.5242              2998.8746              3006.9459
 Red. masses --     1.5474                 1.6975                 1.6490
 Frc consts  --     0.0000                 0.0000                 0.0000
 IR Inten    --    72.0362                26.7290                61.3063
 Raman Activ --     0.0000                 0.0000                 0.0000
 Depolar     --     0.0000                 0.0000                 0.0000
 Atom AN      X      Y      Z        X      Y      Z        X      Y      Z
   1   6    -0.00  -0.00   0.00    -0.01  -0.00  -0.00    -0.00   0.00   0.00
   2   6     0.00   0.00  -0.01    -0.00   0.00   0.00     0.00   0.00   0.00
   3   6     0.02   0.14  -0.15     0.00   0.00  -0.00     0.02   0.03   0.01
   4   6    -0.04   0.01  -0.03     0.00   0.00   0.00     0.10   0.14   0.16
   5   6    -0.00  -0.00   0.00    -0.00   0.00   0.00    -0.00   0.01   0.01
   6   6     0.00   0.00   0.00    -0.00   0.00  -0.00     0.00   0.00   0.00
   7   6     0.00   0.00  -0.01     0.00  -0.00  -0.01    -0.00   0.00   0.00
   8   6    -0.00   0.00  -0.00    -0.00  -0.00  -0.00    -0.00  -0.00  -0.00
   9   8    -0.00   0.00   0.00     0.00  -0.00  -0.00    -0.00  -0.00  -0.00
  10   6     0.00   0.00   0.00    -0.20  -0.08  -0.12     0.01   0.00   0.00
  11   6     0.00  -0.00  -0.00    -0.00   0.00   0.00    -0.00  -0.00  -0.00
  12   6     0.00  -0.00   0.00     0.00  -0.00   0.00    -0.00   0.00   0.00
  13   6    -0.00   0.00   0.00    -0.00  -0.00  -0.00    -0.00  -0.00  -0.00
  14   1    -0.01   0.02   0.04     0.00  -0.00  -0.00     0.00  -0.00  -0.01
  15   8    -0.00   0.00   0.00     0.00  -0.00  -0.01    -0.00   0.00   0.00
  16   6     0.01  -0.02   0.01    -0.00   0.00  -0.00     0.01   0.01  -0.01
  17   1    -0.39  -0.68   0.21    -0.01  -0.01   0.00    -0.05  -0.09   0.03
  18   1     0.32   0.17   0.34     0.00   0.00   0.00    -0.03  -0.01  -0.04
  19   1     0.05   0.05   0.07    -0.01  -0.01  -0.02    -0.54  -0.40  -0.66
  20   1     0.11  -0.09   0.03     0.01  -0.01   0.00     0.16  -0.09   0.07
  21   1     0.01  -0.00  -0.01     0.00  -0.00  -0.00     0.03  -0.01  -0.03
  22   1    -0.00   0.00   0.00    -0.00  -0.00   0.00     0.00   0.00  -0.00
  23   1    -0.00  -0.00   0.02    -0.00  -0.00   0.03     0.00   0.00  -0.02
  24   1    -0.00  -0.01   0.00     0.00   0.01  -0.00    -0.00  -0.00   0.00
  25   1     0.00  -0.00  -0.00    -0.00   0.00   0.00    -0.00  -0.00  -0.00
  26   1     0.00   0.00  -0.00    -0.05  -0.05   0.02     0.00   0.00  -0.00
  27   1    -0.01  -0.00  -0.01     0.78   0.34   0.45    -0.02  -0.01  -0.01
  28   1     0.00   0.00   0.00    -0.00  -0.00  -0.00     0.00   0.00   0.00
  29   1    -0.00   0.00   0.00     0.00  -0.00  -0.00     0.00  -0.00  -0.00
  30   1     0.00   0.00   0.00     0.01   0.00   0.00     0.00   0.00   0.00
  31   1    -0.00  -0.00  -0.00     0.00   0.00   0.00    -0.00  -0.00  -0.00
  32   1     0.00  -0.00  -0.00    -0.01  -0.00  -0.01     0.00  -0.00   0.00
  33   1    -0.04   0.07  -0.03     0.00  -0.00   0.00     0.01  -0.02   0.01
  34   1     0.00  -0.00  -0.00    -0.00   0.00   0.00    -0.01  -0.01   0.02
  35   1    -0.01  -0.00  -0.00     0.01   0.00   0.00    -0.03  -0.01  -0.01
                     91                     92                     93
                        a                      a                      a 
 Frequencies --  3017.0329              3036.6105              3057.7090
 Red. masses --     1.8126                 1.6923                 1.6165
 Frc consts  --     0.0000                 0.0000                 0.0000
 IR Inten    --    49.5309                53.7167                 9.5746
 Raman Activ --     0.0000                 0.0000                 0.0000
 Depolar     --     0.0000                 0.0000                 0.0000
 Atom AN      X      Y      Z        X      Y      Z        X      Y      Z
   1   6    -0.00   0.00   0.00    -0.00   0.00  -0.00     0.00   0.00   0.00
   2   6     0.00   0.00  -0.00     0.00   0.00   0.00    -0.00   0.00   0.00
   3   6     0.01   0.02  -0.01     0.00  -0.00   0.00     0.00   0.00   0.00
   4   6    -0.00  -0.00  -0.00     0.00   0.01   0.01     0.00   0.00   0.00
   5   6     0.00  -0.00  -0.00    -0.00   0.00   0.00     0.00  -0.00  -0.00
   6   6     0.00   0.00  -0.00     0.00   0.00  -0.00    -0.00  -0.00  -0.00
   7   6     0.00   0.00  -0.00     0.00   0.00   0.00     0.00   0.00  -0.00
   8   6     0.00   0.00   0.00     0.00   0.00   0.00    -0.00  -0.00  -0.00
   9   8     0.00  -0.00  -0.00    -0.00  -0.00   0.00    -0.00  -0.00   0.00
  10   6     0.00   0.00   0.00     0.00   0.00   0.00     0.00   0.00  -0.00
  11   6     0.00  -0.00  -0.00    -0.00  -0.00  -0.00     0.00   0.00   0.00
  12   6    -0.01   0.01  -0.00    -0.01  -0.00  -0.00    -0.00   0.00   0.01
  13   6     0.00   0.00   0.00     0.01   0.01   0.01     0.00  -0.00  -0.00
  14   1    -0.00   0.00  -0.00     0.00  -0.00  -0.01     0.00  -0.00  -0.00
  15   8     0.00   0.00   0.00     0.00   0.00   0.00    -0.00  -0.00  -0.00
  16   6    -0.14   0.19  -0.12    -0.23  -0.09  -0.00    -0.10  -0.04   0.21
  17   1    -0.04  -0.07   0.02     0.00   0.00   0.00    -0.01  -0.01   0.00
  18   1     0.01   0.01   0.01     0.00   0.00   0.00    -0.00  -0.00  -0.00
  19   1     0.02   0.01   0.02    -0.02  -0.01  -0.02    -0.01  -0.01  -0.02
  20   1    -0.01   0.01  -0.00     0.01  -0.00   0.00    -0.00   0.00  -0.00
  21   1    -0.00   0.00   0.00     0.00  -0.00  -0.00    -0.00   0.00   0.00
  22   1    -0.00  -0.00   0.00    -0.00  -0.00   0.00     0.00   0.00   0.00
  23   1    -0.00  -0.00   0.00     0.00   0.00  -0.00    -0.00  -0.00   0.00
  24   1    -0.00  -0.00   0.00    -0.00  -0.00   0.00    -0.00  -0.00  -0.00
  25   1    -0.00   0.00   0.00    -0.00  -0.00  -0.00     0.00  -0.00  -0.01
  26   1     0.00   0.00  -0.00     0.00   0.00  -0.00    -0.00  -0.00   0.00
  27   1    -0.00  -0.00  -0.00    -0.01  -0.00  -0.00     0.00   0.00   0.00
  28   1     0.00   0.00   0.00     0.00   0.00   0.00    -0.00  -0.00  -0.00
  29   1    -0.00   0.00   0.00     0.00  -0.00  -0.00    -0.00   0.00   0.00
  30   1    -0.00  -0.00  -0.00    -0.04  -0.01  -0.01     0.01   0.00   0.00
  31   1    -0.00  -0.01  -0.00     0.00  -0.01  -0.01    -0.00  -0.00  -0.00
  32   1    -0.00  -0.00  -0.00    -0.00   0.00  -0.00     0.00   0.00   0.00
  33   1     0.43  -0.75   0.37    -0.11   0.12  -0.06     0.03  -0.08   0.06
  34   1    -0.06   0.01   0.05     0.01   0.01  -0.09     0.43   0.23  -0.83
  35   1     0.14   0.06   0.01     0.91   0.19   0.16    -0.10  -0.02   0.01
                     94                     95                     96
                        a                      a                      a 
 Frequencies --  3092.6392              3099.3607              3118.7573
 Red. masses --     1.5838                 1.5261                 2.0201
 Frc consts  --     0.0000                 0.0000                 0.0000
 IR Inten    --    65.4916                37.9239                58.2018
 Raman Activ --     0.0000                 0.0000                 0.0000
 Depolar     --     0.0000                 0.0000                 0.0000
 Atom AN      X      Y      Z        X      Y      Z        X      Y      Z
   1   6     0.00  -0.00   0.00    -0.00   0.00  -0.00    -0.00  -0.00   0.00
   2   6    -0.00  -0.00  -0.00     0.00  -0.00  -0.00    -0.00  -0.00   0.00
   3   6     0.00   0.00  -0.00     0.00  -0.00   0.00     0.00   0.00   0.00
   4   6    -0.00   0.00   0.00    -0.00  -0.00  -0.00    -0.00  -0.00  -0.00
   5   6    -0.00   0.00   0.00    -0.00   0.00   0.00    -0.00   0.00   0.00
   6   6    -0.00  -0.00   0.00    -0.00  -0.00   0.00     0.00   0.00   0.00
   7   6    -0.00  -0.00   0.00     0.00  -0.00  -0.00     0.00  -0.00   0.00
   8   6    -0.00   0.00  -0.00     0.01  -0.00   0.00    -0.00  -0.00  -0.00
   9   8    -0.00   0.00  -0.00    -0.00   0.00  -0.00    -0.00  -0.00  -0.00
  10   6    -0.00  -0.00  -0.00     0.00  -0.00   0.00    -0.00  -0.00  -0.00
  11   6     0.00   0.00   0.00    -0.19  -0.03  -0.10     0.00  -0.01  -0.01
  12   6    -0.01   0.01   0.01     0.00   0.00   0.00     0.01   0.01   0.01
  13   6     0.23  -0.02  -0.01     0.00  -0.00  -0.00     0.10   0.22   0.18
  14   1    -0.00   0.00   0.00    -0.00   0.00   0.00    -0.00  -0.00  -0.01
  15   8    -0.00  -0.00  -0.00    -0.00   0.00   0.00     0.00   0.00  -0.00
  16   6     0.01   0.00   0.00     0.00   0.00   0.00     0.00  -0.00   0.00
  17   1    -0.00  -0.00   0.00     0.00   0.00   0.00     0.00   0.00   0.00
  18   1     0.00   0.00   0.00    -0.00  -0.00  -0.00    -0.00  -0.00  -0.00
  19   1    -0.00  -0.00  -0.00     0.00   0.00   0.00     0.00   0.00   0.00
  20   1     0.00  -0.00   0.00     0.00  -0.00   0.00     0.00  -0.00  -0.00
  21   1     0.00  -0.00  -0.00     0.00  -0.00  -0.00     0.00  -0.00  -0.00
  22   1     0.00   0.00  -0.00     0.00   0.00  -0.00    -0.00  -0.00  -0.00
  23   1    -0.00  -0.00  -0.00    -0.00  -0.00   0.01    -0.00  -0.00  -0.00
  24   1     0.00   0.00  -0.00     0.00   0.01  -0.00     0.00   0.00  -0.00
  25   1     0.00  -0.00   0.00     0.00  -0.00  -0.00    -0.00   0.00   0.00
  26   1    -0.00  -0.00  -0.00     0.00   0.00  -0.00     0.00   0.00  -0.00
  27   1     0.00   0.00   0.00    -0.00  -0.00  -0.00     0.01   0.00   0.01
  28   1    -0.00  -0.00  -0.01     0.22   0.47   0.58     0.01   0.01   0.01
  29   1    -0.00   0.00   0.00     0.38  -0.36  -0.25    -0.02   0.01   0.01
  30   1    -0.79  -0.27  -0.27    -0.01  -0.00  -0.00    -0.37  -0.10  -0.10
  31   1     0.04   0.32   0.26     0.00   0.00   0.00    -0.01  -0.67  -0.54
  32   1     0.00   0.00   0.00    -0.00  -0.00  -0.00    -0.00  -0.00  -0.00
  33   1     0.00  -0.00   0.00     0.00  -0.00   0.00    -0.00   0.00  -0.00
  34   1     0.00   0.00  -0.00     0.00   0.00  -0.00     0.00   0.00   0.00
  35   1    -0.03  -0.01  -0.01    -0.00  -0.00  -0.00    -0.02  -0.01  -0.01
                     97                     98                     99
                        a                      a                      a 
 Frequencies --  3120.9893              3508.6692              3516.5078
 Red. masses --     2.0814                 1.8724                 1.8744
 Frc consts  --     0.0000                 0.0000                 0.0000
 IR Inten    --    60.0678                30.7238                27.8548
 Raman Activ --     0.0000                 0.0000                 0.0000
 Depolar     --     0.0000                 0.0000                 0.0000
 Atom AN      X      Y      Z        X      Y      Z        X      Y      Z
   1   6    -0.00   0.00   0.00    -0.00  -0.00  -0.00     0.00   0.00  -0.00
   2   6    -0.00   0.00   0.00     0.00  -0.00   0.00    -0.00   0.00   0.00
   3   6    -0.00  -0.00  -0.00     0.00   0.00   0.00    -0.00   0.00   0.00
   4   6    -0.00   0.00  -0.00     0.00   0.00   0.00    -0.00  -0.00   0.00
   5   6    -0.00  -0.00   0.00    -0.00   0.00   0.00     0.00  -0.00  -0.00
   6   6     0.00   0.00   0.00     0.00  -0.00   0.00    -0.00   0.00   0.01
   7   6     0.00  -0.00  -0.00    -0.00   0.00   0.00    -0.00   0.00   0.00
   8   6    -0.00   0.01   0.01    -0.00  -0.00  -0.00    -0.00   0.00   0.00
   9   8     0.00  -0.00  -0.00    -0.00   0.00   0.00    -0.12   0.05   0.20
  10   6     0.00  -0.00   0.00     0.00   0.00   0.01    -0.00  -0.00  -0.00
  11   6    -0.10   0.22   0.20     0.00   0.00   0.00    -0.00   0.00   0.00
  12   6     0.00   0.00   0.00     0.00  -0.00   0.00     0.00   0.00  -0.00
  13   6     0.00   0.01   0.01     0.00  -0.00  -0.00     0.00   0.00   0.00
  14   1     0.00  -0.00  -0.00     0.00   0.00  -0.00     0.00  -0.00  -0.00
  15   8     0.00   0.00  -0.00     0.19   0.08   0.12    -0.00  -0.00  -0.00
  16   6     0.00   0.00  -0.00     0.00  -0.00   0.00     0.00   0.00  -0.00
  17   1    -0.00  -0.00   0.00    -0.00  -0.00   0.00     0.00   0.00  -0.00
  18   1     0.00   0.00   0.00    -0.00  -0.00  -0.00    -0.00  -0.00  -0.00
  19   1     0.00   0.00   0.00    -0.00  -0.00  -0.00     0.00  -0.00   0.00
  20   1     0.00  -0.00   0.00     0.00  -0.00  -0.00    -0.00   0.00  -0.00
  21   1     0.00  -0.00  -0.01     0.00  -0.00  -0.00     0.00  -0.00   0.00
  22   1    -0.00  -0.00   0.00    -0.00   0.00  -0.00     0.00  -0.00  -0.00
  23   1     0.00   0.00  -0.01     0.00  -0.00  -0.00     0.00   0.00  -0.00
  24   1     0.00  -0.00   0.00     0.00   0.00  -0.00     0.00  -0.00   0.00
  25   1    -0.00   0.00   0.00     0.00  -0.00  -0.00     0.49  -0.22  -0.81
  26   1     0.00   0.00   0.00     0.00   0.00  -0.00    -0.00  -0.00   0.00
  27   1    -0.00  -0.00  -0.00    -0.01  -0.00  -0.00     0.00   0.00   0.00
  28   1    -0.19  -0.32  -0.42     0.00  -0.00  -0.00    -0.00  -0.00  -0.00
  29   1     0.54  -0.46  -0.29    -0.00   0.00   0.00     0.00  -0.00  -0.00
  30   1    -0.01  -0.00  -0.00    -0.00  -0.00  -0.00    -0.00  -0.00  -0.00
  31   1    -0.00  -0.02  -0.02     0.00   0.00   0.00     0.00  -0.00  -0.00
  32   1     0.00  -0.00  -0.00    -0.77  -0.32  -0.50     0.00   0.00   0.00
  33   1     0.00  -0.00   0.00    -0.00   0.00  -0.00    -0.00   0.00  -0.00
  34   1    -0.00   0.00  -0.00     0.00  -0.00  -0.00    -0.00  -0.00   0.01
  35   1    -0.00  -0.00  -0.00    -0.00  -0.00  -0.00     0.00   0.00  -0.00
