
                                 *****************
                                 * O   R   C   A *
                                 *****************

                                            #,                                       
                                            ###                                      
                                            ####                                     
                                            #####                                    
                                            ######                                   
                                           ########,                                 
                                     ,,################,,,,,                         
                               ,,#################################,,                 
                          ,,##########################################,,             
                       ,#########################################, ''#####,          
                    ,#############################################,,   '####,        
                  ,##################################################,,,,####,       
                ,###########''''           ''''###############################       
              ,#####''   ,,,,##########,,,,          '''####'''          '####       
            ,##' ,,,,###########################,,,                        '##       
           ' ,,###''''                  '''############,,,                           
         ,,##''                                '''############,,,,        ,,,,,,###''
      ,#''                                            '''#######################'''  
     '                                                          ''''####''''         
             ,#######,   #######,   ,#######,      ##                                
            ,#'     '#,  ##    ##  ,#'     '#,    #''#        ,####,    ,#,          
            ##       ##  ##   ,#'  ##            #'  '#       #'       ,# #          
            ##       ##  #######   ##           ,######,      #####,      #          
            '#,     ,#'  ##    ##  '#,     ,#' ,#      #,     #,   #      #          
             '#######'   ##     ##  '#######'  #'      '#     '####' #    #          



                #########################################################
                #                        -***-                          #
                #          Department of theory and spectroscopy        #
                #                                                       #
                #                      Frank Neese                      #
                #                                                       #
                #     Directorship, Architecture, Infrastructure        #
                #                    SHARK, DRIVERS                     #
                #        Core code/Algorithms in most modules           #
                #                                                       #
                #        Max Planck Institute fuer Kohlenforschung      #
                #                Kaiser Wilhelm Platz 1                 #
                #                 D-45470 Muelheim/Ruhr                 #
                #                      Germany                          #
                #                                                       #
                #                  All rights reserved                  #
                #                        -***-                          #
                #########################################################


                         Program Version 6.1.1  -  RELEASE   -
                                (GIT: $487d211c$)
                          ($2025-11-21 10:33:24 +0100$)


 With contributions from (in alphabetic order):
[Max-Planck-Institut fuer Kohlenforschung]                               
  Daniel Aravena         : Magnetic Suceptibility                        
  Michael Atanasov       : Ab Initio Ligand Field Theory (pilot matlab implementation)
  Alexander A. Auer      : GIAO ZORA, VPT2 properties, NMR spectrum      
  Ute Becker             : All parallelization in ORCA, NUMFREQ, NUMCALC 
  Giovanni Bistoni       : ED, misc. LED, open-shell LED, HFLD           
  Dmytro Bykov           : pre 5.0 version of the SCF Hessian            
  Marcos Casanova-Páez   : Triplet and SCS-CIS(D). UHF-(DLPNO)-IP/EA/STEOM-CCSD. UHF-CVS-IP/STEOM-CCSD   
  Vijay G. Chilkuri      : MRCI spin determinant printing, contributions to CSF-ICE 
  Pauline Colinet        : FMM embedding                                 
  Dipayan Datta          : RHF DLPNO-CCSD density                        
  Achintya Kumar Dutta   : EOM-CC, STEOM-CC                              
  Nicolas Foglia         : Exact transition moments, OPA infrastructure, MCD improvements    
  Dmitry Ganyushin       : Spin-Orbit,Spin-Spin,Magnetic field MRCI      
  Miquel Garcia-Rates    : C-PCM and meta-GGA Hessian, CCSD/C-PCM, Gaussian charge scheme 
  Tiago L. C. Gouveia    : GS-ROHF, GS-ROCIS                             
  Yang Guo               : DLPNO-NEVPT2, F12-NEVPT2, CIM, IAO-localization        
  Andreas Hansen         : Spin unrestricted coupled pair/coupled cluster methods 
  Ingolf Harden          : AUTO-CI MPn and infrastructure                
  Benjamin Helmich-Paris : MC-RPA, TRAH-(SCF,CASSCF), AVAS, COSX integrals, SCF dyn. polar., MC-PDFT, srDFT 
  Lee Huntington         : MR-EOM, pCC                                   
  Robert Izsak           : Overlap fitted RIJCOSX, COSX-SCS-MP3, EOM     
  Riya Kayal             : Wick's Theorem for AUTO-CI, AUTO-CI UHF-CCSDT 
  Emily Kempfer          : AUTO-CI RHF CISDT and CCSDT, approximate NEVPT4
  Christian Kollmar      : KDIIS, OOCD, Brueckner-CCSD(T), CCSD density, CASPT2, CASPT2-K, improved NEVPT2 
  Axel Koslowski         : Symmetry handling                             
  Simone Kossmann        : meta-GGA functionals, TD-DFT gradient, OOMP2, (MP2 Hessian; deprecated post 5.0) 
  Lucas Lang             : DCDCAS, Hyperfine gauge corrections, ICE-SOC+SSC
  Marvin Lechner         : AUTO-CI (C++ implementation), FIC-MRCC        
  Spencer Leger          : CASSCF response                               
  Dagmar Lenk            : GEPOL surface, SMD, ORCA-2-JSON               
  Dimitrios Liakos       : Extrapolation schemes; Compound Job, Property file
  Dimitrios Manganas     : Further ROCIS development; embedding schemes. LFT, Crystal Embedding 
  Dimitrios Pantazis     : SARC Basis sets                               
  Anastasios Papadopoulos: AUTO-CI, single reference methods and gradients 
  Taras Petrenko         : pre 6.0 DFT Hessian and TD-DFT gradient,  ECA, NRVS 
  Petra Pikulova         : Analytic Raman intensities                    
  Peter Pinski           : DLPNO-MP2, DLPNO-MP2 Gradient                 
  Shashank Vittal Rao    : ES-AILFT, MagRelax                            
  Christoph Reimann      : Effective Core Potentials                     
  Marius Retegan         : Local ZFS, SOC                                
  Christoph Riplinger    : Optimizer, TS searches, QM/MM, DLPNO-CCSD(T), (RO)-DLPNO pert. Triples 
  Michael Roemelt        : Original ROCIS implementation, recursive CI coupling coefficients
  Masaaki Saitow         : Open-shell DLPNO-CCSD energy and density      
  Barbara Sandhoefer     : DKH picture change effects                    
  Yorick L. A. Schmerwitz: GMF and freeze-and-release deltaSCF, NEB S-IDPP initial path                    
  Kantharuban Sivalingam : CASSCF convergence/infrastructure, NEVPT2, NEVPT3, NEVPT4(SD), FIC-MRCI and CEPA variants
  Bernardo de Souza      : ESD, SOC TD-DFT                               
  Georgi L. Stoychev     : AutoAux, RI-MP2 NMR, DLPNO-MP2 response, X2C  
  Van Anh Tran           : RI-MP2 g-tensors                              
  Willem Van den Heuvel  : Paramagnetic NMR                              
  Zikuan Wang            : NOTCH, Electric field optimization            
  Frank Wennmohs         : Technical directorship and infrastructure     
  Hang Xu                : AUTO-CI-Response properties                   
                                                                         
[FACCTs GmbH]                                                            
  Markus Bursch, Nicolas Foglia, Miquel Garcia-Rates, Ingolf Harden, Hagen Neugebauer, Anastasios Papadopoulos, 
  Christoph Riplinger, Bernardo de Souza, Georgi L. Stoychev                                                    
                                                                 
  APM, various basis sets, CI-OPT, improved COSX, DLPNO-Multilevel,           
  DOCKER, DRACO, updates on ESD, Fragmentator, GOAT, IRC, LR-CPCM, L-BFGS, MBIS, meta-GGA TD-DFT gradient, ML-optimized integration grids, 
  MM, NACMEs, nearIR, NEB, NEB-TS, NL-DFT gradient (VV10), 2- and 3-layer-ONIOM, interface openCOSMO-RS, QMMM,   
  Crystal-QMMM, RESP, rigid body optimization, SF, symmetry and pop. for TD-DFT, various functionals, SOLVATOR                                   
                                                                         
[Other institutions]                                                     
  V. Asgeirsson          : NEB                                           
  Christoph Bannwarth    : sTDA-DFT, sTD-DFT, PBEh-3c, B97-3c, D3        
  Giovanni Bistoni       : ETS/NOCV, ADLD/ADEX, COVALED                  
  Martin Brehm           : Molecular dynamics                            
  Ronald Cardenas        : ETS/NOCV                                      
  Martina Colucci        : COVALED                                       
  Sebastian Ehlert       : rSCAN, r2SCAN, r2SCAN-3c, D4, dhf basis sets  
  Marvin Friede          : D4 for Fr, Ra, Ac-Lr                          
  Lars Goerigk           : TD-DFT with DH, B97 family of functionals     
  Stefan Grimme          : VdW corrections, initial TS optimization, DFT functionals, gCP, sTDA/sTD-DF 
  Waldemar Hujo          : DFT-NL                                        
  H. Jonsson             : NEB                                           
  Holger Kruse           : gCP                                           
  Marcel Mueller         : wB97X-3c, vDZP basis set                      
  Hagen Neugebauer       : wr2SCAN, Native XTB                           
  Gianluca Regni         : ADLD/ADEX                                     
  Tobias Risthaus        : pre 6.0 range-separated hybrid DFT and stability analysis
  Lukas Wittmann         : regularized MP2, r2SCAN double-hybrids, wr2SCAN        
                                                                         
We gratefully acknowledge several colleagues who have allowed us to      
interface, adapt or use parts of their codes:                            
  Ed Valeev, F. Pavosevic, A. Kumar             : LibInt (2-el integral package), F12 methods 
  Garnet Chan, S. Sharma, J. Yang, R. Olivares  : DMRG                   
  Ulf Ekstrom                                   : XCFun DFT Library      
  Mihaly Kallay                                 : mrcc  (arbitrary order and MRCC methods)
  Frank Weinhold                                : gennbo (NPA and NBO analysis)           
  Simon Mueller                                 : openCOSMO-RS                            
  Christopher J. Cramer and Donald G. Truhlar   : smd solvation model                     
  S Lehtola, MJT Oliveira, MAL Marques          : LibXC Library                           
  Liviu Ungur et al                             : ANISO software                          


 Your calculation uses the libint2 library for the computation of 2-el integrals
 For citations please refer to: http://libint.valeyev.net

 Your ORCA version has been built with support for libXC version: 7.0.0
 For citations please refer to: https://libxc.gitlab.io

 This ORCA versions uses:
   CBLAS   interface :  Fast vector & matrix operations
   LAPACKE interface :  Fast linear algebra routines
   SCALAPACK package :  Parallel linear algebra routines
   Shared memory     :  Shared parallel matrices
   BLAS/LAPACK       :  OpenBLAS 0.3.29  USE64BITINT DYNAMIC_ARCH NO_AFFINITY Haswell SINGLE_THREADED
        Core in use  :  Haswell
   Copyright (c) 2011-2014, The OpenBLAS Project


  ***********************************
  * Starting time: Sun Aug  9 17:46:55 2026
  * Host name:     localhost.localdomain
  * Process ID:    2989791
  * Working dir.:  /home/dinglab/calculation/templates/NMR_modules/autohnmr/beta_diol_screening/CONF40/b3lyp-3c
  ***********************************

NOTE: MaxCore=2500 MB was set to SCF,MP2,MDCI,CIPSI,MRCI,RASCI and CIS
      => If you want to overwrite this, your respective input block should be placed after the MaxCore statement
Your calculation utilizes the geometrical counterpoise correction gCP
Please cite in your paper:
H.Kruse, S. Grimme J.Chem.Phys., 136, (2012), 154101 
   

Your calculation utilizes the atom-pairwise dispersion correction
with the Becke-Johnson damping scheme (D3BJ)


Warning: RI is on but no J-basis has been assigned. Assigning Def2/J (nothing to worry about!)
================================================================================

----- Orbital basis set information -----
Your calculation utilizes the basis: def2-mSVP

----- AuxJ basis set information -----
Your calculation utilizes the auxiliary basis: def2/J
   H-Rn: F. Weigend, Phys. Chem. Chem. Phys. 8, 1057 (2006).
   Fr-Lr: K. Eichkorn, F. Weigend, O. Treutler, R. Ahlrichs; Theor. Chem. Acc. 97, 119 (1997).

================================================================================
                                        WARNINGS
                       Please study these warnings very carefully!
================================================================================


================================================================================
                                       INPUT FILE
================================================================================
NAME = inp
|  1> ! b3lyp
|  2> ! d3bj ABC
|  3> ! def2-mSVP
|  4> ! GCP(DFT/SV(P))
|  5> ! DEFGRID2
|  6> ! scfconv6
|  7> ! miniprint nopop noautostart
|  8> %MaxCore 2500
|  9> %pal
| 10>     nprocs 12
| 11> end
| 12> ! CPCM(chloroform)
| 13> *xyz 0 1
| 14> C   -0.0045026418  -0.6877503212   0.1148456087
| 15> C    0.5387826972   0.6061652392  -0.5717766190
| 16> C   -0.0653151811   1.8801086164   0.0419198067
| 17> C   -1.5802007596   1.7999687705   0.2248775839
| 18> C   -2.0203627518   0.4082372630   0.7196017052
| 19> C   -0.8431751027  -0.3442617516   1.3614798880
| 20> C   -1.1050370590  -1.2924626486  -0.7780960635
| 21> C   -2.3291187054  -0.4769581627  -0.4626802194
| 22> O   -0.1196380550   0.3244710575   2.3633759338
| 23> C    1.0661588901  -1.7336962977   0.4587200215
| 24> C   -3.4785072019  -0.5159363794  -1.1112834961
| 25> C    2.0461736086   0.7556983898  -0.5774585846
| 26> C    2.7574159992   0.8706882759   0.5345091166
| 27> H    0.2140020502   0.5667313400  -1.6166453158
| 28> O    1.8025616713  -2.1837914984  -0.6489898112
| 29> C    2.6759641153   0.8598278070  -1.9382294870
| 30> H    0.4047179923   2.0554588859   1.0071759312
| 31> H    0.1787971935   2.7271276554  -0.6034798800
| 32> H   -1.8885803074   2.5663894707   0.9386941236
| 33> H   -2.0879301283   2.0075164600  -0.7196351690
| 34> H   -2.8793269577   0.5012796488   1.3894412642
| 35> H   -1.2282982936  -1.2922074677   1.7777371348
| 36> H   -0.8498937782  -1.2789888801  -1.8368507600
| 37> H   -1.2778458096  -2.3366214703  -0.5040151675
| 38> H   -0.7320001719   0.5733408820   3.0632471764
| 39> H    0.5683286422  -2.6221149939   0.8584576529
| 40> H    1.7286138033  -1.3396505853   1.2370364490
| 41> H   -3.6252303743  -1.1564442997  -1.9642850168
| 42> H   -4.3184271706   0.0897986976  -0.8155703713
| 43> H    3.8270542685   1.0008189363   0.5118488588
| 44> H    2.2988801332   0.8401129600   1.5075400555
| 45> H    2.3726042153  -1.4602941734  -0.9356495518
| 46> H    2.3514075562   1.7841679840  -2.4180148308
| 47> H    3.7613287529   0.8746375706  -1.8698625105
| 48> H    2.3723973800   0.0357039015  -2.5837825651
| 49> *
| 50> 
| 51>                          ****END OF INPUT****
================================================================================

                       ****************************
                       * Single Point Calculation *
                       ****************************

---------------------------------
CARTESIAN COORDINATES (ANGSTROEM)
---------------------------------
  C     -0.004503   -0.687750    0.114846
  C      0.538783    0.606165   -0.571777
  C     -0.065315    1.880109    0.041920
  C     -1.580201    1.799969    0.224878
  C     -2.020363    0.408237    0.719602
  C     -0.843175   -0.344262    1.361480
  C     -1.105037   -1.292463   -0.778096
  C     -2.329119   -0.476958   -0.462680
  O     -0.119638    0.324471    2.363376
  C      1.066159   -1.733696    0.458720
  C     -3.478507   -0.515936   -1.111283
  C      2.046174    0.755698   -0.577459
  C      2.757416    0.870688    0.534509
  H      0.214002    0.566731   -1.616645
  O      1.802562   -2.183791   -0.648990
  C      2.675964    0.859828   -1.938229
  H      0.404718    2.055459    1.007176
  H      0.178797    2.727128   -0.603480
  H     -1.888580    2.566389    0.938694
  H     -2.087930    2.007516   -0.719635
  H     -2.879327    0.501280    1.389441
  H     -1.228298   -1.292207    1.777737
  H     -0.849894   -1.278989   -1.836851
  H     -1.277846   -2.336621   -0.504015
  H     -0.732000    0.573341    3.063247
  H      0.568329   -2.622115    0.858458
  H      1.728614   -1.339651    1.237036
  H     -3.625230   -1.156444   -1.964285
  H     -4.318427    0.089799   -0.815570
  H      3.827054    1.000819    0.511849
  H      2.298880    0.840113    1.507540
  H      2.372604   -1.460294   -0.935650
  H      2.351408    1.784168   -2.418015
  H      3.761329    0.874638   -1.869863
  H      2.372397    0.035704   -2.583783

----------------------------
CARTESIAN COORDINATES (A.U.)
----------------------------
  NO LB      ZA    FRAG     MASS         X           Y           Z
   0 C     6.0000    0    12.011   -0.008509   -1.299660    0.217027
   1 C     6.0000    0    12.011    1.018152    1.145486   -1.080501
   2 C     6.0000    0    12.011   -0.123428    3.552890    0.079217
   3 C     6.0000    0    12.011   -2.986147    3.401448    0.424957
   4 C     6.0000    0    12.011   -3.817932    0.771457    1.359850
   5 C     6.0000    0    12.011   -1.593370   -0.650560    2.572824
   6 C     6.0000    0    12.011   -2.088217   -2.442400   -1.470388
   7 C     6.0000    0    12.011   -4.401396   -0.901320   -0.874339
   8 O     8.0000    0    15.999   -0.226083    0.613161    4.466133
   9 C     6.0000    0    12.011    2.014748   -3.276211    0.866855
  10 C     6.0000    0    12.011   -6.573426   -0.974978   -2.100021
  11 C     6.0000    0    12.011    3.866708    1.428063   -1.091239
  12 C     6.0000    0    12.011    5.210761    1.645362    1.010076
  13 H     1.0000    0     1.008    0.404405    1.070967   -3.055017
  14 O     8.0000    0    15.999    3.406348   -4.126768   -1.226413
  15 C     6.0000    0    12.011    5.056839    1.624839   -3.662723
  16 H     1.0000    0     1.008    0.764806    3.884254    1.903287
  17 H     1.0000    0     1.008    0.337878    5.153524   -1.140412
  18 H     1.0000    0     1.008   -3.568900    4.849773    1.773875
  19 H     1.0000    0     1.008   -3.945616    3.793656   -1.359913
  20 H     1.0000    0     1.008   -5.441139    0.947281    2.625663
  21 H     1.0000    0     1.008   -2.321147   -2.441918    3.359436
  22 H     1.0000    0     1.008   -1.606066   -2.416939   -3.471145
  23 H     1.0000    0     1.008   -2.414779   -4.415575   -0.952451
  24 H     1.0000    0     1.008   -1.383280    1.083457    5.788698
  25 H     1.0000    0     1.008    1.073985   -4.955079    1.622250
  26 H     1.0000    0     1.008    3.266607   -2.531573    2.337660
  27 H     1.0000    0     1.008   -6.850693   -2.185363   -3.711961
  28 H     1.0000    0     1.008   -8.160645    0.169695   -1.541205
  29 H     1.0000    0     1.008    7.232084    1.891274    0.967254
  30 H     1.0000    0     1.008    4.344254    1.587583    2.848838
  31 H     1.0000    0     1.008    4.483572   -2.759556   -1.768121
  32 H     1.0000    0     1.008    4.443516    3.371589   -4.569386
  33 H     1.0000    0     1.008    7.107881    1.652825   -3.533528
  34 H     1.0000    0     1.008    4.483181    0.067471   -4.882641



           ************************************************************
           *        Program running with 12 parallel MPI-processes    *
           *              working on a common directory               *
           ************************************************************
------------------------------------------------------------------------------
                   ___                                                        
                  /   \      - P O W E R E D   B Y -                         
                 /     \                                                     
                 |  |  |   _    _      __       _____    __    __             
                 |  |  |  | |  | |    /  \     |  _  \  |  |  /  |          
                  \  \/   | |  | |   /    \    | | | |  |  | /  /          
                 / \  \   | |__| |  /  /\  \   | |_| |  |  |/  /          
                |  |  |   |  __  | /  /__\  \  |    /   |      \           
                |  |  |   | |  | | |   __   |  |    \   |  |\   \          
                \     /   | |  | | |  |  |  |  | |\  \  |  | \   \       
                 \___/    |_|  |_| |__|  |__|  |_| \__\ |__|  \__/        
                                                                              
                      - O R C A' S   B I G   F R I E N D -                    
                                      &                                       
                       - I N T E G R A L  F E E D E R -                       
                                                                              
 v1 FN, 2020, v2 2021, v3 2022-2024                                           
------------------------------------------------------------------------------


----------------------
SHARK INTEGRAL PACKAGE
----------------------

Number of atoms                             ...     35
Number of basis functions                   ...    265
Number of shells                            ...    145
Maximum angular momentum                    ...      2
Integral batch strategy                     ... SHARK/LIBINT Hybrid
RI-J (if used) integral strategy            ... SPLIT-RIJ (Revised 2003 algorithm where possible)
Printlevel                                  ...      1
Contraction scheme used                     ... SEGMENTED contraction
Prescreening option                         ... SCHWARTZ
   Thresh                                   ... 1.000e-10
   Tcut                                     ... 1.000e-11
   Tpresel                                  ... 1.000e-11 
Coulomb Range Separation                    ... NOT USED
Exchange Range Separation                   ... NOT USED
Multipole approximations                    ... NOT USED
Finite Nucleus Model                        ... NOT USED
CABS basis                                  ... NOT available
Auxiliary Coulomb fitting basis             ... AVAILABLE
   # of basis functions in Aux-J            ...    955
   # of shells in Aux-J                     ...    325
   Maximum angular momentum in Aux-J        ...      4
Auxiliary J/K fitting basis                 ... NOT available
Auxiliary Correlation fitting basis         ... NOT available
Auxiliary 'external' fitting basis          ... NOT available

Checking pre-screening integrals            ... done (  0.0 sec) Dimension = 145
   => SHARK Basis and OBASIS are compatible. Storing Pre-screening
Shell pair information
Shell pair cut-off parameter TPreSel        ...   1.0e-11
Total number of shell pairs                 ...     10585
Shell pairs after pre-screening             ...      8882
Total number of primitive shell pairs       ...     38205
Primitive shell pairs kept                  ...     21004
          la=0 lb=0:   3926 shell pairs
          la=1 lb=0:   2765 shell pairs
          la=1 lb=1:    455 shell pairs
          la=2 lb=0:   1205 shell pairs
          la=2 lb=1:    426 shell pairs
          la=2 lb=2:    105 shell pairs

Checking whether 4 symmetric matrices of dimension 265 fit in memory
:Max Core in MB      =   2500.00
 MB in use           =     14.37
 MB left             =   2485.63
 MB needed           =      1.08
 Data fit in memory  = YES
Calculating RI/J V-Matrix + Cholesky decomp.... done (  0.0 sec)
Calculating Nuclear repulsion               ... done (  0.0 sec) ENN=   1121.926401961296 Eh

Diagonalization of the overlap matrix:
Smallest eigenvalue                        ... 1.557e-03
Time for diagonalization                   ...    0.013 sec
Threshold for overlap eigenvalues          ... 1.000e-07
Number of eigenvalues below threshold      ... 0
Time for construction of square roots      ...    0.004 sec
Total time needed                          ...    0.018 sec

-------------------
DFT GRID GENERATION
-------------------

General Integration Accuracy     IntAcc      ... 4.388
Radial Grid Type                 RadialGrid  ... OptM3 with GC (2021)
Angular Grid (max. ang.)         AngularGrid ... 4 (Lebedev-302)
Angular grid pruning method      GridPruning ... 4 (adaptive)
Weight generation scheme         WeightScheme... mBecke (2022)
Basis function cutoff            BFCut       ... 1.0000e-10
Integration weight cutoff        WCut        ... 1.0000e-14
Partially contracted basis set               ... off
Rotationally invariant grid construction     ... off
Angular grids for H and He will be reduced by one unit

Total number of grid points                  ...   152069
Total number of batches                      ...     2391
Average number of points per batch           ...       63
Average number of grid points per atom       ...     4345

--------------------
COSX GRID GENERATION
--------------------

GRIDX 1
-------
General Integration Accuracy     IntAcc      ... 3.816
Radial Grid Type                 RadialGrid  ... OptM3 with GC (2021)
Angular Grid (max. ang.)         AngularGrid ... 1 (Lebedev-50)
Angular grid pruning method      GridPruning ... 4 (adaptive)
Weight generation scheme         WeightScheme... mBecke (2022)
Basis function cutoff            BFCut       ... 1.0000e-10
Integration weight cutoff        WCut        ... 1.0000e-14
Partially contracted basis set               ... on
Rotationally invariant grid construction     ... off
Angular grids for H and He will be reduced by one unit

Total number of grid points                  ...    19380
Total number of batches                      ...      175
Average number of points per batch           ...      110
Average number of grid points per atom       ...      554
UseSFitting                                  ... on

GRIDX 2
-------
General Integration Accuracy     IntAcc      ... 4.020
Radial Grid Type                 RadialGrid  ... OptM3 with GC (2021)
Angular Grid (max. ang.)         AngularGrid ... 2 (Lebedev-110)
Angular grid pruning method      GridPruning ... 4 (adaptive)
Weight generation scheme         WeightScheme... mBecke (2022)
Basis function cutoff            BFCut       ... 1.0000e-10
Integration weight cutoff        WCut        ... 1.0000e-14
Partially contracted basis set               ... on
Rotationally invariant grid construction     ... off
Angular grids for H and He will be reduced by one unit

Total number of grid points                  ...    40579
Total number of batches                      ...      335
Average number of points per batch           ...      121
Average number of grid points per atom       ...     1159
UseSFitting                                  ... on

GRIDX 3
-------
General Integration Accuracy     IntAcc      ... 4.338
Radial Grid Type                 RadialGrid  ... OptM3 with GC (2021)
Angular Grid (max. ang.)         AngularGrid ... 3 (Lebedev-194)
Angular grid pruning method      GridPruning ... 4 (adaptive)
Weight generation scheme         WeightScheme... mBecke (2022)
Basis function cutoff            BFCut       ... 1.0000e-10
Integration weight cutoff        WCut        ... 1.0000e-14
Partially contracted basis set               ... on
Rotationally invariant grid construction     ... off
Angular grids for H and He will be reduced by one unit

Total number of grid points                  ...    88191
Total number of batches                      ...      711
Average number of points per batch           ...      124
Average number of grid points per atom       ...     2520
UseSFitting                                  ... on
Grids setup in   1.7 sec
Initializing property integral containers    ... done (  0.0 sec)

SHARK setup successfully completed in   1.9 seconds

Maximum memory used throughout the entire STARTUP-calculation: 40.8 MB


           ************************************************************
           *        Program running with 12 parallel MPI-processes    *
           *              working on a common directory               *
           ************************************************************
Loading Hartree-Fock densities                     ... done
Calculating cut-offs                               ... done
Initializing the effective Hamiltonian             ... done
Setting up the integral package (SHARK)            ... done
Starting the Coulomb interaction                   ... done (   0.1 sec)
Making the grid                                    ... done (   0.2 sec)
Mapping shells                                     ... done
Starting the XC term evaluation                    ... done (   0.1 sec)
  promolecular density results
     # of electrons  =    113.992874135
     EX              =    -89.281809318
     EC              =     -3.817571852
     EX+EC           =    -93.099381170
Transforming the Hamiltonian                       ... done (   0.0 sec)
Diagonalizing the Hamiltonian                      ... done (   0.0 sec)
Back transforming the eigenvectors                 ... done (   0.0 sec)
Now organizing SCF variables                       ... done
             **** ENERGY FILE WAS UPDATED (inp.en.tmp) ****
Finished Guess after   0.5 sec
Maximum memory used throughout the entire GUESS-calculation: 17.7 MB


           ************************************************************
           *        Program running with 12 parallel MPI-processes    *
           *              working on a common directory               *
           ************************************************************
--------------------
CPCM SOLVATION MODEL
--------------------
CPCM parameters:
  Epsilon                                         ...       4.8030
  Refrac                                          ...       1.4459
  Rsolv                                           ...       1.3000
  Surface type                                    ... GAUSSIAN VDW
  Discretization scheme                           ... Constant charge density
    Threshold for H atoms                         ...       5.0000 (charges/Ang^2)
    Threshold for non-H atoms                     ...       5.0000 (charges/Ang^2)
  Epsilon function type                           ...         CPCM
Solvent:                                          ... CHLOROFORM
Radii:
  Scheme                                          ... Element-dependent radii
  Radius for C  used is    3.8550 Bohr (=   2.0400 Ang.)
  Radius for O  used is    3.4469 Bohr (=   1.8240 Ang.)
  Radius for H  used is    2.4944 Bohr (=   1.3200 Ang.)
Calculating surface                               ...        done! (  0.0s)
Cavity surface points                             ...         2559
Cavity Volume                                     ...    1777.1690
Cavity Surface-area                               ...     897.1891
Calculating surface distance matrix               ...        done! (  0.1s)
Performing Cholesky decomposition & store         ...        done! (  0.2s)
Overall time for CPCM initialization              ...                 0.3s

----------------------------------------D-I-I-S--------------------------------------------
Iteration    Energy (Eh)           Delta-E    RMSDP     MaxDP     DIISErr   Damp  Time(sec)
-------------------------------------------------------------------------------------------
               ***  Starting incremental Fock matrix formation  ***
    1    -656.9027470764206100     0.00e+00  9.34e-03  7.15e-02  2.45e-01  0.700   2.2
    2    -657.1054207070283155    -2.03e-01  6.76e-03  4.20e-02  1.08e-01  0.700   1.4
                               ***Turning on AO-DIIS***
    3    -657.1900788756247493    -8.47e-02  2.66e-03  1.72e-02  3.97e-02  0.700   1.3
    4    -657.2395424701899174    -4.95e-02  4.46e-03  2.64e-02  2.01e-02  0.000   1.3
    5    -657.3466596368625687    -1.07e-01  8.77e-04  5.26e-03  5.20e-03  0.000   1.3
                              *** Initializing SOSCF ***
---------------------------------------S-O-S-C-F--------------------------------------
Iteration    Energy (Eh)           Delta-E    RMSDP     MaxDP     MaxGrad    Time(sec)
--------------------------------------------------------------------------------------
    6    -657.3470265036651199    -3.67e-04  2.92e-04  1.75e-03  1.12e-03     1.2
               *** Restarting incremental Fock matrix formation ***
    7    -657.3470108848832751     1.56e-05  1.74e-04  1.31e-03  2.73e-04     2.2
    8    -657.3470069414381669     3.94e-06  8.97e-05  6.59e-04  4.96e-04     1.5
    9    -657.3470145131352638    -7.57e-06  1.60e-05  1.35e-04  3.41e-05     1.4
                  *** Gradient check signals convergence ***

               *****************************************************
               *                     SUCCESS                       *
               *           SCF CONVERGED AFTER   9 CYCLES          *
               *****************************************************

Recomputing exchange energy using gridx3       ... done (    2.923 sec)
Old exchange energy                            :    -18.245282913 Eh
New exchange energy                            :    -18.245359080 Eh
Exchange energy change after final integration :     -0.000076167 Eh
Total energy after final integration           :   -657.347090621 Eh
             **** ENERGY FILE WAS UPDATED (inp.en.tmp) ****

----------------
TOTAL SCF ENERGY
----------------

Total Energy       :       -657.34709062075910 Eh          -17887.32371 eV

Components:
Nuclear Repulsion  :       1121.92640196129582 Eh           30529.16947 eV
Electronic Energy  :      -1779.26274981064512 Eh          -48416.20085 eV
One Electron Energy:      -3120.97249525650568 Eh          -84925.97915 eV
Two Electron Energy:       1341.70974544586056 Eh           36509.77829 eV
CPCM Dielectric    :         -0.01066660432206 Eh              -0.29025 eV

Virial components:
Potential Energy   :      -1310.57482607932752 Eh          -35662.55407 eV
Kinetic Energy     :        653.22773545856842 Eh           17775.23036 eV
Virial Ratio       :          2.00630615471234

DFT components:
N(Alpha)           :       57.000095182498 electrons
N(Beta)            :       57.000095182498 electrons
N(Total)           :      114.000190364997 electrons
E(X)               :      -72.347529017391 Eh       
E(C)               :       -4.495547212348 Eh       
E(XC)              :      -76.843076229740 Eh       

CPCM Solvation Model Properties:
Surface-charge          :         -0.02197169059462
Corrected charge        :         -0.00000000000000
Outlying charge corr.   :          0.00002399693740 Eh               0.00065 eV
Free-energy (cav+disp)  :  This term is not implemented in the current solvation scheme

---------------
SCF CONVERGENCE
---------------

  Last Energy change         ...    7.5717e-06  Tolerance :   1.0000e-06
  Last MAX-Density change    ...    1.3518e-04  Tolerance :   1.0000e-05
  Last RMS-Density change    ...    1.5992e-05  Tolerance :   1.0000e-06
  Last DIIS Error            ...    1.1189e-03  Tolerance :   1.0000e-06
  Last Orbital Gradient      ...    3.4054e-05  Tolerance :   3.3300e-04
  Last Orbital Rotation      ...    1.1275e-04  Tolerance :   3.3300e-04


----------------
ORBITAL ENERGIES
----------------

  NO   OCC          E(Eh)            E(eV) 
   0   2.0000     -19.131382      -520.5914 
   1   2.0000     -19.120100      -520.2844 
   2   2.0000     -10.219155      -278.0773 
   3   2.0000     -10.204484      -277.6781 
   4   2.0000     -10.180339      -277.0211 
   5   2.0000     -10.178502      -276.9711 
   6   2.0000     -10.176702      -276.9221 
   7   2.0000     -10.173898      -276.8458 
   8   2.0000     -10.171129      -276.7705 
   9   2.0000     -10.165220      -276.6097 
  10   2.0000     -10.165073      -276.6057 
  11   2.0000     -10.162103      -276.5249 
  12   2.0000     -10.156978      -276.3854 
  13   2.0000     -10.154118      -276.3076 
  14   2.0000     -10.153140      -276.2810 
  15   2.0000      -1.021580       -27.7986 
  16   2.0000      -1.008819       -27.4513 
  17   2.0000      -0.862739       -23.4763 
  18   2.0000      -0.809937       -22.0395 
  19   2.0000      -0.763295       -20.7703 
  20   2.0000      -0.756291       -20.5797 
  21   2.0000      -0.712835       -19.3972 
  22   2.0000      -0.682354       -18.5678 
  23   2.0000      -0.666757       -18.1434 
  24   2.0000      -0.657446       -17.8900 
  25   2.0000      -0.615933       -16.7604 
  26   2.0000      -0.585040       -15.9197 
  27   2.0000      -0.545491       -14.8436 
  28   2.0000      -0.522231       -14.2106 
  29   2.0000      -0.516651       -14.0588 
  30   2.0000      -0.501414       -13.6442 
  31   2.0000      -0.492850       -13.4111 
  32   2.0000      -0.473568       -12.8864 
  33   2.0000      -0.457555       -12.4507 
  34   2.0000      -0.451282       -12.2800 
  35   2.0000      -0.430104       -11.7037 
  36   2.0000      -0.428235       -11.6529 
  37   2.0000      -0.414037       -11.2665 
  38   2.0000      -0.408921       -11.1273 
  39   2.0000      -0.405881       -11.0446 
  40   2.0000      -0.403454       -10.9785 
  41   2.0000      -0.384466       -10.4619 
  42   2.0000      -0.375181       -10.2092 
  43   2.0000      -0.369566       -10.0564 
  44   2.0000      -0.364270        -9.9123 
  45   2.0000      -0.355978        -9.6867 
  46   2.0000      -0.345883        -9.4120 
  47   2.0000      -0.338036        -9.1984 
  48   2.0000      -0.328757        -8.9459 
  49   2.0000      -0.313203        -8.5227 
  50   2.0000      -0.302786        -8.2392 
  51   2.0000      -0.298112        -8.1120 
  52   2.0000      -0.285809        -7.7773 
  53   2.0000      -0.259708        -7.0670 
  54   2.0000      -0.252169        -6.8619 
  55   2.0000      -0.237878        -6.4730 
  56   2.0000      -0.234189        -6.3726 
  57   0.0000       0.016427         0.4470 
  58   0.0000       0.022379         0.6090 
  59   0.0000       0.088202         2.4001 
  60   0.0000       0.103951         2.8287 
  61   0.0000       0.121308         3.3009 
  62   0.0000       0.128903         3.5076 
  63   0.0000       0.144583         3.9343 
  64   0.0000       0.154584         4.2065 
  65   0.0000       0.158598         4.3157 
  66   0.0000       0.160351         4.3634 
  67   0.0000       0.172917         4.7053 
*Only the first 10 virtual orbitals were printed.
Total SCF time: 0 days 0 hours 0 min 18 sec 
Finished LeanSCF after  18.5 sec

Maximum memory used throughout the entire LEANSCF-calculation: 31.6 MB


-------------------------------------------------------------------------------
                          DFT DISPERSION CORRECTION                            
                                                                               
                              DFTD3 V3.1  Rev 1                                
                          USING Becke-Johnson damping                          
-------------------------------------------------------------------------------
-------------------------   ----------------
Dispersion correction           -0.075189275
-------------------------   ----------------

NOTIFICATION: Different basis set in ORCA and otool_gcp:
ORCA: 265  gCP: 250 
If you are NOT using ECPs, check your basis set inputs!
------------------   -----------------
gCP correction             0.167842304
------------------   -----------------

-------------------------   --------------------
FINAL SINGLE POINT ENERGY      -657.254437591116
-------------------------   --------------------



           ************************************************************
           *        Program running with 12 parallel MPI-processes    *
           *              working on a common directory               *
           ************************************************************

------------------------------------------------------------------------------
                              ORCA PROPERTY CALCULATIONS
------------------------------------------------------------------------------

GBWName                                 ... inp.gbw
Number of atoms                         ...     35
Number of basis functions               ...    265
Max core memory                         ...   2500 MB

Electric properties:
Dipole moment                           ... YES
Quadrupole moment                       ...  NO
Static polarizability (Dipole/Dipole)   ...  NO
Static polarizability (Dipole/Quad.)    ...  NO
Static polarizability (Quad./Quad.)     ...  NO
Static polarizability (Velocity)        ...  NO
Static hyperpolarizability              ...  NO

Atomic electric properties:
Dipole moment                           ...  NO
Quadrupole moment                       ...  NO
Static polarizability                   ...  NO

Choice of electric origin               ... Center of mass
Position of electric origin             ...    -0.000011     0.000014    -0.000013

General magnetic properties:
Magnetizability                         ...  NO

EPR properties:
g-Tensor (aka g-matrix)                 ...  NO
Zero-Field splitting spin-orbit         ...  NO
Zero-field splitting spin-spin          ...  NO
Hyperfine couplings                     ...  NO (   0 nuclei)
Quadrupole couplings                    ...  NO (   0 nuclei)
Contact density                         ...  NO (   0 nuclei)

NMR properties:
Chemical shifts                         ...  NO (   0 nuclei)
Spin-rotation constants                 ...  NO (   0 nuclei)
Spin-spin couplings                     ...  NO (   0 nuclei,    0 pairs)

Choice of magnetic origin               ... GIAO
Position of magnetic origin             ...     0.000000     0.000000     0.000000

Properties with geometric perturbations:
SCF Hessian                             ...  NO
IR spectrum                             ...  NO
VCD spectrum                            ...  NO
X-ray spectroscopy properties:
SCF XES/XAS/RIXS spectra                ...  NO

SCF SOC stabilization energy            ...  NO
Diagonal Born-Oppenheimer correction    ...  NO

-------------
DIPOLE MOMENT
-------------

Method             : SCF
Type of density    : Electron Density
Multiplicity       :   1
Irrep              :   0
Energy             :  -657.3470906207591042 Eh
Basis              : AO
                                X                 Y                 Z
Electronic contribution:     -1.661777159      -3.076500498       3.711296330
Nuclear contribution   :      1.141992071       3.853374213      -3.330009911
                        -----------------------------------------
Total Dipole Moment    :     -0.519785088       0.776873715       0.381286419
                        -----------------------------------------
Magnitude (a.u.)       :      1.009499202
Magnitude (Debye)      :      2.565943053



--------------------
Rotational spectrum 
--------------------
 
Rotational constants in cm-1:             0.029964             0.017444             0.016145 
Rotational constants in MHz :           898.290401           522.970229           484.013085 

Dipole components along the rotational axes: 
x,y,z [a.u.] :     0.548649     0.847328     0.010383 
x,y,z [Debye]:     1.394555     2.153737     0.026390 

 

Dipole moment calculation done in   0.0 sec 

Maximum memory used throughout the entire PROP-calculation: 16.6 MB

--------------------------------
SUGGESTED CITATIONS FOR THIS RUN
--------------------------------

Below you find a list of papers that are relevant to this ORCA run
We neither can nor want to force you to cite these papers, but we appreciate if you do
You receive ORCA, which is the product of decades of hard work by many enthusiastic individuals, for free
The only thing we kindly ask in return is that you cite our papers,
We deeply appreciate it, if you show your appreciation for ORCA by not just citing the generic ORCA reference.

Please note that relegating all ORCA citations to the supporting information does *not* help us.
SI sections are not indexed - citations you put there will not count into any citation statistics
But we need these citations in order to attract the funding resources that allow us to do what we are doing

Therefore, if you are a happy ORCA user, please consider citing a few of the papers listed below in the main body of your paper

In addition to the list printed below, the program has created the file inp.bibtex that contains the list in bibtex format
You can import this file easily into all common literature databanks and citation aid programs

It goes without saying that in many instances, there are alternative algorithms to achieve similar
results as the ones you have gotten from ORCA. It is, of course, also the case that in some instances
ORCA just re-implements algorithms worked out by others. We are fully aware of that and we are also
fully appreciative of our colleagues work. Hence this citation list should not be read as indicating
that the listed papers, which are focused on our own work, are the only ones worth citing. It simply
meant to make it easier for users to cite ORCA specific papers. It is not a substitute for doing your
own literature research and citing the relevant literature in a scientifically appropriate manner.

List of essential papers. We consider these as the minimum necessary citations

  1. Neese, F.
     Software update: the ORCA program system, version 6.0
     WIRES Comput. Molec. Sci. 2025 15(1), e70019
     doi.org/10.1002/wcms.70019

List of papers to cite with high priority. The work reported in these papers was absolutely
necessary for this run to complete.
Our perspective: the developers of density functionals and basis sets usually get cited in chemistry papers
Good! But without the algorithms to do something with them, the functionals or basis sets would not do anything.
Hence, in our opinion, the algorithm design and method developments papers are equally worthy of getting cited

  1. Neese, F.
     An improvement of the resolution of the identity approximation for the formation of the Coulomb matrix
     J. Comp. Chem. 2003 24(14), 1740-1747
     doi.org/10.1002/jcc.10318
  2. Neese, F.; Wennmohs, F.; Hansen, A.; Becker, U.
     Efficient, approximate and parallel Hartree-Fock and hybrid DFT calculations. A 'chain-of-spheres' algorithm for the Hartree-Fock exchange
     Chem. Phys. 2009 356(1-3), 98-109
     doi.org/10.1016/j.chemphys.2008.10.036
  3. Grimme, S.; Antony, J.; Ehrlich, S.; Krieg, H.
     A consistent and accurate ab initio parametrization of density functional dispersion correction (DFT-D) for the 94 elements H-Pu
     J. Chem. Phys. 2010 132 , 154104
     doi.org/10.1063/1.3382344
  4. Grimme, S.; Ehrlich, S.; Goerigk, L.
     Effect of the damping function in dispersion corrected density functional theory
     J. Comput. Chem. 2011 32(7), 1456-1465
     doi.org/10.1002/jcc.21759
  5. Garcia-Rates, M.; Neese, F.
     Effect of the Solute Cavity on the Solvation Energy and its Derivatives within the Framework of the Gaussian Charge Scheme
     J. Comput. Chem. 2020 41 , 922-939
     doi.org/10.1002/jcc.26139
  6. Helmich-Paris, B.; de Souza, B.; Neese, F.; Izsák, R.
     An improved chain of spheres for exchange algorithm
     J. Chem. Phys. 2021 155(10), 104109
     doi.org/10.1063/5.0058766
  7. Neese, F.
     The SHARK Integral Generation and Digestion System
     J. Comp. Chem. 2022 44(3), 381
     doi.org/10.1002/jcc.26942

List of suggested additional citations. These are papers that are important in the 'surrounding' of 
of this run, or papers that preceded the highly important papers. If you like your results we are grateful for a citation.

  1. Izsak, R.; Neese, F.
     An overlap fitted chain of spheres exchange method
     J. Chem. Phys. 2011 135 , 144105
     doi.org/10.1063/1.3646921
  2. Izsak, R.; Hansen, A.; Neese, F.
     The resolution of identity and chain of spheres approximations for the LPNO-CCSD singles Fock term
     Molec. Phys. 2012 110 , 2413-2417
     doi.org/10.1080/00268976.2012.687466
  3. Neese, F.
     The ORCA program system
     WIRES Comput. Molec. Sci. 2012 2(1), 73-78
     doi.org/10.1002/wcms.81
  4. Izsak, R.; Neese, F.; Klopper, W.
     Robust fitting techniques in the chain of spheres approximation to the Fock exchange: The role of the complementary space
     J. Chem. Phys. 2013 139 , 
     doi.org/10.1063/1.4819264
  5. Neese, F.
     Software update: the ORCA program system, version 4.0
     WIRES Comput. Molec. Sci. 2018 8(1), 1-6
     doi.org/10.1002/wcms.1327
  6. Neese, F.; Wennmohs, F.; Becker, U.; Riplinger, C.
     The ORCA quantum chemistry program package
     J. Chem. Phys. 2020 152(22), 224108
     doi.org/10.1063/5.0004608
  7. Neese, F.
     Software update: The ORCA program system—Version 5.0
     WIRES Comput. Molec. Sci. 2022 12(1), e1606
     doi.org/10.1002/wcms.1606

List of optional additional citations

  1. Neese, F.
     Approximate second-order SCF convergence for spin unrestricted wavefunctions
     Chem. Phys. Lett. 2000 325(1-3), 93-98
     doi.org/10.1016/s0009-2614(00)00662-x

Timings for individual modules:

Sum of individual times          ...       21.910 sec (=   0.365 min)
Startup calculation              ...        2.145 sec (=   0.036 min)   9.8 %
SCF iterations                   ...       19.424 sec (=   0.324 min)  88.7 %
Property calculations            ...        0.341 sec (=   0.006 min)   1.6 %
                             ****ORCA TERMINATED NORMALLY****
TOTAL RUN TIME: 0 days 0 hours 0 minutes 22 seconds 256 msec
