
                                 *****************
                                 * O   R   C   A *
                                 *****************

                                            #,                                       
                                            ###                                      
                                            ####                                     
                                            #####                                    
                                            ######                                   
                                           ########,                                 
                                     ,,################,,,,,                         
                               ,,#################################,,                 
                          ,,##########################################,,             
                       ,#########################################, ''#####,          
                    ,#############################################,,   '####,        
                  ,##################################################,,,,####,       
                ,###########''''           ''''###############################       
              ,#####''   ,,,,##########,,,,          '''####'''          '####       
            ,##' ,,,,###########################,,,                        '##       
           ' ,,###''''                  '''############,,,                           
         ,,##''                                '''############,,,,        ,,,,,,###''
      ,#''                                            '''#######################'''  
     '                                                          ''''####''''         
             ,#######,   #######,   ,#######,      ##                                
            ,#'     '#,  ##    ##  ,#'     '#,    #''#        ,####,    ,#,          
            ##       ##  ##   ,#'  ##            #'  '#       #'       ,# #          
            ##       ##  #######   ##           ,######,      #####,      #          
            '#,     ,#'  ##    ##  '#,     ,#' ,#      #,     #,   #      #          
             '#######'   ##     ##  '#######'  #'      '#     '####' #    #          



                #########################################################
                #                        -***-                          #
                #          Department of theory and spectroscopy        #
                #                                                       #
                #                      Frank Neese                      #
                #                                                       #
                #     Directorship, Architecture, Infrastructure        #
                #                    SHARK, DRIVERS                     #
                #        Core code/Algorithms in most modules           #
                #                                                       #
                #        Max Planck Institute fuer Kohlenforschung      #
                #                Kaiser Wilhelm Platz 1                 #
                #                 D-45470 Muelheim/Ruhr                 #
                #                      Germany                          #
                #                                                       #
                #                  All rights reserved                  #
                #                        -***-                          #
                #########################################################


                         Program Version 6.1.1  -  RELEASE   -
                                (GIT: $487d211c$)
                          ($2025-11-21 10:33:24 +0100$)


 With contributions from (in alphabetic order):
[Max-Planck-Institut fuer Kohlenforschung]                               
  Daniel Aravena         : Magnetic Suceptibility                        
  Michael Atanasov       : Ab Initio Ligand Field Theory (pilot matlab implementation)
  Alexander A. Auer      : GIAO ZORA, VPT2 properties, NMR spectrum      
  Ute Becker             : All parallelization in ORCA, NUMFREQ, NUMCALC 
  Giovanni Bistoni       : ED, misc. LED, open-shell LED, HFLD           
  Dmytro Bykov           : pre 5.0 version of the SCF Hessian            
  Marcos Casanova-Páez   : Triplet and SCS-CIS(D). UHF-(DLPNO)-IP/EA/STEOM-CCSD. UHF-CVS-IP/STEOM-CCSD   
  Vijay G. Chilkuri      : MRCI spin determinant printing, contributions to CSF-ICE 
  Pauline Colinet        : FMM embedding                                 
  Dipayan Datta          : RHF DLPNO-CCSD density                        
  Achintya Kumar Dutta   : EOM-CC, STEOM-CC                              
  Nicolas Foglia         : Exact transition moments, OPA infrastructure, MCD improvements    
  Dmitry Ganyushin       : Spin-Orbit,Spin-Spin,Magnetic field MRCI      
  Miquel Garcia-Rates    : C-PCM and meta-GGA Hessian, CCSD/C-PCM, Gaussian charge scheme 
  Tiago L. C. Gouveia    : GS-ROHF, GS-ROCIS                             
  Yang Guo               : DLPNO-NEVPT2, F12-NEVPT2, CIM, IAO-localization        
  Andreas Hansen         : Spin unrestricted coupled pair/coupled cluster methods 
  Ingolf Harden          : AUTO-CI MPn and infrastructure                
  Benjamin Helmich-Paris : MC-RPA, TRAH-(SCF,CASSCF), AVAS, COSX integrals, SCF dyn. polar., MC-PDFT, srDFT 
  Lee Huntington         : MR-EOM, pCC                                   
  Robert Izsak           : Overlap fitted RIJCOSX, COSX-SCS-MP3, EOM     
  Riya Kayal             : Wick's Theorem for AUTO-CI, AUTO-CI UHF-CCSDT 
  Emily Kempfer          : AUTO-CI RHF CISDT and CCSDT, approximate NEVPT4
  Christian Kollmar      : KDIIS, OOCD, Brueckner-CCSD(T), CCSD density, CASPT2, CASPT2-K, improved NEVPT2 
  Axel Koslowski         : Symmetry handling                             
  Simone Kossmann        : meta-GGA functionals, TD-DFT gradient, OOMP2, (MP2 Hessian; deprecated post 5.0) 
  Lucas Lang             : DCDCAS, Hyperfine gauge corrections, ICE-SOC+SSC
  Marvin Lechner         : AUTO-CI (C++ implementation), FIC-MRCC        
  Spencer Leger          : CASSCF response                               
  Dagmar Lenk            : GEPOL surface, SMD, ORCA-2-JSON               
  Dimitrios Liakos       : Extrapolation schemes; Compound Job, Property file
  Dimitrios Manganas     : Further ROCIS development; embedding schemes. LFT, Crystal Embedding 
  Dimitrios Pantazis     : SARC Basis sets                               
  Anastasios Papadopoulos: AUTO-CI, single reference methods and gradients 
  Taras Petrenko         : pre 6.0 DFT Hessian and TD-DFT gradient,  ECA, NRVS 
  Petra Pikulova         : Analytic Raman intensities                    
  Peter Pinski           : DLPNO-MP2, DLPNO-MP2 Gradient                 
  Shashank Vittal Rao    : ES-AILFT, MagRelax                            
  Christoph Reimann      : Effective Core Potentials                     
  Marius Retegan         : Local ZFS, SOC                                
  Christoph Riplinger    : Optimizer, TS searches, QM/MM, DLPNO-CCSD(T), (RO)-DLPNO pert. Triples 
  Michael Roemelt        : Original ROCIS implementation, recursive CI coupling coefficients
  Masaaki Saitow         : Open-shell DLPNO-CCSD energy and density      
  Barbara Sandhoefer     : DKH picture change effects                    
  Yorick L. A. Schmerwitz: GMF and freeze-and-release deltaSCF, NEB S-IDPP initial path                    
  Kantharuban Sivalingam : CASSCF convergence/infrastructure, NEVPT2, NEVPT3, NEVPT4(SD), FIC-MRCI and CEPA variants
  Bernardo de Souza      : ESD, SOC TD-DFT                               
  Georgi L. Stoychev     : AutoAux, RI-MP2 NMR, DLPNO-MP2 response, X2C  
  Van Anh Tran           : RI-MP2 g-tensors                              
  Willem Van den Heuvel  : Paramagnetic NMR                              
  Zikuan Wang            : NOTCH, Electric field optimization            
  Frank Wennmohs         : Technical directorship and infrastructure     
  Hang Xu                : AUTO-CI-Response properties                   
                                                                         
[FACCTs GmbH]                                                            
  Markus Bursch, Nicolas Foglia, Miquel Garcia-Rates, Ingolf Harden, Hagen Neugebauer, Anastasios Papadopoulos, 
  Christoph Riplinger, Bernardo de Souza, Georgi L. Stoychev                                                    
                                                                 
  APM, various basis sets, CI-OPT, improved COSX, DLPNO-Multilevel,           
  DOCKER, DRACO, updates on ESD, Fragmentator, GOAT, IRC, LR-CPCM, L-BFGS, MBIS, meta-GGA TD-DFT gradient, ML-optimized integration grids, 
  MM, NACMEs, nearIR, NEB, NEB-TS, NL-DFT gradient (VV10), 2- and 3-layer-ONIOM, interface openCOSMO-RS, QMMM,   
  Crystal-QMMM, RESP, rigid body optimization, SF, symmetry and pop. for TD-DFT, various functionals, SOLVATOR                                   
                                                                         
[Other institutions]                                                     
  V. Asgeirsson          : NEB                                           
  Christoph Bannwarth    : sTDA-DFT, sTD-DFT, PBEh-3c, B97-3c, D3        
  Giovanni Bistoni       : ETS/NOCV, ADLD/ADEX, COVALED                  
  Martin Brehm           : Molecular dynamics                            
  Ronald Cardenas        : ETS/NOCV                                      
  Martina Colucci        : COVALED                                       
  Sebastian Ehlert       : rSCAN, r2SCAN, r2SCAN-3c, D4, dhf basis sets  
  Marvin Friede          : D4 for Fr, Ra, Ac-Lr                          
  Lars Goerigk           : TD-DFT with DH, B97 family of functionals     
  Stefan Grimme          : VdW corrections, initial TS optimization, DFT functionals, gCP, sTDA/sTD-DF 
  Waldemar Hujo          : DFT-NL                                        
  H. Jonsson             : NEB                                           
  Holger Kruse           : gCP                                           
  Marcel Mueller         : wB97X-3c, vDZP basis set                      
  Hagen Neugebauer       : wr2SCAN, Native XTB                           
  Gianluca Regni         : ADLD/ADEX                                     
  Tobias Risthaus        : pre 6.0 range-separated hybrid DFT and stability analysis
  Lukas Wittmann         : regularized MP2, r2SCAN double-hybrids, wr2SCAN        
                                                                         
We gratefully acknowledge several colleagues who have allowed us to      
interface, adapt or use parts of their codes:                            
  Ed Valeev, F. Pavosevic, A. Kumar             : LibInt (2-el integral package), F12 methods 
  Garnet Chan, S. Sharma, J. Yang, R. Olivares  : DMRG                   
  Ulf Ekstrom                                   : XCFun DFT Library      
  Mihaly Kallay                                 : mrcc  (arbitrary order and MRCC methods)
  Frank Weinhold                                : gennbo (NPA and NBO analysis)           
  Simon Mueller                                 : openCOSMO-RS                            
  Christopher J. Cramer and Donald G. Truhlar   : smd solvation model                     
  S Lehtola, MJT Oliveira, MAL Marques          : LibXC Library                           
  Liviu Ungur et al                             : ANISO software                          


 Your calculation uses the libint2 library for the computation of 2-el integrals
 For citations please refer to: http://libint.valeyev.net

 Your ORCA version has been built with support for libXC version: 7.0.0
 For citations please refer to: https://libxc.gitlab.io

 This ORCA versions uses:
   CBLAS   interface :  Fast vector & matrix operations
   LAPACKE interface :  Fast linear algebra routines
   SCALAPACK package :  Parallel linear algebra routines
   Shared memory     :  Shared parallel matrices
   BLAS/LAPACK       :  OpenBLAS 0.3.29  USE64BITINT DYNAMIC_ARCH NO_AFFINITY Haswell SINGLE_THREADED
        Core in use  :  Haswell
   Copyright (c) 2011-2014, The OpenBLAS Project


  ***********************************
  * Starting time: Sun Aug  9 18:40:23 2026
  * Host name:     localhost.localdomain
  * Process ID:    3057938
  * Working dir.:  /home/dinglab/calculation/templates/NMR_modules/autohnmr/beta_diol_screening/CONF8/b3lyp-3c
  ***********************************

NOTE: MaxCore=2500 MB was set to SCF,MP2,MDCI,CIPSI,MRCI,RASCI and CIS
      => If you want to overwrite this, your respective input block should be placed after the MaxCore statement
Your calculation utilizes the geometrical counterpoise correction gCP
Please cite in your paper:
H.Kruse, S. Grimme J.Chem.Phys., 136, (2012), 154101 
   

Your calculation utilizes the atom-pairwise dispersion correction
with the Becke-Johnson damping scheme (D3BJ)


Warning: RI is on but no J-basis has been assigned. Assigning Def2/J (nothing to worry about!)
================================================================================

----- Orbital basis set information -----
Your calculation utilizes the basis: def2-mSVP

----- AuxJ basis set information -----
Your calculation utilizes the auxiliary basis: def2/J
   H-Rn: F. Weigend, Phys. Chem. Chem. Phys. 8, 1057 (2006).
   Fr-Lr: K. Eichkorn, F. Weigend, O. Treutler, R. Ahlrichs; Theor. Chem. Acc. 97, 119 (1997).

================================================================================
                                        WARNINGS
                       Please study these warnings very carefully!
================================================================================

WARNING: Old DensityContainer found on disk!
         Will remove this file - 
         If you want to keep old densities, please start your calculation with a different basename. 


================================================================================
                                       INPUT FILE
================================================================================
NAME = inp
|  1> ! b3lyp
|  2> ! d3bj ABC
|  3> ! def2-mSVP
|  4> ! GCP(DFT/SV(P))
|  5> ! DEFGRID2
|  6> ! scfconv6
|  7> ! miniprint nopop noautostart
|  8> %MaxCore 2500
|  9> %pal
| 10>     nprocs 12
| 11> end
| 12> ! CPCM(chloroform)
| 13> *xyz 0 1
| 14> C    0.0139287697  -0.7674642180  -0.0575516703
| 15> C    0.6538163350   0.4964699187  -0.7756361233
| 16> C   -0.4114845901   1.6309628977  -0.9181741599
| 17> C   -1.3184788091   1.8421189803   0.3166665388
| 18> C   -1.8294304725   0.4905034650   0.8729574547
| 19> C   -0.6326492389  -0.3946006575   1.3148494978
| 20> C   -1.2688456049  -1.1935210566  -0.8450334711
| 21> C   -2.4080804858  -0.3580203908  -0.2506767361
| 22> O    0.2182298701   0.1301941826   2.3276693912
| 23> C    0.9827293010  -1.9421576237   0.1160408843
| 24> C   -3.6876736072  -0.3864274055  -0.6387451635
| 25> C    2.0020652122   0.9915004921  -0.2215639846
| 26> C    2.1404031870   2.0430843130   0.6088392623
| 27> H    0.8822303114   0.1526116559  -1.7987370310
| 28> O    1.4292832172  -2.3895622844  -1.1725981706
| 29> C    3.2451601848   0.3258342921  -0.7874230028
| 30> H    0.0909996381   2.5721855975  -1.1876911321
| 31> H   -1.0580497410   1.3810518592  -1.7740589191
| 32> H   -0.7956085739   2.3849689978   1.1209435479
| 33> H   -2.1784045391   2.4690634379   0.0299597077
| 34> H   -2.5485519338   0.6613426529   1.6889383126
| 35> H   -1.0469168149  -1.3222796084   1.7511175352
| 36> H   -1.1659474493  -1.0547934198  -1.9320032155
| 37> H   -1.4663838497  -2.2666894252  -0.6818630416
| 38> H    0.8990828968   0.7052667601   1.9211483283
| 39> H    0.4466385132  -2.7553003374   0.6436249572
| 40> H    1.8329024767  -1.6471361885   0.7585946020
| 41> H   -4.0268388986  -1.0231551549  -1.4602062763
| 42> H   -4.4493579912   0.2222251356  -0.1451366977
| 43> H    3.1290605721   2.3718356820   0.9367162561
| 44> H    1.3017253849   2.6408290532   0.9685965759
| 45> H    2.0075067628  -3.1670229405  -1.0376005620
| 46> H    3.1901175332  -0.7696994152  -0.7720738826
| 47> H    3.3548942054   0.6117286704  -1.8489745173
| 48> H    4.1528154172   0.6469750136  -0.2564009476
| 49> *
| 50> 
| 51>                          ****END OF INPUT****
================================================================================

                       ****************************
                       * Single Point Calculation *
                       ****************************

---------------------------------
CARTESIAN COORDINATES (ANGSTROEM)
---------------------------------
  C      0.013929   -0.767464   -0.057552
  C      0.653816    0.496470   -0.775636
  C     -0.411485    1.630963   -0.918174
  C     -1.318479    1.842119    0.316667
  C     -1.829430    0.490503    0.872957
  C     -0.632649   -0.394601    1.314849
  C     -1.268846   -1.193521   -0.845033
  C     -2.408080   -0.358020   -0.250677
  O      0.218230    0.130194    2.327669
  C      0.982729   -1.942158    0.116041
  C     -3.687674   -0.386427   -0.638745
  C      2.002065    0.991500   -0.221564
  C      2.140403    2.043084    0.608839
  H      0.882230    0.152612   -1.798737
  O      1.429283   -2.389562   -1.172598
  C      3.245160    0.325834   -0.787423
  H      0.091000    2.572186   -1.187691
  H     -1.058050    1.381052   -1.774059
  H     -0.795609    2.384969    1.120944
  H     -2.178405    2.469063    0.029960
  H     -2.548552    0.661343    1.688938
  H     -1.046917   -1.322280    1.751118
  H     -1.165947   -1.054793   -1.932003
  H     -1.466384   -2.266689   -0.681863
  H      0.899083    0.705267    1.921148
  H      0.446639   -2.755300    0.643625
  H      1.832902   -1.647136    0.758595
  H     -4.026839   -1.023155   -1.460206
  H     -4.449358    0.222225   -0.145137
  H      3.129061    2.371836    0.936716
  H      1.301725    2.640829    0.968597
  H      2.007507   -3.167023   -1.037601
  H      3.190118   -0.769699   -0.772074
  H      3.354894    0.611729   -1.848975
  H      4.152815    0.646975   -0.256401

----------------------------
CARTESIAN COORDINATES (A.U.)
----------------------------
  NO LB      ZA    FRAG     MASS         X           Y           Z
   0 C     6.0000    0    12.011    0.026322   -1.450297   -0.108757
   1 C     6.0000    0    12.011    1.235534    0.938192   -1.465740
   2 C     6.0000    0    12.011   -0.777593    3.082073   -1.735098
   3 C     6.0000    0    12.011   -2.491564    3.481100    0.598413
   4 C     6.0000    0    12.011   -3.457123    0.926917    1.649651
   5 C     6.0000    0    12.011   -1.195534   -0.745687    2.484705
   6 C     6.0000    0    12.011   -2.397771   -2.255428   -1.596882
   7 C     6.0000    0    12.011   -4.550613   -0.676560   -0.473710
   8 O     8.0000    0    15.999    0.412395    0.246031    4.398658
   9 C     6.0000    0    12.011    1.857089   -3.670146    0.219285
  10 C     6.0000    0    12.011   -6.968693   -0.730242   -1.207053
  11 C     6.0000    0    12.011    3.783355    1.873664   -0.418695
  12 C     6.0000    0    12.011    4.044776    3.860870    1.150539
  13 H     1.0000    0     1.008    1.667174    0.288394   -3.399120
  14 O     8.0000    0    15.999    2.700954   -4.515618   -2.215889
  15 C     6.0000    0    12.011    6.132464    0.615738   -1.488014
  16 H     1.0000    0     1.008    0.171964    4.860726   -2.244411
  17 H     1.0000    0     1.008   -1.999424    2.609810   -3.352486
  18 H     1.0000    0     1.008   -1.503482    4.506938    2.118276
  19 H     1.0000    0     1.008   -4.116588    4.665854    0.056616
  20 H     1.0000    0     1.008   -4.816065    1.249756    3.191631
  21 H     1.0000    0     1.008   -1.978386   -2.498746    3.309133
  22 H     1.0000    0     1.008   -2.203321   -1.993271   -3.650957
  23 H     1.0000    0     1.008   -2.771064   -4.283422   -1.288534
  24 H     1.0000    0     1.008    1.699020    1.332761    3.630444
  25 H     1.0000    0     1.008    0.844024   -5.206763    1.216275
  26 H     1.0000    0     1.008    3.463684   -3.112636    1.433536
  27 H     1.0000    0     1.008   -7.609623   -1.933483   -2.759390
  28 H     1.0000    0     1.008   -8.408068    0.419945   -0.274269
  29 H     1.0000    0     1.008    5.913068    4.482120    1.770137
  30 H     1.0000    0     1.008    2.459904    4.990444    1.830382
  31 H     1.0000    0     1.008    3.793638   -5.984806   -1.960781
  32 H     1.0000    0     1.008    6.028448   -1.454521   -1.459008
  33 H     1.0000    0     1.008    6.339831    1.156000   -3.494055
  34 H     1.0000    0     1.008    7.847684    1.222606   -0.484528



           ************************************************************
           *        Program running with 12 parallel MPI-processes    *
           *              working on a common directory               *
           ************************************************************
------------------------------------------------------------------------------
                   ___                                                        
                  /   \      - P O W E R E D   B Y -                         
                 /     \                                                     
                 |  |  |   _    _      __       _____    __    __             
                 |  |  |  | |  | |    /  \     |  _  \  |  |  /  |          
                  \  \/   | |  | |   /    \    | | | |  |  | /  /          
                 / \  \   | |__| |  /  /\  \   | |_| |  |  |/  /          
                |  |  |   |  __  | /  /__\  \  |    /   |      \           
                |  |  |   | |  | | |   __   |  |    \   |  |\   \          
                \     /   | |  | | |  |  |  |  | |\  \  |  | \   \       
                 \___/    |_|  |_| |__|  |__|  |_| \__\ |__|  \__/        
                                                                              
                      - O R C A' S   B I G   F R I E N D -                    
                                      &                                       
                       - I N T E G R A L  F E E D E R -                       
                                                                              
 v1 FN, 2020, v2 2021, v3 2022-2024                                           
------------------------------------------------------------------------------


----------------------
SHARK INTEGRAL PACKAGE
----------------------

Number of atoms                             ...     35
Number of basis functions                   ...    265
Number of shells                            ...    145
Maximum angular momentum                    ...      2
Integral batch strategy                     ... SHARK/LIBINT Hybrid
RI-J (if used) integral strategy            ... SPLIT-RIJ (Revised 2003 algorithm where possible)
Printlevel                                  ...      1
Contraction scheme used                     ... SEGMENTED contraction
Prescreening option                         ... SCHWARTZ
   Thresh                                   ... 1.000e-10
   Tcut                                     ... 1.000e-11
   Tpresel                                  ... 1.000e-11 
Coulomb Range Separation                    ... NOT USED
Exchange Range Separation                   ... NOT USED
Multipole approximations                    ... NOT USED
Finite Nucleus Model                        ... NOT USED
CABS basis                                  ... NOT available
Auxiliary Coulomb fitting basis             ... AVAILABLE
   # of basis functions in Aux-J            ...    955
   # of shells in Aux-J                     ...    325
   Maximum angular momentum in Aux-J        ...      4
Auxiliary J/K fitting basis                 ... NOT available
Auxiliary Correlation fitting basis         ... NOT available
Auxiliary 'external' fitting basis          ... NOT available

Checking pre-screening integrals            ... done (  0.0 sec) Dimension = 145
   => SHARK Basis and OBASIS are compatible. Storing Pre-screening
Shell pair information
Shell pair cut-off parameter TPreSel        ...   1.0e-11
Total number of shell pairs                 ...     10585
Shell pairs after pre-screening             ...      8860
Total number of primitive shell pairs       ...     38205
Primitive shell pairs kept                  ...     20874
          la=0 lb=0:   3914 shell pairs
          la=1 lb=0:   2753 shell pairs
          la=1 lb=1:    455 shell pairs
          la=2 lb=0:   1207 shell pairs
          la=2 lb=1:    426 shell pairs
          la=2 lb=2:    105 shell pairs

Checking whether 4 symmetric matrices of dimension 265 fit in memory
:Max Core in MB      =   2500.00
 MB in use           =     14.33
 MB left             =   2485.67
 MB needed           =      1.08
 Data fit in memory  = YES
Calculating RI/J V-Matrix + Cholesky decomp.... done (  0.1 sec)
Calculating Nuclear repulsion               ... done (  0.0 sec) ENN=   1110.334012248848 Eh

Diagonalization of the overlap matrix:
Smallest eigenvalue                        ... 2.008e-03
Time for diagonalization                   ...    0.013 sec
Threshold for overlap eigenvalues          ... 1.000e-07
Number of eigenvalues below threshold      ... 0
Time for construction of square roots      ...    0.004 sec
Total time needed                          ...    0.018 sec

-------------------
DFT GRID GENERATION
-------------------

General Integration Accuracy     IntAcc      ... 4.388
Radial Grid Type                 RadialGrid  ... OptM3 with GC (2021)
Angular Grid (max. ang.)         AngularGrid ... 4 (Lebedev-302)
Angular grid pruning method      GridPruning ... 4 (adaptive)
Weight generation scheme         WeightScheme... mBecke (2022)
Basis function cutoff            BFCut       ... 1.0000e-10
Integration weight cutoff        WCut        ... 1.0000e-14
Partially contracted basis set               ... off
Rotationally invariant grid construction     ... off
Angular grids for H and He will be reduced by one unit

Total number of grid points                  ...   152222
Total number of batches                      ...     2396
Average number of points per batch           ...       63
Average number of grid points per atom       ...     4349

--------------------
COSX GRID GENERATION
--------------------

GRIDX 1
-------
General Integration Accuracy     IntAcc      ... 3.816
Radial Grid Type                 RadialGrid  ... OptM3 with GC (2021)
Angular Grid (max. ang.)         AngularGrid ... 1 (Lebedev-50)
Angular grid pruning method      GridPruning ... 4 (adaptive)
Weight generation scheme         WeightScheme... mBecke (2022)
Basis function cutoff            BFCut       ... 1.0000e-10
Integration weight cutoff        WCut        ... 1.0000e-14
Partially contracted basis set               ... on
Rotationally invariant grid construction     ... off
Angular grids for H and He will be reduced by one unit

Total number of grid points                  ...    19383
Total number of batches                      ...      174
Average number of points per batch           ...      111
Average number of grid points per atom       ...      554
UseSFitting                                  ... on

GRIDX 2
-------
General Integration Accuracy     IntAcc      ... 4.020
Radial Grid Type                 RadialGrid  ... OptM3 with GC (2021)
Angular Grid (max. ang.)         AngularGrid ... 2 (Lebedev-110)
Angular grid pruning method      GridPruning ... 4 (adaptive)
Weight generation scheme         WeightScheme... mBecke (2022)
Basis function cutoff            BFCut       ... 1.0000e-10
Integration weight cutoff        WCut        ... 1.0000e-14
Partially contracted basis set               ... on
Rotationally invariant grid construction     ... off
Angular grids for H and He will be reduced by one unit

Total number of grid points                  ...    40634
Total number of batches                      ...      335
Average number of points per batch           ...      121
Average number of grid points per atom       ...     1161
UseSFitting                                  ... on

GRIDX 3
-------
General Integration Accuracy     IntAcc      ... 4.338
Radial Grid Type                 RadialGrid  ... OptM3 with GC (2021)
Angular Grid (max. ang.)         AngularGrid ... 3 (Lebedev-194)
Angular grid pruning method      GridPruning ... 4 (adaptive)
Weight generation scheme         WeightScheme... mBecke (2022)
Basis function cutoff            BFCut       ... 1.0000e-10
Integration weight cutoff        WCut        ... 1.0000e-14
Partially contracted basis set               ... on
Rotationally invariant grid construction     ... off
Angular grids for H and He will be reduced by one unit

Total number of grid points                  ...    88335
Total number of batches                      ...      708
Average number of points per batch           ...      124
Average number of grid points per atom       ...     2524
UseSFitting                                  ... on
Grids setup in   1.5 sec
Initializing property integral containers    ... done (  0.0 sec)

SHARK setup successfully completed in   1.8 seconds

Maximum memory used throughout the entire STARTUP-calculation: 40.8 MB


           ************************************************************
           *        Program running with 12 parallel MPI-processes    *
           *              working on a common directory               *
           ************************************************************
Loading Hartree-Fock densities                     ... done
Calculating cut-offs                               ... done
Initializing the effective Hamiltonian             ... done
Setting up the integral package (SHARK)            ... done
Starting the Coulomb interaction                   ... done (   0.1 sec)
Making the grid                                    ... done (   0.2 sec)
Mapping shells                                     ... done
Starting the XC term evaluation                    ... done (   0.1 sec)
  promolecular density results
     # of electrons  =    113.989075361
     EX              =    -89.150818684
     EC              =     -3.805845985
     EX+EC           =    -92.956664669
Transforming the Hamiltonian                       ... done (   0.0 sec)
Diagonalizing the Hamiltonian                      ... done (   0.0 sec)
Back transforming the eigenvectors                 ... done (   0.0 sec)
Now organizing SCF variables                       ... done
             **** ENERGY FILE WAS UPDATED (inp.en.tmp) ****
Finished Guess after   0.6 sec
Maximum memory used throughout the entire GUESS-calculation: 17.7 MB


           ************************************************************
           *        Program running with 12 parallel MPI-processes    *
           *              working on a common directory               *
           ************************************************************
--------------------
CPCM SOLVATION MODEL
--------------------
CPCM parameters:
  Epsilon                                         ...       4.8030
  Refrac                                          ...       1.4459
  Rsolv                                           ...       1.3000
  Surface type                                    ... GAUSSIAN VDW
  Discretization scheme                           ... Constant charge density
    Threshold for H atoms                         ...       5.0000 (charges/Ang^2)
    Threshold for non-H atoms                     ...       5.0000 (charges/Ang^2)
  Epsilon function type                           ...         CPCM
Solvent:                                          ... CHLOROFORM
Radii:
  Scheme                                          ... Element-dependent radii
  Radius for C  used is    3.8550 Bohr (=   2.0400 Ang.)
  Radius for O  used is    3.4469 Bohr (=   1.8240 Ang.)
  Radius for H  used is    2.4944 Bohr (=   1.3200 Ang.)
Calculating surface                               ...        done! (  0.0s)
Cavity surface points                             ...         2572
Cavity Volume                                     ...    1801.8982
Cavity Surface-area                               ...     903.4799
Calculating surface distance matrix               ...        done! (  0.1s)
Performing Cholesky decomposition & store         ...        done! (  0.2s)
Overall time for CPCM initialization              ...                 0.3s

----------------------------------------D-I-I-S--------------------------------------------
Iteration    Energy (Eh)           Delta-E    RMSDP     MaxDP     DIISErr   Damp  Time(sec)
-------------------------------------------------------------------------------------------
               ***  Starting incremental Fock matrix formation  ***
    1    -656.9452048196403666     0.00e+00  8.88e-03  7.23e-02  2.40e-01  0.700   2.2
    2    -657.1337133963349970    -1.89e-01  6.38e-03  4.07e-02  1.03e-01  0.700   1.3
                               ***Turning on AO-DIIS***
    3    -657.2121383461749247    -7.84e-02  2.55e-03  1.65e-02  3.78e-02  0.700   1.3
    4    -657.2580934204943333    -4.60e-02  4.29e-03  2.30e-02  1.91e-02  0.000   1.2
    5    -657.3577175835127946    -9.96e-02  8.13e-04  4.81e-03  4.69e-03  0.000   1.3
                              *** Initializing SOSCF ***
---------------------------------------S-O-S-C-F--------------------------------------
Iteration    Energy (Eh)           Delta-E    RMSDP     MaxDP     MaxGrad    Time(sec)
--------------------------------------------------------------------------------------
    6    -657.3580534651878224    -3.36e-04  2.67e-04  1.70e-03  1.04e-03     1.2
               *** Restarting incremental Fock matrix formation ***
    7    -657.3580678643986630    -1.44e-05  1.71e-04  1.41e-03  3.13e-04     2.2
    8    -657.3580628588590571     5.01e-06  9.27e-05  7.46e-04  6.24e-04     1.5
    9    -657.3580715969342236    -8.74e-06  1.61e-05  1.48e-04  3.75e-05     1.4
                  *** Gradient check signals convergence ***

               *****************************************************
               *                     SUCCESS                       *
               *           SCF CONVERGED AFTER   9 CYCLES          *
               *****************************************************

Recomputing exchange energy using gridx3       ... done (    2.867 sec)
Old exchange energy                            :    -18.196015349 Eh
New exchange energy                            :    -18.196049582 Eh
Exchange energy change after final integration :     -0.000034233 Eh
Total energy after final integration           :   -657.358105724 Eh
             **** ENERGY FILE WAS UPDATED (inp.en.tmp) ****

----------------
TOTAL SCF ENERGY
----------------

Total Energy       :       -657.35810572413482 Eh          -17887.62345 eV

Components:
Nuclear Repulsion  :       1110.33401224884756 Eh           30213.72451 eV
Electronic Energy  :      -1767.68125485096630 Eh          -48101.05235 eV
One Electron Energy:      -3098.03373142582041 Eh          -84301.78365 eV
Two Electron Energy:       1330.35247657485411 Eh           36200.73130 eV
CPCM Dielectric    :         -0.01082888888167 Eh              -0.29467 eV

Virial components:
Potential Energy   :      -1309.66819082037682 Eh          -35637.88327 eV
Kinetic Energy     :        652.31008509624189 Eh           17750.25982 eV
Virial Ratio       :          2.00773868248127

DFT components:
N(Alpha)           :       57.000094816174 electrons
N(Beta)            :       57.000094816174 electrons
N(Total)           :      114.000189632348 electrons
E(X)               :      -72.173545198526 Eh       
E(C)               :       -4.482750208772 Eh       
E(XC)              :      -76.656295407298 Eh       

CPCM Solvation Model Properties:
Surface-charge          :         -0.02189489369741
Corrected charge        :         -0.00000000000000
Outlying charge corr.   :          0.00002372802690 Eh               0.00065 eV
Free-energy (cav+disp)  :  This term is not implemented in the current solvation scheme

---------------
SCF CONVERGENCE
---------------

  Last Energy change         ...    8.7381e-06  Tolerance :   1.0000e-06
  Last MAX-Density change    ...    1.4794e-04  Tolerance :   1.0000e-05
  Last RMS-Density change    ...    1.6147e-05  Tolerance :   1.0000e-06
  Last DIIS Error            ...    1.0443e-03  Tolerance :   1.0000e-06
  Last Orbital Gradient      ...    3.7458e-05  Tolerance :   3.3300e-04
  Last Orbital Rotation      ...    1.2375e-04  Tolerance :   3.3300e-04


----------------
ORBITAL ENERGIES
----------------

  NO   OCC          E(Eh)            E(eV) 
   0   2.0000     -19.129977      -520.5531 
   1   2.0000     -19.123768      -520.3842 
   2   2.0000     -10.221407      -278.1386 
   3   2.0000     -10.217150      -278.0228 
   4   2.0000     -10.195826      -277.4425 
   5   2.0000     -10.191397      -277.3220 
   6   2.0000     -10.186529      -277.1895 
   7   2.0000     -10.182965      -277.0926 
   8   2.0000     -10.174075      -276.8507 
   9   2.0000     -10.173573      -276.8370 
  10   2.0000     -10.170018      -276.7403 
  11   2.0000     -10.169526      -276.7269 
  12   2.0000     -10.166990      -276.6579 
  13   2.0000     -10.165709      -276.6230 
  14   2.0000     -10.160191      -276.4729 
  15   2.0000      -1.005923       -27.3725 
  16   2.0000      -1.002273       -27.2732 
  17   2.0000      -0.854475       -23.2514 
  18   2.0000      -0.804047       -21.8792 
  19   2.0000      -0.761586       -20.7238 
  20   2.0000      -0.750938       -20.4341 
  21   2.0000      -0.712828       -19.3970 
  22   2.0000      -0.676354       -18.4045 
  23   2.0000      -0.668930       -18.2025 
  24   2.0000      -0.657858       -17.9012 
  25   2.0000      -0.611154       -16.6304 
  26   2.0000      -0.579619       -15.7722 
  27   2.0000      -0.555803       -15.1242 
  28   2.0000      -0.528376       -14.3778 
  29   2.0000      -0.500211       -13.6114 
  30   2.0000      -0.496850       -13.5200 
  31   2.0000      -0.484051       -13.1717 
  32   2.0000      -0.478609       -13.0236 
  33   2.0000      -0.451711       -12.2917 
  34   2.0000      -0.444357       -12.0916 
  35   2.0000      -0.431864       -11.7516 
  36   2.0000      -0.418708       -11.3936 
  37   2.0000      -0.411340       -11.1931 
  38   2.0000      -0.406010       -11.0481 
  39   2.0000      -0.402425       -10.9505 
  40   2.0000      -0.395094       -10.7511 
  41   2.0000      -0.388121       -10.5613 
  42   2.0000      -0.378416       -10.2972 
  43   2.0000      -0.376406       -10.2425 
  44   2.0000      -0.368898       -10.0382 
  45   2.0000      -0.354836        -9.6556 
  46   2.0000      -0.347500        -9.4559 
  47   2.0000      -0.335608        -9.1324 
  48   2.0000      -0.327599        -8.9144 
  49   2.0000      -0.313989        -8.5441 
  50   2.0000      -0.303823        -8.2674 
  51   2.0000      -0.296809        -8.0766 
  52   2.0000      -0.292417        -7.9571 
  53   2.0000      -0.265390        -7.2216 
  54   2.0000      -0.251490        -6.8434 
  55   2.0000      -0.243131        -6.6159 
  56   2.0000      -0.235741        -6.4148 
  57   0.0000       0.007759         0.2111 
  58   0.0000       0.018506         0.5036 
  59   0.0000       0.088472         2.4075 
  60   0.0000       0.104084         2.8323 
  61   0.0000       0.124655         3.3920 
  62   0.0000       0.128109         3.4860 
  63   0.0000       0.135744         3.6938 
  64   0.0000       0.148059         4.0289 
  65   0.0000       0.151019         4.1094 
  66   0.0000       0.153008         4.1636 
  67   0.0000       0.167516         4.5583 
*Only the first 10 virtual orbitals were printed.
Total SCF time: 0 days 0 hours 0 min 18 sec 
Finished LeanSCF after  18.4 sec

Maximum memory used throughout the entire LEANSCF-calculation: 31.6 MB


-------------------------------------------------------------------------------
                          DFT DISPERSION CORRECTION                            
                                                                               
                              DFTD3 V3.1  Rev 1                                
                          USING Becke-Johnson damping                          
-------------------------------------------------------------------------------
-------------------------   ----------------
Dispersion correction           -0.074418864
-------------------------   ----------------

NOTIFICATION: Different basis set in ORCA and otool_gcp:
ORCA: 265  gCP: 250 
If you are NOT using ECPs, check your basis set inputs!
------------------   -----------------
gCP correction             0.162910959
------------------   -----------------

-------------------------   --------------------
FINAL SINGLE POINT ENERGY      -657.269613628829
-------------------------   --------------------



           ************************************************************
           *        Program running with 12 parallel MPI-processes    *
           *              working on a common directory               *
           ************************************************************

------------------------------------------------------------------------------
                              ORCA PROPERTY CALCULATIONS
------------------------------------------------------------------------------

GBWName                                 ... inp.gbw
Number of atoms                         ...     35
Number of basis functions               ...    265
Max core memory                         ...   2500 MB

Electric properties:
Dipole moment                           ... YES
Quadrupole moment                       ...  NO
Static polarizability (Dipole/Dipole)   ...  NO
Static polarizability (Dipole/Quad.)    ...  NO
Static polarizability (Quad./Quad.)     ...  NO
Static polarizability (Velocity)        ...  NO
Static hyperpolarizability              ...  NO

Atomic electric properties:
Dipole moment                           ...  NO
Quadrupole moment                       ...  NO
Static polarizability                   ...  NO

Choice of electric origin               ... Center of mass
Position of electric origin             ...    -0.011969     0.000534     0.001642

General magnetic properties:
Magnetizability                         ...  NO

EPR properties:
g-Tensor (aka g-matrix)                 ...  NO
Zero-Field splitting spin-orbit         ...  NO
Zero-field splitting spin-spin          ...  NO
Hyperfine couplings                     ...  NO (   0 nuclei)
Quadrupole couplings                    ...  NO (   0 nuclei)
Contact density                         ...  NO (   0 nuclei)

NMR properties:
Chemical shifts                         ...  NO (   0 nuclei)
Spin-rotation constants                 ...  NO (   0 nuclei)
Spin-spin couplings                     ...  NO (   0 nuclei,    0 pairs)

Choice of magnetic origin               ... GIAO
Position of magnetic origin             ...     0.000000     0.000000     0.000000

Properties with geometric perturbations:
SCF Hessian                             ...  NO
IR spectrum                             ...  NO
VCD spectrum                            ...  NO
X-ray spectroscopy properties:
SCF XES/XAS/RIXS spectra                ...  NO

SCF SOC stabilization energy            ...  NO
Diagonal Born-Oppenheimer correction    ...  NO

-------------
DIPOLE MOMENT
-------------

Method             : SCF
Type of density    : Electron Density
Multiplicity       :   1
Irrep              :   0
Energy             :  -657.3581057241348162 Eh
Basis              : AO
                                X                 Y                 Z
Electronic contribution:     -1.896718675      -2.960735284       2.416349260
Nuclear contribution   :      2.537538628       2.601312265      -2.884235009
                        -----------------------------------------
Total Dipole Moment    :      0.640819953      -0.359423019      -0.467885750
                        -----------------------------------------
Magnitude (a.u.)       :      0.871063829
Magnitude (Debye)      :      2.214068298



--------------------
Rotational spectrum 
--------------------
 
Rotational constants in cm-1:             0.028644             0.018537             0.015171 
Rotational constants in MHz :           858.729580           555.738321           454.808059 

Dipole components along the rotational axes: 
x,y,z [a.u.] :     0.645120    -0.512979    -0.281825 
x,y,z [Debye]:     1.639765    -1.303888    -0.716341 

 

Dipole moment calculation done in   0.0 sec 

Maximum memory used throughout the entire PROP-calculation: 16.6 MB

--------------------------------
SUGGESTED CITATIONS FOR THIS RUN
--------------------------------

Below you find a list of papers that are relevant to this ORCA run
We neither can nor want to force you to cite these papers, but we appreciate if you do
You receive ORCA, which is the product of decades of hard work by many enthusiastic individuals, for free
The only thing we kindly ask in return is that you cite our papers,
We deeply appreciate it, if you show your appreciation for ORCA by not just citing the generic ORCA reference.

Please note that relegating all ORCA citations to the supporting information does *not* help us.
SI sections are not indexed - citations you put there will not count into any citation statistics
But we need these citations in order to attract the funding resources that allow us to do what we are doing

Therefore, if you are a happy ORCA user, please consider citing a few of the papers listed below in the main body of your paper

In addition to the list printed below, the program has created the file inp.bibtex that contains the list in bibtex format
You can import this file easily into all common literature databanks and citation aid programs

It goes without saying that in many instances, there are alternative algorithms to achieve similar
results as the ones you have gotten from ORCA. It is, of course, also the case that in some instances
ORCA just re-implements algorithms worked out by others. We are fully aware of that and we are also
fully appreciative of our colleagues work. Hence this citation list should not be read as indicating
that the listed papers, which are focused on our own work, are the only ones worth citing. It simply
meant to make it easier for users to cite ORCA specific papers. It is not a substitute for doing your
own literature research and citing the relevant literature in a scientifically appropriate manner.

List of essential papers. We consider these as the minimum necessary citations

  1. Neese, F.
     Software update: the ORCA program system, version 6.0
     WIRES Comput. Molec. Sci. 2025 15(1), e70019
     doi.org/10.1002/wcms.70019

List of papers to cite with high priority. The work reported in these papers was absolutely
necessary for this run to complete.
Our perspective: the developers of density functionals and basis sets usually get cited in chemistry papers
Good! But without the algorithms to do something with them, the functionals or basis sets would not do anything.
Hence, in our opinion, the algorithm design and method developments papers are equally worthy of getting cited

  1. Neese, F.
     An improvement of the resolution of the identity approximation for the formation of the Coulomb matrix
     J. Comp. Chem. 2003 24(14), 1740-1747
     doi.org/10.1002/jcc.10318
  2. Neese, F.; Wennmohs, F.; Hansen, A.; Becker, U.
     Efficient, approximate and parallel Hartree-Fock and hybrid DFT calculations. A 'chain-of-spheres' algorithm for the Hartree-Fock exchange
     Chem. Phys. 2009 356(1-3), 98-109
     doi.org/10.1016/j.chemphys.2008.10.036
  3. Grimme, S.; Antony, J.; Ehrlich, S.; Krieg, H.
     A consistent and accurate ab initio parametrization of density functional dispersion correction (DFT-D) for the 94 elements H-Pu
     J. Chem. Phys. 2010 132 , 154104
     doi.org/10.1063/1.3382344
  4. Grimme, S.; Ehrlich, S.; Goerigk, L.
     Effect of the damping function in dispersion corrected density functional theory
     J. Comput. Chem. 2011 32(7), 1456-1465
     doi.org/10.1002/jcc.21759
  5. Garcia-Rates, M.; Neese, F.
     Effect of the Solute Cavity on the Solvation Energy and its Derivatives within the Framework of the Gaussian Charge Scheme
     J. Comput. Chem. 2020 41 , 922-939
     doi.org/10.1002/jcc.26139
  6. Helmich-Paris, B.; de Souza, B.; Neese, F.; Izsák, R.
     An improved chain of spheres for exchange algorithm
     J. Chem. Phys. 2021 155(10), 104109
     doi.org/10.1063/5.0058766
  7. Neese, F.
     The SHARK Integral Generation and Digestion System
     J. Comp. Chem. 2022 44(3), 381
     doi.org/10.1002/jcc.26942

List of suggested additional citations. These are papers that are important in the 'surrounding' of 
of this run, or papers that preceded the highly important papers. If you like your results we are grateful for a citation.

  1. Izsak, R.; Neese, F.
     An overlap fitted chain of spheres exchange method
     J. Chem. Phys. 2011 135 , 144105
     doi.org/10.1063/1.3646921
  2. Izsak, R.; Hansen, A.; Neese, F.
     The resolution of identity and chain of spheres approximations for the LPNO-CCSD singles Fock term
     Molec. Phys. 2012 110 , 2413-2417
     doi.org/10.1080/00268976.2012.687466
  3. Neese, F.
     The ORCA program system
     WIRES Comput. Molec. Sci. 2012 2(1), 73-78
     doi.org/10.1002/wcms.81
  4. Izsak, R.; Neese, F.; Klopper, W.
     Robust fitting techniques in the chain of spheres approximation to the Fock exchange: The role of the complementary space
     J. Chem. Phys. 2013 139 , 
     doi.org/10.1063/1.4819264
  5. Neese, F.
     Software update: the ORCA program system, version 4.0
     WIRES Comput. Molec. Sci. 2018 8(1), 1-6
     doi.org/10.1002/wcms.1327
  6. Neese, F.; Wennmohs, F.; Becker, U.; Riplinger, C.
     The ORCA quantum chemistry program package
     J. Chem. Phys. 2020 152(22), 224108
     doi.org/10.1063/5.0004608
  7. Neese, F.
     Software update: The ORCA program system—Version 5.0
     WIRES Comput. Molec. Sci. 2022 12(1), e1606
     doi.org/10.1002/wcms.1606

List of optional additional citations

  1. Neese, F.
     Approximate second-order SCF convergence for spin unrestricted wavefunctions
     Chem. Phys. Lett. 2000 325(1-3), 93-98
     doi.org/10.1016/s0009-2614(00)00662-x

Timings for individual modules:

Sum of individual times          ...       21.633 sec (=   0.361 min)
Startup calculation              ...        2.022 sec (=   0.034 min)   9.3 %
SCF iterations                   ...       19.291 sec (=   0.322 min)  89.2 %
Property calculations            ...        0.320 sec (=   0.005 min)   1.5 %
                             ****ORCA TERMINATED NORMALLY****
TOTAL RUN TIME: 0 days 0 hours 0 minutes 21 seconds 954 msec
