      -----------------------------------------------------------      
     |                   =====================                   |     
     |                           x T B                           |     
     |                   =====================                   |     
     |                         S. Grimme                         |     
     |          Mulliken Center for Theoretical Chemistry        |     
     |                    University of Bonn                     |     
      -----------------------------------------------------------      

   * xtb version 6.7.1 (edcfbbe) compiled by 'albert@albert-system' on 2024-07-22

   xtb is free software: you can redistribute it and/or modify it under
   the terms of the GNU Lesser General Public License as published by
   the Free Software Foundation, either version 3 of the License, or
   (at your option) any later version.
   
   xtb is distributed in the hope that it will be useful,
   but WITHOUT ANY WARRANTY; without even the implied warranty of
   MERCHANTABILITY or FITNESS FOR A PARTICULAR PURPOSE.  See the
   GNU Lesser General Public License for more details.
   
   Cite this work as:
   * C. Bannwarth, E. Caldeweyher, S. Ehlert, A. Hansen, P. Pracht,
     J. Seibert, S. Spicher, S. Grimme, WIREs Comput. Mol. Sci., 2020, 11,
     e01493. DOI: 10.1002/wcms.1493
   
   for GFN2-xTB:
   * C. Bannwarth, S. Ehlert and S. Grimme., J. Chem. Theory Comput., 2019,
     15, 1652-1671. DOI: 10.1021/acs.jctc.8b01176
   for GFN1-xTB:
   * S. Grimme, C. Bannwarth, P. Shushkov, J. Chem. Theory Comput., 2017,
     13, 1989-2009. DOI: 10.1021/acs.jctc.7b00118
   for GFN0-xTB:
   * P. Pracht, E. Caldeweyher, S. Ehlert, S. Grimme, ChemRxiv, 2019, preprint.
     DOI: 10.26434/chemrxiv.8326202.v1
   for GFN-FF:
   * S. Spicher and S. Grimme, Angew. Chem. Int. Ed., 2020, 59, 15665-15673.
     DOI: 10.1002/anie.202004239
   
   for ALPB and GBSA implicit solvation:
   * S. Ehlert, M. Stahn, S. Spicher, S. Grimme, J. Chem. Theory Comput.,
     2021, 17, 4250-4261. DOI: 10.1021/acs.jctc.1c00471
   
   for ddCOSMO and CPCM-X implicit solvation:
   * M. Stahn, S. Ehlert, S. Grimme, J. Phys. Chem. A,
     2023, XX, XXXX-XXXX. DOI: 10.1021/acs.jpca.3c04382
   
   for DFT-D4:
   * E. Caldeweyher, C. Bannwarth and S. Grimme, J. Chem. Phys., 2017,
     147, 034112. DOI: 10.1063/1.4993215
   * E. Caldeweyher, S. Ehlert, A. Hansen, H. Neugebauer, S. Spicher,
     C. Bannwarth and S. Grimme, J. Chem. Phys., 2019, 150, 154122.
     DOI: 10.1063/1.5090222
   * E. Caldeweyher, J.-M. Mewes, S. Ehlert and S. Grimme, Phys. Chem. Chem. Phys.
     2020, 22, 8499-8512. DOI: 10.1039/D0CP00502A
   
   for sTDA-xTB:
   * S. Grimme and C. Bannwarth, J. Chem. Phys., 2016, 145, 054103.
     DOI: 10.1063/1.4959605
   
   in the mass-spec context:
   * V. Asgeirsson, C. Bauer and S. Grimme, Chem. Sci., 2017, 8, 4879.
     DOI: 10.1039/c7sc00601b
   * J. Koopman and S. Grimme, ACS Omega 2019, 4, 12, 15120-15133.
     DOI: 10.1021/acsomega.9b02011
   
   for metadynamics refer to:
   * S. Grimme, J. Chem. Theory Comput., 2019, 155, 2847-2862
     DOI: 10.1021/acs.jctc.9b00143
   
   for SPH calculations refer to:
   * S. Spicher and S. Grimme, J. Chem. Theory Comput., 2021, 17, 1701-1714
     DOI: 10.1021/acs.jctc.0c01306
   
   for ONIOM refer to:
   * C. Plett, A. Katbashev, S. Ehlert, S. Grimme, M. Bursch,
     Phys. Chem. Chem. Phys., 2023, 25, 17860-17868. DOI: 10.1039/D3CP02178E
   
   for DIPRO refer to:
   * J. Kohn, N. Gildemeister, S. Grimme, D. Fazzi, A. Hansen,
     J. Chem. Phys., 2023, just accepted.
   
   for PTB refer to:
   * S. Grimme, M. Mueller, A. Hansen, J. Chem. Phys., 2023, 158, 124111.
     DOI: 10.1063/5.0137838
   
   with help from (in alphabetical order)
   P. Atkinson, C. Bannwarth, F. Bohle, G. Brandenburg, E. Caldeweyher
   M. Checinski, S. Dohm, S. Ehlert, S. Ehrlich, I. Gerasimov, C. Hölzer
   A. Katbashev, J. Kohn, J. Koopman, C. Lavigne, S. Lehtola, F. März, M. Müller,
   F. Musil, H. Neugebauer, J. Pisarek, C. Plett, P. Pracht, F. Pultar,
   J. Seibert, P. Shushkov, S. Spicher, M. Stahn, M. Steiner, T. Strunk,
   J. Stückrath, T. Rose, and J. Unsleber
   
 * started run on 2026/08/09 at 15:28:27.471     
   ID    Z sym.   atoms
    1    6 c      1-8, 10-13, 16
    2    8 o      9, 15
    3    1 h      14, 17-35

           -------------------------------------------------
          |                Calculation Setup                |
           -------------------------------------------------

          program call               : /home/dinglab/software/xtb_6.7.1/xtb_dist/bin/xtb coord --gfn2 --sp --chrg 0 --norestart --parallel 12 --alpb chcl3 reference -I xcontrol-inp
          hostname                   : localhost
          coordinate file            : coord
          omp threads                :                    12


           -------------------------------------------------
          |                 G F N 2 - x T B                 |
           -------------------------------------------------

        Reference                      10.1021/acs.jctc.8b01176
      * Hamiltonian:
        H0-scaling (s, p, d)           1.850000    2.230000    2.230000
        zeta-weighting                 0.500000
      * Dispersion:
        s8                             2.700000
        a1                             0.520000
        a2                             5.000000
        s9                             5.000000
      * Repulsion:
        kExp                           1.500000    1.000000
        rExp                           1.000000
      * Coulomb:
        alpha                          2.000000
        third order                    shell-resolved
        anisotropic                    true
        a3                             3.000000
        a5                             4.000000
        cn-shift                       1.200000
        cn-exp                         4.000000
        max-rad                        5.000000

      * Solvation model:               ALPB
        Solvent                        chcl3
        Parameter file                 internal GFN2-xTB/ALPB
        Dielectric constant                4.8100E+00
        Reference state                gsolv=reference [X=1]
        Free energy shift                  2.5086E-03 Eh       1.5742E+00 kcal/mol
        Temperature                        2.9815E+02 K
        Density                            1.4900E+00 kg/L
        Solvent mass                       1.1938E+02 g/mol
        Interaction kernel             P16
        Born radius scaling (c1)           1.3274E+00
        Born radii integrator          GBOBC
        Born offset                        0.0000E+00 a0       0.0000E+00 AA
        H-bond correction              false
        Ion screening                  false
        Surface tension                    1.0000E-05 Eh       1.5569E+01 dyn/cm
        Grid points                               974 per atom

          ...................................................
          :                      SETUP                      :
          :.................................................:
          :  # basis functions                  80          :
          :  # atomic orbitals                  80          :
          :  # shells                           50          :
          :  # electrons                        84          :
          :  max. iterations                   250          :
          :  Hamiltonian                  GFN2-xTB          :
          :  restarted?                      false          :
          :  GBSA solvation                   true          :
          :  PC potential                    false          :
          :  electronic temp.          300.0000000     K    :
          :  accuracy                    1.0000000          :
          :  -> integral cutoff          0.2500000E+02      :
          :  -> integral neglect         0.1000000E-07      :
          :  -> SCF convergence          0.1000000E-05 Eh   :
          :  -> wf. convergence          0.1000000E-03 e    :
          :  Broyden damping             0.4000000          :
          :  net charge                          0          :
          :  unpaired electrons                  0          :
          ...................................................

 iter      E             dE          RMSdq      gap      omega  full diag
   1    -46.7368487 -0.467368E+02  0.337E+00    5.22       0.0  T
   2    -46.7777644 -0.409157E-01  0.192E+00    5.09       1.0  T
   3    -46.7712495  0.651490E-02  0.848E-01    5.06       1.0  T
   4    -46.7807776 -0.952816E-02  0.340E-01    4.97       1.0  T
   5    -46.7827548 -0.197713E-02  0.747E-02    4.98       1.0  T
   6    -46.7827795 -0.247287E-04  0.413E-02    4.98       1.0  T
   7    -46.7827855 -0.605409E-05  0.135E-02    4.98       1.3  T
   8    -46.7827869 -0.137097E-05  0.510E-03    4.98       3.3  T
   9    -46.7827873 -0.388259E-06  0.258E-03    4.98       6.6  T
  10    -46.7827873 -0.440261E-07  0.101E-03    4.98      16.8  T
  11    -46.7827873 -0.426715E-08  0.409E-04    4.98      41.3  T
  12    -46.7827873 -0.116924E-08  0.128E-04    4.98     131.6  T

   *** convergence criteria satisfied after 12 iterations ***

         #    Occupation            Energy/Eh            Energy/eV
      -------------------------------------------------------------
         1        2.0000           -0.6988306             -19.0161
       ...           ...                  ...                  ...
        36        2.0000           -0.4261991             -11.5975
        37        2.0000           -0.4176571             -11.3650
        38        2.0000           -0.4168305             -11.3425
        39        2.0000           -0.4124812             -11.2242
        40        2.0000           -0.4033620             -10.9760
        41        2.0000           -0.3912327             -10.6460
        42        2.0000           -0.3830919             -10.4245 (HOMO)
        43                         -0.1999423              -5.4407 (LUMO)
        44                         -0.1952933              -5.3142
        45                          0.0169812               0.4621
        46                          0.0225484               0.6136
        47                          0.0401867               1.0935
       ...                                ...                  ...
        80                          0.6511957              17.7199
      -------------------------------------------------------------
                  HL-Gap            0.1831496 Eh            4.9838 eV
             Fermi-level           -0.2915171 Eh           -7.9326 eV

 SCC (total)                   0 d,  0 h,  0 min,  0.041 sec
 SCC setup                      ...        0 min,  0.001 sec (  1.889%)
 Dispersion                     ...        0 min,  0.000 sec (  0.882%)
 classical contributions        ...        0 min,  0.000 sec (  0.069%)
 integral evaluation            ...        0 min,  0.001 sec (  3.508%)
 iterations                     ...        0 min,  0.035 sec ( 85.504%)
 molecular gradient             ...        0 min,  0.003 sec (  7.619%)
 printout                       ...        0 min,  0.000 sec (  0.444%)

         :::::::::::::::::::::::::::::::::::::::::::::::::::::
         ::                     SUMMARY                     ::
         :::::::::::::::::::::::::::::::::::::::::::::::::::::
         :: total energy             -46.161109424399 Eh    ::
         :: total w/o Gsasa/hb       -46.147547857469 Eh    ::
         :: gradient norm              0.007336427813 Eh/a0 ::
         :: HOMO-LUMO gap              4.983755598100 eV    ::
         ::.................................................::
         :: SCC energy               -46.782122565664 Eh    ::
         :: -> isotropic ES            0.062415174249 Eh    ::
         :: -> anisotropic ES          0.006520934809 Eh    ::
         :: -> anisotropic XC          0.017054675450 Eh    ::
         :: -> dispersion             -0.036328752290 Eh    ::
         :: -> Gsolv                  -0.021719242652 Eh    ::
         ::    -> Gelec               -0.008157675721 Eh    ::
         ::    -> Gsasa               -0.016070214932 Eh    ::
         ::    -> Ghb                  0.000000000000 Eh    ::
         ::    -> Gshift               0.002508648001 Eh    ::
         :: repulsion energy           0.621013141265 Eh    ::
         :: add. restraining           0.000000000000 Eh    ::
         :: total charge              -0.000000000000 e     ::
         :::::::::::::::::::::::::::::::::::::::::::::::::::::

           -------------------------------------------------
          |                Property Printout                |
           -------------------------------------------------

    * Orbital Energies and Occupations

         #    Occupation            Energy/Eh            Energy/eV
      -------------------------------------------------------------
         1        2.0000           -0.6988306             -19.0161
       ...           ...                  ...                  ...
        30        2.0000           -0.4680271             -12.7357
        31        2.0000           -0.4565994             -12.4247
        32        2.0000           -0.4514984             -12.2859
        33        2.0000           -0.4422873             -12.0352
        34        2.0000           -0.4353046             -11.8452
        35        2.0000           -0.4347722             -11.8308
        36        2.0000           -0.4261991             -11.5975
        37        2.0000           -0.4176571             -11.3650
        38        2.0000           -0.4168305             -11.3425
        39        2.0000           -0.4124812             -11.2242
        40        2.0000           -0.4033620             -10.9760
        41        2.0000           -0.3912327             -10.6460
        42        2.0000           -0.3830919             -10.4245 (HOMO)
        43                         -0.1999423              -5.4407 (LUMO)
        44                         -0.1952933              -5.3142
        45                          0.0169812               0.4621
        46                          0.0225484               0.6136
        47                          0.0401867               1.0935
        48                          0.0600570               1.6342
        49                          0.0702648               1.9120
        50                          0.0769744               2.0946
        51                          0.0865441               2.3550
        52                          0.0939742               2.5572
        53                          0.0981492               2.6708
       ...                                ...                  ...
        80                          0.6511957              17.7199
      -------------------------------------------------------------
                  HL-Gap            0.1831496 Eh            4.9838 eV
             Fermi-level           -0.2915171 Eh           -7.9326 eV

     #   Z          covCN         q      C6AA      α(0)
     1   6 c        3.936     0.001    20.498     6.434
     2   6 c        3.861    -0.034    21.133     6.538
     3   6 c        3.804    -0.062    21.681     6.629
     4   6 c        3.808    -0.061    21.660     6.625
     5   6 c        3.891    -0.034    21.131     6.535
     6   6 c        3.776     0.115    18.723     6.165
     7   6 c        3.837    -0.068    21.777     6.639
     8   6 c        2.976     0.016    27.640     8.624
     9   8 o        1.655    -0.487    22.613     6.419
    10   6 c        3.678     0.079    19.478     6.322
    11   6 c        2.838    -0.113    30.864     9.104
    12   6 c        2.936     0.009    27.827     8.651
    13   6 c        2.849    -0.110    30.775     9.092
    14   1 h        0.924     0.051     2.303     2.373
    15   8 o        1.655    -0.477    22.400     6.389
    16   6 c        3.760    -0.110    22.653     6.785
    17   1 h        0.924     0.041     2.439     2.442
    18   1 h        0.924     0.040     2.452     2.449
    19   1 h        0.924     0.043     2.407     2.426
    20   1 h        0.924     0.040     2.451     2.448
    21   1 h        0.924     0.033     2.540     2.492
    22   1 h        0.924     0.016     2.799     2.617
    23   1 h        0.924     0.053     2.281     2.362
    24   1 h        0.924     0.048     2.350     2.397
    25   1 h        0.805     0.309     0.696     1.310
    26   1 h        0.924     0.035     2.523     2.484
    27   1 h        0.924     0.046     2.373     2.409
    28   1 h        0.926     0.033     2.541     2.493
    29   1 h        0.926     0.034     2.536     2.490
    30   1 h        0.926     0.029     2.596     2.520
    31   1 h        0.926     0.039     2.468     2.457
    32   1 h        0.805     0.309     0.694     1.309
    33   1 h        0.925     0.043     2.410     2.428
    34   1 h        0.925     0.043     2.405     2.425
    35   1 h        0.925     0.052     2.294     2.368

 Mol. C6AA /au·bohr⁶  :      10394.654865
 Mol. C8AA /au·bohr⁸  :     233620.577366
 Mol. α(0) /au        :        153.650894


Wiberg/Mayer (AO) data.
largest (>0.10) Wiberg bond orders for each atom

 ---------------------------------------------------------------------------
     #   Z sym  total        # sym  WBO       # sym  WBO       # sym  WBO
 ---------------------------------------------------------------------------
     1   6 c    3.989 --     7 c    0.980    10 c    0.979     6 c    0.968
                             2 c    0.957
     2   6 c    3.992 --    12 c    0.996     3 c    0.991    14 h    0.959
                             1 c    0.957
     3   6 c    3.996 --     4 c    1.009     2 c    0.991    18 h    0.976
                            17 h    0.973
     4   6 c    3.996 --     3 c    1.009     5 c    0.979    20 h    0.976
                            19 h    0.972
     5   6 c    3.995 --     8 c    0.995     4 c    0.979     6 c    0.974
                            21 h    0.962
     6   6 c    3.947 --     9 o    0.977     5 c    0.974     1 c    0.968
                            22 h    0.954
     7   6 c    3.996 --     8 c    1.007     1 c    0.980    24 h    0.965
                            23 h    0.957
     8   6 c    3.986 --    11 c    1.936     7 c    1.007     5 c    0.995
     9   8 o    1.934 --     6 c    0.977    25 h    0.887
    10   6 c    3.949 --    15 o    0.994     1 c    0.979    27 h    0.968
                            26 h    0.966
    11   6 c    3.988 --     8 c    1.936    28 h    0.975    29 h    0.975
    12   6 c    3.986 --    13 c    1.928    16 c    1.026     2 c    0.996
    13   6 c    3.989 --    12 c    1.928    30 h    0.975    31 h    0.974
    14   1 h    0.997 --     2 c    0.959
    15   8 o    1.942 --    10 c    0.994    32 h    0.888
    16   6 c    3.997 --    12 c    1.026    34 h    0.983    35 h    0.968
                            33 h    0.963
    17   1 h    0.998 --     3 c    0.973
    18   1 h    0.998 --     3 c    0.976
    19   1 h    0.998 --     4 c    0.972
    20   1 h    0.998 --     4 c    0.976
    21   1 h    0.998 --     5 c    0.962
    22   1 h    0.999 --     6 c    0.954
    23   1 h    0.997 --     7 c    0.957
    24   1 h    0.998 --     7 c    0.965
    25   1 h    0.904 --     9 o    0.887
    26   1 h    0.999 --    10 c    0.966
    27   1 h    0.998 --    10 c    0.968
    28   1 h    0.998 --    11 c    0.975
    29   1 h    0.998 --    11 c    0.975
    30   1 h    0.998 --    13 c    0.975
    31   1 h    0.999 --    13 c    0.974
    32   1 h    0.904 --    15 o    0.888
    33   1 h    0.998 --    16 c    0.963
    34   1 h    0.998 --    16 c    0.983
    35   1 h    0.997 --    16 c    0.968
 ---------------------------------------------------------------------------

Topologies differ in total number of bonds
Writing topology from bond orders to xtbtopo.mol

molecular dipole:
                 x           y           z       tot (Debye)
 q only:        0.446       1.000      -0.160
   full:        0.691       1.130      -0.333       3.471
molecular quadrupole (traceless):
                xx          xy          yy          xz          yz          zz
 q only:       -2.629      -4.364      -2.394       1.465      -2.925       5.024
  q+dip:       -1.587      -4.204      -4.766       3.400      -4.859       6.352
   full:       -2.421      -4.996      -4.385       2.311      -4.167       6.806


           -------------------------------------------------
          | TOTAL ENERGY              -46.161109424399 Eh   |
          | GRADIENT NORM               0.007336427813 Eh/α |
          | HOMO-LUMO GAP               4.983755598100 eV   |
           -------------------------------------------------

------------------------------------------------------------------------
 * finished run on 2026/08/09 at 15:28:27.530     
------------------------------------------------------------------------
 total:
 * wall-time:     0 d,  0 h,  0 min,  0.058 sec
 *  cpu-time:     0 d,  0 h,  0 min,  0.603 sec
 * ratio c/w:    10.334 speedup
 SCF:
 * wall-time:     0 d,  0 h,  0 min,  0.041 sec
 *  cpu-time:     0 d,  0 h,  0 min,  0.455 sec
 * ratio c/w:    10.988 speedup

normal termination of xtb
