35
 xtb: 6.7.1 (edcfbbe)
c            0.09333175671342       -0.63758607112515        0.10864234223761
c           -0.96512051523698        0.40179572336462        0.65254576858496
c           -0.34333945253007        1.83094453953168        0.75243190959163
c            0.57035479731526        2.22823405866383       -0.42885816791906
c            1.50983526272205        1.06136825844017       -0.83111621145980
c            0.65370944528572       -0.14254639275690       -1.26396231634250
c            1.37923359928558       -0.58477712254338        1.00121053752362
c            2.24175216318039        0.52170874885996        0.39297237458490
o            1.53607253975209       -1.09068520189939       -1.89017696990244
c           -0.48745246499927       -2.06224299566085        0.02948636702267
c            3.42567979848712        0.94462584141072        0.84850961961334
c           -2.32415480324323        0.36824766912287       -0.06242406464988
c           -2.59272825071664        0.96665652865941       -1.23557590268433
h           -1.16983688788151        0.08391562684967        1.68790654483882
o           -0.96605125629080       -2.56725489092342        1.28599030098918
c           -3.42981450332471       -0.34746096834826        0.69408903770000
h           -1.14898686990632        2.57110913228496        0.87360092842717
h            0.25445480767503        1.87773891940997        1.67700719142198
h           -0.02220511070727        2.53052949555211       -1.30805010640218
h            1.17522220754346        3.10422518278024       -0.14355731551871
h            2.19557571758435        1.38427395685310       -1.62972954693009
h           -0.14993527772304        0.14041970134990       -1.96191106565261
h            1.91864360546193       -1.54600078268411        0.94856540167834
h            1.15270650285471       -0.40047737537698        2.06349269514187
h            0.99266100520299       -1.78368852594660       -2.31526487288981
h            0.27975591089170       -2.74109582080130       -0.38566074380586
h           -1.35505112794762       -2.08696585332638       -0.64815419858143
h            3.88311876474086        0.52460705791065        1.74793748999990
h            3.98541680412933        1.73290084794472        0.33893592893695
h           -3.59442617674707        0.92304715152198       -1.67024728443270
h           -1.85656135337968        1.53464139386799       -1.80331247859390
h           -0.20240865442067       -2.64020713422341        1.89392207487054
h           -3.13537659138708       -1.37101701176552        0.97043013364833
h           -3.64423305966195        0.17995346256455        1.64075940623191
h           -4.36201354993958       -0.39169977800701        0.11204894897048
