
                                 *****************
                                 * O   R   C   A *
                                 *****************

                                            #,                                       
                                            ###                                      
                                            ####                                     
                                            #####                                    
                                            ######                                   
                                           ########,                                 
                                     ,,################,,,,,                         
                               ,,#################################,,                 
                          ,,##########################################,,             
                       ,#########################################, ''#####,          
                    ,#############################################,,   '####,        
                  ,##################################################,,,,####,       
                ,###########''''           ''''###############################       
              ,#####''   ,,,,##########,,,,          '''####'''          '####       
            ,##' ,,,,###########################,,,                        '##       
           ' ,,###''''                  '''############,,,                           
         ,,##''                                '''############,,,,        ,,,,,,###''
      ,#''                                            '''#######################'''  
     '                                                          ''''####''''         
             ,#######,   #######,   ,#######,      ##                                
            ,#'     '#,  ##    ##  ,#'     '#,    #''#        ,####,    ,#,          
            ##       ##  ##   ,#'  ##            #'  '#       #'       ,# #          
            ##       ##  #######   ##           ,######,      #####,      #          
            '#,     ,#'  ##    ##  '#,     ,#' ,#      #,     #,   #      #          
             '#######'   ##     ##  '#######'  #'      '#     '####' #    #          



                #########################################################
                #                        -***-                          #
                #          Department of theory and spectroscopy        #
                #                                                       #
                #                      Frank Neese                      #
                #                                                       #
                #     Directorship, Architecture, Infrastructure        #
                #                    SHARK, DRIVERS                     #
                #        Core code/Algorithms in most modules           #
                #                                                       #
                #        Max Planck Institute fuer Kohlenforschung      #
                #                Kaiser Wilhelm Platz 1                 #
                #                 D-45470 Muelheim/Ruhr                 #
                #                      Germany                          #
                #                                                       #
                #                  All rights reserved                  #
                #                        -***-                          #
                #########################################################


                         Program Version 6.1.1  -  RELEASE   -
                                (GIT: $487d211c$)
                          ($2025-11-21 10:33:24 +0100$)


 With contributions from (in alphabetic order):
[Max-Planck-Institut fuer Kohlenforschung]                               
  Daniel Aravena         : Magnetic Suceptibility                        
  Michael Atanasov       : Ab Initio Ligand Field Theory (pilot matlab implementation)
  Alexander A. Auer      : GIAO ZORA, VPT2 properties, NMR spectrum      
  Ute Becker             : All parallelization in ORCA, NUMFREQ, NUMCALC 
  Giovanni Bistoni       : ED, misc. LED, open-shell LED, HFLD           
  Dmytro Bykov           : pre 5.0 version of the SCF Hessian            
  Marcos Casanova-Páez   : Triplet and SCS-CIS(D). UHF-(DLPNO)-IP/EA/STEOM-CCSD. UHF-CVS-IP/STEOM-CCSD   
  Vijay G. Chilkuri      : MRCI spin determinant printing, contributions to CSF-ICE 
  Pauline Colinet        : FMM embedding                                 
  Dipayan Datta          : RHF DLPNO-CCSD density                        
  Achintya Kumar Dutta   : EOM-CC, STEOM-CC                              
  Nicolas Foglia         : Exact transition moments, OPA infrastructure, MCD improvements    
  Dmitry Ganyushin       : Spin-Orbit,Spin-Spin,Magnetic field MRCI      
  Miquel Garcia-Rates    : C-PCM and meta-GGA Hessian, CCSD/C-PCM, Gaussian charge scheme 
  Tiago L. C. Gouveia    : GS-ROHF, GS-ROCIS                             
  Yang Guo               : DLPNO-NEVPT2, F12-NEVPT2, CIM, IAO-localization        
  Andreas Hansen         : Spin unrestricted coupled pair/coupled cluster methods 
  Ingolf Harden          : AUTO-CI MPn and infrastructure                
  Benjamin Helmich-Paris : MC-RPA, TRAH-(SCF,CASSCF), AVAS, COSX integrals, SCF dyn. polar., MC-PDFT, srDFT 
  Lee Huntington         : MR-EOM, pCC                                   
  Robert Izsak           : Overlap fitted RIJCOSX, COSX-SCS-MP3, EOM     
  Riya Kayal             : Wick's Theorem for AUTO-CI, AUTO-CI UHF-CCSDT 
  Emily Kempfer          : AUTO-CI RHF CISDT and CCSDT, approximate NEVPT4
  Christian Kollmar      : KDIIS, OOCD, Brueckner-CCSD(T), CCSD density, CASPT2, CASPT2-K, improved NEVPT2 
  Axel Koslowski         : Symmetry handling                             
  Simone Kossmann        : meta-GGA functionals, TD-DFT gradient, OOMP2, (MP2 Hessian; deprecated post 5.0) 
  Lucas Lang             : DCDCAS, Hyperfine gauge corrections, ICE-SOC+SSC
  Marvin Lechner         : AUTO-CI (C++ implementation), FIC-MRCC        
  Spencer Leger          : CASSCF response                               
  Dagmar Lenk            : GEPOL surface, SMD, ORCA-2-JSON               
  Dimitrios Liakos       : Extrapolation schemes; Compound Job, Property file
  Dimitrios Manganas     : Further ROCIS development; embedding schemes. LFT, Crystal Embedding 
  Dimitrios Pantazis     : SARC Basis sets                               
  Anastasios Papadopoulos: AUTO-CI, single reference methods and gradients 
  Taras Petrenko         : pre 6.0 DFT Hessian and TD-DFT gradient,  ECA, NRVS 
  Petra Pikulova         : Analytic Raman intensities                    
  Peter Pinski           : DLPNO-MP2, DLPNO-MP2 Gradient                 
  Shashank Vittal Rao    : ES-AILFT, MagRelax                            
  Christoph Reimann      : Effective Core Potentials                     
  Marius Retegan         : Local ZFS, SOC                                
  Christoph Riplinger    : Optimizer, TS searches, QM/MM, DLPNO-CCSD(T), (RO)-DLPNO pert. Triples 
  Michael Roemelt        : Original ROCIS implementation, recursive CI coupling coefficients
  Masaaki Saitow         : Open-shell DLPNO-CCSD energy and density      
  Barbara Sandhoefer     : DKH picture change effects                    
  Yorick L. A. Schmerwitz: GMF and freeze-and-release deltaSCF, NEB S-IDPP initial path                    
  Kantharuban Sivalingam : CASSCF convergence/infrastructure, NEVPT2, NEVPT3, NEVPT4(SD), FIC-MRCI and CEPA variants
  Bernardo de Souza      : ESD, SOC TD-DFT                               
  Georgi L. Stoychev     : AutoAux, RI-MP2 NMR, DLPNO-MP2 response, X2C  
  Van Anh Tran           : RI-MP2 g-tensors                              
  Willem Van den Heuvel  : Paramagnetic NMR                              
  Zikuan Wang            : NOTCH, Electric field optimization            
  Frank Wennmohs         : Technical directorship and infrastructure     
  Hang Xu                : AUTO-CI-Response properties                   
                                                                         
[FACCTs GmbH]                                                            
  Markus Bursch, Nicolas Foglia, Miquel Garcia-Rates, Ingolf Harden, Hagen Neugebauer, Anastasios Papadopoulos, 
  Christoph Riplinger, Bernardo de Souza, Georgi L. Stoychev                                                    
                                                                 
  APM, various basis sets, CI-OPT, improved COSX, DLPNO-Multilevel,           
  DOCKER, DRACO, updates on ESD, Fragmentator, GOAT, IRC, LR-CPCM, L-BFGS, MBIS, meta-GGA TD-DFT gradient, ML-optimized integration grids, 
  MM, NACMEs, nearIR, NEB, NEB-TS, NL-DFT gradient (VV10), 2- and 3-layer-ONIOM, interface openCOSMO-RS, QMMM,   
  Crystal-QMMM, RESP, rigid body optimization, SF, symmetry and pop. for TD-DFT, various functionals, SOLVATOR                                   
                                                                         
[Other institutions]                                                     
  V. Asgeirsson          : NEB                                           
  Christoph Bannwarth    : sTDA-DFT, sTD-DFT, PBEh-3c, B97-3c, D3        
  Giovanni Bistoni       : ETS/NOCV, ADLD/ADEX, COVALED                  
  Martin Brehm           : Molecular dynamics                            
  Ronald Cardenas        : ETS/NOCV                                      
  Martina Colucci        : COVALED                                       
  Sebastian Ehlert       : rSCAN, r2SCAN, r2SCAN-3c, D4, dhf basis sets  
  Marvin Friede          : D4 for Fr, Ra, Ac-Lr                          
  Lars Goerigk           : TD-DFT with DH, B97 family of functionals     
  Stefan Grimme          : VdW corrections, initial TS optimization, DFT functionals, gCP, sTDA/sTD-DF 
  Waldemar Hujo          : DFT-NL                                        
  H. Jonsson             : NEB                                           
  Holger Kruse           : gCP                                           
  Marcel Mueller         : wB97X-3c, vDZP basis set                      
  Hagen Neugebauer       : wr2SCAN, Native XTB                           
  Gianluca Regni         : ADLD/ADEX                                     
  Tobias Risthaus        : pre 6.0 range-separated hybrid DFT and stability analysis
  Lukas Wittmann         : regularized MP2, r2SCAN double-hybrids, wr2SCAN        
                                                                         
We gratefully acknowledge several colleagues who have allowed us to      
interface, adapt or use parts of their codes:                            
  Ed Valeev, F. Pavosevic, A. Kumar             : LibInt (2-el integral package), F12 methods 
  Garnet Chan, S. Sharma, J. Yang, R. Olivares  : DMRG                   
  Ulf Ekstrom                                   : XCFun DFT Library      
  Mihaly Kallay                                 : mrcc  (arbitrary order and MRCC methods)
  Frank Weinhold                                : gennbo (NPA and NBO analysis)           
  Simon Mueller                                 : openCOSMO-RS                            
  Christopher J. Cramer and Donald G. Truhlar   : smd solvation model                     
  S Lehtola, MJT Oliveira, MAL Marques          : LibXC Library                           
  Liviu Ungur et al                             : ANISO software                          


 Your calculation uses the libint2 library for the computation of 2-el integrals
 For citations please refer to: http://libint.valeyev.net

 Your ORCA version has been built with support for libXC version: 7.0.0
 For citations please refer to: https://libxc.gitlab.io

 This ORCA versions uses:
   CBLAS   interface :  Fast vector & matrix operations
   LAPACKE interface :  Fast linear algebra routines
   SCALAPACK package :  Parallel linear algebra routines
   Shared memory     :  Shared parallel matrices
   BLAS/LAPACK       :  OpenBLAS 0.3.29  USE64BITINT DYNAMIC_ARCH NO_AFFINITY Haswell SINGLE_THREADED
        Core in use  :  Haswell
   Copyright (c) 2011-2014, The OpenBLAS Project


  ***********************************
  * Starting time: Sun Aug  9 18:41:29 2026
  * Host name:     localhost.localdomain
  * Process ID:    3059640
  * Working dir.:  /home/dinglab/calculation/templates/NMR_modules/autohnmr/beta_diol_screening/CONF21/b3lyp-3c
  ***********************************

NOTE: MaxCore=2500 MB was set to SCF,MP2,MDCI,CIPSI,MRCI,RASCI and CIS
      => If you want to overwrite this, your respective input block should be placed after the MaxCore statement
Your calculation utilizes the geometrical counterpoise correction gCP
Please cite in your paper:
H.Kruse, S. Grimme J.Chem.Phys., 136, (2012), 154101 
   

Your calculation utilizes the atom-pairwise dispersion correction
with the Becke-Johnson damping scheme (D3BJ)


Warning: RI is on but no J-basis has been assigned. Assigning Def2/J (nothing to worry about!)
================================================================================

----- Orbital basis set information -----
Your calculation utilizes the basis: def2-mSVP

----- AuxJ basis set information -----
Your calculation utilizes the auxiliary basis: def2/J
   H-Rn: F. Weigend, Phys. Chem. Chem. Phys. 8, 1057 (2006).
   Fr-Lr: K. Eichkorn, F. Weigend, O. Treutler, R. Ahlrichs; Theor. Chem. Acc. 97, 119 (1997).

================================================================================
                                        WARNINGS
                       Please study these warnings very carefully!
================================================================================

WARNING: Old DensityContainer found on disk!
         Will remove this file - 
         If you want to keep old densities, please start your calculation with a different basename. 


================================================================================
                                       INPUT FILE
================================================================================
NAME = inp
|  1> ! b3lyp
|  2> ! d3bj ABC
|  3> ! def2-mSVP
|  4> ! GCP(DFT/SV(P))
|  5> ! DEFGRID2
|  6> ! scfconv6
|  7> ! miniprint nopop noautostart
|  8> %MaxCore 2500
|  9> %pal
| 10>     nprocs 12
| 11> end
| 12> ! CPCM(chloroform)
| 13> *xyz 0 1
| 14> C    0.1088829097  -0.7125159391  -0.2440134468
| 15> C    0.6272183234   0.6262208831  -0.9157455946
| 16> C   -0.4655152179   1.7412225420  -0.8501664793
| 17> C   -1.2640299727   1.7848376304   0.4710184819
| 18> C   -1.7172333919   0.3648628537   0.8979942935
| 19> C   -0.4778201599  -0.5199668441   1.1788240219
| 20> C   -1.1992907005  -1.1409788787  -0.9870335814
| 21> C   -2.3298587201  -0.3890340479  -0.2773232394
| 22> O    0.4726726752  -0.0165044973   2.1136434201
| 23> C    1.2025771171  -1.8018444060  -0.3108922443
| 24> C   -3.6233388527  -0.4010920485  -0.6171818725
| 25> C    2.0281780904   1.1307713588  -0.5300346962
| 26> C    3.0800344858   0.7920887551  -1.2973028565
| 27> H    0.7229951551   0.3548875653  -1.9808397622
| 28> O    0.7662906501  -3.0964781623   0.1316978744
| 29> C    2.2232812458   2.0790718831   0.6378848908
| 30> H   -0.0100458043   2.7234783008  -1.0519425496
| 31> H   -1.1752724563   1.5717020869  -1.6753963677
| 32> H   -0.6637394503   2.2264229739   1.2820428382
| 33> H   -2.1493504191   2.4284679054   0.3400374384
| 34> H   -2.4006787704   0.4255434976   1.7607323695
| 35> H   -0.8412137673  -1.5082440768   1.5280752154
| 36> H   -1.1597971217  -0.9250387696  -2.0665348004
| 37> H   -1.3399472024  -2.2286885237  -0.8804288807
| 38> H    0.0265450912   0.0680004025   2.9812184871
| 39> H    2.0910556923  -1.4746741785   0.2534543206
| 40> H    1.5144525575  -1.9366086061  -1.3593336980
| 41> H   -3.9859120275  -0.9601641207  -1.4837470570
| 42> H   -4.3719249554   0.1502623592  -0.0427826370
| 43> H    4.0898075823   1.1463352977  -1.0765365521
| 44> H    2.9753932874   0.1414361489  -2.1690135659
| 45> H    0.7407270825  -3.0914276825   1.1089270163
| 46> H    1.6395074037   3.0045534035   0.5006394207
| 47> H    1.8897876500   1.6256134762   1.5788109335
| 48> H    3.2808326029   2.3664720191   0.7330001966
| 49> *
| 50> 
| 51>                          ****END OF INPUT****
================================================================================

                       ****************************
                       * Single Point Calculation *
                       ****************************

---------------------------------
CARTESIAN COORDINATES (ANGSTROEM)
---------------------------------
  C      0.108883   -0.712516   -0.244013
  C      0.627218    0.626221   -0.915746
  C     -0.465515    1.741223   -0.850166
  C     -1.264030    1.784838    0.471018
  C     -1.717233    0.364863    0.897994
  C     -0.477820   -0.519967    1.178824
  C     -1.199291   -1.140979   -0.987034
  C     -2.329859   -0.389034   -0.277323
  O      0.472673   -0.016504    2.113643
  C      1.202577   -1.801844   -0.310892
  C     -3.623339   -0.401092   -0.617182
  C      2.028178    1.130771   -0.530035
  C      3.080034    0.792089   -1.297303
  H      0.722995    0.354888   -1.980840
  O      0.766291   -3.096478    0.131698
  C      2.223281    2.079072    0.637885
  H     -0.010046    2.723478   -1.051943
  H     -1.175272    1.571702   -1.675396
  H     -0.663739    2.226423    1.282043
  H     -2.149350    2.428468    0.340037
  H     -2.400679    0.425543    1.760732
  H     -0.841214   -1.508244    1.528075
  H     -1.159797   -0.925039   -2.066535
  H     -1.339947   -2.228689   -0.880429
  H      0.026545    0.068000    2.981218
  H      2.091056   -1.474674    0.253454
  H      1.514453   -1.936609   -1.359334
  H     -3.985912   -0.960164   -1.483747
  H     -4.371925    0.150262   -0.042783
  H      4.089808    1.146335   -1.076537
  H      2.975393    0.141436   -2.169014
  H      0.740727   -3.091428    1.108927
  H      1.639507    3.004553    0.500639
  H      1.889788    1.625613    1.578811
  H      3.280833    2.366472    0.733000

----------------------------
CARTESIAN COORDINATES (A.U.)
----------------------------
  NO LB      ZA    FRAG     MASS         X           Y           Z
   0 C     6.0000    0    12.011    0.205759   -1.346460   -0.461119
   1 C     6.0000    0    12.011    1.185271    1.183386   -1.730508
   2 C     6.0000    0    12.011   -0.879696    3.290434   -1.606582
   3 C     6.0000    0    12.011   -2.388670    3.372854    0.890096
   4 C     6.0000    0    12.011   -3.245101    0.689491    1.696963
   5 C     6.0000    0    12.011   -0.902949   -0.982595    2.227655
   6 C     6.0000    0    12.011   -2.266331   -2.156138   -1.865223
   7 C     6.0000    0    12.011   -4.402795   -0.735168   -0.524065
   8 O     8.0000    0    15.999    0.893222   -0.031189    3.994207
   9 C     6.0000    0    12.011    2.272541   -3.404992   -0.587501
  10 C     6.0000    0    12.011   -6.847118   -0.757954   -1.166305
  11 C     6.0000    0    12.011    3.832701    2.136848   -1.001620
  12 C     6.0000    0    12.011    5.820422    1.496831   -2.451547
  13 H     1.0000    0     1.008    1.366263    0.670640   -3.743245
  14 O     8.0000    0    15.999    1.448079   -5.851496    0.248873
  15 C     6.0000    0    12.011    4.201393    3.928876    1.205428
  16 H     1.0000    0     1.008   -0.018984    5.146628   -1.987883
  17 H     1.0000    0     1.008   -2.220943    2.970087   -3.166040
  18 H     1.0000    0     1.008   -1.254286    4.207330    2.422710
  19 H     1.0000    0     1.008   -4.061684    4.589139    0.642578
  20 H     1.0000    0     1.008   -4.536625    0.804161    3.327302
  21 H     1.0000    0     1.008   -1.589664   -2.850168    2.887644
  22 H     1.0000    0     1.008   -2.191699   -1.748070   -3.905185
  23 H     1.0000    0     1.008   -2.532133   -4.211611   -1.663769
  24 H     1.0000    0     1.008    0.050163    0.128502    5.633686
  25 H     1.0000    0     1.008    3.951523   -2.786730    0.478959
  26 H     1.0000    0     1.008    2.861901   -3.659660   -2.568768
  27 H     1.0000    0     1.008   -7.532282   -1.814447   -2.803876
  28 H     1.0000    0     1.008   -8.261741    0.283955   -0.080847
  29 H     1.0000    0     1.008    7.728616    2.166260   -2.034359
  30 H     1.0000    0     1.008    5.622678    0.267276   -4.098842
  31 H     1.0000    0     1.008    1.399771   -5.841952    2.095568
  32 H     1.0000    0     1.008    3.098220    5.677783    0.946071
  33 H     1.0000    0     1.008    3.571181    3.071964    2.983520
  34 H     1.0000    0     1.008    6.199875    4.471984    1.385170



           ************************************************************
           *        Program running with 12 parallel MPI-processes    *
           *              working on a common directory               *
           ************************************************************
------------------------------------------------------------------------------
                   ___                                                        
                  /   \      - P O W E R E D   B Y -                         
                 /     \                                                     
                 |  |  |   _    _      __       _____    __    __             
                 |  |  |  | |  | |    /  \     |  _  \  |  |  /  |          
                  \  \/   | |  | |   /    \    | | | |  |  | /  /          
                 / \  \   | |__| |  /  /\  \   | |_| |  |  |/  /          
                |  |  |   |  __  | /  /__\  \  |    /   |      \           
                |  |  |   | |  | | |   __   |  |    \   |  |\   \          
                \     /   | |  | | |  |  |  |  | |\  \  |  | \   \       
                 \___/    |_|  |_| |__|  |__|  |_| \__\ |__|  \__/        
                                                                              
                      - O R C A' S   B I G   F R I E N D -                    
                                      &                                       
                       - I N T E G R A L  F E E D E R -                       
                                                                              
 v1 FN, 2020, v2 2021, v3 2022-2024                                           
------------------------------------------------------------------------------


----------------------
SHARK INTEGRAL PACKAGE
----------------------

Number of atoms                             ...     35
Number of basis functions                   ...    265
Number of shells                            ...    145
Maximum angular momentum                    ...      2
Integral batch strategy                     ... SHARK/LIBINT Hybrid
RI-J (if used) integral strategy            ... SPLIT-RIJ (Revised 2003 algorithm where possible)
Printlevel                                  ...      1
Contraction scheme used                     ... SEGMENTED contraction
Prescreening option                         ... SCHWARTZ
   Thresh                                   ... 1.000e-10
   Tcut                                     ... 1.000e-11
   Tpresel                                  ... 1.000e-11 
Coulomb Range Separation                    ... NOT USED
Exchange Range Separation                   ... NOT USED
Multipole approximations                    ... NOT USED
Finite Nucleus Model                        ... NOT USED
CABS basis                                  ... NOT available
Auxiliary Coulomb fitting basis             ... AVAILABLE
   # of basis functions in Aux-J            ...    955
   # of shells in Aux-J                     ...    325
   Maximum angular momentum in Aux-J        ...      4
Auxiliary J/K fitting basis                 ... NOT available
Auxiliary Correlation fitting basis         ... NOT available
Auxiliary 'external' fitting basis          ... NOT available

Checking pre-screening integrals            ... done (  0.0 sec) Dimension = 145
   => SHARK Basis and OBASIS are compatible. Storing Pre-screening
Shell pair information
Shell pair cut-off parameter TPreSel        ...   1.0e-11
Total number of shell pairs                 ...     10585
Shell pairs after pre-screening             ...      8859
Total number of primitive shell pairs       ...     38205
Primitive shell pairs kept                  ...     20853
          la=0 lb=0:   3914 shell pairs
          la=1 lb=0:   2755 shell pairs
          la=1 lb=1:    455 shell pairs
          la=2 lb=0:   1205 shell pairs
          la=2 lb=1:    426 shell pairs
          la=2 lb=2:    104 shell pairs

Checking whether 4 symmetric matrices of dimension 265 fit in memory
:Max Core in MB      =   2500.00
 MB in use           =     14.33
 MB left             =   2485.67
 MB needed           =      1.08
 Data fit in memory  = YES
Calculating RI/J V-Matrix + Cholesky decomp.... done (  0.1 sec)
Calculating Nuclear repulsion               ... done (  0.0 sec) ENN=   1107.396325882706 Eh

Diagonalization of the overlap matrix:
Smallest eigenvalue                        ... 1.915e-03
Time for diagonalization                   ...    0.018 sec
Threshold for overlap eigenvalues          ... 1.000e-07
Number of eigenvalues below threshold      ... 0
Time for construction of square roots      ...    0.007 sec
Total time needed                          ...    0.026 sec

-------------------
DFT GRID GENERATION
-------------------

General Integration Accuracy     IntAcc      ... 4.388
Radial Grid Type                 RadialGrid  ... OptM3 with GC (2021)
Angular Grid (max. ang.)         AngularGrid ... 4 (Lebedev-302)
Angular grid pruning method      GridPruning ... 4 (adaptive)
Weight generation scheme         WeightScheme... mBecke (2022)
Basis function cutoff            BFCut       ... 1.0000e-10
Integration weight cutoff        WCut        ... 1.0000e-14
Partially contracted basis set               ... off
Rotationally invariant grid construction     ... off
Angular grids for H and He will be reduced by one unit

Total number of grid points                  ...   152295
Total number of batches                      ...     2396
Average number of points per batch           ...       63
Average number of grid points per atom       ...     4351

--------------------
COSX GRID GENERATION
--------------------

GRIDX 1
-------
General Integration Accuracy     IntAcc      ... 3.816
Radial Grid Type                 RadialGrid  ... OptM3 with GC (2021)
Angular Grid (max. ang.)         AngularGrid ... 1 (Lebedev-50)
Angular grid pruning method      GridPruning ... 4 (adaptive)
Weight generation scheme         WeightScheme... mBecke (2022)
Basis function cutoff            BFCut       ... 1.0000e-10
Integration weight cutoff        WCut        ... 1.0000e-14
Partially contracted basis set               ... on
Rotationally invariant grid construction     ... off
Angular grids for H and He will be reduced by one unit

Total number of grid points                  ...    19369
Total number of batches                      ...      173
Average number of points per batch           ...      111
Average number of grid points per atom       ...      553
UseSFitting                                  ... on

GRIDX 2
-------
General Integration Accuracy     IntAcc      ... 4.020
Radial Grid Type                 RadialGrid  ... OptM3 with GC (2021)
Angular Grid (max. ang.)         AngularGrid ... 2 (Lebedev-110)
Angular grid pruning method      GridPruning ... 4 (adaptive)
Weight generation scheme         WeightScheme... mBecke (2022)
Basis function cutoff            BFCut       ... 1.0000e-10
Integration weight cutoff        WCut        ... 1.0000e-14
Partially contracted basis set               ... on
Rotationally invariant grid construction     ... off
Angular grids for H and He will be reduced by one unit

Total number of grid points                  ...    40621
Total number of batches                      ...      336
Average number of points per batch           ...      120
Average number of grid points per atom       ...     1161
UseSFitting                                  ... on

GRIDX 3
-------
General Integration Accuracy     IntAcc      ... 4.338
Radial Grid Type                 RadialGrid  ... OptM3 with GC (2021)
Angular Grid (max. ang.)         AngularGrid ... 3 (Lebedev-194)
Angular grid pruning method      GridPruning ... 4 (adaptive)
Weight generation scheme         WeightScheme... mBecke (2022)
Basis function cutoff            BFCut       ... 1.0000e-10
Integration weight cutoff        WCut        ... 1.0000e-14
Partially contracted basis set               ... on
Rotationally invariant grid construction     ... off
Angular grids for H and He will be reduced by one unit

Total number of grid points                  ...    88331
Total number of batches                      ...      707
Average number of points per batch           ...      124
Average number of grid points per atom       ...     2524
UseSFitting                                  ... on
Grids setup in   1.5 sec
Initializing property integral containers    ... done (  0.0 sec)

SHARK setup successfully completed in   1.8 seconds

Maximum memory used throughout the entire STARTUP-calculation: 40.6 MB


           ************************************************************
           *        Program running with 12 parallel MPI-processes    *
           *              working on a common directory               *
           ************************************************************
Loading Hartree-Fock densities                     ... done
Calculating cut-offs                               ... done
Initializing the effective Hamiltonian             ... done
Setting up the integral package (SHARK)            ... done
Starting the Coulomb interaction                   ... done (   0.1 sec)
Making the grid                                    ... done (   0.2 sec)
Mapping shells                                     ... done
Starting the XC term evaluation                    ... done (   0.1 sec)
  promolecular density results
     # of electrons  =    113.984605842
     EX              =    -89.145197450
     EC              =     -3.803164999
     EX+EC           =    -92.948362449
Transforming the Hamiltonian                       ... done (   0.0 sec)
Diagonalizing the Hamiltonian                      ... done (   0.0 sec)
Back transforming the eigenvectors                 ... done (   0.0 sec)
Now organizing SCF variables                       ... done
             **** ENERGY FILE WAS UPDATED (inp.en.tmp) ****
Finished Guess after   0.6 sec
Maximum memory used throughout the entire GUESS-calculation: 17.7 MB


           ************************************************************
           *        Program running with 12 parallel MPI-processes    *
           *              working on a common directory               *
           ************************************************************
--------------------
CPCM SOLVATION MODEL
--------------------
CPCM parameters:
  Epsilon                                         ...       4.8030
  Refrac                                          ...       1.4459
  Rsolv                                           ...       1.3000
  Surface type                                    ... GAUSSIAN VDW
  Discretization scheme                           ... Constant charge density
    Threshold for H atoms                         ...       5.0000 (charges/Ang^2)
    Threshold for non-H atoms                     ...       5.0000 (charges/Ang^2)
  Epsilon function type                           ...         CPCM
Solvent:                                          ... CHLOROFORM
Radii:
  Scheme                                          ... Element-dependent radii
  Radius for C  used is    3.8550 Bohr (=   2.0400 Ang.)
  Radius for O  used is    3.4469 Bohr (=   1.8240 Ang.)
  Radius for H  used is    2.4944 Bohr (=   1.3200 Ang.)
Calculating surface                               ...        done! (  0.0s)
Cavity surface points                             ...         2586
Cavity Volume                                     ...    1814.1031
Cavity Surface-area                               ...     916.5457
Calculating surface distance matrix               ...        done! (  0.1s)
Performing Cholesky decomposition & store         ...        done! (  0.2s)
Overall time for CPCM initialization              ...                 0.3s

----------------------------------------D-I-I-S--------------------------------------------
Iteration    Energy (Eh)           Delta-E    RMSDP     MaxDP     DIISErr   Damp  Time(sec)
-------------------------------------------------------------------------------------------
               ***  Starting incremental Fock matrix formation  ***
    1    -656.9373649846565968     0.00e+00  8.97e-03  7.24e-02  2.44e-01  0.700   2.1
    2    -657.1297682778069884    -1.92e-01  6.48e-03  4.17e-02  1.08e-01  0.700   1.3
                               ***Turning on AO-DIIS***
    3    -657.2093971283820792    -7.96e-02  2.56e-03  1.68e-02  3.77e-02  0.700   1.3
    4    -657.2560697696364969    -4.67e-02  4.24e-03  2.36e-02  1.90e-02  0.000   1.2
    5    -657.3573792932600099    -1.01e-01  8.60e-04  4.95e-03  4.97e-03  0.000   1.3
                              *** Initializing SOSCF ***
---------------------------------------S-O-S-C-F--------------------------------------
Iteration    Energy (Eh)           Delta-E    RMSDP     MaxDP     MaxGrad    Time(sec)
--------------------------------------------------------------------------------------
    6    -657.3577326716956577    -3.53e-04  2.80e-04  1.77e-03  1.09e-03     1.2
               *** Restarting incremental Fock matrix formation ***
    7    -657.3577700761888991    -3.74e-05  1.73e-04  1.27e-03  3.57e-04     2.2
    8    -657.3577645180605487     5.56e-06  9.79e-05  7.46e-04  6.65e-04     1.5
    9    -657.3577739780014326    -9.46e-06  1.60e-05  1.44e-04  4.04e-05     1.4
                  *** Gradient check signals convergence ***

               *****************************************************
               *                     SUCCESS                       *
               *           SCF CONVERGED AFTER   9 CYCLES          *
               *****************************************************

Recomputing exchange energy using gridx3       ... done (    2.869 sec)
Old exchange energy                            :    -18.195508485 Eh
New exchange energy                            :    -18.195572123 Eh
Exchange energy change after final integration :     -0.000063638 Eh
Total energy after final integration           :   -657.357837507 Eh
             **** ENERGY FILE WAS UPDATED (inp.en.tmp) ****

----------------
TOTAL SCF ENERGY
----------------

Total Energy       :       -657.35783750717553 Eh          -17887.61615 eV

Components:
Nuclear Repulsion  :       1107.39632588270615 Eh           30133.78600 eV
Electronic Energy  :      -1764.74226588081615 Eh          -48021.07840 eV
One Electron Energy:      -3092.25040310783970 Eh          -84144.41129 eV
Two Electron Energy:       1327.50813722702355 Eh           36123.33289 eV
CPCM Dielectric    :         -0.01183387139188 Eh              -0.32202 eV

Virial components:
Potential Energy   :      -1309.67197728648898 Eh          -35637.98630 eV
Kinetic Energy     :        652.31413977931345 Eh           17750.37015 eV
Virial Ratio       :          2.00773200735702

DFT components:
N(Alpha)           :       57.000192026448 electrons
N(Beta)            :       57.000192026448 electrons
N(Total)           :      114.000384052896 electrons
E(X)               :      -72.171842411853 Eh       
E(C)               :       -4.481488621838 Eh       
E(XC)              :      -76.653331033691 Eh       

CPCM Solvation Model Properties:
Surface-charge          :         -0.02198460476821
Corrected charge        :          0.00000000000000
Outlying charge corr.   :          0.00002384135675 Eh               0.00065 eV
Free-energy (cav+disp)  :  This term is not implemented in the current solvation scheme

---------------
SCF CONVERGENCE
---------------

  Last Energy change         ...    9.4599e-06  Tolerance :   1.0000e-06
  Last MAX-Density change    ...    1.4393e-04  Tolerance :   1.0000e-05
  Last RMS-Density change    ...    1.6017e-05  Tolerance :   1.0000e-06
  Last DIIS Error            ...    1.0921e-03  Tolerance :   1.0000e-06
  Last Orbital Gradient      ...    4.0448e-05  Tolerance :   3.3300e-04
  Last Orbital Rotation      ...    1.3664e-04  Tolerance :   3.3300e-04


----------------
ORBITAL ENERGIES
----------------

  NO   OCC          E(Eh)            E(eV) 
   0   2.0000     -19.134590      -520.6787 
   1   2.0000     -19.127030      -520.4729 
   2   2.0000     -10.222460      -278.1673 
   3   2.0000     -10.211886      -277.8796 
   4   2.0000     -10.186515      -277.1892 
   5   2.0000     -10.183788      -277.1149 
   6   2.0000     -10.183175      -277.0983 
   7   2.0000     -10.181784      -277.0604 
   8   2.0000     -10.176928      -276.9283 
   9   2.0000     -10.170299      -276.7479 
  10   2.0000     -10.168364      -276.6952 
  11   2.0000     -10.167867      -276.6817 
  12   2.0000     -10.160406      -276.4787 
  13   2.0000     -10.157153      -276.3902 
  14   2.0000     -10.156551      -276.3738 
  15   2.0000      -1.013124       -27.5685 
  16   2.0000      -1.000350       -27.2209 
  17   2.0000      -0.854305       -23.2468 
  18   2.0000      -0.797235       -21.6939 
  19   2.0000      -0.757499       -20.6126 
  20   2.0000      -0.747480       -20.3400 
  21   2.0000      -0.712020       -19.3750 
  22   2.0000      -0.671255       -18.2658 
  23   2.0000      -0.666238       -18.1293 
  24   2.0000      -0.651586       -17.7306 
  25   2.0000      -0.609362       -16.5816 
  26   2.0000      -0.582873       -15.8608 
  27   2.0000      -0.541741       -14.7415 
  28   2.0000      -0.521282       -14.1848 
  29   2.0000      -0.510561       -13.8931 
  30   2.0000      -0.495129       -13.4731 
  31   2.0000      -0.479593       -13.0504 
  32   2.0000      -0.474280       -12.9058 
  33   2.0000      -0.458242       -12.4694 
  34   2.0000      -0.438494       -11.9320 
  35   2.0000      -0.426289       -11.5999 
  36   2.0000      -0.420166       -11.4333 
  37   2.0000      -0.410638       -11.1740 
  38   2.0000      -0.405113       -11.0237 
  39   2.0000      -0.400584       -10.9004 
  40   2.0000      -0.399147       -10.8614 
  41   2.0000      -0.378678       -10.3044 
  42   2.0000      -0.373901       -10.1744 
  43   2.0000      -0.371359       -10.1052 
  44   2.0000      -0.357352        -9.7241 
  45   2.0000      -0.354826        -9.6553 
  46   2.0000      -0.341587        -9.2951 
  47   2.0000      -0.337274        -9.1777 
  48   2.0000      -0.323895        -8.8136 
  49   2.0000      -0.311128        -8.4662 
  50   2.0000      -0.300553        -8.1785 
  51   2.0000      -0.297004        -8.0819 
  52   2.0000      -0.285799        -7.7770 
  53   2.0000      -0.264705        -7.2030 
  54   2.0000      -0.260717        -7.0945 
  55   2.0000      -0.237015        -6.4495 
  56   2.0000      -0.231600        -6.3022 
  57   0.0000       0.015527         0.4225 
  58   0.0000       0.025080         0.6825 
  59   0.0000       0.080440         2.1889 
  60   0.0000       0.105499         2.8708 
  61   0.0000       0.112103         3.0505 
  62   0.0000       0.126933         3.4540 
  63   0.0000       0.134968         3.6727 
  64   0.0000       0.149716         4.0740 
  65   0.0000       0.153265         4.1706 
  66   0.0000       0.160044         4.3550 
  67   0.0000       0.165919         4.5149 
*Only the first 10 virtual orbitals were printed.
Total SCF time: 0 days 0 hours 0 min 17 sec 
Finished LeanSCF after  18.0 sec

Maximum memory used throughout the entire LEANSCF-calculation: 31.6 MB


-------------------------------------------------------------------------------
                          DFT DISPERSION CORRECTION                            
                                                                               
                              DFTD3 V3.1  Rev 1                                
                          USING Becke-Johnson damping                          
-------------------------------------------------------------------------------
-------------------------   ----------------
Dispersion correction           -0.073436376
-------------------------   ----------------

NOTIFICATION: Different basis set in ORCA and otool_gcp:
ORCA: 265  gCP: 250 
If you are NOT using ECPs, check your basis set inputs!
------------------   -----------------
gCP correction             0.162110943
------------------   -----------------

-------------------------   --------------------
FINAL SINGLE POINT ENERGY      -657.269162939703
-------------------------   --------------------



           ************************************************************
           *        Program running with 12 parallel MPI-processes    *
           *              working on a common directory               *
           ************************************************************

------------------------------------------------------------------------------
                              ORCA PROPERTY CALCULATIONS
------------------------------------------------------------------------------

GBWName                                 ... inp.gbw
Number of atoms                         ...     35
Number of basis functions               ...    265
Max core memory                         ...   2500 MB

Electric properties:
Dipole moment                           ... YES
Quadrupole moment                       ...  NO
Static polarizability (Dipole/Dipole)   ...  NO
Static polarizability (Dipole/Quad.)    ...  NO
Static polarizability (Quad./Quad.)     ...  NO
Static polarizability (Velocity)        ...  NO
Static hyperpolarizability              ...  NO

Atomic electric properties:
Dipole moment                           ...  NO
Quadrupole moment                       ...  NO
Static polarizability                   ...  NO

Choice of electric origin               ... Center of mass
Position of electric origin             ...    -0.009076    -0.008751     0.000280

General magnetic properties:
Magnetizability                         ...  NO

EPR properties:
g-Tensor (aka g-matrix)                 ...  NO
Zero-Field splitting spin-orbit         ...  NO
Zero-field splitting spin-spin          ...  NO
Hyperfine couplings                     ...  NO (   0 nuclei)
Quadrupole couplings                    ...  NO (   0 nuclei)
Contact density                         ...  NO (   0 nuclei)

NMR properties:
Chemical shifts                         ...  NO (   0 nuclei)
Spin-rotation constants                 ...  NO (   0 nuclei)
Spin-spin couplings                     ...  NO (   0 nuclei,    0 pairs)

Choice of magnetic origin               ... GIAO
Position of magnetic origin             ...     0.000000     0.000000     0.000000

Properties with geometric perturbations:
SCF Hessian                             ...  NO
IR spectrum                             ...  NO
VCD spectrum                            ...  NO
X-ray spectroscopy properties:
SCF XES/XAS/RIXS spectra                ...  NO

SCF SOC stabilization energy            ...  NO
Diagonal Born-Oppenheimer correction    ...  NO

-------------
DIPOLE MOMENT
-------------

Method             : SCF
Type of density    : Electron Density
Multiplicity       :   1
Irrep              :   0
Energy             :  -657.3578375071755318 Eh
Basis              : AO
                                X                 Y                 Z
Electronic contribution:     -1.419932547      -5.348148830       2.546823268
Nuclear contribution   :      0.927823310       5.771678790      -1.582884543
                        -----------------------------------------
Total Dipole Moment    :     -0.492109238       0.423529960       0.963938725
                        -----------------------------------------
Magnitude (a.u.)       :      1.162207811
Magnitude (Debye)      :      2.954097488



--------------------
Rotational spectrum 
--------------------
 
Rotational constants in cm-1:             0.026639             0.018943             0.015286 
Rotational constants in MHz :           798.603134           567.895081           458.270444 

Dipole components along the rotational axes: 
x,y,z [a.u.] :     0.394680     0.574433     0.930044 
x,y,z [Debye]:     1.003196     1.460092     2.363984 

 

Dipole moment calculation done in   0.0 sec 

Maximum memory used throughout the entire PROP-calculation: 16.6 MB

--------------------------------
SUGGESTED CITATIONS FOR THIS RUN
--------------------------------

Below you find a list of papers that are relevant to this ORCA run
We neither can nor want to force you to cite these papers, but we appreciate if you do
You receive ORCA, which is the product of decades of hard work by many enthusiastic individuals, for free
The only thing we kindly ask in return is that you cite our papers,
We deeply appreciate it, if you show your appreciation for ORCA by not just citing the generic ORCA reference.

Please note that relegating all ORCA citations to the supporting information does *not* help us.
SI sections are not indexed - citations you put there will not count into any citation statistics
But we need these citations in order to attract the funding resources that allow us to do what we are doing

Therefore, if you are a happy ORCA user, please consider citing a few of the papers listed below in the main body of your paper

In addition to the list printed below, the program has created the file inp.bibtex that contains the list in bibtex format
You can import this file easily into all common literature databanks and citation aid programs

It goes without saying that in many instances, there are alternative algorithms to achieve similar
results as the ones you have gotten from ORCA. It is, of course, also the case that in some instances
ORCA just re-implements algorithms worked out by others. We are fully aware of that and we are also
fully appreciative of our colleagues work. Hence this citation list should not be read as indicating
that the listed papers, which are focused on our own work, are the only ones worth citing. It simply
meant to make it easier for users to cite ORCA specific papers. It is not a substitute for doing your
own literature research and citing the relevant literature in a scientifically appropriate manner.

List of essential papers. We consider these as the minimum necessary citations

  1. Neese, F.
     Software update: the ORCA program system, version 6.0
     WIRES Comput. Molec. Sci. 2025 15(1), e70019
     doi.org/10.1002/wcms.70019

List of papers to cite with high priority. The work reported in these papers was absolutely
necessary for this run to complete.
Our perspective: the developers of density functionals and basis sets usually get cited in chemistry papers
Good! But without the algorithms to do something with them, the functionals or basis sets would not do anything.
Hence, in our opinion, the algorithm design and method developments papers are equally worthy of getting cited

  1. Neese, F.
     An improvement of the resolution of the identity approximation for the formation of the Coulomb matrix
     J. Comp. Chem. 2003 24(14), 1740-1747
     doi.org/10.1002/jcc.10318
  2. Neese, F.; Wennmohs, F.; Hansen, A.; Becker, U.
     Efficient, approximate and parallel Hartree-Fock and hybrid DFT calculations. A 'chain-of-spheres' algorithm for the Hartree-Fock exchange
     Chem. Phys. 2009 356(1-3), 98-109
     doi.org/10.1016/j.chemphys.2008.10.036
  3. Grimme, S.; Antony, J.; Ehrlich, S.; Krieg, H.
     A consistent and accurate ab initio parametrization of density functional dispersion correction (DFT-D) for the 94 elements H-Pu
     J. Chem. Phys. 2010 132 , 154104
     doi.org/10.1063/1.3382344
  4. Grimme, S.; Ehrlich, S.; Goerigk, L.
     Effect of the damping function in dispersion corrected density functional theory
     J. Comput. Chem. 2011 32(7), 1456-1465
     doi.org/10.1002/jcc.21759
  5. Garcia-Rates, M.; Neese, F.
     Effect of the Solute Cavity on the Solvation Energy and its Derivatives within the Framework of the Gaussian Charge Scheme
     J. Comput. Chem. 2020 41 , 922-939
     doi.org/10.1002/jcc.26139
  6. Helmich-Paris, B.; de Souza, B.; Neese, F.; Izsák, R.
     An improved chain of spheres for exchange algorithm
     J. Chem. Phys. 2021 155(10), 104109
     doi.org/10.1063/5.0058766
  7. Neese, F.
     The SHARK Integral Generation and Digestion System
     J. Comp. Chem. 2022 44(3), 381
     doi.org/10.1002/jcc.26942

List of suggested additional citations. These are papers that are important in the 'surrounding' of 
of this run, or papers that preceded the highly important papers. If you like your results we are grateful for a citation.

  1. Izsak, R.; Neese, F.
     An overlap fitted chain of spheres exchange method
     J. Chem. Phys. 2011 135 , 144105
     doi.org/10.1063/1.3646921
  2. Izsak, R.; Hansen, A.; Neese, F.
     The resolution of identity and chain of spheres approximations for the LPNO-CCSD singles Fock term
     Molec. Phys. 2012 110 , 2413-2417
     doi.org/10.1080/00268976.2012.687466
  3. Neese, F.
     The ORCA program system
     WIRES Comput. Molec. Sci. 2012 2(1), 73-78
     doi.org/10.1002/wcms.81
  4. Izsak, R.; Neese, F.; Klopper, W.
     Robust fitting techniques in the chain of spheres approximation to the Fock exchange: The role of the complementary space
     J. Chem. Phys. 2013 139 , 
     doi.org/10.1063/1.4819264
  5. Neese, F.
     Software update: the ORCA program system, version 4.0
     WIRES Comput. Molec. Sci. 2018 8(1), 1-6
     doi.org/10.1002/wcms.1327
  6. Neese, F.; Wennmohs, F.; Becker, U.; Riplinger, C.
     The ORCA quantum chemistry program package
     J. Chem. Phys. 2020 152(22), 224108
     doi.org/10.1063/5.0004608
  7. Neese, F.
     Software update: The ORCA program system—Version 5.0
     WIRES Comput. Molec. Sci. 2022 12(1), e1606
     doi.org/10.1002/wcms.1606

List of optional additional citations

  1. Neese, F.
     Approximate second-order SCF convergence for spin unrestricted wavefunctions
     Chem. Phys. Lett. 2000 325(1-3), 93-98
     doi.org/10.1016/s0009-2614(00)00662-x

Timings for individual modules:

Sum of individual times          ...       21.292 sec (=   0.355 min)
Startup calculation              ...        2.036 sec (=   0.034 min)   9.6 %
SCF iterations                   ...       18.921 sec (=   0.315 min)  88.9 %
Property calculations            ...        0.335 sec (=   0.006 min)   1.6 %
                             ****ORCA TERMINATED NORMALLY****
TOTAL RUN TIME: 0 days 0 hours 0 minutes 21 seconds 641 msec
