  42
        -49.50832855
 C         -0.7395417077       -1.5810451812       -0.2922682224
 C         -1.1806462819       -1.2035512561        1.1309614565
 C         -2.3784855419       -0.2668819838        1.2682999635
 C         -2.0439862501        1.1945658100        0.9998007214
 C         -1.5962632097        1.4845654285       -0.4320263450
 C         -0.1681184526        1.0032791669       -0.7176964037
 C          0.0779848546       -0.4872691855       -1.0128211884
 C          0.3075257246       -2.7083020720       -0.1901247182
 C          1.5989267695       -1.9995623186        0.2053542187
 C          1.5527548680       -0.6813482405       -0.5793464615
 O          0.6958926739        1.3306544876        0.3519196133
 C          1.9238912017        0.6368622357        0.1622192912
 H         -0.0313093475       -0.6529730453       -2.0879063369
 H          2.1941559701       -0.7721245903       -1.4585940657
 H          0.1720242140        1.5479155486       -1.6189309420
 C         -1.6675002768        2.9913603932       -0.6895680288
 C          2.5662392288        0.4699863969        1.5391367716
 C          2.8706105390        1.4710312340       -0.7175622432
 C         -1.9244436845       -2.0509723462       -1.1368066487
 H         -1.4247457604       -2.1353565803        1.6499883720
 H         -0.3405262013       -0.7445198105        1.6504642599
 H         -3.1941286892       -0.5864290756        0.6187858615
 H         -2.7411675273       -0.3419866528        2.2975647652
 H         -1.2503903612        1.5186889153        1.6741413305
 H         -2.9320889762        1.7953101978        1.2117162498
 H         -2.2647959671        0.9796982646       -1.1371771937
 H          0.4312271755       -3.1770785340       -1.1685685928
 H          0.0203296621       -3.4814608372        0.5219219979
 H          1.6106124610       -1.8330238667        1.2790516516
 H          2.4819488869       -2.5853896742       -0.0498176795
 H         -1.4048697522        3.2224634099       -1.7199585435
 H         -2.6716039482        3.3646244734       -0.5009347092
 H         -0.9731246949        3.5068040851       -0.0310497438
 H          3.4343209253       -0.1803239688        1.4796101837
 H          2.8777892337        1.4456320686        1.9032902995
 H          1.8537319932        0.0654987676        2.2523265827
 H          2.9999202734        2.4584119996       -0.2807324421
 H          3.8397696832        0.9837752097       -0.7859045367
 H          2.4668306939        1.5896516497       -1.7201981196
 H         -2.5915402378       -1.2308057771       -1.3853475941
 H         -1.5724556601       -2.4874146835       -2.0699116819
 H         -2.4906391913       -2.8090567070       -0.5993948778
