%mem=24GB
%nprocs=12
# mPW1PW91/6-31G* nmr g09default scf=noincore

Template file

  0  1
C     -1.34877200   -1.59133900    1.93271000
C     -2.72536800   -1.36137500    1.29999700
C     -2.72703000   -0.68401700   -0.09286100
C     -1.66090500    0.48849900   -0.19269800
C     -0.23851200    0.22612200    0.53570400
C     -0.53098800   -0.29190700    1.97145500
C     -1.37055600    0.87444300   -1.66042300
C     -0.55311200    2.17073000   -1.74539300
C      0.76555600    2.12388300   -0.95069300
C      0.63888300    1.59592900    0.53017000
C      0.87336400   -0.78166700   -0.03637800
C      2.03542500    1.08577300    0.94540800
C      2.14423000   -0.25517200    0.30135200
C      3.35101300   -0.90963500    0.07866200
C      3.33813700   -2.16482900   -0.52771700
C      2.11645200   -2.71930500   -0.85887700
C      0.88661400   -2.07607800   -0.60931200
O     -0.18075800   -2.85091700   -0.93423600
O      4.57100600   -0.37275300    0.42809800
O     -2.41108800   -1.63786900   -1.13890700
C     -4.17831600   -0.26063400   -0.41605100
C     -2.39456100    1.68497100    0.48288700
C      1.47758000    3.48345700   -1.06858700
C      0.28713700    2.72523100    1.53455700
H     -1.48843200   -1.97101800    2.95277500
H     -0.80363000   -2.36437100    1.38353400
H     -3.32107600   -0.73575100    1.97696800
H     -3.27512600   -2.31100000    1.21842600
H      0.40730700   -0.46783500    2.50784300
H     -1.08706900    0.45567200    2.55153000
H     -0.82471700    0.06245900   -2.15210000
H     -2.30760600    0.99885300   -2.21724500
H     -0.30783400    2.37021700   -2.79712300
H     -1.16330400    3.02457600   -1.42215100
H      1.39594500    1.38839300   -1.46569000
H      2.10856900    1.01815700    2.04193100
H      2.81561100    1.79179200    0.62770800
H      4.27195300   -2.68289300   -0.72257000
H      2.05906200   -3.69963100   -1.32158100
H     -1.00078800   -2.31071000   -1.01147900
H      4.42249300    0.47832700    0.86614500
H     -3.04459700   -2.37192700   -1.07602600
H     -4.79590900   -1.16726400   -0.47197400
H     -4.62537100    0.37853600    0.34691700
H     -4.24459400    0.24125200   -1.38545300
H     -2.77132300    1.44325700    1.48070800
H     -1.77610400    2.56398000    0.57968800
H     -3.24869200    1.98375900   -0.12956800
H      2.44415800    3.50402400   -0.55372900
H      1.66914100    3.71050600   -2.12391700
H      0.86892800    4.30177900   -0.66632900
H      1.20988100    3.23479800    1.83524300
H     -0.36456100    3.50526400    1.13552900
H     -0.17322200    2.34063300    2.44888600


