          42
 Energy =        0.10672467 a.u.  Frame:     1 Step:     1 Geom:     1
C          -0.73293000      1.57158000      0.28269000
C          -1.18660000      1.20318000     -1.15078000
C          -2.37953000      0.26201000     -1.27313000
C          -2.05281000     -1.19655000     -0.99034000
C          -1.59434000     -1.47497000      0.44749000
C          -0.16716000     -1.00126000      0.74680000
C           0.08313000      0.47668000      1.00774000
C           0.31257000      2.70895000      0.20295000
C           1.59514000      1.99848000     -0.19877000
C           1.55342000      0.67832000      0.57731000
O           0.72970000     -1.36771000     -0.31305000
C           1.94988000     -0.62089000     -0.15236000
H           0.00297000      0.65225000      2.09055000
H           2.17333000      0.80751000      1.47492000
H           0.17835000     -1.53898000      1.64036000
C          -1.66825000     -2.99090000      0.68895000
C           2.57926000     -0.46710000     -1.53531000
C           2.88877000     -1.46760000      0.72135000
C          -1.91802000      2.05281000      1.13739000
H          -1.46174000      2.13222000     -1.66960000
H          -0.35488000      0.78445000     -1.72837000
H          -3.21632000      0.58981000     -0.64828000
H          -2.74602000      0.32194000     -2.30615000
H          -1.30459000     -1.54858000     -1.71197000
H          -2.95956000     -1.77863000     -1.20129000
H          -2.28824000     -1.00940000      1.15625000
H           0.45340000      3.18802000      1.18075000
H           0.04083000      3.49336000     -0.51121000
H           1.60916000      1.86614000     -1.28244000
H           2.47954000      2.58878000      0.06150000
H          -1.40992000     -3.23361000      1.72545000
H          -2.68093000     -3.37154000      0.50722000
H          -0.98481000     -3.53798000      0.03163000
H           1.86463000     -0.06841000     -2.26245000
H           3.46364000      0.17765000     -1.50673000
H           2.88282000     -1.44296000     -1.93317000
H           3.87282000     -0.99858000      0.81523000
H           2.48179000     -1.61334000      1.72784000
H           3.01435000     -2.46995000      0.29542000
H          -2.59935000      1.23935000      1.39566000
H          -1.57841000      2.49065000      2.08356000
H          -2.49196000      2.82472000      0.61016000
          42
 Energy =        0.11336521 a.u.  Frame:     2 Step:     2 Geom:     2
C          -0.82853000      1.56210000      0.34218000
C          -2.29904000      1.23745000      0.03249000
C          -2.60742000      0.34506000     -1.16500000
C          -1.86513000     -0.98162000     -1.24022000
C          -1.51914000     -1.57346000      0.13049000
C          -0.18053000     -1.04564000      0.66567000
C           0.01412000      0.43838000      1.00443000
C          -0.00287000      1.94283000     -0.89438000
C           1.43164000      1.90222000     -0.39961000
C           1.48793000      0.72889000      0.59268000
O           0.86677000     -1.39413000     -0.24901000
C           2.02616000     -0.61272000      0.05941000
H          -0.09280000      0.52534000      2.09470000
H           2.08043000      1.05485000      1.45714000
H           0.02640000     -1.60645000      1.58883000
C          -1.45185000     -3.10630000      0.00853000
C           2.86905000     -0.55957000     -1.21274000
C           2.82367000     -1.34910000      1.14907000
C          -0.86568000      2.77053000      1.32653000
H          -2.76739000      0.81445000      0.93095000
H          -2.84017000      2.17751000     -0.14725000
H          -3.68395000      0.13193000     -1.14221000
H          -2.44336000      0.89924000     -2.09760000
H          -0.95936000     -0.86183000     -1.84638000
H          -2.49438000     -1.67473000     -1.81170000
H          -2.31487000     -1.35645000      0.85211000
H          -0.26485000      2.92910000     -1.29070000
H          -0.11419000      1.22152000     -1.70782000
H           2.14775000      1.85274000     -1.22188000
H           1.66454000      2.83408000      0.13053000
H          -1.22231000     -3.56168000      0.97801000
H          -2.41327000     -3.51115000     -0.32523000
H          -0.68655000     -3.42521000     -0.70705000
H           2.27964000     -0.20840000     -2.06708000
H           3.74838000      0.08190000     -1.09063000
H           3.21400000     -1.56155000     -1.49066000
H           3.78242000     -0.85615000      1.34035000
H           2.27361000     -1.39493000      2.09497000
H           3.01587000     -2.38761000      0.85448000
H          -1.50666000      2.54884000      2.18833000
H           0.12139000      3.02588000      1.72493000
H          -1.26519000      3.66537000      0.83567000
          42
 Energy =        0.11225367 a.u.  Frame:     3 Step:     3 Geom:     3
C          -0.78111000      1.56766000      0.28526000
C          -1.98239000      1.19159000     -0.61108000
C          -1.72887000      0.07615000     -1.61865000
C          -2.05920000     -1.30452000     -1.06720000
C          -1.62120000     -1.54541000      0.38309000
C          -0.20697000     -1.04918000      0.70043000
C          -0.02380000      0.42716000      1.03667000
C           0.30153000      2.29257000     -0.54520000
C           1.60186000      2.04856000      0.19650000
C           1.48142000      0.63847000      0.76369000
O           0.70738000     -1.32625000     -0.36424000
C           1.90323000     -0.55690000     -0.12922000
H          -0.21712000      0.53500000      2.11326000
H           2.04422000      0.60656000      1.70528000
H           0.15006000     -1.61429000      1.57152000
C          -1.72678000     -3.05000000      0.67766000
C           2.51638000     -0.22757000     -1.48988000
C           2.88262000     -1.47080000      0.62824000
C          -1.31771000      2.56686000      1.34561000
H          -2.85902000      0.94485000      0.00189000
H          -2.27269000      2.08804000     -1.17695000
H          -2.35376000      0.24392000     -2.50552000
H          -0.69954000      0.09220000     -1.98472000
H          -1.61874000     -2.05531000     -1.73469000
H          -3.14625000     -1.45413000     -1.12678000
H          -2.32306000     -1.04850000      1.06475000
H           0.10443000      3.36419000     -0.64984000
H           0.37377000      1.89497000     -1.56052000
H           2.48069000      2.20093000     -0.43806000
H           1.68466000      2.76617000      1.02632000
H          -1.53878000     -3.25198000      1.73860000
H          -2.72855000     -3.42489000      0.44131000
H          -1.00037000     -3.62343000      0.09157000
H           1.84697000      0.37895000     -2.10334000
H           3.47321000      0.29324000     -1.38873000
H           2.68639000     -1.14455000     -2.06638000
H           3.82928000     -0.96174000      0.82917000
H           2.46385000     -1.80610000      1.58427000
H           3.08942000     -2.38074000      0.05217000
H          -2.05115000      2.08265000      2.00025000
H          -0.51538000      2.95815000      1.98044000
H          -1.81033000      3.42250000      0.87156000
          42
 Energy =        0.11063473 a.u.  Frame:     4 Step:     4 Geom:     4
C          -0.63972000      1.53839000      0.09698000
C          -1.26663000      1.06498000     -1.23454000
C          -2.50109000      0.17710000     -1.15289000
C          -2.18453000     -1.28674000     -0.89672000
C          -1.61334000     -1.56424000      0.49617000
C          -0.19719000     -1.02719000      0.72903000
C          -0.00962000      0.45250000      1.01338000
C           0.52786000      2.50653000     -0.25290000
C           1.75266000      2.03720000      0.51335000
C           1.51024000      0.57964000      0.85233000
O           0.68848000     -1.30780000     -0.36500000
C           1.89251000     -0.53149000     -0.15604000
H          -0.28279000      0.65379000      2.05794000
H           1.99805000      0.37028000      1.81436000
H           0.20537000     -1.56551000      1.59979000
C          -1.60521000     -3.09080000      0.70379000
C           2.41199000     -0.07950000     -1.51879000
C           2.92983000     -1.48404000      0.46231000
C          -1.69090000      2.32277000      0.91481000
H          -1.55878000      1.96084000     -1.80153000
H          -0.51529000      0.56741000     -1.85707000
H          -3.22386000      0.54748000     -0.41976000
H          -3.01227000      0.23306000     -2.12360000
H          -1.50847000     -1.66201000     -1.67538000
H          -3.11995000     -1.84624000     -1.01838000
H          -2.28305000     -1.13917000      1.25386000
H           0.29989000      3.54904000     -0.00059000
H           0.74718000      2.50316000     -1.32655000
H           2.68118000      2.20900000     -0.03906000
H           1.82742000      2.61548000      1.44255000
H          -1.28077000     -3.34201000      1.71881000
H          -2.60720000     -3.51080000      0.56797000
H          -0.93041000     -3.58618000     -0.00176000
H           1.72401000      0.60566000     -2.01763000
H           3.38988000      0.40583000     -1.44014000
H           2.51106000     -0.93781000     -2.19675000
H           2.55504000     -1.93663000      1.38802000
H           3.14248000     -2.31951000     -0.21610000
H           3.86730000     -0.96684000      0.68376000
H          -2.45970000      1.66041000      1.32580000
H          -1.22723000      2.84036000      1.76304000
H          -2.18796000      3.08142000      0.29999000
