
                                 *****************
                                 * O   R   C   A *
                                 *****************

                                            #,                                       
                                            ###                                      
                                            ####                                     
                                            #####                                    
                                            ######                                   
                                           ########,                                 
                                     ,,################,,,,,                         
                               ,,#################################,,                 
                          ,,##########################################,,             
                       ,#########################################, ''#####,          
                    ,#############################################,,   '####,        
                  ,##################################################,,,,####,       
                ,###########''''           ''''###############################       
              ,#####''   ,,,,##########,,,,          '''####'''          '####       
            ,##' ,,,,###########################,,,                        '##       
           ' ,,###''''                  '''############,,,                           
         ,,##''                                '''############,,,,        ,,,,,,###''
      ,#''                                            '''#######################'''  
     '                                                          ''''####''''         
             ,#######,   #######,   ,#######,      ##                                
            ,#'     '#,  ##    ##  ,#'     '#,    #''#        ,####,    ,#,          
            ##       ##  ##   ,#'  ##            #'  '#       #'       ,# #          
            ##       ##  #######   ##           ,######,      #####,      #          
            '#,     ,#'  ##    ##  '#,     ,#' ,#      #,     #,   #      #          
             '#######'   ##     ##  '#######'  #'      '#     '####' #    #          



                #########################################################
                #                        -***-                          #
                #          Department of theory and spectroscopy        #
                #                                                       #
                #                      Frank Neese                      #
                #                                                       #
                #     Directorship, Architecture, Infrastructure        #
                #                    SHARK, DRIVERS                     #
                #        Core code/Algorithms in most modules           #
                #                                                       #
                #        Max Planck Institute fuer Kohlenforschung      #
                #                Kaiser Wilhelm Platz 1                 #
                #                 D-45470 Muelheim/Ruhr                 #
                #                      Germany                          #
                #                                                       #
                #                  All rights reserved                  #
                #                        -***-                          #
                #########################################################


                         Program Version 6.1.1  -  RELEASE   -
                                (GIT: $487d211c$)
                          ($2025-11-21 10:33:24 +0100$)


 With contributions from (in alphabetic order):
[Max-Planck-Institut fuer Kohlenforschung]                               
  Daniel Aravena         : Magnetic Suceptibility                        
  Michael Atanasov       : Ab Initio Ligand Field Theory (pilot matlab implementation)
  Alexander A. Auer      : GIAO ZORA, VPT2 properties, NMR spectrum      
  Ute Becker             : All parallelization in ORCA, NUMFREQ, NUMCALC 
  Giovanni Bistoni       : ED, misc. LED, open-shell LED, HFLD           
  Dmytro Bykov           : pre 5.0 version of the SCF Hessian            
  Marcos Casanova-Páez   : Triplet and SCS-CIS(D). UHF-(DLPNO)-IP/EA/STEOM-CCSD. UHF-CVS-IP/STEOM-CCSD   
  Vijay G. Chilkuri      : MRCI spin determinant printing, contributions to CSF-ICE 
  Pauline Colinet        : FMM embedding                                 
  Dipayan Datta          : RHF DLPNO-CCSD density                        
  Achintya Kumar Dutta   : EOM-CC, STEOM-CC                              
  Nicolas Foglia         : Exact transition moments, OPA infrastructure, MCD improvements    
  Dmitry Ganyushin       : Spin-Orbit,Spin-Spin,Magnetic field MRCI      
  Miquel Garcia-Rates    : C-PCM and meta-GGA Hessian, CCSD/C-PCM, Gaussian charge scheme 
  Tiago L. C. Gouveia    : GS-ROHF, GS-ROCIS                             
  Yang Guo               : DLPNO-NEVPT2, F12-NEVPT2, CIM, IAO-localization        
  Andreas Hansen         : Spin unrestricted coupled pair/coupled cluster methods 
  Ingolf Harden          : AUTO-CI MPn and infrastructure                
  Benjamin Helmich-Paris : MC-RPA, TRAH-(SCF,CASSCF), AVAS, COSX integrals, SCF dyn. polar., MC-PDFT, srDFT 
  Lee Huntington         : MR-EOM, pCC                                   
  Robert Izsak           : Overlap fitted RIJCOSX, COSX-SCS-MP3, EOM     
  Riya Kayal             : Wick's Theorem for AUTO-CI, AUTO-CI UHF-CCSDT 
  Emily Kempfer          : AUTO-CI RHF CISDT and CCSDT, approximate NEVPT4
  Christian Kollmar      : KDIIS, OOCD, Brueckner-CCSD(T), CCSD density, CASPT2, CASPT2-K, improved NEVPT2 
  Axel Koslowski         : Symmetry handling                             
  Simone Kossmann        : meta-GGA functionals, TD-DFT gradient, OOMP2, (MP2 Hessian; deprecated post 5.0) 
  Lucas Lang             : DCDCAS, Hyperfine gauge corrections, ICE-SOC+SSC
  Marvin Lechner         : AUTO-CI (C++ implementation), FIC-MRCC        
  Spencer Leger          : CASSCF response                               
  Dagmar Lenk            : GEPOL surface, SMD, ORCA-2-JSON               
  Dimitrios Liakos       : Extrapolation schemes; Compound Job, Property file
  Dimitrios Manganas     : Further ROCIS development; embedding schemes. LFT, Crystal Embedding 
  Dimitrios Pantazis     : SARC Basis sets                               
  Anastasios Papadopoulos: AUTO-CI, single reference methods and gradients 
  Taras Petrenko         : pre 6.0 DFT Hessian and TD-DFT gradient,  ECA, NRVS 
  Petra Pikulova         : Analytic Raman intensities                    
  Peter Pinski           : DLPNO-MP2, DLPNO-MP2 Gradient                 
  Shashank Vittal Rao    : ES-AILFT, MagRelax                            
  Christoph Reimann      : Effective Core Potentials                     
  Marius Retegan         : Local ZFS, SOC                                
  Christoph Riplinger    : Optimizer, TS searches, QM/MM, DLPNO-CCSD(T), (RO)-DLPNO pert. Triples 
  Michael Roemelt        : Original ROCIS implementation, recursive CI coupling coefficients
  Masaaki Saitow         : Open-shell DLPNO-CCSD energy and density      
  Barbara Sandhoefer     : DKH picture change effects                    
  Yorick L. A. Schmerwitz: GMF and freeze-and-release deltaSCF, NEB S-IDPP initial path                    
  Kantharuban Sivalingam : CASSCF convergence/infrastructure, NEVPT2, NEVPT3, NEVPT4(SD), FIC-MRCI and CEPA variants
  Bernardo de Souza      : ESD, SOC TD-DFT                               
  Georgi L. Stoychev     : AutoAux, RI-MP2 NMR, DLPNO-MP2 response, X2C  
  Van Anh Tran           : RI-MP2 g-tensors                              
  Willem Van den Heuvel  : Paramagnetic NMR                              
  Zikuan Wang            : NOTCH, Electric field optimization            
  Frank Wennmohs         : Technical directorship and infrastructure     
  Hang Xu                : AUTO-CI-Response properties                   
                                                                         
[FACCTs GmbH]                                                            
  Markus Bursch, Nicolas Foglia, Miquel Garcia-Rates, Ingolf Harden, Hagen Neugebauer, Anastasios Papadopoulos, 
  Christoph Riplinger, Bernardo de Souza, Georgi L. Stoychev                                                    
                                                                 
  APM, various basis sets, CI-OPT, improved COSX, DLPNO-Multilevel,           
  DOCKER, DRACO, updates on ESD, Fragmentator, GOAT, IRC, LR-CPCM, L-BFGS, MBIS, meta-GGA TD-DFT gradient, ML-optimized integration grids, 
  MM, NACMEs, nearIR, NEB, NEB-TS, NL-DFT gradient (VV10), 2- and 3-layer-ONIOM, interface openCOSMO-RS, QMMM,   
  Crystal-QMMM, RESP, rigid body optimization, SF, symmetry and pop. for TD-DFT, various functionals, SOLVATOR                                   
                                                                         
[Other institutions]                                                     
  V. Asgeirsson          : NEB                                           
  Christoph Bannwarth    : sTDA-DFT, sTD-DFT, PBEh-3c, B97-3c, D3        
  Giovanni Bistoni       : ETS/NOCV, ADLD/ADEX, COVALED                  
  Martin Brehm           : Molecular dynamics                            
  Ronald Cardenas        : ETS/NOCV                                      
  Martina Colucci        : COVALED                                       
  Sebastian Ehlert       : rSCAN, r2SCAN, r2SCAN-3c, D4, dhf basis sets  
  Marvin Friede          : D4 for Fr, Ra, Ac-Lr                          
  Lars Goerigk           : TD-DFT with DH, B97 family of functionals     
  Stefan Grimme          : VdW corrections, initial TS optimization, DFT functionals, gCP, sTDA/sTD-DF 
  Waldemar Hujo          : DFT-NL                                        
  H. Jonsson             : NEB                                           
  Holger Kruse           : gCP                                           
  Marcel Mueller         : wB97X-3c, vDZP basis set                      
  Hagen Neugebauer       : wr2SCAN, Native XTB                           
  Gianluca Regni         : ADLD/ADEX                                     
  Tobias Risthaus        : pre 6.0 range-separated hybrid DFT and stability analysis
  Lukas Wittmann         : regularized MP2, r2SCAN double-hybrids, wr2SCAN        
                                                                         
We gratefully acknowledge several colleagues who have allowed us to      
interface, adapt or use parts of their codes:                            
  Ed Valeev, F. Pavosevic, A. Kumar             : LibInt (2-el integral package), F12 methods 
  Garnet Chan, S. Sharma, J. Yang, R. Olivares  : DMRG                   
  Ulf Ekstrom                                   : XCFun DFT Library      
  Mihaly Kallay                                 : mrcc  (arbitrary order and MRCC methods)
  Frank Weinhold                                : gennbo (NPA and NBO analysis)           
  Simon Mueller                                 : openCOSMO-RS                            
  Christopher J. Cramer and Donald G. Truhlar   : smd solvation model                     
  S Lehtola, MJT Oliveira, MAL Marques          : LibXC Library                           
  Liviu Ungur et al                             : ANISO software                          


 Your calculation uses the libint2 library for the computation of 2-el integrals
 For citations please refer to: http://libint.valeyev.net

 Your ORCA version has been built with support for libXC version: 7.0.0
 For citations please refer to: https://libxc.gitlab.io

 This ORCA versions uses:
   CBLAS   interface :  Fast vector & matrix operations
   LAPACKE interface :  Fast linear algebra routines
   SCALAPACK package :  Parallel linear algebra routines
   Shared memory     :  Shared parallel matrices
   BLAS/LAPACK       :  OpenBLAS 0.3.29  USE64BITINT DYNAMIC_ARCH NO_AFFINITY Haswell SINGLE_THREADED
        Core in use  :  Haswell
   Copyright (c) 2011-2014, The OpenBLAS Project


  ***********************************
  * Starting time: Sun Aug  9 17:02:57 2026
  * Host name:     localhost.localdomain
  * Process ID:    2961233
  * Working dir.:  /home/dinglab/calculation/templates/NMR_modules/autohnmr/alpha_diol_screening/CONF14/b3lyp-3c
  ***********************************

NOTE: MaxCore=2500 MB was set to SCF,MP2,MDCI,CIPSI,MRCI,RASCI and CIS
      => If you want to overwrite this, your respective input block should be placed after the MaxCore statement
Your calculation utilizes the geometrical counterpoise correction gCP
Please cite in your paper:
H.Kruse, S. Grimme J.Chem.Phys., 136, (2012), 154101 
   

Your calculation utilizes the atom-pairwise dispersion correction
with the Becke-Johnson damping scheme (D3BJ)


Warning: RI is on but no J-basis has been assigned. Assigning Def2/J (nothing to worry about!)
================================================================================

----- Orbital basis set information -----
Your calculation utilizes the basis: def2-mSVP

----- AuxJ basis set information -----
Your calculation utilizes the auxiliary basis: def2/J
   H-Rn: F. Weigend, Phys. Chem. Chem. Phys. 8, 1057 (2006).
   Fr-Lr: K. Eichkorn, F. Weigend, O. Treutler, R. Ahlrichs; Theor. Chem. Acc. 97, 119 (1997).

================================================================================
                                        WARNINGS
                       Please study these warnings very carefully!
================================================================================

WARNING: Old DensityContainer found on disk!
         Will remove this file - 
         If you want to keep old densities, please start your calculation with a different basename. 


================================================================================
                                       INPUT FILE
================================================================================
NAME = inp
|  1> ! b3lyp
|  2> ! d3bj ABC
|  3> ! def2-mSVP
|  4> ! GCP(DFT/SV(P))
|  5> ! DEFGRID2
|  6> ! scfconv6
|  7> ! miniprint nopop noautostart
|  8> %MaxCore 2500
|  9> %pal
| 10>     nprocs 12
| 11> end
| 12> ! CPCM(chloroform)
| 13> *xyz 0 1
| 14> C    0.0941206370  -0.6632039133   0.0873300422
| 15> C   -0.9899344018   0.2983251527   0.7203032929
| 16> C   -0.4045283717   1.7289381537   0.9284231891
| 17> C    0.4689020194   2.2404556533  -0.2394815427
| 18> C    1.4428093020   1.1444443239  -0.7488686510
| 19> C    0.6285650328  -0.0670140675  -1.2543038197
| 20> C    1.3840019846  -0.6161881556   0.9801782600
| 21> C    2.2232924314   0.5307556924   0.4094636170
| 22> O    1.4305636878  -0.9836402456  -2.0173470785
| 23> C   -0.4375739677  -2.0998272133  -0.0695901112
| 24> C    3.4390365997   0.9037311185   0.8249061538
| 25> C   -2.3636151137   0.2990823340   0.0321531117
| 26> C   -3.3434984020  -0.4879631961   0.5098345035
| 27> H   -1.1731631409  -0.1165696179   1.7237466821
| 28> O   -0.8517384719  -2.6964053331   1.1709769177
| 29> C   -2.6531245299   1.2261391147  -1.1365382612
| 30> H   -1.2194029040   2.4417125388   1.1329219148
| 31> H    0.2116010924   1.7181185732   1.8417489467
| 32> H   -0.1531329848   2.5756535123  -1.0852480540
| 33> H    1.0473898599   3.1175219747   0.0933199678
| 34> H    2.0972442809   1.5594651839  -1.5316775162
| 35> H   -0.1779259404   0.2214024949  -1.9403666252
| 36> H    1.9433619563  -1.5662167181   0.9110225355
| 37> H    1.1536269391  -0.4688117240   2.0470659650
| 38> H    2.2826572004  -1.1204703819  -1.5526664397
| 39> H    0.3326394905  -2.7171056035  -0.5632599466
| 40> H   -1.3300079381  -2.1072553506  -0.7115300103
| 41> H    3.9372893690   0.4144109778   1.6658890562
| 42> H    3.9830537589   1.7190400556   0.3415890384
| 43> H   -4.3385535594  -0.5019296298   0.0581732093
| 44> H   -3.1815371616  -1.1589504199   1.3555099506
| 45> H   -0.0559558104  -2.8179733961   1.7269506052
| 46> H   -2.4702845202   2.2806678919  -0.8730416440
| 47> H   -2.0294233593   1.0088242851  -2.0175604167
| 48> H   -3.7045143329   1.1391132007  -1.4472523766
| 49> *
| 50> 
| 51>                          ****END OF INPUT****
================================================================================

                       ****************************
                       * Single Point Calculation *
                       ****************************

---------------------------------
CARTESIAN COORDINATES (ANGSTROEM)
---------------------------------
  C      0.094121   -0.663204    0.087330
  C     -0.989934    0.298325    0.720303
  C     -0.404528    1.728938    0.928423
  C      0.468902    2.240456   -0.239482
  C      1.442809    1.144444   -0.748869
  C      0.628565   -0.067014   -1.254304
  C      1.384002   -0.616188    0.980178
  C      2.223292    0.530756    0.409464
  O      1.430564   -0.983640   -2.017347
  C     -0.437574   -2.099827   -0.069590
  C      3.439037    0.903731    0.824906
  C     -2.363615    0.299082    0.032153
  C     -3.343498   -0.487963    0.509835
  H     -1.173163   -0.116570    1.723747
  O     -0.851738   -2.696405    1.170977
  C     -2.653125    1.226139   -1.136538
  H     -1.219403    2.441713    1.132922
  H      0.211601    1.718119    1.841749
  H     -0.153133    2.575654   -1.085248
  H      1.047390    3.117522    0.093320
  H      2.097244    1.559465   -1.531678
  H     -0.177926    0.221402   -1.940367
  H      1.943362   -1.566217    0.911023
  H      1.153627   -0.468812    2.047066
  H      2.282657   -1.120470   -1.552666
  H      0.332639   -2.717106   -0.563260
  H     -1.330008   -2.107255   -0.711530
  H      3.937289    0.414411    1.665889
  H      3.983054    1.719040    0.341589
  H     -4.338554   -0.501930    0.058173
  H     -3.181537   -1.158950    1.355510
  H     -0.055956   -2.817973    1.726951
  H     -2.470285    2.280668   -0.873042
  H     -2.029423    1.008824   -2.017560
  H     -3.704514    1.139113   -1.447252

----------------------------
CARTESIAN COORDINATES (A.U.)
----------------------------
  NO LB      ZA    FRAG     MASS         X           Y           Z
   0 C     6.0000    0    12.011    0.177862   -1.253274    0.165030
   1 C     6.0000    0    12.011   -1.870705    0.563753    1.361176
   2 C     6.0000    0    12.011   -0.764448    3.267220    1.754466
   3 C     6.0000    0    12.011    0.886096    4.233848   -0.452555
   4 C     6.0000    0    12.011    2.726514    2.162686   -1.415157
   5 C     6.0000    0    12.011    1.187816   -0.126638   -2.370291
   6 C     6.0000    0    12.011    2.615385   -1.164427    1.852268
   7 C     6.0000    0    12.011    4.201414    1.002983    0.773774
   8 O     8.0000    0    15.999    2.703374   -1.858811   -3.812233
   9 C     6.0000    0    12.011   -0.826895   -3.968098   -0.131506
  10 C     6.0000    0    12.011    6.498837    1.707804    1.558847
  11 C     6.0000    0    12.011   -4.466585    0.565184    0.060761
  12 C     6.0000    0    12.011   -6.318296   -0.922117    0.963448
  13 H     1.0000    0     1.008   -2.216957   -0.220285    3.257409
  14 O     8.0000    0    15.999   -1.609552   -5.095468    2.212826
  15 C     6.0000    0    12.011   -5.013679    2.317067   -2.147746
  16 H     1.0000    0     1.008   -2.304338    4.614168    2.140912
  17 H     1.0000    0     1.008    0.399868    3.246774    3.480401
  18 H     1.0000    0     1.008   -0.289379    4.867280   -2.050822
  19 H     1.0000    0     1.008    1.979280    5.891263    0.176349
  20 H     1.0000    0     1.008    3.963217    2.946962   -2.894451
  21 H     1.0000    0     1.008   -0.336231    0.418390   -3.666762
  22 H     1.0000    0     1.008    3.672422   -2.959721    1.721583
  23 H     1.0000    0     1.008    2.180039   -0.885926    3.868394
  24 H     1.0000    0     1.008    4.313597   -2.117382   -2.934114
  25 H     1.0000    0     1.008    0.628598   -5.134585   -1.064407
  26 H     1.0000    0     1.008   -2.513351   -3.982136   -1.344597
  27 H     1.0000    0     1.008    7.440399    0.783123    3.148074
  28 H     1.0000    0     1.008    7.526881    3.248515    0.645510
  29 H     1.0000    0     1.008   -8.198678   -0.948510    0.109931
  30 H     1.0000    0     1.008   -6.012234   -2.190099    2.561543
  31 H     1.0000    0     1.008   -0.105741   -5.325198    3.263464
  32 H     1.0000    0     1.008   -4.668161    4.309838   -1.649810
  33 H     1.0000    0     1.008   -3.835054    1.906402   -3.812637
  34 H     1.0000    0     1.008   -7.000518    2.152612   -2.734911



           ************************************************************
           *        Program running with 12 parallel MPI-processes    *
           *              working on a common directory               *
           ************************************************************
------------------------------------------------------------------------------
                   ___                                                        
                  /   \      - P O W E R E D   B Y -                         
                 /     \                                                     
                 |  |  |   _    _      __       _____    __    __             
                 |  |  |  | |  | |    /  \     |  _  \  |  |  /  |          
                  \  \/   | |  | |   /    \    | | | |  |  | /  /          
                 / \  \   | |__| |  /  /\  \   | |_| |  |  |/  /          
                |  |  |   |  __  | /  /__\  \  |    /   |      \           
                |  |  |   | |  | | |   __   |  |    \   |  |\   \          
                \     /   | |  | | |  |  |  |  | |\  \  |  | \   \       
                 \___/    |_|  |_| |__|  |__|  |_| \__\ |__|  \__/        
                                                                              
                      - O R C A' S   B I G   F R I E N D -                    
                                      &                                       
                       - I N T E G R A L  F E E D E R -                       
                                                                              
 v1 FN, 2020, v2 2021, v3 2022-2024                                           
------------------------------------------------------------------------------


----------------------
SHARK INTEGRAL PACKAGE
----------------------

Number of atoms                             ...     35
Number of basis functions                   ...    265
Number of shells                            ...    145
Maximum angular momentum                    ...      2
Integral batch strategy                     ... SHARK/LIBINT Hybrid
RI-J (if used) integral strategy            ... SPLIT-RIJ (Revised 2003 algorithm where possible)
Printlevel                                  ...      1
Contraction scheme used                     ... SEGMENTED contraction
Prescreening option                         ... SCHWARTZ
   Thresh                                   ... 1.000e-10
   Tcut                                     ... 1.000e-11
   Tpresel                                  ... 1.000e-11 
Coulomb Range Separation                    ... NOT USED
Exchange Range Separation                   ... NOT USED
Multipole approximations                    ... NOT USED
Finite Nucleus Model                        ... NOT USED
CABS basis                                  ... NOT available
Auxiliary Coulomb fitting basis             ... AVAILABLE
   # of basis functions in Aux-J            ...    955
   # of shells in Aux-J                     ...    325
   Maximum angular momentum in Aux-J        ...      4
Auxiliary J/K fitting basis                 ... NOT available
Auxiliary Correlation fitting basis         ... NOT available
Auxiliary 'external' fitting basis          ... NOT available

Checking pre-screening integrals            ... done (  0.0 sec) Dimension = 145
   => SHARK Basis and OBASIS are compatible. Storing Pre-screening
Shell pair information
Shell pair cut-off parameter TPreSel        ...   1.0e-11
Total number of shell pairs                 ...     10585
Shell pairs after pre-screening             ...      8864
Total number of primitive shell pairs       ...     38205
Primitive shell pairs kept                  ...     20892
          la=0 lb=0:   3927 shell pairs
          la=1 lb=0:   2753 shell pairs
          la=1 lb=1:    454 shell pairs
          la=2 lb=0:   1201 shell pairs
          la=2 lb=1:    425 shell pairs
          la=2 lb=2:    104 shell pairs

Checking whether 4 symmetric matrices of dimension 265 fit in memory
:Max Core in MB      =   2500.00
 MB in use           =     14.34
 MB left             =   2485.66
 MB needed           =      1.08
 Data fit in memory  = YES
Calculating RI/J V-Matrix + Cholesky decomp.... done (  0.0 sec)
Calculating Nuclear repulsion               ... done (  0.0 sec) ENN=   1105.740254265390 Eh

Diagonalization of the overlap matrix:
Smallest eigenvalue                        ... 1.895e-03
Time for diagonalization                   ...    0.013 sec
Threshold for overlap eigenvalues          ... 1.000e-07
Number of eigenvalues below threshold      ... 0
Time for construction of square roots      ...    0.004 sec
Total time needed                          ...    0.018 sec

-------------------
DFT GRID GENERATION
-------------------

General Integration Accuracy     IntAcc      ... 4.388
Radial Grid Type                 RadialGrid  ... OptM3 with GC (2021)
Angular Grid (max. ang.)         AngularGrid ... 4 (Lebedev-302)
Angular grid pruning method      GridPruning ... 4 (adaptive)
Weight generation scheme         WeightScheme... mBecke (2022)
Basis function cutoff            BFCut       ... 1.0000e-10
Integration weight cutoff        WCut        ... 1.0000e-14
Partially contracted basis set               ... off
Rotationally invariant grid construction     ... off
Angular grids for H and He will be reduced by one unit

Total number of grid points                  ...   152232
Total number of batches                      ...     2396
Average number of points per batch           ...       63
Average number of grid points per atom       ...     4349

--------------------
COSX GRID GENERATION
--------------------

GRIDX 1
-------
General Integration Accuracy     IntAcc      ... 3.816
Radial Grid Type                 RadialGrid  ... OptM3 with GC (2021)
Angular Grid (max. ang.)         AngularGrid ... 1 (Lebedev-50)
Angular grid pruning method      GridPruning ... 4 (adaptive)
Weight generation scheme         WeightScheme... mBecke (2022)
Basis function cutoff            BFCut       ... 1.0000e-10
Integration weight cutoff        WCut        ... 1.0000e-14
Partially contracted basis set               ... on
Rotationally invariant grid construction     ... off
Angular grids for H and He will be reduced by one unit

Total number of grid points                  ...    19396
Total number of batches                      ...      176
Average number of points per batch           ...      110
Average number of grid points per atom       ...      554
UseSFitting                                  ... on

GRIDX 2
-------
General Integration Accuracy     IntAcc      ... 4.020
Radial Grid Type                 RadialGrid  ... OptM3 with GC (2021)
Angular Grid (max. ang.)         AngularGrid ... 2 (Lebedev-110)
Angular grid pruning method      GridPruning ... 4 (adaptive)
Weight generation scheme         WeightScheme... mBecke (2022)
Basis function cutoff            BFCut       ... 1.0000e-10
Integration weight cutoff        WCut        ... 1.0000e-14
Partially contracted basis set               ... on
Rotationally invariant grid construction     ... off
Angular grids for H and He will be reduced by one unit

Total number of grid points                  ...    40630
Total number of batches                      ...      334
Average number of points per batch           ...      121
Average number of grid points per atom       ...     1161
UseSFitting                                  ... on

GRIDX 3
-------
General Integration Accuracy     IntAcc      ... 4.338
Radial Grid Type                 RadialGrid  ... OptM3 with GC (2021)
Angular Grid (max. ang.)         AngularGrid ... 3 (Lebedev-194)
Angular grid pruning method      GridPruning ... 4 (adaptive)
Weight generation scheme         WeightScheme... mBecke (2022)
Basis function cutoff            BFCut       ... 1.0000e-10
Integration weight cutoff        WCut        ... 1.0000e-14
Partially contracted basis set               ... on
Rotationally invariant grid construction     ... off
Angular grids for H and He will be reduced by one unit

Total number of grid points                  ...    88285
Total number of batches                      ...      709
Average number of points per batch           ...      124
Average number of grid points per atom       ...     2522
UseSFitting                                  ... on
Grids setup in   1.5 sec
Initializing property integral containers    ... done (  0.0 sec)

SHARK setup successfully completed in   1.7 seconds

Maximum memory used throughout the entire STARTUP-calculation: 40.6 MB


           ************************************************************
           *        Program running with 12 parallel MPI-processes    *
           *              working on a common directory               *
           ************************************************************
Loading Hartree-Fock densities                     ... done
Calculating cut-offs                               ... done
Initializing the effective Hamiltonian             ... done
Setting up the integral package (SHARK)            ... done
Starting the Coulomb interaction                   ... done (   0.1 sec)
Making the grid                                    ... done (   0.2 sec)
Mapping shells                                     ... done
Starting the XC term evaluation                    ... done (   0.1 sec)
  promolecular density results
     # of electrons  =    113.994760059
     EX              =    -89.144503622
     EC              =     -3.804010814
     EX+EC           =    -92.948514436
Transforming the Hamiltonian                       ... done (   0.0 sec)
Diagonalizing the Hamiltonian                      ... done (   0.0 sec)
Back transforming the eigenvectors                 ... done (   0.0 sec)
Now organizing SCF variables                       ... done
             **** ENERGY FILE WAS UPDATED (inp.en.tmp) ****
Finished Guess after   0.6 sec
Maximum memory used throughout the entire GUESS-calculation: 17.7 MB


           ************************************************************
           *        Program running with 12 parallel MPI-processes    *
           *              working on a common directory               *
           ************************************************************
--------------------
CPCM SOLVATION MODEL
--------------------
CPCM parameters:
  Epsilon                                         ...       4.8030
  Refrac                                          ...       1.4459
  Rsolv                                           ...       1.3000
  Surface type                                    ... GAUSSIAN VDW
  Discretization scheme                           ... Constant charge density
    Threshold for H atoms                         ...       5.0000 (charges/Ang^2)
    Threshold for non-H atoms                     ...       5.0000 (charges/Ang^2)
  Epsilon function type                           ...         CPCM
Solvent:                                          ... CHLOROFORM
Radii:
  Scheme                                          ... Element-dependent radii
  Radius for C  used is    3.8550 Bohr (=   2.0400 Ang.)
  Radius for O  used is    3.4469 Bohr (=   1.8240 Ang.)
  Radius for H  used is    2.4944 Bohr (=   1.3200 Ang.)
Calculating surface                               ...        done! (  0.0s)
Cavity surface points                             ...         2576
Cavity Volume                                     ...    1819.0693
Cavity Surface-area                               ...     914.7030
Calculating surface distance matrix               ...        done! (  0.1s)
Performing Cholesky decomposition & store         ...        done! (  0.2s)
Overall time for CPCM initialization              ...                 0.3s

----------------------------------------D-I-I-S--------------------------------------------
Iteration    Energy (Eh)           Delta-E    RMSDP     MaxDP     DIISErr   Damp  Time(sec)
-------------------------------------------------------------------------------------------
               ***  Starting incremental Fock matrix formation  ***
    1    -656.9454945916761517     0.00e+00  8.82e-03  7.31e-02  2.46e-01  0.700   2.2
    2    -657.1346482067949637    -1.89e-01  6.36e-03  4.22e-02  1.07e-01  0.700   1.4
                               ***Turning on AO-DIIS***
    3    -657.2134548295498462    -7.88e-02  2.54e-03  1.57e-02  3.66e-02  0.700   1.3
    4    -657.2595805359628685    -4.61e-02  4.25e-03  2.51e-02  1.85e-02  0.000   1.2
    5    -657.3595717772529952    -1.00e-01  8.24e-04  4.93e-03  4.54e-03  0.000   1.3
                              *** Initializing SOSCF ***
---------------------------------------S-O-S-C-F--------------------------------------
Iteration    Energy (Eh)           Delta-E    RMSDP     MaxDP     MaxGrad    Time(sec)
--------------------------------------------------------------------------------------
    6    -657.3599024417103465    -3.31e-04  2.71e-04  1.75e-03  9.86e-04     1.2
               *** Restarting incremental Fock matrix formation ***
    7    -657.3598605227250573     4.19e-05  1.73e-04  1.41e-03  3.12e-04     2.2
    8    -657.3598547821907232     5.74e-06  9.58e-05  7.52e-04  5.18e-04     1.6
    9    -657.3598643086443190    -9.53e-06  1.46e-05  1.07e-04  2.20e-05     1.4
                  *** Gradient check signals convergence ***

               *****************************************************
               *                     SUCCESS                       *
               *           SCF CONVERGED AFTER   9 CYCLES          *
               *****************************************************

Recomputing exchange energy using gridx3       ... done (    3.212 sec)
Old exchange energy                            :    -18.195649481 Eh
New exchange energy                            :    -18.195742151 Eh
Exchange energy change after final integration :     -0.000092670 Eh
Total energy after final integration           :   -657.359956883 Eh
             **** ENERGY FILE WAS UPDATED (inp.en.tmp) ****

----------------
TOTAL SCF ENERGY
----------------

Total Energy       :       -657.35995688307366 Eh          -17887.67382 eV

Components:
Nuclear Repulsion  :       1105.74025426539038 Eh           30088.72200 eV
Electronic Energy  :      -1763.08764500453276 Eh          -47976.05388 eV
One Electron Energy:      -3088.55824832626149 Eh          -84043.94265 eV
Two Electron Energy:       1325.47060332172873 Eh           36067.88877 eV
CPCM Dielectric    :         -0.01247347400783 Eh              -0.33942 eV

Virial components:
Potential Energy   :      -1309.68023962719008 Eh          -35638.21113 eV
Kinetic Energy     :        652.32028274411630 Eh           17750.53731 eV
Virial Ratio       :          2.00772576642529

DFT components:
N(Alpha)           :       56.999946057712 electrons
N(Beta)            :       56.999946057712 electrons
N(Total)           :      113.999892115424 electrons
E(X)               :      -72.172241853015 Eh       
E(C)               :       -4.481328607076 Eh       
E(XC)              :      -76.653570460091 Eh       

CPCM Solvation Model Properties:
Surface-charge          :         -0.02148423198210
Corrected charge        :         -0.00000000000000
Outlying charge corr.   :          0.00002280185254 Eh               0.00062 eV
Free-energy (cav+disp)  :  This term is not implemented in the current solvation scheme

---------------
SCF CONVERGENCE
---------------

  Last Energy change         ...    9.5265e-06  Tolerance :   1.0000e-06
  Last MAX-Density change    ...    1.0743e-04  Tolerance :   1.0000e-05
  Last RMS-Density change    ...    1.4619e-05  Tolerance :   1.0000e-06
  Last DIIS Error            ...    9.8578e-04  Tolerance :   1.0000e-06
  Last Orbital Gradient      ...    2.1985e-05  Tolerance :   3.3300e-04
  Last Orbital Rotation      ...    7.0141e-05  Tolerance :   3.3300e-04


----------------
ORBITAL ENERGIES
----------------

  NO   OCC          E(Eh)            E(eV) 
   0   2.0000     -19.129840      -520.5494 
   1   2.0000     -19.125347      -520.4272 
   2   2.0000     -10.222307      -278.1631 
   3   2.0000     -10.209433      -277.8128 
   4   2.0000     -10.187611      -277.2190 
   5   2.0000     -10.185637      -277.1653 
   6   2.0000     -10.184449      -277.1330 
   7   2.0000     -10.180765      -277.0327 
   8   2.0000     -10.179421      -276.9961 
   9   2.0000     -10.177168      -276.9348 
  10   2.0000     -10.173133      -276.8250 
  11   2.0000     -10.170504      -276.7535 
  12   2.0000     -10.166820      -276.6532 
  13   2.0000     -10.165957      -276.6298 
  14   2.0000     -10.157875      -276.4098 
  15   2.0000      -1.007650       -27.4196 
  16   2.0000      -0.998524       -27.1712 
  17   2.0000      -0.853734       -23.2313 
  18   2.0000      -0.798389       -21.7253 
  19   2.0000      -0.758037       -20.6272 
  20   2.0000      -0.752020       -20.4635 
  21   2.0000      -0.714988       -19.4558 
  22   2.0000      -0.675766       -18.3885 
  23   2.0000      -0.669769       -18.2253 
  24   2.0000      -0.656711       -17.8700 
  25   2.0000      -0.609639       -16.5891 
  26   2.0000      -0.584230       -15.8977 
  27   2.0000      -0.552957       -15.0467 
  28   2.0000      -0.523504       -14.2453 
  29   2.0000      -0.510899       -13.9023 
  30   2.0000      -0.500203       -13.6112 
  31   2.0000      -0.476718       -12.9721 
  32   2.0000      -0.464238       -12.6326 
  33   2.0000      -0.453520       -12.3409 
  34   2.0000      -0.438111       -11.9216 
  35   2.0000      -0.433355       -11.7922 
  36   2.0000      -0.418261       -11.3815 
  37   2.0000      -0.413309       -11.2467 
  38   2.0000      -0.407863       -11.0985 
  39   2.0000      -0.401446       -10.9239 
  40   2.0000      -0.397765       -10.8237 
  41   2.0000      -0.390212       -10.6182 
  42   2.0000      -0.384926       -10.4744 
  43   2.0000      -0.371379       -10.1057 
  44   2.0000      -0.366762        -9.9801 
  45   2.0000      -0.350045        -9.5252 
  46   2.0000      -0.342570        -9.3218 
  47   2.0000      -0.329386        -8.9631 
  48   2.0000      -0.325307        -8.8521 
  49   2.0000      -0.319895        -8.7048 
  50   2.0000      -0.307097        -8.3565 
  51   2.0000      -0.300460        -8.1759 
  52   2.0000      -0.293936        -7.9984 
  53   2.0000      -0.269734        -7.3398 
  54   2.0000      -0.248553        -6.7635 
  55   2.0000      -0.240175        -6.5355 
  56   2.0000      -0.235185        -6.3997 
  57   0.0000       0.009117         0.2481 
  58   0.0000       0.023433         0.6376 
  59   0.0000       0.088831         2.4172 
  60   0.0000       0.098349         2.6762 
  61   0.0000       0.106119         2.8876 
  62   0.0000       0.122110         3.3228 
  63   0.0000       0.135876         3.6974 
  64   0.0000       0.143558         3.9064 
  65   0.0000       0.152296         4.1442 
  66   0.0000       0.157079         4.2743 
  67   0.0000       0.160011         4.3541 
*Only the first 10 virtual orbitals were printed.
Total SCF time: 0 days 0 hours 0 min 18 sec 
Finished LeanSCF after  18.8 sec

Maximum memory used throughout the entire LEANSCF-calculation: 31.6 MB


-------------------------------------------------------------------------------
                          DFT DISPERSION CORRECTION                            
                                                                               
                              DFTD3 V3.1  Rev 1                                
                          USING Becke-Johnson damping                          
-------------------------------------------------------------------------------
-------------------------   ----------------
Dispersion correction           -0.074255642
-------------------------   ----------------

NOTIFICATION: Different basis set in ORCA and otool_gcp:
ORCA: 265  gCP: 250 
If you are NOT using ECPs, check your basis set inputs!
------------------   -----------------
gCP correction             0.161833727
------------------   -----------------

-------------------------   --------------------
FINAL SINGLE POINT ENERGY      -657.272378798203
-------------------------   --------------------



           ************************************************************
           *        Program running with 12 parallel MPI-processes    *
           *              working on a common directory               *
           ************************************************************

------------------------------------------------------------------------------
                              ORCA PROPERTY CALCULATIONS
------------------------------------------------------------------------------

GBWName                                 ... inp.gbw
Number of atoms                         ...     35
Number of basis functions               ...    265
Max core memory                         ...   2500 MB

Electric properties:
Dipole moment                           ... YES
Quadrupole moment                       ...  NO
Static polarizability (Dipole/Dipole)   ...  NO
Static polarizability (Dipole/Quad.)    ...  NO
Static polarizability (Quad./Quad.)     ...  NO
Static polarizability (Velocity)        ...  NO
Static hyperpolarizability              ...  NO

Atomic electric properties:
Dipole moment                           ...  NO
Quadrupole moment                       ...  NO
Static polarizability                   ...  NO

Choice of electric origin               ... Center of mass
Position of electric origin             ...     0.002256     0.000812     0.001641

General magnetic properties:
Magnetizability                         ...  NO

EPR properties:
g-Tensor (aka g-matrix)                 ...  NO
Zero-Field splitting spin-orbit         ...  NO
Zero-field splitting spin-spin          ...  NO
Hyperfine couplings                     ...  NO (   0 nuclei)
Quadrupole couplings                    ...  NO (   0 nuclei)
Contact density                         ...  NO (   0 nuclei)

NMR properties:
Chemical shifts                         ...  NO (   0 nuclei)
Spin-rotation constants                 ...  NO (   0 nuclei)
Spin-spin couplings                     ...  NO (   0 nuclei,    0 pairs)

Choice of magnetic origin               ... GIAO
Position of magnetic origin             ...     0.000000     0.000000     0.000000

Properties with geometric perturbations:
SCF Hessian                             ...  NO
IR spectrum                             ...  NO
VCD spectrum                            ...  NO
X-ray spectroscopy properties:
SCF XES/XAS/RIXS spectra                ...  NO

SCF SOC stabilization energy            ...  NO
Diagonal Born-Oppenheimer correction    ...  NO

-------------
DIPOLE MOMENT
-------------

Method             : SCF
Type of density    : Electron Density
Multiplicity       :   1
Irrep              :   0
Energy             :  -657.3599568830736644 Eh
Basis              : AO
                                X                 Y                 Z
Electronic contribution:      3.576476621      -4.612996205      -0.618917480
Nuclear contribution   :     -2.683019230       5.210661158       1.073836798
                        -----------------------------------------
Total Dipole Moment    :      0.893457391       0.597664953       0.454919318
                        -----------------------------------------
Magnitude (a.u.)       :      1.167227952
Magnitude (Debye)      :      2.966857673



--------------------
Rotational spectrum 
--------------------
 
Rotational constants in cm-1:             0.027928             0.018251             0.015024 
Rotational constants in MHz :           837.260352           547.147150           450.415441 

Dipole components along the rotational axes: 
x,y,z [a.u.] :     0.974366     0.329953     0.551510 
x,y,z [Debye]:     2.476640     0.838675     1.401828 

 

Dipole moment calculation done in   0.0 sec 

Maximum memory used throughout the entire PROP-calculation: 16.6 MB

--------------------------------
SUGGESTED CITATIONS FOR THIS RUN
--------------------------------

Below you find a list of papers that are relevant to this ORCA run
We neither can nor want to force you to cite these papers, but we appreciate if you do
You receive ORCA, which is the product of decades of hard work by many enthusiastic individuals, for free
The only thing we kindly ask in return is that you cite our papers,
We deeply appreciate it, if you show your appreciation for ORCA by not just citing the generic ORCA reference.

Please note that relegating all ORCA citations to the supporting information does *not* help us.
SI sections are not indexed - citations you put there will not count into any citation statistics
But we need these citations in order to attract the funding resources that allow us to do what we are doing

Therefore, if you are a happy ORCA user, please consider citing a few of the papers listed below in the main body of your paper

In addition to the list printed below, the program has created the file inp.bibtex that contains the list in bibtex format
You can import this file easily into all common literature databanks and citation aid programs

It goes without saying that in many instances, there are alternative algorithms to achieve similar
results as the ones you have gotten from ORCA. It is, of course, also the case that in some instances
ORCA just re-implements algorithms worked out by others. We are fully aware of that and we are also
fully appreciative of our colleagues work. Hence this citation list should not be read as indicating
that the listed papers, which are focused on our own work, are the only ones worth citing. It simply
meant to make it easier for users to cite ORCA specific papers. It is not a substitute for doing your
own literature research and citing the relevant literature in a scientifically appropriate manner.

List of essential papers. We consider these as the minimum necessary citations

  1. Neese, F.
     Software update: the ORCA program system, version 6.0
     WIRES Comput. Molec. Sci. 2025 15(1), e70019
     doi.org/10.1002/wcms.70019

List of papers to cite with high priority. The work reported in these papers was absolutely
necessary for this run to complete.
Our perspective: the developers of density functionals and basis sets usually get cited in chemistry papers
Good! But without the algorithms to do something with them, the functionals or basis sets would not do anything.
Hence, in our opinion, the algorithm design and method developments papers are equally worthy of getting cited

  1. Neese, F.
     An improvement of the resolution of the identity approximation for the formation of the Coulomb matrix
     J. Comp. Chem. 2003 24(14), 1740-1747
     doi.org/10.1002/jcc.10318
  2. Neese, F.; Wennmohs, F.; Hansen, A.; Becker, U.
     Efficient, approximate and parallel Hartree-Fock and hybrid DFT calculations. A 'chain-of-spheres' algorithm for the Hartree-Fock exchange
     Chem. Phys. 2009 356(1-3), 98-109
     doi.org/10.1016/j.chemphys.2008.10.036
  3. Grimme, S.; Antony, J.; Ehrlich, S.; Krieg, H.
     A consistent and accurate ab initio parametrization of density functional dispersion correction (DFT-D) for the 94 elements H-Pu
     J. Chem. Phys. 2010 132 , 154104
     doi.org/10.1063/1.3382344
  4. Grimme, S.; Ehrlich, S.; Goerigk, L.
     Effect of the damping function in dispersion corrected density functional theory
     J. Comput. Chem. 2011 32(7), 1456-1465
     doi.org/10.1002/jcc.21759
  5. Garcia-Rates, M.; Neese, F.
     Effect of the Solute Cavity on the Solvation Energy and its Derivatives within the Framework of the Gaussian Charge Scheme
     J. Comput. Chem. 2020 41 , 922-939
     doi.org/10.1002/jcc.26139
  6. Helmich-Paris, B.; de Souza, B.; Neese, F.; Izsák, R.
     An improved chain of spheres for exchange algorithm
     J. Chem. Phys. 2021 155(10), 104109
     doi.org/10.1063/5.0058766
  7. Neese, F.
     The SHARK Integral Generation and Digestion System
     J. Comp. Chem. 2022 44(3), 381
     doi.org/10.1002/jcc.26942

List of suggested additional citations. These are papers that are important in the 'surrounding' of 
of this run, or papers that preceded the highly important papers. If you like your results we are grateful for a citation.

  1. Izsak, R.; Neese, F.
     An overlap fitted chain of spheres exchange method
     J. Chem. Phys. 2011 135 , 144105
     doi.org/10.1063/1.3646921
  2. Izsak, R.; Hansen, A.; Neese, F.
     The resolution of identity and chain of spheres approximations for the LPNO-CCSD singles Fock term
     Molec. Phys. 2012 110 , 2413-2417
     doi.org/10.1080/00268976.2012.687466
  3. Neese, F.
     The ORCA program system
     WIRES Comput. Molec. Sci. 2012 2(1), 73-78
     doi.org/10.1002/wcms.81
  4. Izsak, R.; Neese, F.; Klopper, W.
     Robust fitting techniques in the chain of spheres approximation to the Fock exchange: The role of the complementary space
     J. Chem. Phys. 2013 139 , 
     doi.org/10.1063/1.4819264
  5. Neese, F.
     Software update: the ORCA program system, version 4.0
     WIRES Comput. Molec. Sci. 2018 8(1), 1-6
     doi.org/10.1002/wcms.1327
  6. Neese, F.; Wennmohs, F.; Becker, U.; Riplinger, C.
     The ORCA quantum chemistry program package
     J. Chem. Phys. 2020 152(22), 224108
     doi.org/10.1063/5.0004608
  7. Neese, F.
     Software update: The ORCA program system—Version 5.0
     WIRES Comput. Molec. Sci. 2022 12(1), e1606
     doi.org/10.1002/wcms.1606

List of optional additional citations

  1. Neese, F.
     Approximate second-order SCF convergence for spin unrestricted wavefunctions
     Chem. Phys. Lett. 2000 325(1-3), 93-98
     doi.org/10.1016/s0009-2614(00)00662-x

Timings for individual modules:

Sum of individual times          ...       22.096 sec (=   0.368 min)
Startup calculation              ...        1.949 sec (=   0.032 min)   8.8 %
SCF iterations                   ...       19.836 sec (=   0.331 min)  89.8 %
Property calculations            ...        0.311 sec (=   0.005 min)   1.4 %
                             ****ORCA TERMINATED NORMALLY****
TOTAL RUN TIME: 0 days 0 hours 0 minutes 22 seconds 449 msec
