50
 xtb: 6.7.1 (edcfbbe)
c           -0.45227841402254        0.01292799297932       -2.49650122431817
c            1.07360950004841        0.07895078585002       -2.58992572896405
c           -2.59497653050780        3.20929059819678        0.57236201860745
c           -3.71730307147801        2.64418011655278       -0.03076657324433
c           -3.64173342941465        1.36439530042883       -0.55546264755748
c           -2.45423520631591        0.62160376264522       -0.47519453539746
c           -1.32605067529259        1.15304544562854        0.18706585689070
c           -1.42958723609708        2.45807574010560        0.67927676771839
n           -2.37944906386063       -0.63247510543257       -1.07487683549920
c           -1.02717946378688       -1.00480338032935       -1.48062214909739
c           -0.15768322620577       -1.11422384948998       -0.19938625400730
c           -0.06956264325706        0.31046949478937        0.45891012952973
c            1.26741485097180       -1.48296954355615       -0.68183784891989
c            1.76509572537551       -0.11978633934806       -1.22519069608265
c            1.24492193590366        0.84191412012265       -0.16784509674055
c            3.24226079719221        0.11969472080024       -1.42783831248560
c            3.95541977699115        0.99483216821318       -0.71581336404977
c            3.42609021748695        1.68009953503601        0.52004912756474
n            2.27590567264351        0.85319912748201        1.00557992220717
c            1.41707705892929        1.35851266647407        2.12196833540045
c            0.23145482369540        0.39495271768444        2.00532728489414
o            2.75621904721626       -0.36221536383287        1.39068281292669
h            1.16840738390522        1.87809059588459       -0.51819202541031
c           -0.80094363463492       -2.15027544093163        0.69771234765688
o           -1.50510049569420       -1.91955585010613        1.65833359453285
o           -0.52387367953891       -3.39749869718336        0.26890937862430
c           -1.14107554483044       -4.46836944182775        1.02156505699566
h           -0.88128893246803       -0.21055836126865       -3.48084043329451
h           -0.81953185315697        1.00681282429648       -2.21967673183866
h            1.45999206266163       -0.70677642522807       -3.25209032018921
h            1.36866375477957        1.04094862373348       -3.02797052845110
h           -2.62616360132812        4.22067656956127        0.96578887063890
h           -4.64389095639179        3.20630057575307       -0.11010227720700
h           -4.50029741931025        0.92430157378341       -1.05835758153938
h           -0.57635211152014        2.91399820739522        1.17015838999401
h           -3.07839434043921       -0.77789604826633       -1.79172290674688
h           -1.06813067065380       -2.00370412684518       -1.92940821208662
h            1.88689814327415       -1.81899864068079        0.14634690679203
h            1.23083936630598       -2.24634046028225       -1.46639983144468
h            3.70678427312271       -0.38909208410582       -2.27186488343445
h            4.99528546998556        1.18917069501793       -0.96641566896057
h            3.10004391156944        2.71314053601406        0.33101274614193
h            4.17521349349841        1.68248703306612        1.31751288206499
h            1.97822647790042        1.26523969815365        3.05370257656438
h            1.15430240480849        2.40685848734807        1.94254961918272
h           -0.64088340386141        0.74710984949945        2.55691504374801
h            0.53068414594827       -0.57281215565509        2.40477439553987
h           -0.81314969670045       -5.38850267290461        0.53805891749778
h           -0.80723957153918       -4.44021671647722        2.06208749148693
h           -2.23012198043235       -4.37888018753603        0.98327774398814
