50
 energy: -75.235992034187 gnorm: 0.000596662246 xtb: 6.7.1 (edcfbbe)
C            1.96242101764236       -1.37602787990522       -2.16331790935074
C            2.65087696159448       -0.02154716204426       -2.03384352261216
C           -2.86419001994134       -1.51328257381400       -3.04065788140517
C           -2.57739055210681       -2.86670307813460       -3.07539903721661
C           -1.47702070796479       -3.34309116568409       -2.39583130825708
C           -0.66708826918279       -2.48622324462686       -1.65141391924439
C           -0.99239888851443       -1.12357705889824       -1.54537469633732
C           -2.08364866982413       -0.66690162850186       -2.27344427965541
N            0.46934834491957       -2.97334865193076       -1.03724010398654
C            1.50333689834003       -1.98808706406582       -0.82345678924359
C            0.91595417549068       -0.92558905086438        0.13083626244563
C           -0.25637646174047       -0.20334529178582       -0.58422459404915
C            2.00171092572132        0.13718684720192        0.35330001446067
C            1.96489497996962        0.87623288857904       -0.99464874149058
C            0.46136532594617        1.01276166196564       -1.20157699850969
C            2.58272289300468        2.24486043749482       -1.07385400922192
C            1.88501360432148        3.35662039836066       -1.25857303820530
C            0.38167483059988        3.40003343981496       -1.18458730782185
N           -0.00446495474538        2.21572670526415       -0.38939974936286
C           -1.43489432807489        1.90122602499894       -0.20632720119905
C           -1.31657327136082        0.47256380691456        0.33051537542571
O            0.52285111503328        2.36135254208740        0.82212045238189
H            0.18165720005650        1.19078653525460       -2.24209463806129
C            0.50460473674321       -1.65885185177247        1.39322568108201
O           -0.61963103674821       -1.92703008247239        1.72076929880949
O            1.58694134345251       -2.02149566728748        2.09342398786226
C            1.36057427759091       -2.74221180926136        3.29691431303044
H            2.63141232377504       -2.08230510576547       -2.66166148551106
H            1.08197894618379       -1.26005978515400       -2.79871094926588
H            3.68825133007674       -0.15515519405785       -1.71949797520965
H            2.66163495231108        0.46926618118878       -3.01063414794921
H           -3.70074658127425       -1.11701920717060       -3.59586941259370
H           -3.19516423125351       -3.54299518304148       -3.64698659747790
H           -1.21974173919536       -4.39230509768614       -2.43789654020254
H           -2.34498813637059        0.37900924187061       -2.24961199398479
H            0.77325443233837       -3.87703947565484       -1.36972590947594
H            2.34666857331463       -2.46991426962787       -0.31885979617094
H            1.71018642155555        0.83510924644061        1.13973655248532
H            2.96974050950433       -0.30644544923226        0.57518063317950
H            3.66199136383305        2.27786963058720       -1.04678325089452
H            2.37877651661560        4.30997491612958       -1.37018445808093
H           -0.09452276503650        3.40287343996737       -2.17154960948156
H            0.07072342482983        4.28535955608731       -0.62605217936721
H           -1.84957108014389        2.58774326487638        0.53021262663458
H           -1.98091237668765        1.97832435110922       -1.14768929790149
H           -2.25980115706637       -0.06646746689022        0.32964082357988
H           -0.94388388652572        0.54095176666871        1.35078314806371
H            2.23041682139242       -3.37644295766796        3.45401582458127
H            1.25059643002719       -2.04450652703061        4.12903764137273
H            0.45322843759632       -3.34256390282441        3.20866669340300
