  50
G(CENSO)=       -1149.18962895  G(xTB)=         -74.91207497        !CONF1
C   -0.4346298089   0.0324717973  -2.4899635166
C    1.0869608787   0.0412435738  -2.5933385194
C   -2.6076202290   3.1692512683   0.5873883801
C   -3.7238846367   2.5888726936   0.0109076171
C   -3.6278530926   1.3230293560  -0.5258519170
C   -2.4313074607   0.6092135516  -0.4705207255
C   -1.3132371528   1.1568807644   0.1803310832
C   -1.4296249655   2.4491350528   0.6762992493
N   -2.3374677311  -0.6271731199  -1.0781288286
C   -1.0010146364  -0.9931887367  -1.4855866348
C   -0.1501800362  -1.0786879320  -0.2000067318
C   -0.0606210429   0.3337271221   0.4361745196
C    1.2786154160  -1.4497044065  -0.6233162438
C    1.7593114578  -0.1179824950  -1.2225764966
C    1.2514531011   0.8640275849  -0.1739907287
C    3.2382892047   0.0913710878  -1.3946420370
C    3.9421285851   0.9715273756  -0.6969142694
C    3.3857326916   1.7015478904   0.4967837371
N    2.2578569256   0.8726049410   0.9710674075
C    1.4198430984   1.3590942591   2.0847475034
C    0.2408585990   0.3907006824   1.9604294849
O    2.7559982696  -0.3030645704   1.3399479477
H    1.1668629983   1.8878486162  -0.5444146508
C   -0.8089939743  -2.1135543936   0.6911836274
O   -1.4626307607  -1.8927657816   1.6744219628
O   -0.6008143824  -3.3467471465   0.2116010086
C   -1.1848112717  -4.4065274279   0.9556801043
H   -0.8684902405  -0.1626588978  -3.4740335712
H   -0.7681058758   1.0249538150  -2.1799354899
H    1.4260520681  -0.7838293366  -3.2234547619
H    1.4078146959   0.9728179433  -3.0669563812
H   -2.6545927529   4.1735183378   0.9802661640
H   -4.6573683360   3.1289805042  -0.0398606172
H   -4.4810311618   0.8671399388  -1.0086176562
H   -0.5829892777   2.9207660559   1.1491543109
H   -3.0770282545  -0.8294298255  -1.7352840349
H   -1.0341154053  -1.9887650372  -1.9392237286
H    1.8955004992  -1.6824099975   0.2460230282
H    1.2940755096  -2.2726663625  -1.3343870644
H    3.7060779602  -0.4739145490  -2.1872985746
H    4.9911583492   1.1278049106  -0.8975647131
H    3.0708549565   2.7246805402   0.2625812922
H    4.1341847238   1.7221688601   1.2916600580
H    1.9688249043   1.2261794940   3.0157006617
H    1.1502212583   2.4074121426   1.9487966385
H   -0.6280293290   0.6945505370   2.5374598332
H    0.5828957476  -0.5807253789   2.3122709950
H   -0.9690352114  -5.3195657896   0.4068529410
H   -0.7495376667  -4.4496599275   1.9557668263
H   -2.2622177308  -4.2551653200   1.0481585953
  50
G(CENSO)=       -1149.18938650  G(xTB)=         -74.91221697        !CONF2
C   -0.3585653602   0.1221983094  -2.5573562498
C    1.1614652980   0.2030585329  -2.6472265706
C   -2.6879807631   2.9140227975   0.7513508663
C   -3.7731231764   2.3370651241   0.1151218978
C   -3.6170507637   1.1264977366  -0.5250584270
C   -2.3903929492   0.4628966209  -0.5168843058
C   -1.3020879545   1.0011912023   0.1909230791
C   -1.4797965516   2.2406784750   0.7920186547
N   -2.2404227352  -0.7150145087  -1.2189441389
C   -0.8872593775  -0.9977447392  -1.6369751631
C   -0.0391687276  -1.1461560056  -0.3534741518
C   -0.0155055050   0.2145943676   0.3898455960
C    1.4055250636  -1.4216199540  -0.7938757062
C    1.8315500569  -0.0300403019  -1.2859904998
C    1.2742817137   0.8477186362  -0.1714128141
C    3.3006935233   0.2553146660  -1.4289178738
C    3.9612936170   1.1131658612  -0.6644329773
C    3.3664494328   1.7295219057   0.5741008055
N    2.2760925242   0.8172160555   0.9779756789
C    1.4132089932   1.1802097374   2.1192477409
C    0.2836531122   0.1667552480   1.9151305937
O    2.8245015661  -0.3580975914   1.2645872464
H    1.1439653675   1.8914963175  -0.4653901210
C   -0.6445191629  -2.3100915819   0.4064671538
O   -0.4138077743  -3.4642078458   0.1568707100
O   -1.5160676794  -1.9190405554   1.3382795570
C   -2.1756810967  -2.9564206844   2.0484260584
H   -0.7788928751  -0.0168851890  -3.5566649905
H   -0.7357422358   1.0738645591  -2.1767857955
H    1.5385448620  -0.5581463979  -3.3332441922
H    1.4445653100   1.1800881078  -3.0478909681
H   -2.7818228567   3.8786912554   1.2264035238
H   -4.7289396330   2.8389900338   0.0988348955
H   -4.4452589547   0.6770387726  -1.0551533728
H   -0.6588829954   2.7083599240   1.3116401577
H   -2.9653755779  -0.8989688713  -1.8971933796
H   -0.8775224459  -1.9584323173  -2.1618224789
H    2.0253959487  -1.7010040621   0.0591156170
H    1.4572025493  -2.1889589515  -1.5627154292
H    3.7970735746  -0.2312390290  -2.2554629665
H    5.0035267881   1.3289360172  -0.8437814681
H    3.0054018007   2.7514516986   0.4120484219
H    4.1093018699   1.7264016881   1.3744191414
H    1.9659278311   1.0052645029   3.0412164170
H    1.0924029211   2.2211722418   2.0603008016
H   -0.5970769625   0.3845886657   2.5134900724
H    0.6816401900  -0.8100420193   2.1868163756
H   -2.8840017398  -2.4674638682   2.7120036988
H   -2.6934430356  -3.6209494206   1.3540136516
H   -1.4534415955  -3.5421912707   2.6206872295
  50
G(CENSO)=       -1149.18703064  G(xTB)=         -74.91105638        !CONF3
C   -0.4281387361   0.1169242872  -2.5361531307
C    1.0941161515   0.1041292526  -2.6317037599
C   -2.5944086267   3.1622153373   0.6749421634
C   -3.7420117637   2.5797320483   0.1619289933
C   -3.6660668187   1.3378216619  -0.4289312680
C   -2.4542263176   0.6495509433  -0.4924191912
C   -1.3136742801   1.1763874685   0.1321042079
C   -1.4075315231   2.4539358999   0.6742085851
N   -2.3715933272  -0.4860432685  -1.2811275362
C   -1.0357699777  -0.9290829443  -1.5790002207
C   -0.1809109502  -1.0788075400  -0.2929429158
C   -0.0796507761   0.3215918863   0.3734319482
C    1.2403609443  -1.4578030969  -0.7216855666
C    1.7550721033  -0.1152113534  -1.2643461277
C    1.2540806028   0.8396899613  -0.1892427874
C    3.2394793987   0.0710810899  -1.4076373497
C    3.9503640233   0.9044041491  -0.6609551823
C    3.3919029391   1.5997561612   0.5528200818
N    2.2355011014   0.7827052099   0.9756891836
C    1.3850406062   1.2489224794   2.0900750159
C    0.1860172170   0.3151138998   1.9064289294
O    2.6969401473  -0.4164530105   1.3146695150
H    1.2006073296   1.8776814674  -0.5237504498
C   -0.8638158099  -2.0935770541   0.5941395567
O   -1.9101179368  -1.9080389917   1.1666834620
O   -0.2038751514  -3.2521889645   0.6340936530
C   -0.7731229880  -4.2722743896   1.4411168381
H   -0.8614106600  -0.0366661877  -3.5260830585
H   -0.7510933723   1.1010747114  -2.1960679369
H    1.4247304391  -0.7025399555  -3.2895836992
H    1.4308546714   1.0470313798  -3.0701487480
H   -2.6275928497   4.1547377758   1.0984329989
H   -4.6846563970   3.1046231023   0.2026611494
H   -4.5403782723   0.8819205048  -0.8690766719
H   -0.5398025811   2.9151532193   1.1199026250
H   -3.0684238611  -1.1930541009  -1.1072064422
H   -1.0891827531  -1.9025231502  -2.0775004194
H    1.8438677951  -1.7451311206   0.1401078807
H    1.2464750530  -2.2497296052  -1.4680339757
H    3.7086470599  -0.4699265494  -2.2161753225
H    5.0057041569   1.0457273246  -0.8383956216
H    3.1066936576   2.6390840489   0.3546277235
H    4.1271838255   1.5695971005   1.3596719960
H    1.9119220257   1.0703342070   3.0262544041
H    1.1376652546   2.3063435908   1.9881507360
H   -0.6871807272   0.6232612847   2.4764068719
H    0.4991109506  -0.6779746379   2.2280113911
H   -1.7148519582  -4.6181355478   1.0086816550
H   -0.0461746639  -5.0796056558   1.4674268499
H   -0.9676061198  -3.8954341145   2.4471051740
  50
G(CENSO)=       -1149.18461232  G(xTB)=         -74.90813744        !CONF6
C   -0.2815957582  -0.5263506425  -2.8089346141
C    0.7800429027   0.5281609132  -2.4873396675
C   -2.5820389456   3.0189794923   0.6926226043
C   -3.6153381169   2.5633168020  -0.1081637220
C   -3.4854571395   1.3567292025  -0.7593687523
C   -2.3314400796   0.5821075303  -0.6178116901
C   -1.2948848407   1.0172900497   0.2162673570
C   -1.4464257840   2.2450949703   0.8486957235
N   -2.2470009879  -0.6249671883  -1.2625956005
C   -0.9621825710  -1.1821884513  -1.5782835595
C   -0.0434258407  -1.1711832901  -0.3331008060
C   -0.0547038094   0.1792029427   0.4497051828
C    1.3875653184  -1.3188743574  -0.8758677741
C    1.6824795017   0.1313445745  -1.2962055565
C    1.2185824100   0.8663699996  -0.0559418525
C    3.1195840919   0.4963600877  -1.5276874839
C    3.8224839709   1.2386320728  -0.6821742482
C    3.3198897685   1.6932078184   0.6644484700
N    2.2492358594   0.7466191356   1.0493630259
C    1.4017542685   1.0379334389   2.2285570992
C    0.2404527203   0.0680143759   1.9738835155
O    2.8158246368  -0.4360553608   1.2500321482
H    1.0742674755   1.9358109515  -0.2265175266
C   -0.4950638111  -2.3547607374   0.5013228996
O   -0.0146131346  -3.4551079620   0.4533750736
O   -1.5650325608  -2.0482222598   1.2448476293
C   -2.1102307417  -3.1076707729   2.0165830259
H    0.1786840009  -1.3155542331  -3.4044470423
H   -1.0571659724  -0.0699721923  -3.4289832199
H    1.3918632921   0.6807550459  -3.3791936620
H    0.2927644979   1.4802318776  -2.2646653725
H   -2.6604500632   3.9685893920   1.1997476580
H   -4.5126292648   3.1512855604  -0.2310068343
H   -4.2801136809   0.9912304171  -1.3952863957
H   -0.6645580025   2.6193196645   1.4903834617
H   -2.9739927930  -0.8022525514  -1.9400313663
H   -1.1367122241  -2.2364382439  -1.8356949263
H    2.0760100862  -1.5919977895  -0.0730763655
H    1.4569058423  -2.0434623128  -1.6813743386
H    3.5675285563   0.1464724764  -2.4462223785
H    4.8476130762   1.4980977454  -0.9012650112
H    2.9607844815   2.7286104533   0.6466437424
H    4.1193346031   1.5959556419   1.4019528365
H    1.9615801353   0.7853311584   3.1279072151
H    1.1018236326   2.0867682611   2.2509473296
H   -0.6353396202   0.2899969139   2.5790205933
H    0.6064426048  -0.9308364788   2.2090433319
H   -2.9642655519  -2.6907541987   2.5439148690
H   -2.4222119198  -3.9291370777   1.3682990699
H   -1.3672219824  -3.4836124553   2.7230211755
  50
G(CENSO)=       -1149.18445501  G(xTB)=         -74.90765249        !CONF5
C   -0.4387554908  -0.5633564914  -2.7182348095
C    0.6924155224   0.4359218162  -2.4618747128
C   -2.4520182342   3.3094152229   0.5561261283
C   -3.5281304575   2.8692080979  -0.1955685529
C   -3.4901606844   1.6148003110  -0.7627672165
C   -2.3868640091   0.7770878337  -0.5832308113
C   -1.3100261458   1.1974742074   0.2053228774
C   -1.3679107638   2.4734204171   0.7521786016
N   -2.3861583528  -0.4713682489  -1.1500133983
C   -1.1415818534  -1.1186663372  -1.4498576546
C   -0.2071136189  -1.0994791414  -0.2156630770
C   -0.1276752880   0.2935169343   0.4884458406
C    1.2042127473  -1.3637312200  -0.7674042284
C    1.5846104137   0.0422640654  -1.2624709583
C    1.1849637301   0.8649622683  -0.0559145286
C    3.0400349037   0.2983613886  -1.5232094625
C    3.8017358894   1.0235838421  -0.7145488558
C    3.3459507376   1.5723679014   0.6132322283
N    2.2111339638   0.7288750915   1.0501525420
C    1.3951629379   1.1483144126   2.2130179165
C    0.1604393696   0.2594273492   2.0176006795
O    2.6903809176  -0.4814475332   1.3129104047
H    1.1135267836   1.9321738462  -0.2780340383
C   -0.7367905206  -2.1812004596   0.7069017999
O   -1.5978523575  -2.0316186929   1.5334855929
O   -0.1754115058  -3.3637816689   0.4367784795
C   -0.6182503758  -4.4593927876   1.2248162798
H   -0.0388406798  -1.4065718091  -3.2829597445
H   -1.1939847170  -0.0872385966  -3.3482980099
H    1.2998919553   0.5047149040  -3.3671371419
H    0.2692559724   1.4267211892  -2.2819617730
H   -2.4585643288   4.2949992654   0.9962942887
H   -4.3874041240   3.5056685133  -0.3457685240
H   -4.3193249727   1.2593622573  -1.3589543808
H   -0.5520900824   2.8362615147   1.3573741295
H   -3.1401831230  -0.6527568698  -1.7956176859
H   -1.3813658237  -2.1712262400  -1.6544727322
H    1.8889405934  -1.6343932515   0.0391567881
H    1.2177820821  -2.1273739653  -1.5391192146
H    3.4529874106  -0.1198043380  -2.4296731066
H    4.8401321286   1.2014014984  -0.9523236629
H    3.0644110391   2.6296462521   0.5494440865
H    4.1430337088   1.4505529251   1.3497791001
H    1.9392408522   0.9049486383   3.1243615947
H    1.1770153542   2.2167915731   2.1762261105
H   -0.6961333426   0.5876490418   2.6007030677
H    0.4370458314  -0.7469438852   2.3256491435
H   -0.1520925362  -5.3459748307   0.8029939781
H   -0.3099221744  -4.3249654298   2.2632731465
H   -1.7069555269  -4.5380452672   1.1890550350
