      -----------------------------------------------------------      
     |                   =====================                   |     
     |                           x T B                           |     
     |                   =====================                   |     
     |                         S. Grimme                         |     
     |          Mulliken Center for Theoretical Chemistry        |     
     |                    University of Bonn                     |     
      -----------------------------------------------------------      

   * xtb version 6.7.1 (edcfbbe) compiled by 'albert@albert-system' on 2024-07-22

   xtb is free software: you can redistribute it and/or modify it under
   the terms of the GNU Lesser General Public License as published by
   the Free Software Foundation, either version 3 of the License, or
   (at your option) any later version.
   
   xtb is distributed in the hope that it will be useful,
   but WITHOUT ANY WARRANTY; without even the implied warranty of
   MERCHANTABILITY or FITNESS FOR A PARTICULAR PURPOSE.  See the
   GNU Lesser General Public License for more details.
   
   Cite this work as:
   * C. Bannwarth, E. Caldeweyher, S. Ehlert, A. Hansen, P. Pracht,
     J. Seibert, S. Spicher, S. Grimme, WIREs Comput. Mol. Sci., 2020, 11,
     e01493. DOI: 10.1002/wcms.1493
   
   for GFN2-xTB:
   * C. Bannwarth, S. Ehlert and S. Grimme., J. Chem. Theory Comput., 2019,
     15, 1652-1671. DOI: 10.1021/acs.jctc.8b01176
   for GFN1-xTB:
   * S. Grimme, C. Bannwarth, P. Shushkov, J. Chem. Theory Comput., 2017,
     13, 1989-2009. DOI: 10.1021/acs.jctc.7b00118
   for GFN0-xTB:
   * P. Pracht, E. Caldeweyher, S. Ehlert, S. Grimme, ChemRxiv, 2019, preprint.
     DOI: 10.26434/chemrxiv.8326202.v1
   for GFN-FF:
   * S. Spicher and S. Grimme, Angew. Chem. Int. Ed., 2020, 59, 15665-15673.
     DOI: 10.1002/anie.202004239
   
   for ALPB and GBSA implicit solvation:
   * S. Ehlert, M. Stahn, S. Spicher, S. Grimme, J. Chem. Theory Comput.,
     2021, 17, 4250-4261. DOI: 10.1021/acs.jctc.1c00471
   
   for ddCOSMO and CPCM-X implicit solvation:
   * M. Stahn, S. Ehlert, S. Grimme, J. Phys. Chem. A,
     2023, XX, XXXX-XXXX. DOI: 10.1021/acs.jpca.3c04382
   
   for DFT-D4:
   * E. Caldeweyher, C. Bannwarth and S. Grimme, J. Chem. Phys., 2017,
     147, 034112. DOI: 10.1063/1.4993215
   * E. Caldeweyher, S. Ehlert, A. Hansen, H. Neugebauer, S. Spicher,
     C. Bannwarth and S. Grimme, J. Chem. Phys., 2019, 150, 154122.
     DOI: 10.1063/1.5090222
   * E. Caldeweyher, J.-M. Mewes, S. Ehlert and S. Grimme, Phys. Chem. Chem. Phys.
     2020, 22, 8499-8512. DOI: 10.1039/D0CP00502A
   
   for sTDA-xTB:
   * S. Grimme and C. Bannwarth, J. Chem. Phys., 2016, 145, 054103.
     DOI: 10.1063/1.4959605
   
   in the mass-spec context:
   * V. Asgeirsson, C. Bauer and S. Grimme, Chem. Sci., 2017, 8, 4879.
     DOI: 10.1039/c7sc00601b
   * J. Koopman and S. Grimme, ACS Omega 2019, 4, 12, 15120-15133.
     DOI: 10.1021/acsomega.9b02011
   
   for metadynamics refer to:
   * S. Grimme, J. Chem. Theory Comput., 2019, 155, 2847-2862
     DOI: 10.1021/acs.jctc.9b00143
   
   for SPH calculations refer to:
   * S. Spicher and S. Grimme, J. Chem. Theory Comput., 2021, 17, 1701-1714
     DOI: 10.1021/acs.jctc.0c01306
   
   for ONIOM refer to:
   * C. Plett, A. Katbashev, S. Ehlert, S. Grimme, M. Bursch,
     Phys. Chem. Chem. Phys., 2023, 25, 17860-17868. DOI: 10.1039/D3CP02178E
   
   for DIPRO refer to:
   * J. Kohn, N. Gildemeister, S. Grimme, D. Fazzi, A. Hansen,
     J. Chem. Phys., 2023, just accepted.
   
   for PTB refer to:
   * S. Grimme, M. Mueller, A. Hansen, J. Chem. Phys., 2023, 158, 124111.
     DOI: 10.1063/5.0137838
   
   with help from (in alphabetical order)
   P. Atkinson, C. Bannwarth, F. Bohle, G. Brandenburg, E. Caldeweyher
   M. Checinski, S. Dohm, S. Ehlert, S. Ehrlich, I. Gerasimov, C. Hölzer
   A. Katbashev, J. Kohn, J. Koopman, C. Lavigne, S. Lehtola, F. März, M. Müller,
   F. Musil, H. Neugebauer, J. Pisarek, C. Plett, P. Pracht, F. Pultar,
   J. Seibert, P. Shushkov, S. Spicher, M. Stahn, M. Steiner, T. Strunk,
   J. Stückrath, T. Rose, and J. Unsleber
   
 * started run on 2026/08/09 at 15:28:16.713     
   ID    Z sym.   atoms
    1    6 c      1-8, 10-13, 16
    2    8 o      9, 15
    3    1 h      14, 17-35

           -------------------------------------------------
          |                Calculation Setup                |
           -------------------------------------------------

          program call               : /home/dinglab/software/xtb_6.7.1/xtb_dist/bin/xtb coord --gfn2 --ohess vtight --alpb chcl3 --chrg 0 --enso --norestart -I xcontrol-inp --parallel 12
          hostname                   : localhost
          coordinate file            : coord
          omp threads                :                    12


           -------------------------------------------------
          |                 G F N 2 - x T B                 |
           -------------------------------------------------

        Reference                      10.1021/acs.jctc.8b01176
      * Hamiltonian:
        H0-scaling (s, p, d)           1.850000    2.230000    2.230000
        zeta-weighting                 0.500000
      * Dispersion:
        s8                             2.700000
        a1                             0.520000
        a2                             5.000000
        s9                             5.000000
      * Repulsion:
        kExp                           1.500000    1.000000
        rExp                           1.000000
      * Coulomb:
        alpha                          2.000000
        third order                    shell-resolved
        anisotropic                    true
        a3                             3.000000
        a5                             4.000000
        cn-shift                       1.200000
        cn-exp                         4.000000
        max-rad                        5.000000

      * Solvation model:               ALPB
        Solvent                        chcl3
        Parameter file                 internal GFN2-xTB/ALPB
        Dielectric constant                4.8100E+00
        Reference state                gsolv [1 M gas/solution]
        Free energy shift                  3.8910E-03 Eh       2.4417E+00 kcal/mol
        Temperature                        2.9815E+02 K
        Density                            1.4900E+00 kg/L
        Solvent mass                       1.1938E+02 g/mol
        Interaction kernel             P16
        Born radius scaling (c1)           1.3274E+00
        Born radii integrator          GBOBC
        Born offset                        0.0000E+00 a0       0.0000E+00 AA
        H-bond correction              false
        Ion screening                  false
        Surface tension                    1.0000E-05 Eh       1.5569E+01 dyn/cm
        Grid points                               974 per atom

          ...................................................
          :                      SETUP                      :
          :.................................................:
          :  # basis functions                  80          :
          :  # atomic orbitals                  80          :
          :  # shells                           50          :
          :  # electrons                        84          :
          :  max. iterations                   250          :
          :  Hamiltonian                  GFN2-xTB          :
          :  restarted?                      false          :
          :  GBSA solvation                   true          :
          :  PC potential                    false          :
          :  electronic temp.          300.0000000     K    :
          :  accuracy                    1.0000000          :
          :  -> integral cutoff          0.2500000E+02      :
          :  -> integral neglect         0.1000000E-07      :
          :  -> SCF convergence          0.1000000E-05 Eh   :
          :  -> wf. convergence          0.1000000E-03 e    :
          :  Broyden damping             0.4000000          :
          :  net charge                          0          :
          :  unpaired electrons                  0          :
          ...................................................

 iter      E             dE          RMSdq      gap      omega  full diag
   1    -46.7379076 -0.467379E+02  0.339E+00    5.20       0.0  T
   2    -46.7794043 -0.414968E-01  0.192E+00    5.18       1.0  T
   3    -46.7758792  0.352513E-02  0.762E-01    5.20       1.0  T
   4    -46.7812110 -0.533177E-02  0.336E-01    5.13       1.0  T
   5    -46.7832933 -0.208230E-02  0.756E-02    5.15       1.0  T
   6    -46.7833268 -0.335567E-04  0.407E-02    5.15       1.0  T
   7    -46.7833326 -0.574032E-05  0.113E-02    5.15       1.5  T
   8    -46.7833334 -0.853415E-06  0.307E-03    5.15       5.5  T
   9    -46.7833335 -0.263389E-07  0.168E-03    5.15      10.0  T
  10    -46.7833335 -0.240078E-07  0.804E-04    5.15      21.0  T
  11    -46.7833335 -0.625646E-08  0.318E-04    5.15      53.1  T

   *** convergence criteria satisfied after 11 iterations ***

         #    Occupation            Energy/Eh            Energy/eV
      -------------------------------------------------------------
         1        2.0000           -0.6998216             -19.0431
       ...           ...                  ...                  ...
        36        2.0000           -0.4298270             -11.6962
        37        2.0000           -0.4219287             -11.4813
        38        2.0000           -0.4153970             -11.3035
        39        2.0000           -0.4091581             -11.1338
        40        2.0000           -0.4025625             -10.9543
        41        2.0000           -0.3893498             -10.5947
        42        2.0000           -0.3872344             -10.5372 (HOMO)
        43                         -0.1978217              -5.3830 (LUMO)
        44                         -0.1967061              -5.3526
        45                          0.0143641               0.3909
        46                          0.0201167               0.5474
        47                          0.0399001               1.0857
       ...                                ...                  ...
        80                          0.6541275              17.7997
      -------------------------------------------------------------
                  HL-Gap            0.1894127 Eh            5.1542 eV
             Fermi-level           -0.2925280 Eh           -7.9601 eV

 SCC (total)                   0 d,  0 h,  0 min,  0.081 sec
 SCC setup                      ...        0 min,  0.001 sec (  0.994%)
 Dispersion                     ...        0 min,  0.000 sec (  0.466%)
 classical contributions        ...        0 min,  0.000 sec (  0.033%)
 integral evaluation            ...        0 min,  0.002 sec (  2.036%)
 iterations                     ...        0 min,  0.074 sec ( 91.287%)
 molecular gradient             ...        0 min,  0.004 sec (  4.960%)
 printout                       ...        0 min,  0.000 sec (  0.184%)

         :::::::::::::::::::::::::::::::::::::::::::::::::::::
         ::                     SUMMARY                     ::
         :::::::::::::::::::::::::::::::::::::::::::::::::::::
         :: total energy             -46.160796400985 Eh    ::
         :: total w/o Gsasa/hb       -46.148594234184 Eh    ::
         :: gradient norm              0.007272122522 Eh/a0 ::
         :: HOMO-LUMO gap              5.154181700624 eV    ::
         ::.................................................::
         :: SCC energy               -46.782668743831 Eh    ::
         :: -> isotropic ES            0.061657114424 Eh    ::
         :: -> anisotropic ES          0.006126637856 Eh    ::
         :: -> anisotropic XC          0.017037048619 Eh    ::
         :: -> dispersion             -0.036241617765 Eh    ::
         :: -> Gsolv                  -0.019950387170 Eh    ::
         ::    -> Gelec               -0.007748220369 Eh    ::
         ::    -> Gsasa               -0.016093186044 Eh    ::
         ::    -> Ghb                  0.000000000000 Eh    ::
         ::    -> Gshift               0.003891019244 Eh    ::
         :: repulsion energy           0.621872342846 Eh    ::
         :: add. restraining           0.000000000000 Eh    ::
         :: total charge              -0.000000000000 e     ::
         :::::::::::::::::::::::::::::::::::::::::::::::::::::

      ----------------------------------------------------------- 
     |                   =====================                   |
     |                        A N C O P T                        |
     |                   =====================                   |
     |               Approximate Normal Coordinate               |
     |                Rational Function Optimizer                |
      ----------------------------------------------------------- 
      ----------------------------------------------------------- 
     |                   =====================                   |
     |                        A N C O P T                        |
     |                   =====================                   |
     |               Approximate Normal Coordinate               |
     |                Rational Function Optimizer                |
      ----------------------------------------------------------- 

          ...................................................
          :                      SETUP                      :
          :.................................................:
          :   optimization level         verytight          :
          :   max. optcycles                   700          :
          :   ANC micro-cycles                  20          :
          :   degrees of freedom                99          :
          :.................................................:
          :   RF solver                   davidson          :
          :   write xtbopt.log                true          :
          :   linear?                        false          :
          :   energy convergence         0.1000000E-06 Eh   :
          :   grad. convergence          0.2000000E-03 Eh/α :
          :   maxmium RF displ.          1.0000000          :
          :   Hlow (freq-cutoff)         0.1000000E-01      :
          :   Hmax (freq-cutoff)         5.0000000          :
          :   S6 in model hess.         20.0000000          :
          ...................................................

generating ANC from exact Hessian ...
Using Lindh-Hessian (1995)
 Shifting diagonal of input Hessian by   8.784390556444329E-003
 Lowest  eigenvalues of input Hessian
    0.000000    0.000000    0.000000    0.000000    0.000000    0.000000
    0.010000    0.010565    0.010933    0.012689    0.012910    0.014010
    0.015621    0.016902    0.017522    0.018984    0.019588    0.020331
 Highest eigenvalues
    1.492638    1.503815    1.512689    1.526051    1.925400    1.973250
 

........................................................................
.............................. CYCLE    1 ..............................
........................................................................

 iter      E             dE          RMSdq      gap      omega  full diag
   1    -46.7833335 -0.467833E+02  0.852E-05    5.15       0.0  T
   2    -46.7833335 -0.249685E-10  0.546E-05    5.15     309.7  T
   3    -46.7833335  0.937916E-12  0.363E-05    5.15     466.1  T
     SCC iter.                  ...        0 min,  0.005 sec
     gradient                   ...        0 min,  0.003 sec
 * total energy  :   -46.1607964 Eh     change       -0.8906582E-09 Eh
   gradient norm :     0.0072726 Eh/α   predicted     0.0000000E+00 (-100.00%)
   displ. norm   :     0.0295092 α      lambda       -0.6214701E-04
   maximum displ.:     0.0170890 α      in ANC's #4, #2, #7, ...

........................................................................
.............................. CYCLE    2 ..............................
........................................................................

 iter      E             dE          RMSdq      gap      omega  full diag
   1    -46.7819902 -0.467820E+02  0.118E-02    5.15       0.0  T
   2    -46.7819905 -0.349348E-06  0.715E-03    5.15       2.4  T
   3    -46.7819904  0.104049E-06  0.379E-03    5.15       4.5  T
   4    -46.7819906 -0.190691E-06  0.980E-04    5.15      17.2  T
   5    -46.7819906 -0.207338E-07  0.292E-04    5.15      57.8  T
     SCC iter.                  ...        0 min,  0.007 sec
     gradient                   ...        0 min,  0.004 sec
 * total energy  :   -46.1608425 Eh     change       -0.4607840E-04 Eh
   gradient norm :     0.0035794 Eh/α   predicted    -0.3253422E-04 ( -29.39%)
   displ. norm   :     0.0332299 α      lambda       -0.2839375E-04
   maximum displ.:     0.0221485 α      in ANC's #4, #2, #7, ...

........................................................................
.............................. CYCLE    3 ..............................
........................................................................

 iter      E             dE          RMSdq      gap      omega  full diag
   1    -46.7812699 -0.467813E+02  0.122E-02    5.15       0.0  T
   2    -46.7812702 -0.319981E-06  0.726E-03    5.15       2.3  T
   3    -46.7812701  0.748387E-07  0.318E-03    5.15       5.3  T
   4    -46.7812703 -0.128892E-06  0.889E-04    5.15      19.0  T
   5    -46.7812703 -0.169858E-07  0.292E-04    5.15      57.9  T
     SCC iter.                  ...        0 min,  0.007 sec
     gradient                   ...        0 min,  0.004 sec
 * total energy  :   -46.1608582 Eh     change       -0.1571929E-04 Eh
   gradient norm :     0.0009519 Eh/α   predicted    -0.1421344E-04 (  -9.58%)
   displ. norm   :     0.0218920 α      lambda       -0.3161796E-05
   maximum displ.:     0.0135616 α      in ANC's #2, #4, #3, ...

........................................................................
.............................. CYCLE    4 ..............................
........................................................................

 iter      E             dE          RMSdq      gap      omega  full diag
   1    -46.7814617 -0.467815E+02  0.830E-03    5.15       0.0  T
   2    -46.7814618 -0.405480E-07  0.492E-03    5.15       3.4  T
   3    -46.7814618  0.190708E-07  0.109E-03    5.15      15.4  T
   4    -46.7814618 -0.261176E-07  0.275E-04    5.15      61.5  T
   5    -46.7814618 -0.136628E-08  0.119E-04    5.15     142.6  T
     SCC iter.                  ...        0 min,  0.007 sec
     gradient                   ...        0 min,  0.004 sec
 * total energy  :   -46.1608609 Eh     change       -0.2669595E-05 Eh
   gradient norm :     0.0007163 Eh/α   predicted    -0.1778659E-05 ( -33.37%)
   displ. norm   :     0.0237959 α      lambda       -0.2556112E-05
   maximum displ.:     0.0129005 α      in ANC's #4, #2, #3, ...

........................................................................
.............................. CYCLE    5 ..............................
........................................................................

 iter      E             dE          RMSdq      gap      omega  full diag
   1    -46.7817343 -0.467817E+02  0.917E-03    5.15       0.0  T
   2    -46.7817343 -0.758392E-08  0.542E-03    5.15       3.1  T
   3    -46.7817343  0.139556E-07  0.803E-04    5.15      21.0  T
   4    -46.7817343 -0.175641E-07  0.150E-04    5.15     112.6  T
     SCC iter.                  ...        0 min,  0.005 sec
     gradient                   ...        0 min,  0.004 sec
 * total energy  :   -46.1608630 Eh     change       -0.2089330E-05 Eh
   gradient norm :     0.0007765 Eh/α   predicted    -0.1278710E-05 ( -38.80%)
   displ. norm   :     0.0192540 α      lambda       -0.1359304E-05
   maximum displ.:     0.0115299 α      in ANC's #3, #2, #4, ...

........................................................................
.............................. CYCLE    6 ..............................
........................................................................

 iter      E             dE          RMSdq      gap      omega  full diag
   1    -46.7817673 -0.467818E+02  0.754E-03    5.15       0.0  T
   2    -46.7817673 -0.121058E-07  0.443E-03    5.15       3.8  T
   3    -46.7817673  0.132098E-07  0.773E-04    5.15      21.9  T
   4    -46.7817673 -0.161461E-07  0.182E-04    5.15      92.7  T
     SCC iter.                  ...        0 min,  0.005 sec
     gradient                   ...        0 min,  0.004 sec
 * total energy  :   -46.1608645 Eh     change       -0.1496798E-05 Eh
   gradient norm :     0.0004868 Eh/α   predicted    -0.7009274E-06 ( -53.17%)
   displ. norm   :     0.0276331 α      lambda       -0.1201649E-05
   maximum displ.:     0.0152919 α      in ANC's #3, #4, #2, ...

........................................................................
.............................. CYCLE    7 ..............................
........................................................................

 iter      E             dE          RMSdq      gap      omega  full diag
   1    -46.7816229 -0.467816E+02  0.108E-02    5.15       0.0  T
   2    -46.7816229 -0.109430E-07  0.633E-03    5.15       2.7  T
   3    -46.7816229  0.192115E-07  0.888E-04    5.15      19.0  T
   4    -46.7816230 -0.232932E-07  0.166E-04    5.15     101.6  T
     SCC iter.                  ...        0 min,  0.005 sec
     gradient                   ...        0 min,  0.004 sec
 * total energy  :   -46.1608656 Eh     change       -0.1097074E-05 Eh
   gradient norm :     0.0001642 Eh/α   predicted    -0.6022051E-06 ( -45.11%)
   displ. norm   :     0.0129560 α      lambda       -0.2856088E-06
   maximum displ.:     0.0074856 α      in ANC's #3, #4, #5, ...

........................................................................
.............................. CYCLE    8 ..............................
........................................................................

 iter      E             dE          RMSdq      gap      omega  full diag
   1    -46.7815990 -0.467816E+02  0.548E-03    5.15       0.0  T
   2    -46.7815990 -0.162689E-08  0.322E-03    5.15       5.3  T
   3    -46.7815990  0.261608E-08  0.351E-04    5.15      48.2  T
   4    -46.7815990 -0.353241E-08  0.717E-05    5.15     235.9  T
     SCC iter.                  ...        0 min,  0.005 sec
     gradient                   ...        0 min,  0.004 sec
 * total energy  :   -46.1608657 Eh     change       -0.1828422E-06 Eh
   gradient norm :     0.0001664 Eh/α   predicted    -0.1456753E-06 ( -20.33%)
   displ. norm   :     0.0058767 α      lambda       -0.1399143E-06
   maximum displ.:     0.0032638 α      in ANC's #3, #5, #4, ...

........................................................................
.............................. CYCLE    9 ..............................
........................................................................

 iter      E             dE          RMSdq      gap      omega  full diag
   1    -46.7816253 -0.467816E+02  0.250E-03    5.15       0.0  T
   2    -46.7816253 -0.429630E-09  0.148E-03    5.15      11.4  T
   3    -46.7816253  0.749218E-09  0.189E-04    5.15      89.5  T
   4    -46.7816253 -0.100698E-08  0.396E-05    5.15     426.9  T
     SCC iter.                  ...        0 min,  0.005 sec
     gradient                   ...        0 min,  0.004 sec
 * total energy  :   -46.1608658 Eh     change       -0.8847410E-07 Eh
   gradient norm :     0.0000881 Eh/α   predicted    -0.7119208E-07 ( -19.53%)
   displ. norm   :     0.0020552 α      lambda       -0.4124692E-07
   maximum displ.:     0.0010925 α      in ANC's #2, #1, #5, ...

   *** GEOMETRY OPTIMIZATION CONVERGED AFTER 9 ITERATIONS ***

------------------------------------------------------------------------
 total energy gain   :        -0.0000694 Eh       -0.0436 kcal/mol
 total RMSD          :         0.0253828 a0        0.0134 Å
 total power (kW/mol):        -0.0202521 (step)   -1.1139 (real)
------------------------------------------------------------------------

 ANCopt (total)                0 d,  0 h,  0 min,  0.164 sec
 optimizer setup                ...        0 min,  0.000 sec (  0.099%)
 model hessian                  ...        0 min,  0.053 sec ( 32.174%)
 ANC generation                 ...        0 min,  0.002 sec (  1.064%)
 coordinate transformation      ...        0 min,  0.000 sec (  0.090%)
 single point calculation       ...        0 min,  0.106 sec ( 65.013%)
 optimization log               ...        0 min,  0.001 sec (  0.790%)
 hessian update                 ...        0 min,  0.000 sec (  0.082%)
 rational function              ...        0 min,  0.001 sec (  0.379%)

================
 final structure:
================
$coord
        0.17844100098234       -1.17930429094662        0.20096813271051      c
       -1.76867183821850        0.75330245346122        1.23565344912806      c
       -0.60701639276277        3.42242820099610        1.39281817913865      c
        1.09085452285204        4.16452854606939       -0.82632467083882      c
        2.83041713077488        1.97114819852210       -1.55760701906734      c
        1.19027654250300       -0.26502499646419       -2.37442737492509      c
        2.58374560089252       -1.12637635585109        1.84503081873808      c
        4.16032463739758        0.97747903417387        0.75376795452199      c
        2.74900793136364       -2.06052798489768       -3.61556465388904      o
       -0.95025354470900       -3.84559822036214        0.04803841972325      c
        6.32876818689203        1.80970897455195        1.66465773138049      c
       -4.29968158102277        0.68607712555383       -0.10755912892460      c
       -4.81753202913396        1.82520378000304       -2.27605454532430      c
       -2.16590854952301        0.16341824905725        3.18160923467540      h
       -1.85381406825155       -4.75672935158754        2.38959249829551      o
       -6.33458570407825       -0.69936150933230        1.30616876107063      c
       -2.13347516273456        4.79708355954501        1.58106358414856      h
        0.52961274938535        3.52388035093094        3.11163855779969      h
       -0.02515042386490        4.71669965891506       -2.46775176109421      h
        2.23457610512543        5.79095485691392       -0.27616316384314      h
        4.14463891742910        2.53178388622485       -3.04435885034409      h
       -0.34025547219440        0.30287308773330       -3.64172836275867      h
        3.61286914386096       -2.90752419872047        1.64488766763128      h
        2.18369794502060       -0.82946765989977        3.84477777842678      h
        1.69170028940051       -3.33309676577020       -4.37703548279112      h
        0.48594861838787       -5.15156440634118       -0.69173693218877      h
       -2.57768321361346       -3.86150761753003       -1.22412663230505      h
        7.15952114639093        1.02404991967554        3.34930758481624      h
        7.36514654302578        3.30741109077991        0.75756347498050      h
       -6.68184211118450        1.72165990199224       -3.09211075454223      h
       -3.46972600270236        2.92326936288870       -3.32494275614532      h
       -0.46360474247771       -4.75268016203575        3.57234196131598      h
       -5.67055131538167       -2.54104645908638        1.93262928673158      h
       -6.85401826241420        0.37671600010110        2.98576791797020      h
       -8.01366499155193       -0.94351391752081        0.14792527175911      h
$end
 
 Bond Distances (Angstroems)
 ---------------------------
C1-C2=1.5516         C1-C6=1.5421         C1-C7=1.5420         C1-C10=1.5343        C2-C1=1.5516         C2-C3=1.5427         
C2-C12=1.5167        C2-H14=1.0964        C3-C2=1.5427         C3-C4=1.5299         C3-H17=1.0916        C3-H18=1.0918        
C4-C3=1.5299         C4-C5=1.5311         C4-H19=1.0902        C4-H20=1.0917        C5-C4=1.5311         C5-C6=1.5298         
C5-C8=1.5059         C5-H21=1.0912        C6-C1=1.5421         C6-C5=1.5298         C6-O9=1.4193         C6-H22=1.0936        
C7-C1=1.5420         C7-C8=1.5063         C7-H23=1.0937        C7-H24=1.0906        C8-C5=1.5059         C8-C7=1.5063         
C8-C11=1.3202        O9-C6=1.4193         O9-H25=0.9638        C10-C1=1.5343        C10-O15=1.4130       C10-H26=1.0993       
C10-H27=1.0931       C11-C8=1.3202        C11-H28=1.0774       C11-H29=1.0767       C12-C2=1.5167        C12-C13=1.3249       
C12-C16=1.5022       C13-C12=1.3249       C13-H30=1.0783       C13-H31=1.0744       H14-C2=1.0964        O15-C10=1.4130       
O15-H32=0.9659       C16-C12=1.5022       C16-H33=1.0877       C16-H34=1.0908       C16-H35=1.0871       H17-C3=1.0916        
H18-C3=1.0918        H19-C4=1.0902        H20-C4=1.0917        H21-C5=1.0912        H22-C6=1.0936        H23-C7=1.0937        
H24-C7=1.0906        H25-O9=0.9638        H26-C10=1.0993       H27-C10=1.0931       H28-C11=1.0774       H29-C11=1.0767       
H30-C13=1.0783       H31-C13=1.0744       H32-O15=0.9659       H33-C16=1.0877       H34-C16=1.0908       H35-C16=1.0871       
 C  H  Rav=1.0887 sigma=0.0069  Rmin=1.0744  Rmax=1.0993    18
 C  C  Rav=1.4986 sigma=0.0733  Rmin=1.3202  Rmax=1.5516    14
 O  H  Rav=0.9648 sigma=0.0010  Rmin=0.9638  Rmax=0.9659     2
 O  C  Rav=1.4161 sigma=0.0032  Rmin=1.4130  Rmax=1.4193     2
 
 selected bond angles (degree)
 --------------------
C6-C1-C2=109.61                C7-C1-C2=109.70                C7-C1-C6=101.91                C10-C1-C2=111.48               
C10-C1-C6=112.15               C10-C1-C7=111.58               C3-C2-C1=110.97                C12-C2-C1=113.93               
C12-C2-C3=113.49               H14-C2-C1=105.73               H14-C2-C3=106.65               H14-C2-C12=105.32              
C4-C3-C2=115.32                H17-C3-C2=108.67               H17-C3-C4=109.49               H18-C3-C2=108.03               
H18-C3-C4=107.66               H18-C3-H17=107.39              C5-C4-C3=110.64                H19-C4-C3=111.24               
H19-C4-C5=109.12               H20-C4-C3=108.86               H20-C4-C5=109.37               H20-C4-H19=107.55              
C6-C5-C4=108.46                C8-C5-C4=109.90                C8-C5-C6=102.98                H21-C5-C4=111.06               
H21-C5-C6=111.60               H21-C5-C8=112.50               C5-C6-C1=100.95                O9-C6-C1=113.62                
O9-C6-C5=108.59                H22-C6-C1=111.78               H22-C6-C5=112.39               H22-C6-O9=109.30               
C8-C7-C1=104.73                H23-C7-C1=109.92               H23-C7-C8=108.91               H24-C7-C1=112.95               
H24-C7-C8=111.90               H24-C7-H23=108.35              C7-C8-C5=108.10                C11-C8-C5=125.89               
C11-C8-C7=126.01               H25-O9-C6=108.89               O15-C10-C1=113.53              H26-C10-C1=109.13              
H26-C10-O15=109.37             H27-C10-C1=110.26              H27-C10-O15=105.71             H27-C10-H26=108.69             
 
 selected dihedral angles (degree)
 ---------------------------------
C3-C2-C1-C6=304.49            C3-C2-C1-C7= 55.60            C3-C2-C1-C10=179.71           C12-C2-C1-C6= 74.07           
C12-C2-C1-C7=185.18           C12-C2-C1-C10=309.29          H14-C2-C1-C6=189.24           H14-C2-C1-C7=300.35           
H14-C2-C1-C10= 64.46          C4-C3-C2-C1= 40.19            C4-C3-C2-C12=270.39           C4-C3-C2-H14=154.88           
H17-C3-C2-C1=163.52           H17-C3-C2-C12= 33.71          H17-C3-C2-H14=278.21          H18-C3-C2-C1=279.74           
H18-C3-C2-C12=149.93          H18-C3-C2-H14= 34.42          C5-C4-C3-C2=317.02            C5-C4-C3-H17=194.12           
C5-C4-C3-H18= 77.68           H19-C4-C3-C2= 78.48           H19-C4-C3-H17=315.58          H19-C4-C3-H18=199.13          
H20-C4-C3-C2=196.81           H20-C4-C3-H17= 73.91          H20-C4-C3-H18=317.46          C6-C5-C4-C3= 61.28            
C6-C5-C4-H19=298.59           C6-C5-C4-H20=181.19           C8-C5-C4-C3=309.41            C8-C5-C4-H19=186.71           
C8-C5-C4-H20= 69.32           H21-C5-C4-C3=184.27           H21-C5-C4-H19= 61.57          H21-C5-C4-H20=304.18          
C5-C6-C1-C2= 71.30            C5-C6-C1-C7=315.14            C5-C6-C1-C10=195.69           O9-C6-C1-C2=187.34            
O9-C6-C1-C7= 71.18            O9-C6-C1-C10=311.73           H22-C6-C1-C2=311.62           H22-C6-C1-C7=195.47           
H22-C6-C1-C10= 76.02          C1-C6-C5-C4=285.86            C1-C6-C5-C8= 42.29            C1-C6-C5-H21=163.20           
O9-C6-C5-C4=166.14            O9-C6-C5-C8=282.57            O9-C6-C5-H21= 43.48           H22-C6-C5-C4= 45.09           
H22-C6-C5-C8=161.52           H22-C6-C5-H21=282.43          C8-C7-C1-C2=274.40            C8-C7-C1-C6= 30.49            
C8-C7-C1-C10=150.34           H23-C7-C1-C2=157.54           H23-C7-C1-C6=273.64           H23-C7-C1-C10= 33.49          
H24-C7-C1-C2= 36.41           H24-C7-C1-C6=152.51           H24-C7-C1-C10=272.36          C7-C8-C5-C4= 91.58            
C7-C8-C5-C6=336.18            C7-C8-C5-H21=215.88           C11-C8-C5-C4=271.67           C11-C8-C5-C6=156.26           
C11-C8-C5-H21= 35.97          C5-C8-C7-C1=355.66            C5-C8-C7-H23=113.20           C5-C8-C7-H24=232.96           
C11-C8-C7-C1=175.57           C11-C8-C7-H23=293.12          C11-C8-C7-H24= 52.88          H25-O9-C6-C1= 77.94           
H25-O9-C6-C5=189.41           H25-O9-C6-H22=312.34          O15-C10-C1-C2=302.27          O15-C10-C1-C6=178.92          
O15-C10-C1-C7= 65.31          H26-C10-C1-C2=179.99          H26-C10-C1-C6= 56.64          H26-C10-C1-C7=303.03          
H27-C10-C1-C2= 60.67          H27-C10-C1-C6=297.33          H27-C10-C1-C7=183.71          
           -------------------------------------------------
          |                Final Singlepoint                |
           -------------------------------------------------

          ...................................................
          :                      SETUP                      :
          :.................................................:
          :  # basis functions                  80          :
          :  # atomic orbitals                  80          :
          :  # shells                           50          :
          :  # electrons                        84          :
          :  max. iterations                   250          :
          :  Hamiltonian                  GFN2-xTB          :
          :  restarted?                      false          :
          :  GBSA solvation                   true          :
          :  PC potential                    false          :
          :  electronic temp.          300.0000000     K    :
          :  accuracy                    1.0000000          :
          :  -> integral cutoff          0.2500000E+02      :
          :  -> integral neglect         0.1000000E-07      :
          :  -> SCF convergence          0.1000000E-05 Eh   :
          :  -> wf. convergence          0.1000000E-03 e    :
          :  Broyden damping             0.4000000          :
          :  net charge                          0          :
          :  unpaired electrons                  0          :
          ...................................................

 iter      E             dE          RMSdq      gap      omega  full diag
   1    -46.7816253 -0.467816E+02  0.202E-05    5.15       0.0  T
   2    -46.7816253 -0.145661E-11  0.129E-05    5.15    1307.7  T
   3    -46.7816253  0.120792E-12  0.757E-06    5.15    2233.2  T

   *** convergence criteria satisfied after 3 iterations ***

         #    Occupation            Energy/Eh            Energy/eV
      -------------------------------------------------------------
         1        2.0000           -0.6990338             -19.0217
       ...           ...                  ...                  ...
        36        2.0000           -0.4300815             -11.7031
        37        2.0000           -0.4221237             -11.4866
        38        2.0000           -0.4155056             -11.3065
        39        2.0000           -0.4093700             -11.1395
        40        2.0000           -0.4029667             -10.9653
        41        2.0000           -0.3894039             -10.5962
        42        2.0000           -0.3874355             -10.5427 (HOMO)
        43                         -0.1982220              -5.3939 (LUMO)
        44                         -0.1969696              -5.3598
        45                          0.0120794               0.3287
        46                          0.0158323               0.4308
        47                          0.0393621               1.0711
       ...                                ...                  ...
        80                          0.6521174              17.7450
      -------------------------------------------------------------
                  HL-Gap            0.1892135 Eh            5.1488 eV
             Fermi-level           -0.2928288 Eh           -7.9683 eV

 SCC (total)                   0 d,  0 h,  0 min,  0.010 sec
 SCC setup                      ...        0 min,  0.001 sec (  6.501%)
 Dispersion                     ...        0 min,  0.000 sec (  1.713%)
 classical contributions        ...        0 min,  0.000 sec (  0.208%)
 integral evaluation            ...        0 min,  0.001 sec ( 12.716%)
 iterations                     ...        0 min,  0.004 sec ( 39.805%)
 molecular gradient             ...        0 min,  0.004 sec ( 37.626%)
 printout                       ...        0 min,  0.000 sec (  1.099%)

         :::::::::::::::::::::::::::::::::::::::::::::::::::::
         ::                     SUMMARY                     ::
         :::::::::::::::::::::::::::::::::::::::::::::::::::::
         :: total energy             -46.160865823687 Eh    ::
         :: total w/o Gsasa/hb       -46.148640483927 Eh    ::
         :: gradient norm              0.000088394049 Eh/a0 ::
         :: HOMO-LUMO gap              5.148762370714 eV    ::
         ::.................................................::
         :: SCC energy               -46.780961041938 Eh    ::
         :: -> isotropic ES            0.062168312226 Eh    ::
         :: -> anisotropic ES          0.006142340539 Eh    ::
         :: -> anisotropic XC          0.017208520999 Eh    ::
         :: -> dispersion             -0.036181695431 Eh    ::
         :: -> Gsolv                  -0.020108889747 Eh    ::
         ::    -> Gelec               -0.007883549986 Eh    ::
         ::    -> Gsasa               -0.016116359005 Eh    ::
         ::    -> Ghb                  0.000000000000 Eh    ::
         ::    -> Gshift               0.003891019244 Eh    ::
         :: repulsion energy           0.620095218251 Eh    ::
         :: add. restraining           0.000000000000 Eh    ::
         :: total charge               0.000000000000 e     ::
         :::::::::::::::::::::::::::::::::::::::::::::::::::::

           ------------------------------------------------- 
          |                Numerical Hessian                |
           ------------------------------------------------- 
step length          :   0.00500
SCC accuracy         :   0.30000
Hessian scale factor :   1.00000
frozen atoms in %    :   0.00000    0
RMS gradient         :   0.00009
estimated CPU  time      1.57 min
estimated wall time      0.13 min

writing file <hessian>.

 projected vibrational frequencies (cm⁻¹)
eigval :       -0.00    -0.00    -0.00    -0.00     0.00     0.00
eigval :       64.42    91.35   119.50   122.60   143.03   166.95
eigval :      180.55   217.50   250.43   271.99   283.79   299.74
eigval :      307.99   312.56   333.20   351.87   395.82   422.59
eigval :      436.16   458.67   504.55   538.02   554.85   608.32
eigval :      678.27   685.93   716.61   724.46   801.50   825.52
eigval :      878.57   887.24   892.07   895.17   912.79   934.08
eigval :      941.70   952.40   955.29   995.77  1022.81  1039.25
eigval :     1051.20  1053.68  1063.48  1079.37  1094.79  1100.99
eigval :     1120.67  1136.70  1157.19  1170.08  1193.74  1203.68
eigval :     1215.67  1232.40  1249.39  1258.17  1261.69  1279.38
eigval :     1292.41  1308.35  1316.49  1327.53  1345.48  1349.19
eigval :     1351.31  1364.38  1402.61  1413.26  1423.56  1451.73
eigval :     1476.00  1477.30  1480.90  1490.89  1494.51  1720.47
eigval :     1741.07  2878.06  2920.20  2936.93  2946.33  2965.76
eigval :     2973.07  2973.99  2975.74  2979.63  2987.73  2991.58
eigval :     2994.37  3038.77  3042.17  3093.89  3098.46  3120.09
eigval :     3140.42  3515.65  3544.62
           -------------------------------------------------
          |                Property Printout                |
           -------------------------------------------------

    * Orbital Energies and Occupations

         #    Occupation            Energy/Eh            Energy/eV
      -------------------------------------------------------------
         1        2.0000           -0.6990337             -19.0217
       ...           ...                  ...                  ...
        30        2.0000           -0.4677964             -12.7294
        31        2.0000           -0.4574461             -12.4477
        32        2.0000           -0.4510248             -12.2730
        33        2.0000           -0.4447305             -12.1017
        34        2.0000           -0.4386019             -11.9350
        35        2.0000           -0.4348605             -11.8332
        36        2.0000           -0.4300814             -11.7031
        37        2.0000           -0.4221236             -11.4866
        38        2.0000           -0.4155055             -11.3065
        39        2.0000           -0.4093700             -11.1395
        40        2.0000           -0.4029666             -10.9653
        41        2.0000           -0.3894039             -10.5962
        42        2.0000           -0.3874355             -10.5427 (HOMO)
        43                         -0.1982220              -5.3939 (LUMO)
        44                         -0.1969696              -5.3598
        45                          0.0120794               0.3287
        46                          0.0158323               0.4308
        47                          0.0393621               1.0711
        48                          0.0512749               1.3953
        49                          0.0687041               1.8695
        50                          0.0774660               2.1080
        51                          0.0853394               2.3222
        52                          0.0909027               2.4736
        53                          0.0952850               2.5928
       ...                                ...                  ...
        80                          0.6521174              17.7450
      -------------------------------------------------------------
                  HL-Gap            0.1892135 Eh            5.1488 eV
             Fermi-level           -0.2928287 Eh           -7.9683 eV

     #   Z          covCN         q      C6AA      α(0)
     1   6 c        3.935    -0.007    20.637     6.456
     2   6 c        3.857    -0.033    21.131     6.538
     3   6 c        3.803    -0.063    21.701     6.632
     4   6 c        3.809    -0.059    21.633     6.621
     5   6 c        3.891    -0.028    21.018     6.517
     6   6 c        3.771     0.111    18.795     6.178
     7   6 c        3.833    -0.068    21.777     6.639
     8   6 c        2.975     0.018    27.607     8.619
     9   8 o        1.655    -0.483    22.533     6.408
    10   6 c        3.677     0.081    19.453     6.319
    11   6 c        2.838    -0.113    30.850     9.102
    12   6 c        2.936     0.013    27.736     8.637
    13   6 c        2.843    -0.114    30.882     9.107
    14   1 h        0.924     0.052     2.296     2.370
    15   8 o        1.655    -0.478    22.420     6.392
    16   6 c        3.761    -0.118    22.798     6.807
    17   1 h        0.924     0.041     2.435     2.440
    18   1 h        0.924     0.041     2.434     2.440
    19   1 h        0.924     0.038     2.478     2.462
    20   1 h        0.924     0.042     2.419     2.432
    21   1 h        0.924     0.046     2.371     2.408
    22   1 h        0.924     0.022     2.698     2.569
    23   1 h        0.924     0.051     2.312     2.378
    24   1 h        0.924     0.048     2.347     2.396
    25   1 h        0.805     0.304     0.708     1.322
    26   1 h        0.923     0.026     2.649     2.545
    27   1 h        0.924     0.044     2.390     2.418
    28   1 h        0.926     0.034     2.529     2.487
    29   1 h        0.926     0.034     2.527     2.486
    30   1 h        0.926     0.029     2.606     2.524
    31   1 h        0.926     0.030     2.581     2.512
    32   1 h        0.805     0.310     0.690     1.305
    33   1 h        0.925     0.062     2.173     2.305
    34   1 h        0.924     0.047     2.357     2.401
    35   1 h        0.925     0.039     2.457     2.451

 Mol. C6AA /au·bohr⁶  :      10390.885033
 Mol. C8AA /au·bohr⁸  :     233588.050065
 Mol. α(0) /au        :        153.621644


Wiberg/Mayer (AO) data.
largest (>0.10) Wiberg bond orders for each atom

 ---------------------------------------------------------------------------
     #   Z sym  total        # sym  WBO       # sym  WBO       # sym  WBO
 ---------------------------------------------------------------------------
     1   6 c    3.989 --     7 c    0.982    10 c    0.980     6 c    0.960
                             2 c    0.958
     2   6 c    3.992 --    12 c    0.996     3 c    0.986    14 h    0.962
                             1 c    0.958
     3   6 c    3.996 --     4 c    1.008     2 c    0.986    18 h    0.977
                            17 h    0.976
     4   6 c    3.996 --     3 c    1.008     5 c    0.979    20 h    0.976
                            19 h    0.970
     5   6 c    3.994 --     8 c    0.995     4 c    0.979     6 c    0.978
                            21 h    0.963
     6   6 c    3.946 --     5 c    0.978     9 o    0.977     1 c    0.960
                            22 h    0.959
     7   6 c    3.997 --     8 c    1.005     1 c    0.982    24 h    0.965
                            23 h    0.958
     8   6 c    3.986 --    11 c    1.938     7 c    1.005     5 c    0.995
     9   8 o    1.939 --     6 c    0.977    25 h    0.891
    10   6 c    3.950 --    15 o    0.992     1 c    0.980    27 h    0.970
                            26 h    0.966
    11   6 c    3.988 --     8 c    1.938    28 h    0.975    29 h    0.975
    12   6 c    3.986 --    13 c    1.927    16 c    1.026     2 c    0.996
    13   6 c    3.987 --    12 c    1.927    30 h    0.974    31 h    0.967
    14   1 h    0.997 --     2 c    0.962
    15   8 o    1.943 --    10 c    0.992    32 h    0.887
    16   6 c    3.995 --    12 c    1.026    35 h    0.984    33 h    0.968
                            34 h    0.967
    17   1 h    0.998 --     3 c    0.976
    18   1 h    0.998 --     3 c    0.977
    19   1 h    0.999 --     4 c    0.970
    20   1 h    0.997 --     4 c    0.976
    21   1 h    0.997 --     5 c    0.963
    22   1 h    0.999 --     6 c    0.959
    23   1 h    0.997 --     7 c    0.958
    24   1 h    0.998 --     7 c    0.965
    25   1 h    0.907 --     9 o    0.891
    26   1 h    0.999 --    10 c    0.966
    27   1 h    0.998 --    10 c    0.970
    28   1 h    0.998 --    11 c    0.975
    29   1 h    0.998 --    11 c    0.975
    30   1 h    0.999 --    13 c    0.974
    31   1 h    0.999 --    13 c    0.967
    32   1 h    0.904 --    15 o    0.887
    33   1 h    0.996 --    16 c    0.968
    34   1 h    0.998 --    16 c    0.967
    35   1 h    0.998 --    16 c    0.984
 ---------------------------------------------------------------------------

Topologies differ in total number of bonds
Writing topology from bond orders to xtbtopo.mol

molecular dipole:
                 x           y           z       tot (Debye)
 q only:       -0.147       0.193       0.334
   full:       -0.158       0.095       0.266       0.822
molecular quadrupole (traceless):
                xx          xy          yy          xz          yz          zz
 q only:       -5.381      -1.701       1.671       3.743       1.078       3.709
  q+dip:       -6.277      -2.382       0.654       7.542       0.116       5.623
   full:       -6.765      -2.745       1.438       6.387       1.162       5.327

           -------------------------------------------------
          |                Geometry Summary                 |
           -------------------------------------------------

      molecular mass/u    :      208.2971915
   center of mass at/Å    :        0.0007103      -0.0003467       0.0001571
  moments of inertia/u·Å² :        0.5745101E+03   0.9178478E+03   0.1082024E+04
rotational constants/cm⁻¹ :        0.2934262E-01   0.1836648E-01   0.1557973E-01

 * 30 selected distances

     #   Z          #   Z                                           value/Å
     3   6 c        4   6 c                                       1.5298691
     4   6 c        5   6 c                                       1.5311220
     1   6 c        6   6 c                                       1.5421119 (max)
     5   6 c        6   6 c                                       1.5298374
     1   6 c        7   6 c                                       1.5420078
     6   6 c        9   8 o                                       1.4193296
     1   6 c       10   6 c                                       1.5342912
     8   6 c       11   6 c                                       1.3202389
    12   6 c       13   6 c                                       1.3248628
     2   6 c       14   1 h                                       1.0963685
    10   6 c       15   8 o                                       1.4129585
     3   6 c       17   1 h                                       1.0915928
     3   6 c       18   1 h                                       1.0917687
     4   6 c       19   1 h                                       1.0902391
     4   6 c       20   1 h                                       1.0917017
     5   6 c       21   1 h                                       1.0911736
     6   6 c       22   1 h                                       1.0936301
     7   6 c       23   1 h                                       1.0937007
     7   6 c       24   1 h                                       1.0905650
     9   8 o       25   1 h                                       0.9637956 (min)
    10   6 c       26   1 h                                       1.0993002
    10   6 c       27   1 h                                       1.0931302
    11   6 c       28   1 h                                       1.0774257
    11   6 c       29   1 h                                       1.0767180
    13   6 c       30   1 h                                       1.0783175
    13   6 c       31   1 h                                       1.0744378
    15   8 o       32   1 h                                       0.9658891
    16   6 c       33   1 h                                       1.0877390
    16   6 c       34   1 h                                       1.0907737
    16   6 c       35   1 h                                       1.0871271

 * 4 distinct bonds (by element types)

   Z      Z             #   av. dist./Å        max./Å        min./Å
   1 H    6 C          18     1.0886505     1.0993002     1.0744378
   6 C    6 C           8     1.4817926     1.5421119     1.3202389
   1 H    8 O           2     0.9648423     0.9658891     0.9637956
   6 C    8 O           2     1.4161440     1.4193296     1.4129585

           -------------------------------------------------
          |               Frequency Printout                |
           -------------------------------------------------
 projected vibrational frequencies (cm⁻¹)
eigval :       -0.00    -0.00    -0.00    -0.00     0.00     0.00
eigval :       64.42    91.35   119.50   122.60   143.03   166.95
eigval :      180.55   217.50   250.43   271.99   283.79   299.74
eigval :      307.99   312.56   333.20   351.87   395.82   422.59
eigval :      436.16   458.67   504.55   538.02   554.85   608.32
eigval :      678.27   685.93   716.61   724.46   801.50   825.52
eigval :      878.57   887.24   892.07   895.17   912.79   934.08
eigval :      941.70   952.40   955.29   995.77  1022.81  1039.25
eigval :     1051.20  1053.68  1063.48  1079.37  1094.79  1100.99
eigval :     1120.67  1136.70  1157.19  1170.08  1193.74  1203.68
eigval :     1215.67  1232.40  1249.39  1258.17  1261.69  1279.38
eigval :     1292.41  1308.35  1316.49  1327.53  1345.48  1349.19
eigval :     1351.31  1364.38  1402.61  1413.26  1423.56  1451.73
eigval :     1476.00  1477.30  1480.90  1490.89  1494.51  1720.47
eigval :     1741.07  2878.06  2920.20  2936.93  2946.33  2965.76
eigval :     2973.07  2973.99  2975.74  2979.63  2987.73  2991.58
eigval :     2994.37  3038.77  3042.17  3093.89  3098.46  3120.09
eigval :     3140.42  3515.65  3544.62
 reduced masses (amu)
   1: 10.73   2: 11.41   3: 11.39   4: 11.75   5: 11.59   6: 11.09   7:  9.58   8:  9.97
   9: 10.35  10: 11.30  11: 11.81  12: 12.01  13:  6.88  14:  5.22  15: 11.83  16:  7.42
  17:  8.27  18:  6.21  19:  9.04  20:  4.87  21:  8.38  22:  5.58  23:  7.83  24: 10.14
  25: 10.75  26:  9.18  27:  8.63  28:  9.41  29:  8.48  30:  9.63  31:  8.29  32:  5.55
  33:  4.80  34:  5.42  35:  9.85  36:  7.49  37:  8.43  38:  5.53  39:  4.13  40:  6.28
  41:  6.52  42:  6.79  43:  7.07  44:  5.82  45:  5.32  46:  6.58  47:  5.75  48:  6.63
  49:  5.39  50:  9.22  51:  6.40  52: 10.26  53:  6.98  54:  5.90  55:  7.30  56:  4.86
  57:  4.02  58:  3.63  59:  6.85  60:  6.21  61:  5.93  62:  7.36  63:  8.26  64:  5.00
  65:  5.15  66:  7.53  67:  4.80  68:  4.93  69:  3.58  70:  4.53  71:  4.10  72:  4.02
  73:  4.65  74:  4.54  75:  2.85  76:  2.37  77:  2.53  78:  1.91  79:  1.74  80:  1.59
  81:  1.84  82:  1.70  83:  1.93  84: 11.22  85: 11.58  86:  1.74  87:  1.76  88:  1.74
  89:  1.87  90:  1.94  91:  1.77  92:  1.69  93:  1.92  94:  1.62  95:  1.56  96:  1.79
  97:  1.53  98:  1.65  99:  1.69 100:  1.71 101:  1.53 102:  2.07 103:  1.89 104:  1.87
 105:  1.88
 IR intensities (km·mol⁻¹)
   1:  0.03   2:  0.00   3:  0.00   4:  0.00   5:  0.03   6:  0.00   7:  0.26   8:  0.52
   9:  0.38  10:  8.02  11:  1.89  12:  5.10  13:  4.79  14:  5.30  15: 27.20  16:  2.52
  17: 21.55  18: 33.04  19:  2.22  20: 86.37  21: 30.77  22: 68.79  23: 92.59  24:  8.63
  25:  5.74  26:  3.16  27:  2.25  28:  9.62  29:  1.22  30:  4.02  31:  1.73  32:  4.95
  33:  3.13  34:  2.01  35:  3.85  36:  6.83  37:  1.97  38: 10.62  39: 38.33  40:  3.01
  41: 13.86  42:  1.06  43: 16.18  44:  2.84  45:  0.49  46: 12.75  47: 26.64  48: 44.39
  49: 18.59  50: 31.39  51: 49.96  52: 85.65  53: 19.46  54: 12.38  55: 16.98  56:  1.88
  57: 23.15  58: 18.66  59: 24.83  60: 13.47  61: 12.37  62:  7.29  63: 24.58  64:  6.40
  65: 50.18  66:  6.20  67: 20.24  68:  7.35  69: 29.64  70:  4.60  71: 41.89  72: 28.80
  73:  3.98  74:  3.24  75:  9.47  76:  4.27  77: 16.02  78:  0.39  79:  1.20  80:  2.77
  81:  1.39  82:  7.25  83:  0.35  84: 29.37  85: 31.22  86: 77.06  87: 45.25  88: 56.56
  89: 45.77  90: 13.42  91: 30.65  92: 34.97  93:100.76  94: 60.93  95: 82.90  96: 57.89
  97: 98.31  98: 52.95  99: 11.06 100: 73.25 101: 41.97 102: 61.34 103: 53.81 104: 34.48
 105: 27.61
 Raman intensities (Ä⁴*amu⁻¹)
   1:  0.00   2:  0.00   3:  0.00   4:  0.00   5:  0.00   6:  0.00   7:  0.00   8:  0.00
   9:  0.00  10:  0.00  11:  0.00  12:  0.00  13:  0.00  14:  0.00  15:  0.00  16:  0.00
  17:  0.00  18:  0.00  19:  0.00  20:  0.00  21:  0.00  22:  0.00  23:  0.00  24:  0.00
  25:  0.00  26:  0.00  27:  0.00  28:  0.00  29:  0.00  30:  0.00  31:  0.00  32:  0.00
  33:  0.00  34:  0.00  35:  0.00  36:  0.00  37:  0.00  38:  0.00  39:  0.00  40:  0.00
  41:  0.00  42:  0.00  43:  0.00  44:  0.00  45:  0.00  46:  0.00  47:  0.00  48:  0.00
  49:  0.00  50:  0.00  51:  0.00  52:  0.00  53:  0.00  54:  0.00  55:  0.00  56:  0.00
  57:  0.00  58:  0.00  59:  0.00  60:  0.00  61:  0.00  62:  0.00  63:  0.00  64:  0.00
  65:  0.00  66:  0.00  67:  0.00  68:  0.00  69:  0.00  70:  0.00  71:  0.00  72:  0.00
  73:  0.00  74:  0.00  75:  0.00  76:  0.00  77:  0.00  78:  0.00  79:  0.00  80:  0.00
  81:  0.00  82:  0.00  83:  0.00  84:  0.00  85:  0.00  86:  0.00  87:  0.00  88:  0.00
  89:  0.00  90:  0.00  91:  0.00  92:  0.00  93:  0.00  94:  0.00  95:  0.00  96:  0.00
  97:  0.00  98:  0.00  99:  0.00 100:  0.00 101:  0.00 102:  0.00 103:  0.00 104:  0.00
 105:  0.00
 output can be read by thermo (or use thermo option).
 writing <g98.out> molden fake output.
 recommended (thermochemical) frequency scaling factor: 1.0
           -------------------------------------------------
          |             Thermodynamic Functions             |
           -------------------------------------------------

Molecule has no symmetry elements
It seems to be the C1 point group
c1  symmetry found (for desy threshold:  0.10E+00) used in thermo

          ...................................................
          :                      SETUP                      :
          :.................................................:
          :  # frequencies                          99      :
          :  # imaginary freq.                       0      :
          :  linear?                             false      :
          :  only rotor calc.                    false      :
          :  symmetry                               c1      :
          :  rotational number                       1      :
          :  scaling factor                  1.0000000      :
          :  rotor cutoff                   50.0000000 cm⁻¹ :
          :  imag. cutoff                  -50.0000000 cm⁻¹ :
          :.................................................:

    mode    ω/cm⁻¹     T·S(HO)/kcal·mol⁻¹    T·S(FR)/kcal·mol⁻¹   T·S(vib)
   ------------------------------------------------------------------------
       1     64.42    -1.28713 ( 73.37%)    -0.98140 ( 26.63%)    -1.20571
       2     91.35    -1.08257 ( 91.76%)    -0.87795 (  8.24%)    -1.06571
       3    119.50    -0.92678 ( 97.03%)    -0.79839 (  2.97%)    -0.92297
       4    122.60    -0.91204 ( 97.31%)    -0.79081 (  2.69%)    -0.90878
       5    143.03    -0.82378 ( 98.53%)    -0.74516 (  1.47%)    -0.82262
       6    166.95    -0.73628 ( 99.20%)    -0.69934 (  0.80%)    -0.73599
       7    180.55    -0.69252 ( 99.42%)    -0.67615 (  0.58%)    -0.69243
       8    217.50    -0.59027 ( 99.72%)    -0.62099 (  0.28%)    -0.59036
       9    250.43    -0.51506 ( 99.84%)    -0.57923 (  0.16%)    -0.51516
      10    271.99    -0.47213 ( 99.89%)    -0.55477 (  0.11%)    -0.47222
      11    283.79    -0.45042 ( 99.90%)    -0.54219 (  0.10%)    -0.45051
      12    299.74    -0.42288 ( 99.92%)    -0.52599 (  0.08%)    -0.42296
   ------------------------------------------------------------------------

   temp. (K)  partition function   enthalpy   heat capacity  entropy
                                   cal/mol     cal/K/mol   cal/K/mol   J/K/mol
 298.15  VIB  0.155E+05             7691.419     54.505     44.616
         ROT  0.182E+07              888.752      2.981     31.631
         INT  0.283E+11             8580.172     57.486     76.247
         TR   0.291E+28             1481.254      4.968     41.886
         TOT                       10061.4257    62.4537   118.1331   494.2690

       T/K    H(0)-H(T)+PV         H(T)/Eh          T*S/Eh         G(T)/Eh
   ------------------------------------------------------------------------
    298.15    0.160339E-01    0.317761E+00    0.561289E-01    0.261632E+00
   ------------------------------------------------------------------------

         :::::::::::::::::::::::::::::::::::::::::::::::::::::
         ::                  THERMODYNAMIC                  ::
         :::::::::::::::::::::::::::::::::::::::::::::::::::::
         :: total free energy         -45.899233380474 Eh   ::
         ::.................................................::
         :: total energy              -46.160865823513 Eh   ::
         :: zero point energy           0.301727400482 Eh   ::
         :: G(RRHO) w/o ZPVE           -0.040094957442 Eh   ::
         :: G(RRHO) contrib.            0.261632443039 Eh   ::
         :::::::::::::::::::::::::::::::::::::::::::::::::::::

optimized geometry written to: xtbopt.coord


           -------------------------------------------------
          | TOTAL ENERGY              -46.160865823513 Eh   |
          | TOTAL ENTHALPY            -45.843104520593 Eh   |
          | TOTAL FREE ENERGY         -45.899233380474 Eh   |
          | GRADIENT NORM               0.000088488616 Eh/α |
          | HOMO-LUMO GAP               5.148761945186 eV   |
           -------------------------------------------------

------------------------------------------------------------------------
 * finished run on 2026/08/09 at 15:28:18.078     
------------------------------------------------------------------------
 total:
 * wall-time:     0 d,  0 h,  0 min,  1.365 sec
 *  cpu-time:     0 d,  0 h,  0 min, 14.565 sec
 * ratio c/w:    10.673 speedup
 SCF:
 * wall-time:     0 d,  0 h,  0 min,  0.081 sec
 *  cpu-time:     0 d,  0 h,  0 min,  0.895 sec
 * ratio c/w:    11.017 speedup
 ANC optimizer:
 * wall-time:     0 d,  0 h,  0 min,  0.175 sec
 *  cpu-time:     0 d,  0 h,  0 min,  2.092 sec
 * ratio c/w:    11.961 speedup
 analytical hessian:
 * wall-time:     0 d,  0 h,  0 min,  1.067 sec
 *  cpu-time:     0 d,  0 h,  0 min, 11.328 sec
 * ratio c/w:    10.619 speedup

normal termination of xtb
