35
 xtb: 6.7.1 (edcfbbe)
c           -0.04494523176996       -0.56727014503324        0.31139283328195
c           -1.05793375007892        0.58477898823454        0.69523540307519
c           -0.36208447871975        1.98173741134283        0.63600711617535
c            0.58416922438251        2.18322549621355       -0.56788155866775
c            1.46650891072874        0.92990225295537       -0.81115796177566
c            0.55337669528855       -0.27790790297121       -1.09951578229344
c            1.22021969917156       -0.45602948822259        1.22115095096862
c            2.16125121742303        0.49667718672190        0.47992277761120
o            1.29674577009964       -1.39894854098316       -1.64421612174532
c           -0.74365019210498       -1.94289627941761        0.42591985760011
c            3.38524310163970        0.86975086070456        0.87060903531709
c           -2.40805497811875        0.53886476638608       -0.03684318864348
c           -2.62592043655512        0.99566666409821       -1.28171157737774
h           -1.29263193016052        0.40772705679789        1.75941051818683
o            0.12773651880442       -3.06629978853373        0.27502240053135
c           -3.56439733496187       -0.00606906349531        0.78404282003715
h           -1.12786349970865        2.77213898964908        0.65128116541277
h            0.22602869172540        2.10773213762238        1.55895203585321
h            0.01837248333498        2.40293099573166       -1.48786391340692
h            1.23159632833902        3.05521613730355       -0.38191182431396
h            2.17367220963499        1.12579152794700       -1.63313795453829
h           -0.22092760179160       -0.06819683871046       -1.84848010096274
h            1.68527392275333       -1.44733422538838        1.33962788534348
h            0.97565611764793       -0.09972081915084        2.23461311458950
h            2.20808297517858       -1.37586744746759       -1.28169861881903
h           -1.57134824000884       -1.98822404599955       -0.30860683573022
h           -1.19261091393411       -2.03732783135403        1.42883446318543
h            3.81769508147525        0.53022448692273        1.81519356514624
h            3.99911176040705        1.54149811719750        0.26544988062196
h           -3.62309556705563        0.95514659595871       -1.72644124551918
h           -1.84854684328631        1.43471177702145       -1.90594604297045
h            0.61476000257189       -2.90715463520278       -0.56476337682945
h           -3.36503984559486       -1.02798978232839        1.14475245453076
h           -3.72293942328630        0.61633539807283        1.68195339597304
h           -4.50182543181290       -0.02267953392548        0.20948425789280
