
                                 *****************
                                 * O   R   C   A *
                                 *****************

                                            #,                                       
                                            ###                                      
                                            ####                                     
                                            #####                                    
                                            ######                                   
                                           ########,                                 
                                     ,,################,,,,,                         
                               ,,#################################,,                 
                          ,,##########################################,,             
                       ,#########################################, ''#####,          
                    ,#############################################,,   '####,        
                  ,##################################################,,,,####,       
                ,###########''''           ''''###############################       
              ,#####''   ,,,,##########,,,,          '''####'''          '####       
            ,##' ,,,,###########################,,,                        '##       
           ' ,,###''''                  '''############,,,                           
         ,,##''                                '''############,,,,        ,,,,,,###''
      ,#''                                            '''#######################'''  
     '                                                          ''''####''''         
             ,#######,   #######,   ,#######,      ##                                
            ,#'     '#,  ##    ##  ,#'     '#,    #''#        ,####,    ,#,          
            ##       ##  ##   ,#'  ##            #'  '#       #'       ,# #          
            ##       ##  #######   ##           ,######,      #####,      #          
            '#,     ,#'  ##    ##  '#,     ,#' ,#      #,     #,   #      #          
             '#######'   ##     ##  '#######'  #'      '#     '####' #    #          



                #########################################################
                #                        -***-                          #
                #          Department of theory and spectroscopy        #
                #                                                       #
                #                      Frank Neese                      #
                #                                                       #
                #     Directorship, Architecture, Infrastructure        #
                #                    SHARK, DRIVERS                     #
                #        Core code/Algorithms in most modules           #
                #                                                       #
                #        Max Planck Institute fuer Kohlenforschung      #
                #                Kaiser Wilhelm Platz 1                 #
                #                 D-45470 Muelheim/Ruhr                 #
                #                      Germany                          #
                #                                                       #
                #                  All rights reserved                  #
                #                        -***-                          #
                #########################################################


                         Program Version 6.1.1  -  RELEASE   -
                                (GIT: $487d211c$)
                          ($2025-11-21 10:33:24 +0100$)


 With contributions from (in alphabetic order):
[Max-Planck-Institut fuer Kohlenforschung]                               
  Daniel Aravena         : Magnetic Suceptibility                        
  Michael Atanasov       : Ab Initio Ligand Field Theory (pilot matlab implementation)
  Alexander A. Auer      : GIAO ZORA, VPT2 properties, NMR spectrum      
  Ute Becker             : All parallelization in ORCA, NUMFREQ, NUMCALC 
  Giovanni Bistoni       : ED, misc. LED, open-shell LED, HFLD           
  Dmytro Bykov           : pre 5.0 version of the SCF Hessian            
  Marcos Casanova-Páez   : Triplet and SCS-CIS(D). UHF-(DLPNO)-IP/EA/STEOM-CCSD. UHF-CVS-IP/STEOM-CCSD   
  Vijay G. Chilkuri      : MRCI spin determinant printing, contributions to CSF-ICE 
  Pauline Colinet        : FMM embedding                                 
  Dipayan Datta          : RHF DLPNO-CCSD density                        
  Achintya Kumar Dutta   : EOM-CC, STEOM-CC                              
  Nicolas Foglia         : Exact transition moments, OPA infrastructure, MCD improvements    
  Dmitry Ganyushin       : Spin-Orbit,Spin-Spin,Magnetic field MRCI      
  Miquel Garcia-Rates    : C-PCM and meta-GGA Hessian, CCSD/C-PCM, Gaussian charge scheme 
  Tiago L. C. Gouveia    : GS-ROHF, GS-ROCIS                             
  Yang Guo               : DLPNO-NEVPT2, F12-NEVPT2, CIM, IAO-localization        
  Andreas Hansen         : Spin unrestricted coupled pair/coupled cluster methods 
  Ingolf Harden          : AUTO-CI MPn and infrastructure                
  Benjamin Helmich-Paris : MC-RPA, TRAH-(SCF,CASSCF), AVAS, COSX integrals, SCF dyn. polar., MC-PDFT, srDFT 
  Lee Huntington         : MR-EOM, pCC                                   
  Robert Izsak           : Overlap fitted RIJCOSX, COSX-SCS-MP3, EOM     
  Riya Kayal             : Wick's Theorem for AUTO-CI, AUTO-CI UHF-CCSDT 
  Emily Kempfer          : AUTO-CI RHF CISDT and CCSDT, approximate NEVPT4
  Christian Kollmar      : KDIIS, OOCD, Brueckner-CCSD(T), CCSD density, CASPT2, CASPT2-K, improved NEVPT2 
  Axel Koslowski         : Symmetry handling                             
  Simone Kossmann        : meta-GGA functionals, TD-DFT gradient, OOMP2, (MP2 Hessian; deprecated post 5.0) 
  Lucas Lang             : DCDCAS, Hyperfine gauge corrections, ICE-SOC+SSC
  Marvin Lechner         : AUTO-CI (C++ implementation), FIC-MRCC        
  Spencer Leger          : CASSCF response                               
  Dagmar Lenk            : GEPOL surface, SMD, ORCA-2-JSON               
  Dimitrios Liakos       : Extrapolation schemes; Compound Job, Property file
  Dimitrios Manganas     : Further ROCIS development; embedding schemes. LFT, Crystal Embedding 
  Dimitrios Pantazis     : SARC Basis sets                               
  Anastasios Papadopoulos: AUTO-CI, single reference methods and gradients 
  Taras Petrenko         : pre 6.0 DFT Hessian and TD-DFT gradient,  ECA, NRVS 
  Petra Pikulova         : Analytic Raman intensities                    
  Peter Pinski           : DLPNO-MP2, DLPNO-MP2 Gradient                 
  Shashank Vittal Rao    : ES-AILFT, MagRelax                            
  Christoph Reimann      : Effective Core Potentials                     
  Marius Retegan         : Local ZFS, SOC                                
  Christoph Riplinger    : Optimizer, TS searches, QM/MM, DLPNO-CCSD(T), (RO)-DLPNO pert. Triples 
  Michael Roemelt        : Original ROCIS implementation, recursive CI coupling coefficients
  Masaaki Saitow         : Open-shell DLPNO-CCSD energy and density      
  Barbara Sandhoefer     : DKH picture change effects                    
  Yorick L. A. Schmerwitz: GMF and freeze-and-release deltaSCF, NEB S-IDPP initial path                    
  Kantharuban Sivalingam : CASSCF convergence/infrastructure, NEVPT2, NEVPT3, NEVPT4(SD), FIC-MRCI and CEPA variants
  Bernardo de Souza      : ESD, SOC TD-DFT                               
  Georgi L. Stoychev     : AutoAux, RI-MP2 NMR, DLPNO-MP2 response, X2C  
  Van Anh Tran           : RI-MP2 g-tensors                              
  Willem Van den Heuvel  : Paramagnetic NMR                              
  Zikuan Wang            : NOTCH, Electric field optimization            
  Frank Wennmohs         : Technical directorship and infrastructure     
  Hang Xu                : AUTO-CI-Response properties                   
                                                                         
[FACCTs GmbH]                                                            
  Markus Bursch, Nicolas Foglia, Miquel Garcia-Rates, Ingolf Harden, Hagen Neugebauer, Anastasios Papadopoulos, 
  Christoph Riplinger, Bernardo de Souza, Georgi L. Stoychev                                                    
                                                                 
  APM, various basis sets, CI-OPT, improved COSX, DLPNO-Multilevel,           
  DOCKER, DRACO, updates on ESD, Fragmentator, GOAT, IRC, LR-CPCM, L-BFGS, MBIS, meta-GGA TD-DFT gradient, ML-optimized integration grids, 
  MM, NACMEs, nearIR, NEB, NEB-TS, NL-DFT gradient (VV10), 2- and 3-layer-ONIOM, interface openCOSMO-RS, QMMM,   
  Crystal-QMMM, RESP, rigid body optimization, SF, symmetry and pop. for TD-DFT, various functionals, SOLVATOR                                   
                                                                         
[Other institutions]                                                     
  V. Asgeirsson          : NEB                                           
  Christoph Bannwarth    : sTDA-DFT, sTD-DFT, PBEh-3c, B97-3c, D3        
  Giovanni Bistoni       : ETS/NOCV, ADLD/ADEX, COVALED                  
  Martin Brehm           : Molecular dynamics                            
  Ronald Cardenas        : ETS/NOCV                                      
  Martina Colucci        : COVALED                                       
  Sebastian Ehlert       : rSCAN, r2SCAN, r2SCAN-3c, D4, dhf basis sets  
  Marvin Friede          : D4 for Fr, Ra, Ac-Lr                          
  Lars Goerigk           : TD-DFT with DH, B97 family of functionals     
  Stefan Grimme          : VdW corrections, initial TS optimization, DFT functionals, gCP, sTDA/sTD-DF 
  Waldemar Hujo          : DFT-NL                                        
  H. Jonsson             : NEB                                           
  Holger Kruse           : gCP                                           
  Marcel Mueller         : wB97X-3c, vDZP basis set                      
  Hagen Neugebauer       : wr2SCAN, Native XTB                           
  Gianluca Regni         : ADLD/ADEX                                     
  Tobias Risthaus        : pre 6.0 range-separated hybrid DFT and stability analysis
  Lukas Wittmann         : regularized MP2, r2SCAN double-hybrids, wr2SCAN        
                                                                         
We gratefully acknowledge several colleagues who have allowed us to      
interface, adapt or use parts of their codes:                            
  Ed Valeev, F. Pavosevic, A. Kumar             : LibInt (2-el integral package), F12 methods 
  Garnet Chan, S. Sharma, J. Yang, R. Olivares  : DMRG                   
  Ulf Ekstrom                                   : XCFun DFT Library      
  Mihaly Kallay                                 : mrcc  (arbitrary order and MRCC methods)
  Frank Weinhold                                : gennbo (NPA and NBO analysis)           
  Simon Mueller                                 : openCOSMO-RS                            
  Christopher J. Cramer and Donald G. Truhlar   : smd solvation model                     
  S Lehtola, MJT Oliveira, MAL Marques          : LibXC Library                           
  Liviu Ungur et al                             : ANISO software                          


 Your calculation uses the libint2 library for the computation of 2-el integrals
 For citations please refer to: http://libint.valeyev.net

 Your ORCA version has been built with support for libXC version: 7.0.0
 For citations please refer to: https://libxc.gitlab.io

 This ORCA versions uses:
   CBLAS   interface :  Fast vector & matrix operations
   LAPACKE interface :  Fast linear algebra routines
   SCALAPACK package :  Parallel linear algebra routines
   Shared memory     :  Shared parallel matrices
   BLAS/LAPACK       :  OpenBLAS 0.3.29  USE64BITINT DYNAMIC_ARCH NO_AFFINITY Haswell SINGLE_THREADED
        Core in use  :  Haswell
   Copyright (c) 2011-2014, The OpenBLAS Project


  ***********************************
  * Starting time: Sun Aug  9 15:26:38 2026
  * Host name:     localhost.localdomain
  * Process ID:    2830683
  * Working dir.:  /home/dinglab/calculation/templates/NMR_modules/autohnmr/alpha_diol_screening/CONF31/b3lyp-3c
  ***********************************

NOTE: MaxCore=2500 MB was set to SCF,MP2,MDCI,CIPSI,MRCI,RASCI and CIS
      => If you want to overwrite this, your respective input block should be placed after the MaxCore statement
Your calculation utilizes the geometrical counterpoise correction gCP
Please cite in your paper:
H.Kruse, S. Grimme J.Chem.Phys., 136, (2012), 154101 
   

Your calculation utilizes the atom-pairwise dispersion correction
with the Becke-Johnson damping scheme (D3BJ)


Warning: RI is on but no J-basis has been assigned. Assigning Def2/J (nothing to worry about!)
================================================================================

----- Orbital basis set information -----
Your calculation utilizes the basis: def2-mSVP

----- AuxJ basis set information -----
Your calculation utilizes the auxiliary basis: def2/J
   H-Rn: F. Weigend, Phys. Chem. Chem. Phys. 8, 1057 (2006).
   Fr-Lr: K. Eichkorn, F. Weigend, O. Treutler, R. Ahlrichs; Theor. Chem. Acc. 97, 119 (1997).

================================================================================
                                        WARNINGS
                       Please study these warnings very carefully!
================================================================================


================================================================================
                                       INPUT FILE
================================================================================
NAME = inp
|  1> ! b3lyp
|  2> ! d3bj ABC
|  3> ! def2-mSVP
|  4> ! GCP(DFT/SV(P))
|  5> ! DEFGRID2
|  6> ! scfconv6
|  7> ! miniprint nopop noautostart
|  8> %MaxCore 2500
|  9> %pal
| 10>     nprocs 12
| 11> end
| 12> ! CPCM(chloroform)
| 13> *xyz 0 1
| 14> C    0.0721612720  -0.5017676463   0.3149617100
| 15> C   -0.8774697241   0.7423080910   0.3934199676
| 16> C   -0.6370981348   1.7225870445  -0.7642437252
| 17> C    0.8455159583   2.0592722003  -0.9341153998
| 18> C    1.7254923527   0.8037733268  -0.7734812560
| 19> C    0.8712926436  -0.4453793893  -1.0100556672
| 20> C    1.2024209590  -0.3028257557   1.3453672424
| 21> C    2.1539027439   0.6475165413   0.6663764656
| 22> O    1.6356655240  -1.6097830934  -1.2461360505
| 23> C   -0.6238524514  -1.8682646146   0.4964673501
| 24> C    3.1909123641   1.2418970244   1.2274601684
| 25> C   -2.3486310523   0.4086392293   0.5119390187
| 26> C   -2.9714623693   0.5499862640   1.6732508174
| 27> H   -0.6110744175   1.2775095756   1.3111707467
| 28> O   -1.0483005990  -2.4545028703  -0.7078784174
| 29> C   -3.0755607872  -0.0591084880  -0.7105385454
| 30> H   -1.0214429136   1.3050919806  -1.6938389075
| 31> H   -1.1982092387   2.6378364740  -0.5643654563
| 32> H    0.9996528480   2.4986686025  -1.9211341213
| 33> H    1.1508062456   2.7988632182  -0.1914019029
| 34> H    2.5837038856   0.8508603235  -1.4474399403
| 35> H    0.2345538992  -0.3629934602  -1.8911018245
| 36> H    1.7107526489  -1.2493064549   1.5585447236
| 37> H    0.8397660716   0.0790891015   2.2993378482
| 38> H    2.3294227393  -1.6622638245  -0.5795256567
| 39> H   -1.5156133398  -1.7626501768   1.1173315652
| 40> H    0.0656470849  -2.5536764844   1.0114965933
| 41> H    3.4314574962   1.1013564053   2.2677753323
| 42> H    3.8378041949   1.8971491848   0.6692248125
| 43> H   -4.0192681310   0.3278063087   1.7862445189
| 44> H   -2.4643290062   0.8900539136   2.5612726328
| 45> H   -0.2614560129  -2.5935404023  -1.2532423986
| 46> H   -2.5388757047  -0.8795452452  -1.1806421710
| 47> H   -4.0732102213  -0.4008177702  -0.4473667802
| 48> H   -3.1746536902   0.7500914091  -1.4328486528
| 49> *
| 50> 
| 51>                          ****END OF INPUT****
================================================================================

                       ****************************
                       * Single Point Calculation *
                       ****************************

---------------------------------
CARTESIAN COORDINATES (ANGSTROEM)
---------------------------------
  C      0.072161   -0.501768    0.314962
  C     -0.877470    0.742308    0.393420
  C     -0.637098    1.722587   -0.764244
  C      0.845516    2.059272   -0.934115
  C      1.725492    0.803773   -0.773481
  C      0.871293   -0.445379   -1.010056
  C      1.202421   -0.302826    1.345367
  C      2.153903    0.647517    0.666376
  O      1.635666   -1.609783   -1.246136
  C     -0.623852   -1.868265    0.496467
  C      3.190912    1.241897    1.227460
  C     -2.348631    0.408639    0.511939
  C     -2.971462    0.549986    1.673251
  H     -0.611074    1.277510    1.311171
  O     -1.048301   -2.454503   -0.707878
  C     -3.075561   -0.059108   -0.710539
  H     -1.021443    1.305092   -1.693839
  H     -1.198209    2.637836   -0.564365
  H      0.999653    2.498669   -1.921134
  H      1.150806    2.798863   -0.191402
  H      2.583704    0.850860   -1.447440
  H      0.234554   -0.362993   -1.891102
  H      1.710753   -1.249306    1.558545
  H      0.839766    0.079089    2.299338
  H      2.329423   -1.662264   -0.579526
  H     -1.515613   -1.762650    1.117332
  H      0.065647   -2.553676    1.011497
  H      3.431457    1.101356    2.267775
  H      3.837804    1.897149    0.669225
  H     -4.019268    0.327806    1.786245
  H     -2.464329    0.890054    2.561273
  H     -0.261456   -2.593540   -1.253242
  H     -2.538876   -0.879545   -1.180642
  H     -4.073210   -0.400818   -0.447367
  H     -3.174654    0.750091   -1.432849

----------------------------
CARTESIAN COORDINATES (A.U.)
----------------------------
  NO LB      ZA    FRAG     MASS         X           Y           Z
   0 C     6.0000    0    12.011    0.136365   -0.948203    0.595191
   1 C     6.0000    0    12.011   -1.658177    1.402759    0.743456
   2 C     6.0000    0    12.011   -1.203941    3.255218   -1.444211
   3 C     6.0000    0    12.011    1.597794    3.891460   -1.765222
   4 C     6.0000    0    12.011    3.260708    1.518911   -1.461668
   5 C     6.0000    0    12.011    1.646504   -0.841645   -1.908729
   6 C     6.0000    0    12.011    2.272246   -0.572258    2.542376
   7 C     6.0000    0    12.011    4.070286    1.223629    1.259269
   8 O     8.0000    0    15.999    3.090960   -3.042049   -2.354856
   9 C     6.0000    0    12.011   -1.178910   -3.530508    0.938187
  10 C     6.0000    0    12.011    6.029950    2.346845    2.319564
  11 C     6.0000    0    12.011   -4.438269    0.772216    0.967425
  12 C     6.0000    0    12.011   -5.615250    1.039323    3.161986
  13 H     1.0000    0     1.008   -1.154763    2.414143    2.477754
  14 O     8.0000    0    15.999   -1.981001   -4.638338   -1.337696
  15 C     6.0000    0    12.011   -5.811968   -0.111699   -1.342723
  16 H     1.0000    0     1.008   -1.930247    2.466266   -3.200892
  17 H     1.0000    0     1.008   -2.264287    4.984789   -1.066496
  18 H     1.0000    0     1.008    1.889070    4.721799   -3.630417
  19 H     1.0000    0     1.008    2.174709    5.289085   -0.361697
  20 H     1.0000    0     1.008    4.882493    1.607893   -2.735265
  21 H     1.0000    0     1.008    0.443243   -0.685958   -3.573665
  22 H     1.0000    0     1.008    3.232854   -2.360847    2.945223
  23 H     1.0000    0     1.008    1.586928    0.149457    4.345119
  24 H     1.0000    0     1.008    4.401971   -3.141223   -1.095145
  25 H     1.0000    0     1.008   -2.864094   -3.330926    2.111451
  26 H     1.0000    0     1.008    0.124055   -4.825749    1.911452
  27 H     1.0000    0     1.008    6.484515    2.081262    4.285474
  28 H     1.0000    0     1.008    7.252399    3.585092    1.264652
  29 H     1.0000    0     1.008   -7.595316    0.619464    3.375513
  30 H     1.0000    0     1.008   -4.656907    1.681958    4.840104
  31 H     1.0000    0     1.008   -0.494080   -4.901081   -2.368285
  32 H     1.0000    0     1.008   -4.797780   -1.662100   -2.231090
  33 H     1.0000    0     1.008   -7.697252   -0.757436   -0.845401
  34 H     1.0000    0     1.008   -5.999226    1.417467   -2.707692



           ************************************************************
           *        Program running with 12 parallel MPI-processes    *
           *              working on a common directory               *
           ************************************************************
------------------------------------------------------------------------------
                   ___                                                        
                  /   \      - P O W E R E D   B Y -                         
                 /     \                                                     
                 |  |  |   _    _      __       _____    __    __             
                 |  |  |  | |  | |    /  \     |  _  \  |  |  /  |          
                  \  \/   | |  | |   /    \    | | | |  |  | /  /          
                 / \  \   | |__| |  /  /\  \   | |_| |  |  |/  /          
                |  |  |   |  __  | /  /__\  \  |    /   |      \           
                |  |  |   | |  | | |   __   |  |    \   |  |\   \          
                \     /   | |  | | |  |  |  |  | |\  \  |  | \   \       
                 \___/    |_|  |_| |__|  |__|  |_| \__\ |__|  \__/        
                                                                              
                      - O R C A' S   B I G   F R I E N D -                    
                                      &                                       
                       - I N T E G R A L  F E E D E R -                       
                                                                              
 v1 FN, 2020, v2 2021, v3 2022-2024                                           
------------------------------------------------------------------------------


----------------------
SHARK INTEGRAL PACKAGE
----------------------

Number of atoms                             ...     35
Number of basis functions                   ...    265
Number of shells                            ...    145
Maximum angular momentum                    ...      2
Integral batch strategy                     ... SHARK/LIBINT Hybrid
RI-J (if used) integral strategy            ... SPLIT-RIJ (Revised 2003 algorithm where possible)
Printlevel                                  ...      1
Contraction scheme used                     ... SEGMENTED contraction
Prescreening option                         ... SCHWARTZ
   Thresh                                   ... 1.000e-10
   Tcut                                     ... 1.000e-11
   Tpresel                                  ... 1.000e-11 
Coulomb Range Separation                    ... NOT USED
Exchange Range Separation                   ... NOT USED
Multipole approximations                    ... NOT USED
Finite Nucleus Model                        ... NOT USED
CABS basis                                  ... NOT available
Auxiliary Coulomb fitting basis             ... AVAILABLE
   # of basis functions in Aux-J            ...    955
   # of shells in Aux-J                     ...    325
   Maximum angular momentum in Aux-J        ...      4
Auxiliary J/K fitting basis                 ... NOT available
Auxiliary Correlation fitting basis         ... NOT available
Auxiliary 'external' fitting basis          ... NOT available

Checking pre-screening integrals            ... done (  0.0 sec) Dimension = 145
   => SHARK Basis and OBASIS are compatible. Storing Pre-screening
Shell pair information
Shell pair cut-off parameter TPreSel        ...   1.0e-11
Total number of shell pairs                 ...     10585
Shell pairs after pre-screening             ...      8866
Total number of primitive shell pairs       ...     38205
Primitive shell pairs kept                  ...     20964
          la=0 lb=0:   3919 shell pairs
          la=1 lb=0:   2758 shell pairs
          la=1 lb=1:    455 shell pairs
          la=2 lb=0:   1200 shell pairs
          la=2 lb=1:    430 shell pairs
          la=2 lb=2:    104 shell pairs

Checking whether 4 symmetric matrices of dimension 265 fit in memory
:Max Core in MB      =   2500.00
 MB in use           =     14.35
 MB left             =   2485.65
 MB needed           =      1.08
 Data fit in memory  = YES
Calculating RI/J V-Matrix + Cholesky decomp.... done (  0.0 sec)
Calculating Nuclear repulsion               ... done (  0.0 sec) ENN=   1120.559044016378 Eh

Diagonalization of the overlap matrix:
Smallest eigenvalue                        ... 1.757e-03
Time for diagonalization                   ...    0.013 sec
Threshold for overlap eigenvalues          ... 1.000e-07
Number of eigenvalues below threshold      ... 0
Time for construction of square roots      ...    0.004 sec
Total time needed                          ...    0.018 sec

-------------------
DFT GRID GENERATION
-------------------

General Integration Accuracy     IntAcc      ... 4.388
Radial Grid Type                 RadialGrid  ... OptM3 with GC (2021)
Angular Grid (max. ang.)         AngularGrid ... 4 (Lebedev-302)
Angular grid pruning method      GridPruning ... 4 (adaptive)
Weight generation scheme         WeightScheme... mBecke (2022)
Basis function cutoff            BFCut       ... 1.0000e-10
Integration weight cutoff        WCut        ... 1.0000e-14
Partially contracted basis set               ... off
Rotationally invariant grid construction     ... off
Angular grids for H and He will be reduced by one unit

Total number of grid points                  ...   152022
Total number of batches                      ...     2391
Average number of points per batch           ...       63
Average number of grid points per atom       ...     4343

--------------------
COSX GRID GENERATION
--------------------

GRIDX 1
-------
General Integration Accuracy     IntAcc      ... 3.816
Radial Grid Type                 RadialGrid  ... OptM3 with GC (2021)
Angular Grid (max. ang.)         AngularGrid ... 1 (Lebedev-50)
Angular grid pruning method      GridPruning ... 4 (adaptive)
Weight generation scheme         WeightScheme... mBecke (2022)
Basis function cutoff            BFCut       ... 1.0000e-10
Integration weight cutoff        WCut        ... 1.0000e-14
Partially contracted basis set               ... on
Rotationally invariant grid construction     ... off
Angular grids for H and He will be reduced by one unit

Total number of grid points                  ...    19347
Total number of batches                      ...      177
Average number of points per batch           ...      109
Average number of grid points per atom       ...      553
UseSFitting                                  ... on

GRIDX 2
-------
General Integration Accuracy     IntAcc      ... 4.020
Radial Grid Type                 RadialGrid  ... OptM3 with GC (2021)
Angular Grid (max. ang.)         AngularGrid ... 2 (Lebedev-110)
Angular grid pruning method      GridPruning ... 4 (adaptive)
Weight generation scheme         WeightScheme... mBecke (2022)
Basis function cutoff            BFCut       ... 1.0000e-10
Integration weight cutoff        WCut        ... 1.0000e-14
Partially contracted basis set               ... on
Rotationally invariant grid construction     ... off
Angular grids for H and He will be reduced by one unit

Total number of grid points                  ...    40511
Total number of batches                      ...      335
Average number of points per batch           ...      120
Average number of grid points per atom       ...     1157
UseSFitting                                  ... on

GRIDX 3
-------
General Integration Accuracy     IntAcc      ... 4.338
Radial Grid Type                 RadialGrid  ... OptM3 with GC (2021)
Angular Grid (max. ang.)         AngularGrid ... 3 (Lebedev-194)
Angular grid pruning method      GridPruning ... 4 (adaptive)
Weight generation scheme         WeightScheme... mBecke (2022)
Basis function cutoff            BFCut       ... 1.0000e-10
Integration weight cutoff        WCut        ... 1.0000e-14
Partially contracted basis set               ... on
Rotationally invariant grid construction     ... off
Angular grids for H and He will be reduced by one unit

Total number of grid points                  ...    88148
Total number of batches                      ...      709
Average number of points per batch           ...      124
Average number of grid points per atom       ...     2519
UseSFitting                                  ... on
Grids setup in   1.6 sec
Initializing property integral containers    ... done (  0.0 sec)

SHARK setup successfully completed in   1.8 seconds

Maximum memory used throughout the entire STARTUP-calculation: 40.3 MB


           ************************************************************
           *        Program running with 12 parallel MPI-processes    *
           *              working on a common directory               *
           ************************************************************
Loading Hartree-Fock densities                     ... done
Calculating cut-offs                               ... done
Initializing the effective Hamiltonian             ... done
Setting up the integral package (SHARK)            ... done
Starting the Coulomb interaction                   ... done (   0.1 sec)
Making the grid                                    ... done (   0.2 sec)
Mapping shells                                     ... done
Starting the XC term evaluation                    ... done (   0.1 sec)
  promolecular density results
     # of electrons  =    113.993964054
     EX              =    -89.283209758
     EC              =     -3.818847892
     EX+EC           =    -93.102057651
Transforming the Hamiltonian                       ... done (   0.0 sec)
Diagonalizing the Hamiltonian                      ... done (   0.0 sec)
Back transforming the eigenvectors                 ... done (   0.0 sec)
Now organizing SCF variables                       ... done
             **** ENERGY FILE WAS UPDATED (inp.en.tmp) ****
Finished Guess after   0.5 sec
Maximum memory used throughout the entire GUESS-calculation: 17.7 MB


           ************************************************************
           *        Program running with 12 parallel MPI-processes    *
           *              working on a common directory               *
           ************************************************************
--------------------
CPCM SOLVATION MODEL
--------------------
CPCM parameters:
  Epsilon                                         ...       4.8030
  Refrac                                          ...       1.4459
  Rsolv                                           ...       1.3000
  Surface type                                    ... GAUSSIAN VDW
  Discretization scheme                           ... Constant charge density
    Threshold for H atoms                         ...       5.0000 (charges/Ang^2)
    Threshold for non-H atoms                     ...       5.0000 (charges/Ang^2)
  Epsilon function type                           ...         CPCM
Solvent:                                          ... CHLOROFORM
Radii:
  Scheme                                          ... Element-dependent radii
  Radius for C  used is    3.8550 Bohr (=   2.0400 Ang.)
  Radius for O  used is    3.4469 Bohr (=   1.8240 Ang.)
  Radius for H  used is    2.4944 Bohr (=   1.3200 Ang.)
Calculating surface                               ...        done! (  0.0s)
Cavity surface points                             ...         2571
Cavity Volume                                     ...    1774.7721
Cavity Surface-area                               ...     896.9527
Calculating surface distance matrix               ...        done! (  0.1s)
Performing Cholesky decomposition & store         ...        done! (  0.2s)
Overall time for CPCM initialization              ...                 0.3s

----------------------------------------D-I-I-S--------------------------------------------
Iteration    Energy (Eh)           Delta-E    RMSDP     MaxDP     DIISErr   Damp  Time(sec)
-------------------------------------------------------------------------------------------
               ***  Starting incremental Fock matrix formation  ***
    1    -656.9152316923780290     0.00e+00  9.06e-03  7.02e-02  2.41e-01  0.700   2.2
    2    -657.1133451098075966    -1.98e-01  6.59e-03  4.05e-02  1.05e-01  0.700   1.3
                               ***Turning on AO-DIIS***
    3    -657.1970250339204540    -8.37e-02  2.63e-03  1.65e-02  3.84e-02  0.700   1.3
    4    -657.2457548157769907    -4.87e-02  4.44e-03  3.09e-02  1.96e-02  0.000   1.3
    5    -657.3509869037063709    -1.05e-01  8.63e-04  5.26e-03  5.10e-03  0.000   1.3
                              *** Initializing SOSCF ***
---------------------------------------S-O-S-C-F--------------------------------------
Iteration    Energy (Eh)           Delta-E    RMSDP     MaxDP     MaxGrad    Time(sec)
--------------------------------------------------------------------------------------
    6    -657.3513311434676325    -3.44e-04  2.84e-04  1.70e-03  9.84e-04     1.2
               *** Restarting incremental Fock matrix formation ***
    7    -657.3513183014561037     1.28e-05  1.64e-04  1.40e-03  2.78e-04     2.1
    8    -657.3513140728109647     4.23e-06  8.71e-05  7.44e-04  5.10e-04     1.5
    9    -657.3513216112874034    -7.54e-06  1.27e-05  8.67e-05  2.11e-05     1.4
                  *** Gradient check signals convergence ***

               *****************************************************
               *                     SUCCESS                       *
               *           SCF CONVERGED AFTER   9 CYCLES          *
               *****************************************************

Recomputing exchange energy using gridx3       ... done (    2.851 sec)
Old exchange energy                            :    -18.244901449 Eh
New exchange energy                            :    -18.244929951 Eh
Exchange energy change after final integration :     -0.000028502 Eh
Total energy after final integration           :   -657.351350055 Eh
             **** ENERGY FILE WAS UPDATED (inp.en.tmp) ****

----------------
TOTAL SCF ENERGY
----------------

Total Energy       :       -657.35135005547238 Eh          -17887.43961 eV

Components:
Nuclear Repulsion  :       1120.55904401637827 Eh           30491.96177 eV
Electronic Energy  :      -1777.90103691917966 Eh          -48379.14676 eV
One Electron Energy:      -3117.79428676502084 Eh          -84839.49570 eV
Two Electron Energy:       1339.89324984584118 Eh           36460.34894 eV
CPCM Dielectric    :         -0.00932865036193 Eh              -0.25385 eV

Virial components:
Potential Energy   :      -1310.58821545304727 Eh          -35662.91841 eV
Kinetic Energy     :        653.23686539757477 Eh           17775.47880 eV
Virial Ratio       :          2.00629861062020

DFT components:
N(Alpha)           :       56.999766693188 electrons
N(Beta)            :       56.999766693188 electrons
N(Total)           :      113.999533386376 electrons
E(X)               :      -72.346776238540 Eh       
E(C)               :       -4.496468855164 Eh       
E(XC)              :      -76.843245093703 Eh       

CPCM Solvation Model Properties:
Surface-charge          :         -0.02172943715621
Corrected charge        :          0.00000000000000
Outlying charge corr.   :          0.00002346505506 Eh               0.00064 eV
Free-energy (cav+disp)  :  This term is not implemented in the current solvation scheme

---------------
SCF CONVERGENCE
---------------

  Last Energy change         ...    7.5385e-06  Tolerance :   1.0000e-06
  Last MAX-Density change    ...    8.6746e-05  Tolerance :   1.0000e-05
  Last RMS-Density change    ...    1.2662e-05  Tolerance :   1.0000e-06
  Last DIIS Error            ...    9.8427e-04  Tolerance :   1.0000e-06
  Last Orbital Gradient      ...    2.1084e-05  Tolerance :   3.3300e-04
  Last Orbital Rotation      ...    6.9805e-05  Tolerance :   3.3300e-04


----------------
ORBITAL ENERGIES
----------------

  NO   OCC          E(Eh)            E(eV) 
   0   2.0000     -19.139302      -520.8069 
   1   2.0000     -19.119670      -520.2727 
   2   2.0000     -10.220122      -278.1037 
   3   2.0000     -10.206694      -277.7383 
   4   2.0000     -10.180147      -277.0159 
   5   2.0000     -10.179833      -277.0073 
   6   2.0000     -10.177908      -276.9550 
   7   2.0000     -10.175225      -276.8819 
   8   2.0000     -10.174265      -276.8558 
   9   2.0000     -10.170566      -276.7552 
  10   2.0000     -10.167644      -276.6757 
  11   2.0000     -10.164462      -276.5891 
  12   2.0000     -10.157586      -276.4020 
  13   2.0000     -10.152181      -276.2549 
  14   2.0000     -10.151925      -276.2479 
  15   2.0000      -1.030837       -28.0505 
  16   2.0000      -1.006238       -27.3811 
  17   2.0000      -0.864392       -23.5213 
  18   2.0000      -0.807156       -21.9638 
  19   2.0000      -0.768769       -20.9193 
  20   2.0000      -0.755976       -20.5712 
  21   2.0000      -0.713159       -19.4060 
  22   2.0000      -0.675979       -18.3943 
  23   2.0000      -0.667389       -18.1606 
  24   2.0000      -0.665944       -18.1212 
  25   2.0000      -0.623320       -16.9614 
  26   2.0000      -0.585736       -15.9387 
  27   2.0000      -0.558940       -15.2095 
  28   2.0000      -0.520795       -14.1716 
  29   2.0000      -0.519390       -14.1333 
  30   2.0000      -0.508141       -13.8272 
  31   2.0000      -0.485904       -13.2221 
  32   2.0000      -0.468627       -12.7520 
  33   2.0000      -0.460070       -12.5191 
  34   2.0000      -0.444259       -12.0889 
  35   2.0000      -0.434649       -11.8274 
  36   2.0000      -0.426904       -11.6167 
  37   2.0000      -0.424523       -11.5519 
  38   2.0000      -0.415254       -11.2996 
  39   2.0000      -0.405194       -11.0259 
  40   2.0000      -0.392130       -10.6704 
  41   2.0000      -0.390318       -10.6211 
  42   2.0000      -0.378080       -10.2881 
  43   2.0000      -0.371996       -10.1225 
  44   2.0000      -0.364308        -9.9133 
  45   2.0000      -0.355734        -9.6800 
  46   2.0000      -0.350520        -9.5381 
  47   2.0000      -0.336408        -9.1541 
  48   2.0000      -0.332718        -9.0537 
  49   2.0000      -0.317991        -8.6530 
  50   2.0000      -0.312524        -8.5042 
  51   2.0000      -0.300109        -8.1664 
  52   2.0000      -0.289479        -7.8771 
  53   2.0000      -0.260192        -7.0802 
  54   2.0000      -0.251930        -6.8554 
  55   2.0000      -0.242566        -6.6005 
  56   2.0000      -0.236993        -6.4489 
  57   0.0000       0.012531         0.3410 
  58   0.0000       0.028869         0.7856 
  59   0.0000       0.083905         2.2832 
  60   0.0000       0.109043         2.9672 
  61   0.0000       0.121534         3.3071 
  62   0.0000       0.127395         3.4666 
  63   0.0000       0.139738         3.8025 
  64   0.0000       0.146559         3.9881 
  65   0.0000       0.158368         4.3094 
  66   0.0000       0.162104         4.4111 
  67   0.0000       0.168923         4.5966 
*Only the first 10 virtual orbitals were printed.
Total SCF time: 0 days 0 hours 0 min 18 sec 
Finished LeanSCF after  18.2 sec

Maximum memory used throughout the entire LEANSCF-calculation: 31.6 MB


-------------------------------------------------------------------------------
                          DFT DISPERSION CORRECTION                            
                                                                               
                              DFTD3 V3.1  Rev 1                                
                          USING Becke-Johnson damping                          
-------------------------------------------------------------------------------
-------------------------   ----------------
Dispersion correction           -0.075071613
-------------------------   ----------------

NOTIFICATION: Different basis set in ORCA and otool_gcp:
ORCA: 265  gCP: 250 
If you are NOT using ECPs, check your basis set inputs!
------------------   -----------------
gCP correction             0.169672443
------------------   -----------------

-------------------------   --------------------
FINAL SINGLE POINT ENERGY      -657.256749225644
-------------------------   --------------------



           ************************************************************
           *        Program running with 12 parallel MPI-processes    *
           *              working on a common directory               *
           ************************************************************

------------------------------------------------------------------------------
                              ORCA PROPERTY CALCULATIONS
------------------------------------------------------------------------------

GBWName                                 ... inp.gbw
Number of atoms                         ...     35
Number of basis functions               ...    265
Max core memory                         ...   2500 MB

Electric properties:
Dipole moment                           ... YES
Quadrupole moment                       ...  NO
Static polarizability (Dipole/Dipole)   ...  NO
Static polarizability (Dipole/Quad.)    ...  NO
Static polarizability (Quad./Quad.)     ...  NO
Static polarizability (Velocity)        ...  NO
Static hyperpolarizability              ...  NO

Atomic electric properties:
Dipole moment                           ...  NO
Quadrupole moment                       ...  NO
Static polarizability                   ...  NO

Choice of electric origin               ... Center of mass
Position of electric origin             ...    -0.000005     0.000030     0.000014

General magnetic properties:
Magnetizability                         ...  NO

EPR properties:
g-Tensor (aka g-matrix)                 ...  NO
Zero-Field splitting spin-orbit         ...  NO
Zero-field splitting spin-spin          ...  NO
Hyperfine couplings                     ...  NO (   0 nuclei)
Quadrupole couplings                    ...  NO (   0 nuclei)
Contact density                         ...  NO (   0 nuclei)

NMR properties:
Chemical shifts                         ...  NO (   0 nuclei)
Spin-rotation constants                 ...  NO (   0 nuclei)
Spin-spin couplings                     ...  NO (   0 nuclei,    0 pairs)

Choice of magnetic origin               ... GIAO
Position of magnetic origin             ...     0.000000     0.000000     0.000000

Properties with geometric perturbations:
SCF Hessian                             ...  NO
IR spectrum                             ...  NO
VCD spectrum                            ...  NO
X-ray spectroscopy properties:
SCF XES/XAS/RIXS spectra                ...  NO

SCF SOC stabilization energy            ...  NO
Diagonal Born-Oppenheimer correction    ...  NO

-------------
DIPOLE MOMENT
-------------

Method             : SCF
Type of density    : Electron Density
Multiplicity       :   1
Irrep              :   0
Energy             :  -657.3513500554723805 Eh
Basis              : AO
                                X                 Y                 Z
Electronic contribution:      4.345431752      -4.048549967      -1.566964630
Nuclear contribution   :     -3.457415101       4.583179764       1.828073206
                        -----------------------------------------
Total Dipole Moment    :      0.888016651       0.534629797       0.261108576
                        -----------------------------------------
Magnitude (a.u.)       :      1.068915470
Magnitude (Debye)      :      2.716967203



--------------------
Rotational spectrum 
--------------------
 
Rotational constants in cm-1:             0.029699             0.018124             0.015310 
Rotational constants in MHz :           890.347305           543.358210           458.969942 

Dipole components along the rotational axes: 
x,y,z [a.u.] :     0.960648     0.432385     0.181047 
x,y,z [Debye]:     2.441774     1.099036     0.460184 

 

Dipole moment calculation done in   0.0 sec 

Maximum memory used throughout the entire PROP-calculation: 16.6 MB

--------------------------------
SUGGESTED CITATIONS FOR THIS RUN
--------------------------------

Below you find a list of papers that are relevant to this ORCA run
We neither can nor want to force you to cite these papers, but we appreciate if you do
You receive ORCA, which is the product of decades of hard work by many enthusiastic individuals, for free
The only thing we kindly ask in return is that you cite our papers,
We deeply appreciate it, if you show your appreciation for ORCA by not just citing the generic ORCA reference.

Please note that relegating all ORCA citations to the supporting information does *not* help us.
SI sections are not indexed - citations you put there will not count into any citation statistics
But we need these citations in order to attract the funding resources that allow us to do what we are doing

Therefore, if you are a happy ORCA user, please consider citing a few of the papers listed below in the main body of your paper

In addition to the list printed below, the program has created the file inp.bibtex that contains the list in bibtex format
You can import this file easily into all common literature databanks and citation aid programs

It goes without saying that in many instances, there are alternative algorithms to achieve similar
results as the ones you have gotten from ORCA. It is, of course, also the case that in some instances
ORCA just re-implements algorithms worked out by others. We are fully aware of that and we are also
fully appreciative of our colleagues work. Hence this citation list should not be read as indicating
that the listed papers, which are focused on our own work, are the only ones worth citing. It simply
meant to make it easier for users to cite ORCA specific papers. It is not a substitute for doing your
own literature research and citing the relevant literature in a scientifically appropriate manner.

List of essential papers. We consider these as the minimum necessary citations

  1. Neese, F.
     Software update: the ORCA program system, version 6.0
     WIRES Comput. Molec. Sci. 2025 15(1), e70019
     doi.org/10.1002/wcms.70019

List of papers to cite with high priority. The work reported in these papers was absolutely
necessary for this run to complete.
Our perspective: the developers of density functionals and basis sets usually get cited in chemistry papers
Good! But without the algorithms to do something with them, the functionals or basis sets would not do anything.
Hence, in our opinion, the algorithm design and method developments papers are equally worthy of getting cited

  1. Neese, F.
     An improvement of the resolution of the identity approximation for the formation of the Coulomb matrix
     J. Comp. Chem. 2003 24(14), 1740-1747
     doi.org/10.1002/jcc.10318
  2. Neese, F.; Wennmohs, F.; Hansen, A.; Becker, U.
     Efficient, approximate and parallel Hartree-Fock and hybrid DFT calculations. A 'chain-of-spheres' algorithm for the Hartree-Fock exchange
     Chem. Phys. 2009 356(1-3), 98-109
     doi.org/10.1016/j.chemphys.2008.10.036
  3. Grimme, S.; Antony, J.; Ehrlich, S.; Krieg, H.
     A consistent and accurate ab initio parametrization of density functional dispersion correction (DFT-D) for the 94 elements H-Pu
     J. Chem. Phys. 2010 132 , 154104
     doi.org/10.1063/1.3382344
  4. Grimme, S.; Ehrlich, S.; Goerigk, L.
     Effect of the damping function in dispersion corrected density functional theory
     J. Comput. Chem. 2011 32(7), 1456-1465
     doi.org/10.1002/jcc.21759
  5. Garcia-Rates, M.; Neese, F.
     Effect of the Solute Cavity on the Solvation Energy and its Derivatives within the Framework of the Gaussian Charge Scheme
     J. Comput. Chem. 2020 41 , 922-939
     doi.org/10.1002/jcc.26139
  6. Helmich-Paris, B.; de Souza, B.; Neese, F.; Izsák, R.
     An improved chain of spheres for exchange algorithm
     J. Chem. Phys. 2021 155(10), 104109
     doi.org/10.1063/5.0058766
  7. Neese, F.
     The SHARK Integral Generation and Digestion System
     J. Comp. Chem. 2022 44(3), 381
     doi.org/10.1002/jcc.26942

List of suggested additional citations. These are papers that are important in the 'surrounding' of 
of this run, or papers that preceded the highly important papers. If you like your results we are grateful for a citation.

  1. Izsak, R.; Neese, F.
     An overlap fitted chain of spheres exchange method
     J. Chem. Phys. 2011 135 , 144105
     doi.org/10.1063/1.3646921
  2. Izsak, R.; Hansen, A.; Neese, F.
     The resolution of identity and chain of spheres approximations for the LPNO-CCSD singles Fock term
     Molec. Phys. 2012 110 , 2413-2417
     doi.org/10.1080/00268976.2012.687466
  3. Neese, F.
     The ORCA program system
     WIRES Comput. Molec. Sci. 2012 2(1), 73-78
     doi.org/10.1002/wcms.81
  4. Izsak, R.; Neese, F.; Klopper, W.
     Robust fitting techniques in the chain of spheres approximation to the Fock exchange: The role of the complementary space
     J. Chem. Phys. 2013 139 , 
     doi.org/10.1063/1.4819264
  5. Neese, F.
     Software update: the ORCA program system, version 4.0
     WIRES Comput. Molec. Sci. 2018 8(1), 1-6
     doi.org/10.1002/wcms.1327
  6. Neese, F.; Wennmohs, F.; Becker, U.; Riplinger, C.
     The ORCA quantum chemistry program package
     J. Chem. Phys. 2020 152(22), 224108
     doi.org/10.1063/5.0004608
  7. Neese, F.
     Software update: The ORCA program system—Version 5.0
     WIRES Comput. Molec. Sci. 2022 12(1), e1606
     doi.org/10.1002/wcms.1606

List of optional additional citations

  1. Neese, F.
     Approximate second-order SCF convergence for spin unrestricted wavefunctions
     Chem. Phys. Lett. 2000 325(1-3), 93-98
     doi.org/10.1016/s0009-2614(00)00662-x

Timings for individual modules:

Sum of individual times          ...       21.402 sec (=   0.357 min)
Startup calculation              ...        2.014 sec (=   0.034 min)   9.4 %
SCF iterations                   ...       19.067 sec (=   0.318 min)  89.1 %
Property calculations            ...        0.321 sec (=   0.005 min)   1.5 %
                             ****ORCA TERMINATED NORMALLY****
TOTAL RUN TIME: 0 days 0 hours 0 minutes 21 seconds 735 msec
