  50
    -0.332931 !GC
 C          0.0000000000        0.0000000000        0.0000000000
 C          1.5456933446        0.0000000000        0.0000000000
 C         -2.3913867706        4.6007178495        0.0000000000
 C         -3.4647618688        3.7374010709       -0.0948097636
 C         -3.3493767538        2.4460927962        0.3635625619
 C         -2.1603637154        1.9976579340        0.9404964331
 C         -1.0853226806        2.8937744947        1.0891791165
 C         -1.2138872985        4.1744587779        0.5818195951
 N         -2.0083603174        0.6504979733        1.2793995856
 C         -0.6563863798        0.0958080785        1.4076019068
 C          0.1285796850        1.0158298529        2.3985618997
 C          0.2051541563        2.4753230676        1.7879212144
 C          1.6042699819        0.5679651287        2.4205775079
 C          2.1250810262        1.0235394034        1.0258548606
 C          1.4172208815        2.4071825763        0.7833722623
 C          3.6266112124        1.0709129244        1.0009959589
 C          4.3307810704        2.1807227371        0.8628999258
 C          3.7315284253        3.5194599019        0.6492036582
 N          2.2660221201        3.6607283112        1.0669089653
 C          2.0759708265        3.9454773688        2.5546239320
 C          0.6461954200        3.5160571154        2.8679967815
 O          1.7425604593        4.6767764890        0.3792388119
 H          1.0663368594        2.4877825146       -0.2471524026
 C         -0.4913409329        0.9270459644        3.7912255751
 O          0.1854906552        0.5248420496        4.7131328632
 O         -1.8011611271        1.2811810048        3.8966775294
 C         -2.2279484531        1.0939527105        5.2094836698
 H         -0.3751295286       -0.8967400992       -0.5077297230
 H         -0.3714739847        0.8332670234       -0.6037283005
 H          1.9228273062       -0.9993520586        0.2387509131
 H          1.9358007626        0.2363900744       -0.9959885014
 H         -2.4720181896        5.6047073993       -0.3839960737
 H         -4.3860736153        4.0707631756       -0.5441476345
 H         -4.1711686887        1.7572064596        0.2673378219
 H         -0.3594979050        4.8298643329        0.6147885975
 H         -2.7550911813       -0.0087429375        1.0366075468
 H         -0.7222817023       -0.9030657246        1.8637780554
 H          1.6900336318       -0.5125387370        2.5594941994
 H          2.1513522494        1.0539227275        3.2318201287
 H          4.1248822143        0.1249414483        1.1416547924
 H          5.4091401899        2.1315091241        0.8891509032
 H          4.2981390506        4.2880722905        1.1798930016
 H          3.7740306458        3.7823671684       -0.4101316558
 H          2.8160517011        3.3821797366        3.1260091886
 H          2.2425922879        5.0091570995        2.7352515717
 H         -0.0330225490        4.3729267952        2.8520929688
 H          0.5722369392        3.0929048265        3.8727333504
 H         -1.6455765347        1.7391311408        5.8708672077
 H         -3.2885634219        1.3416799373        5.2824390549
 H         -2.0686641202        0.0494495783        5.4863624188
  50
    -0.331573 !GC
 C          0.0000000000        0.0000000000        0.0000000000
 C          1.5464797353        0.0000000000        0.0000000000
 C         -2.4362402725        4.5587620031        0.0000000000
 C         -3.5161968242        3.6992281873       -0.0394317779
 C         -3.3869603012        2.4119726992        0.4263128727
 C         -2.1737043940        1.9587233947        0.9483085666
 C         -1.0939370269        2.8581062109        1.0507419125
 C         -1.2383403413        4.1351251990        0.5400631270
 N         -2.0199067529        0.6008495131        1.2965432721
 C         -0.6508997504        0.0765115974        1.4104958960
 C          0.1267521870        1.0099107335        2.3846700632
 C          0.1956979521        2.4617288066        1.7608966293
 C          1.6081446878        0.5782929759        2.4176261450
 C          2.1292827917        1.0281713494        1.0205735738
 C          1.4199691007        2.4088590719        0.7738351307
 C          3.6301935677        1.0805556116        0.9928361814
 C          4.3296308417        2.1958649526        0.8754909455
 C          3.7273148843        3.5378112233        0.6884774406
 N          2.2540031503        3.6656560949        1.0824931387
 C          2.0374150591        3.9405488511        2.5694628520
 C          0.6081015663        3.4926413303        2.8598632462
 O          1.7332698477        4.6823740291        0.3930823178
 H          1.0842042154        2.4943522068       -0.2613874040
 C         -0.5360727861        0.9456474330        3.7542187270
 O         -0.8275437586       -0.1503296747        4.1799462766
 O         -0.7594268265        2.1162809187        4.4097756110
 C         -1.4131648230        1.8595276218        5.6127228996
 H         -0.3763112499       -0.8897533219       -0.5189697742
 H         -0.3732471620        0.8407804196       -0.5918351206
 H          1.9229745401       -0.9987266422        0.2420137466
 H          1.9359324040        0.2325099156       -0.9971039170
 H         -2.5302058974        5.5608747803       -0.3859851376
 H         -4.4551124064        4.0323607717       -0.4505762172
 H         -4.2127932769        1.7236949973        0.3697160490
 H         -0.3857018470        4.7936955591        0.5521774812
 H         -2.7054808732        0.2242209666        1.9520901220
 H         -0.6799509081       -0.9314340063        1.8506919160
 H          1.7021629802       -0.4999726503        2.5667849429
 H          2.1466906511        1.0733027200        3.2287276537
 H          4.1322572433        0.1340821519        1.1147792357
 H          5.4081598259        2.1499575234        0.8996250956
 H          4.2822217604        4.2935574910        1.2489690625
 H          3.7871631837        3.8295645520       -0.3624163896
 H          2.7767312692        3.3849188851        3.1491473336
 H          2.1877335688        5.0054567821        2.7569686094
 H         -0.0830971668        4.3400296021        2.8437761375
 H          0.5190683157        3.0501786127        3.8571332098
 H         -0.8014579320        1.1833641399        6.2139227472
 H         -1.5678965754        2.7984769903        6.1469347172
 H         -2.3748725509        1.3874715699        5.3992233654
  50
    -0.278099 !GC
 C          0.0000000000        0.0000000000        0.0000000000
 C          1.5468979746        0.0000000000        0.0000000000
 C         -2.3470196056        4.6202288942        0.0000000000
 C         -3.4303265694        3.7698425157       -0.1002887576
 C         -3.3313475583        2.4747357537        0.3517157193
 C         -2.1483090395        2.0082622166        0.9262725202
 C         -1.0623838776        2.8914339881        1.0771615625
 C         -1.1751973485        4.1771669173        0.5802894573
 N         -2.0126050618        0.6583474682        1.2589411728
 C         -0.6666111529        0.0886884522        1.4045151877
 C          0.1250965812        1.0044508599        2.3853502265
 C          0.2165744228        2.4595301625        1.7860585126
 C          1.5996563115        0.5460497926        2.4203362300
 C          2.1359808530        1.0098131819        1.0355602089
 C          1.4515553127        2.4076319668        0.8112552492
 C          3.6378746649        1.0375793546        1.0193566294
 C          4.3574128123        2.1435243789        0.9418554424
 C          3.7803235200        3.5010582001        0.7921373180
 N          2.3044067549        3.6420632906        1.1710321861
 C          2.0731364802        3.8762461920        2.6641816244
 C          0.6286390031        3.4565903184        2.9186478968
 O          1.8112196457        4.6891531358        0.5074290155
 H          1.1313853234        2.5232690908       -0.2260097731
 C         -0.5156746125        0.9716307373        3.7644011021
 O          0.1955248683        0.7736109516        4.7263259250
 O         -1.8529625935        1.2089744566        3.8157216835
 C         -2.2875957862        1.1201447499        5.1366742049
 H         -0.3747380993       -0.8918172865       -0.5164269503
 H         -0.3663954380        0.8393400048       -0.5985929221
 H          1.9223085634       -1.0030470796        0.2255135711
 H          1.9357711310        0.2467208269       -0.9939339940
 H         -2.4166768804        5.6285831250       -0.3746542670
 H         -4.3479664450        4.1174407595       -0.5463334520
 H         -4.1629499625        1.7979305678        0.2544864312
 H         -0.3155566993        4.8247715873        0.6285160855
 H         -2.7099357892       -0.0093525818        0.9312865450
 H         -0.7394301585       -0.9102425882        1.8587367496
 H          1.6726226805       -0.5361792461        2.5519380502
 H          2.1432136751        1.0168561608        3.2423992163
 H          4.1227988082        0.0792806630        1.1154613903
 H          5.4348049500        2.0779332275        0.9727195444
 H          4.3407339639        4.2280873982        1.3844124730
 H          3.8590957759        3.8263375348       -0.2477061309
 H          2.7888024282        3.2841036851        3.2371355389
 H          2.2471240268        4.9305686238        2.8872057642
 H         -0.0419739998        4.3205080739        2.9104155391
 H          0.5004957047        2.9852376639        3.8999165809
 H         -1.7419814267        1.8464494489        5.7433851754
 H         -3.3585484437        1.3267794288        5.1789355619
 H         -2.0864925217        0.1124807435        5.5073389323
  50
    -0.197189 !GC
 C          0.0000000000        0.0000000000        0.0000000000
 C          1.5466797079        0.0000000000        0.0000000000
 C         -2.4041583568        4.5969398863        0.0000000000
 C         -3.4774524844        3.7316862282       -0.0766664041
 C         -3.3552996742        2.4436532617        0.3892144602
 C         -2.1592382973        2.0004661687        0.9551877899
 C         -1.0829778055        2.8985954161        1.0840961658
 C         -1.2201089730        4.1742504576        0.5709151837
 N         -2.0032793645        0.6581116297        1.3047407090
 C         -0.6526595208        0.0947890421        1.4174953568
 C          0.1488930633        1.0116849073        2.3951274133
 C          0.2150584415        2.4885908282        1.7740298074
 C          1.6211570675        0.5527441690        2.4094799389
 C          2.1385256441        1.0022085451        1.0118100180
 C          1.4394247629        2.3903305171        0.7697348082
 C          3.6403007215        1.0391472207        0.9799843348
 C          4.3511198961        2.1438807377        0.8345736705
 C          3.7594866087        3.4856949445        0.6185236782
 N          2.2985223565        3.6382944747        1.0477065444
 C          2.1219725731        3.9241926602        2.5371585680
 C          0.6936077230        3.4996354896        2.8645992401
 O          1.7771735264        4.6582534454        0.3639900532
 H          1.0825623836        2.4715179248       -0.2587585880
 C         -0.4617475237        0.9453029012        3.7911827135
 O         -1.3101646067        1.7608904015        4.0818373057
 O         -0.0352515880       -0.0494895599        4.6141609591
 C         -0.6727918467        0.0584214480        5.8472209210
 H         -0.3730306055       -0.8924395962       -0.5168705641
 H         -0.3696567322        0.8378648167       -0.5984460187
 H          1.9233890983       -0.9977796765        0.2463767326
 H          1.9365140843        0.2273134984       -0.9983607706
 H         -2.4925287404        5.5978871572       -0.3901523072
 H         -4.4042896732        4.0610032542       -0.5175010596
 H         -4.1777278331        1.7536522025        0.3077205482
 H         -0.3660837409        4.8306248273        0.5925325266
 H         -2.6696760875       -0.0342861526        0.9647255791
 H         -0.7168968185       -0.9047366618        1.8717309462
 H          1.6967368940       -0.5283040112        2.5497683165
 H          2.1737487878        1.0328767113        3.2204763755
 H          4.1329720323        0.0905228533        1.1224073665
 H          5.4291865789        2.0878920774        0.8565077746
 H          4.3354152550        4.2532620475        1.1409732120
 H          3.7950822160        3.7432916424       -0.4425231644
 H          2.8656066810        3.3589916990        3.1019375403
 H          2.2938564693        4.9873177809        2.7159053972
 H          0.0173984221        4.3591094308        2.8631293969
 H          0.6277334196        3.0668857460        3.8670613241
 H         -1.7516159350       -0.0329767532        5.7024995476
 H         -0.3149051764       -0.7341497073        6.5069021428
 H         -0.4425336191        1.0357044371        6.2779186967
  50
    -0.190637 !GC
 C          0.0000000000        0.0000000000        0.0000000000
 C          1.5459543814        0.0000000000        0.0000000000
 C         -2.4542986816        4.5620722200        0.0000000000
 C         -3.5327543956        3.7002804109       -0.0297473054
 C         -3.3974897718        2.4145782758        0.4386169859
 C         -2.1798373118        1.9658471740        0.9545615528
 C         -1.1018933311        2.8679925306        1.0495537557
 C         -1.2521202418        4.1425958525        0.5339229065
 N         -2.0176649976        0.6075074550        1.2925555951
 C         -0.6486667519        0.0873483331        1.4106340000
 C          0.1272912347        1.0257479194        2.3846587943
 C          0.1932322878        2.4767855196        1.7534667203
 C          1.6078428111        0.5950722420        2.4157294756
 C          2.1251670485        1.0368669445        1.0142517756
 C          1.4091678503        2.4124640375        0.7555704797
 C          3.6260223414        1.0942212399        0.9853664391
 C          4.3217763969        2.2087228327        0.8414712593
 C          3.7137556449        3.5432621269        0.6240736244
 N          2.2449083132        3.6756215122        1.0328009781
 C          2.0448097437        3.9729856038        2.5169040094
 C          0.6186316554        3.5304070442        2.8283509704
 O          1.7149861963        4.6803268060        0.3328754326
 H          1.0624227039        2.4820286426       -0.2772369320
 C         -0.5076615597        0.9523578972        3.7688061416
 O         -1.4089599207        1.7325075863        3.9904039648
 O         -0.0458631222        0.0317230161        4.6565175260
 C         -0.7321913534        0.1617849691        5.8611452492
 H         -0.3763932034       -0.8937118291       -0.5120406881
 H         -0.3745210717        0.8361390925       -0.5975337943
 H          1.9232105464       -0.9965589660        0.2496402487
 H          1.9359218462        0.2260162979       -0.9984330156
 H         -2.5521302746        5.5619861827       -0.3906481294
 H         -4.4742967358        4.0294134173       -0.4382902133
 H         -4.2205591253        1.7227433756        0.3841960088
 H         -0.3999677402        4.8017488404        0.5342458444
 H         -2.7119738958        0.2082437557        1.9337955626
 H         -0.6775041326       -0.9179069103        1.8571022046
 H          1.7041964075       -0.4823103693        2.5705056144
 H          2.1452551260        1.0970000494        3.2236146697
 H          4.1313310097        0.1524883878        1.1288206225
 H          5.4004717781        2.1671984181        0.8657294855
 H          4.2722402179        4.3158672962        1.1575394961
 H          3.7604111987        3.8063753084       -0.4350492934
 H          2.7888998826        3.4244373339        3.0973182311
 H          2.1982440605        5.0403173735        2.6874547889
 H         -0.0706423776        4.3789960007        2.8028314400
 H          0.5435189740        3.1124172877        3.8361720450
 H         -1.7967145663       -0.0087754640        5.6872706608
 H         -0.3482349410       -0.5685415809        6.5755595602
 H         -0.5819688572        1.1735042429        6.2442041653
  50
    -0.183925 !GC
 C          0.0000000000        0.0000000000        0.0000000000
 C          1.5457474697        0.0000000000        0.0000000000
 C         -2.4750873419        4.5825927879        0.0000000000
 C         -3.5523457161        3.7192472612       -0.0271966355
 C         -3.4122964144        2.4318354696        0.4348911953
 C         -2.1912409616        1.9833964218        0.9428925349
 C         -1.1137773223        2.8866993450        1.0355653300
 C         -1.2692224348        4.1628705958        0.5255602006
 N         -2.0244128342        0.6232771593        1.2713155896
 C         -0.6585393718        0.1016588550        1.4063386861
 C          0.1158952100        1.0487115687        2.3742391576
 C          0.1844604508        2.4929215916        1.7329710738
 C          1.5961338006        0.6174396103        2.4121657766
 C          2.1163083667        1.0450595006        1.0074491504
 C          1.3994949518        2.4174379245        0.7322068513
 C          3.6174245643        1.1026980917        0.9841123332
 C          4.3130054579        2.2152423511        0.8248059444
 C          3.7035862375        3.5447241128        0.5825266655
 N          2.2360173215        3.6812043169        0.9941937332
 C          2.0379002242        3.9922692970        2.4757456104
 C          0.6156084168        3.5435687249        2.7974640163
 O          1.7041840774        4.6782923678        0.2852657862
 H          1.0504171745        2.4743164645       -0.3005489385
 C         -0.5193791181        0.9947698918        3.7589308138
 O         -1.3984077417        1.8016064862        3.9753697816
 O         -0.0870484613        0.0646355864        4.6515444742
 C         -0.7726194271        0.2194765956        5.8538388102
 H         -0.3768311014       -0.8996607195       -0.5012457496
 H         -0.3735250053        0.8290095569       -0.6081209934
 H          1.9235169536       -0.9937321032        0.2600506648
 H          1.9355042535        0.2159436118       -1.0007365802
 H         -2.5775511495        5.5834482913       -0.3869501567
 H         -4.4966631972        4.0484711474       -0.4291498103
 H         -4.2341370342        1.7384695425        0.3815688258
 H         -0.4175819237        4.8228157938        0.5204460624
 H         -2.6612237475        0.2218132503        1.9686755859
 H         -0.6960586253       -0.8977019517        1.8648712048
 H          1.6910469559       -0.4584273132        2.5780287681
 H          2.1329202156        1.1266320949        3.2159331732
 H          4.1227533462        0.1637721293        1.1451245096
 H          5.3916087500        2.1754281684        0.8544003461
 H          4.2622166159        4.3286219281        1.0991606728
 H          3.7463200199        3.7869631227       -0.4817391262
 H          2.7882498838        3.4548655505        3.0585291010
 H          2.1846392996        5.0623589723        2.6343631440
 H         -0.0777588468        4.3889626082        2.7773187541
 H          0.5474298241        3.1244582748        3.8056960689
 H         -1.8402623261        0.0683306088        5.6798778908
 H         -0.4038609580       -0.5115632026        6.5758100104
 H         -0.6032531426        1.2317894568        6.2278589995
  50
    -0.178106 !GC
 C          0.0000000000        0.0000000000        0.0000000000
 C          1.5456321542        0.0000000000        0.0000000000
 C         -2.4066609572        4.6444569961        0.0000000000
 C         -3.4870399069        3.7874328168       -0.0698512870
 C         -3.3676146804        2.4941585386        0.3823136289
 C         -2.1669044461        2.0378193189        0.9277060372
 C         -1.0846510004        2.9286303393        1.0553395660
 C         -1.2183869821        4.2107473404        0.5537222918
 N         -2.0087497196        0.6898600505        1.2426305558
 C         -0.6639847393        0.1247308439        1.4018332299
 C          0.1277160665        1.0557219820        2.3752792682
 C          0.2094884170        2.5096822587        1.7471182305
 C          1.6027236600        0.6047123051        2.4039630357
 C          2.1254899117        1.0369679660        1.0028448818
 C          1.4225064990        2.4196431219        0.7401078163
 C          3.6272588165        1.0773876263        0.9761457757
 C          4.3364039967        2.1817199376        0.8208006711
 C          3.7430649578        3.5197901311        0.5882394552
 N          2.2792621852        3.6739733325        1.0071962154
 C          2.0965822389        3.9790104434        2.4919946222
 C          0.6690946853        3.5519098213        2.8193473052
 O          1.7586955903        4.6836757915        0.3079631918
 H          1.0693233622        2.4871233995       -0.2905952991
 C         -0.4869200419        0.9986587159        3.7695762829
 O         -1.3525403061        1.8107149457        4.0155751069
 O         -0.0466235582        0.0568880951        4.6466947136
 C         -0.7079727727        0.2080501762        5.8629729850
 H         -0.3747944359       -0.9059567663       -0.4913361809
 H         -0.3700293120        0.8220181361       -0.6200541444
 H          1.9226905851       -0.9949668772        0.2564741804
 H          1.9354764350        0.2182643059       -1.0002266677
 H         -2.4913648988        5.6500282510       -0.3790277670
 H         -4.4170479575        4.1270117836       -0.4960485975
 H         -4.1947689959        1.8097056397        0.3014868001
 H         -0.3612153086        4.8630426158        0.5723383880
 H         -2.6402437008       -0.0134459266        0.8620116025
 H         -0.7407590118       -0.8651938303        1.8746494877
 H          1.6838106300       -0.4736680235        2.5606143936
 H          2.1487358144        1.0997161941        3.2104449133
 H          4.1214797328        0.1314534363        1.1308349249
 H          5.4144862148        2.1281657349        0.8470329152
 H          4.3145178942        4.2933518339        1.1064824771
 H          3.7844179050        3.7670241763       -0.4749334888
 H          2.8409157582        3.4248861681        3.0667921668
 H          2.2634131376        5.0450756647        2.6572975794
 H         -0.0104617202        4.4086222390        2.8091519980
 H          0.6007066563        3.1279771374        3.8253909394
 H         -1.7795944462        0.0657764638        5.7075096414
 H         -0.3309421519       -0.5316492900        6.5715136766
 H         -0.5255151197        1.2161022025        6.2417415722
  50
    -0.164740 !GC
 C          0.0000000000        0.0000000000        0.0000000000
 C          1.5463289673        0.0000000000        0.0000000000
 C         -2.3760724631        4.6375555023        0.0000000000
 C         -3.4545865975        3.7805017103       -0.0941698951
 C         -3.3437957385        2.4857047305        0.3556473338
 C         -2.1540119133        2.0271520463        0.9225885226
 C         -1.0733097326        2.9167769076        1.0700940148
 C         -1.1977548818        4.2015079442        0.5727223243
 N         -2.0085397699        0.6791410195        1.2555049698
 C         -0.6620899114        0.1127174205        1.4041002596
 C          0.1280227744        1.0367334869        2.3835896907
 C          0.2142941526        2.4898179500        1.7679792808
 C          1.6028530980        0.5837534610        2.4130968804
 C          2.1295157339        1.0297261654        1.0179056912
 C          1.4288773110        2.4160357180        0.7686283989
 C          3.6312571091        1.0713626942        0.9963556000
 C          4.3394565969        2.1789691273        0.8603306868
 C          3.7454653354        3.5200442558        0.6455326070
 N          2.2796939513        3.6661762130        1.0603165706
 C          2.0869630868        3.9471108405        2.5491133337
 C          0.6579687686        3.5132255105        2.8631424647
 O          1.7613985975        4.6865447631        0.3749345438
 H          1.0831551933        2.4972567442       -0.2636502680
 C         -0.5041454597        0.9821287149        3.7690931178
 O         -1.3815618296        1.7907838334        3.9828951124
 O         -0.0346286643        0.0970320014        4.6887345543
 C         -0.6643883782        0.3147690318        5.9116966112
 H         -0.3745462621       -0.9015455473       -0.4994922066
 H         -0.3693407875        0.8274421461       -0.6130893212
 H          1.9229377461       -0.9981998633        0.2442001061
 H          1.9359260245        0.2299409207       -0.9976661033
 H         -2.4536824254        5.6448526008       -0.3759559385
 H         -4.3766670193        4.1217489336       -0.5359535542
 H         -4.1702681244        1.8023277691        0.2603474215
 H         -0.3406539122        4.8531744998        0.6090832262
 H         -2.7083078714        0.0061178542        0.9452553052
 H         -0.7380917060       -0.8805981923        1.8703863822
 H          1.6805992732       -0.4961312829        2.5606635623
 H          2.1482075335        1.0689639188        3.2257246396
 H          4.1259801946        0.1237754707        1.1382821657
 H          5.4175000131        2.1262231355        0.8894119107
 H          4.3136031000        4.2865341462        1.1776757829
 H          3.7909874122        3.7833143646       -0.4136248407
 H          2.8292449245        3.3854362322        3.1191619094
 H          2.2508340477        5.0108064884        2.7318258928
 H         -0.0226786125        4.3691761303        2.8642074571
 H          0.5879796942        3.0695489592        3.8604337191
 H         -1.7369669946        0.1417394176        5.8017535268
 H         -0.2488457640       -0.3664534106        6.6565121627
 H         -0.4909174378        1.3500804836        6.2144345312
  50
    -0.159870 !GC
 C          0.0000000000        0.0000000000        0.0000000000
 C          1.5463603826        0.0000000000        0.0000000000
 C         -2.3707504039        4.6409749098        0.0000000000
 C         -3.4501121909        3.7850225139       -0.0943459017
 C         -3.3406571652        2.4901161010        0.3553953983
 C         -2.1513673090        2.0303301421        0.9223785249
 C         -1.0697771734        2.9189200804        1.0703415139
 C         -1.1929492361        4.2036509388        0.5728684949
 N         -2.0075095401        0.6820155140        1.2546553084
 C         -0.6621053865        0.1139650907        1.4044158269
 C          0.1296256230        1.0375371882        2.3832112365
 C          0.2172646793        2.4911531718        1.7688636028
 C          1.6041111555        0.5831346113        2.4130959733
 C          2.1312996222        1.0282077264        1.0178870523
 C          1.4322447037        2.4155666396        0.7698235144
 C          3.6330452275        1.0680239425        0.9959138030
 C          4.3425262819        2.1747504506        0.8595319082
 C          3.7500188899        3.5166710880        0.6461164287
 N          2.2848311285        3.6651297876        1.0625244449
 C          2.0941469977        3.9444023662        2.5518895846
 C          0.6630352705        3.5177605109        2.8657937173
 O          1.7684950233        4.6879366842        0.3792691857
 H          1.0870474456        2.4983519943       -0.2624918548
 C         -0.5016659799        0.9893693458        3.7694060821
 O         -1.4117734400        1.7664513432        3.9644240636
 O          0.0049753055        0.1478221347        4.7101277901
 C         -0.6375081311        0.3657037735        5.9264401481
 H         -0.3745525346       -0.9017037946       -0.4992026006
 H         -0.3692124620        0.8271248963       -0.6136066405
 H          1.9228228960       -0.9984300356        0.2435125373
 H          1.9360117834        0.2304814687       -0.9975198612
 H         -2.4473334162        5.6483601004       -0.3758255691
 H         -4.3718293987        4.1271837800       -0.5360580045
 H         -4.1678351481        1.8075847840        0.2600672784
 H         -0.3352670103        4.8546298801        0.6098095406
 H         -2.7085302289        0.0100616889        0.9446308251
 H         -0.7394321998       -0.8792021806        1.8707212129
 H          1.6807038987       -0.4968746803        2.5604307770
 H          2.1496326902        1.0674124546        3.2261694667
 H          4.1266658438        0.1197309843        1.1373152551
 H          5.4205471787        2.1206320797        0.8877086557
 H          4.3199736008        4.2819218496        1.1781339497
 H          3.7949578216        3.7804997705       -0.4129287480
 H          2.8337299403        3.3780778677        3.1208566097
 H          2.2632215748        5.0070931306        2.7359656280
 H         -0.0119277066        4.3780635457        2.8626267479
 H          0.5906808594        3.0774202352        3.8643548696
 H         -1.7011821982        0.1437951129        5.8177851051
 H         -0.1954928598       -0.2797202655        6.6876619744
 H         -0.5103313843        1.4141392256        6.2061210292
  50
    -0.159256 !GC
 C          0.0000000000        0.0000000000        0.0000000000
 C          1.5454974093        0.0000000000        0.0000000000
 C         -2.3634607571        4.6592635482        0.0000000000
 C         -3.4460220952        3.8080916757       -0.1005644422
 C         -3.3413273180        2.5097529716        0.3403438222
 C         -2.1538912045        2.0423367137        0.9051236306
 C         -1.0711489930        2.9266897464        1.0648623552
 C         -1.1878728032        4.2156797631        0.5728278821
 N         -2.0093195651        0.6897319814        1.2166044581
 C         -0.6663725573        0.1255372000        1.3952924327
 C          0.1116008530        1.0571150198        2.3821120471
 C          0.2104370899        2.4906149141        1.7692724661
 C          1.5889161855        0.6123031070        2.4199804596
 C          2.1177635129        1.0554156242        1.0246281990
 C          1.4097240092        2.4360711103        0.7653234625
 C          3.6193384004        1.1060921389        1.0094999317
 C          4.3219255091        2.2166567319        0.8687688106
 C          3.7216280708        3.5528686615        0.6422100094
 N          2.2527224586        3.6936062000        1.0477097470
 C          2.0514690444        3.9886186446        2.5323465186
 C          0.6219645056        3.5545101995        2.8419489508
 O          1.7321997581        4.7038308547        0.3490011225
 H          1.0663592971        2.5078953654       -0.2684576698
 C         -0.5148460707        1.0194635257        3.7727925171
 O          0.2158201062        1.0026916118        4.7393392352
 O         -1.8739475959        1.0404675986        3.8384469365
 C         -2.2761357473        1.0187221507        5.1719832321
 H         -0.3766192580       -0.9079641842       -0.4860406260
 H         -0.3702938837        0.8196387448       -0.6229615294
 H          1.9225459740       -0.9981767679        0.2436746787
 H          1.9357729487        0.2320931348       -0.9968671908
 H         -2.4348099341        5.6693961823       -0.3695231507
 H         -4.3659420457        4.1563015583       -0.5414745346
 H         -4.1699291532        1.8300465362        0.2377680467
 H         -0.3284906099        4.8643087054        0.6135730188
 H         -2.7419785133        0.0317108604        0.9528887009
 H         -0.7513546334       -0.8641709706        1.8668860999
 H          1.6777760935       -0.4665391542        2.5688451097
 H          2.1267311296        1.1067309503        3.2322955198
 H          4.1188909093        0.1622401235        1.1593325980
 H          5.4001482946        2.1701471858        0.9026103095
 H          4.2825783976        4.3257848918        1.1727238160
 H          3.7717776924        3.8097641993       -0.4182893736
 H          2.7909007724        3.4336637590        3.1126172230
 H          2.2118545858        5.0544018768        2.7059772759
 H         -0.0603656897        4.4088174581        2.8228532355
 H          0.5475713391        3.1330163814        3.8479854371
 H         -1.8796090203        1.9008409795        5.6794640254
 H         -3.3665028010        1.0158064989        5.2218131515
 H         -1.8777334393        0.1180491007        5.6443841395
  50
    -0.155827 !GC
 C          0.0000000000        0.0000000000        0.0000000000
 C          1.5458838548        0.0000000000        0.0000000000
 C         -2.4065050680        4.6039766372        0.0000000000
 C         -3.4806465865        3.7404532995       -0.0831033363
 C         -3.3605697889        2.4498590099        0.3761730798
 C         -2.1660563372        2.0028796588        0.9427682630
 C         -1.0900239013        2.8992206679        1.0804125389
 C         -1.2235884384        4.1790679759        0.5716667342
 N         -2.0080836072        0.6568376301        1.2763261790
 C         -0.6550069992        0.1016634131        1.4064340464
 C          0.1302168692        1.0255704788        2.3919969753
 C          0.2035396192        2.4843079575        1.7760960408
 C          1.6072296708        0.5857298391        2.4163425421
 C          2.1249810075        1.0335707910        1.0179908451
 C          1.4115648800        2.4126894625        0.7665305901
 C          3.6264055788        1.0856469867        0.9924698568
 C          4.3266390631        2.1971771045        0.8482475807
 C          3.7223023114        3.5318095961        0.6237219369
 N          2.2549929380        3.6662883038        1.0366903551
 C          2.0597109171        3.9681426363        2.5200933201
 C          0.6392941469        3.5128201829        2.8406756856
 O          1.7228992588        4.6681084407        0.3346646776
 H          1.0561049233        2.4829701562       -0.2632448912
 C         -0.4803436074        0.9146278030        3.7857184118
 O         -1.6036908757        1.3504068508        3.9219985721
 O          0.2451169068        0.3345015642        4.7780858417
 C         -0.4818837094        0.3610545893        5.9650549688
 H         -0.3753097474       -0.8984280635       -0.5045639251
 H         -0.3713671609        0.8313387795       -0.6064436852
 H          1.9230413392       -0.9974834076        0.2460785198
 H          1.9358292815        0.2290469649       -0.9976978199
 H         -2.4907850800        5.6075681252       -0.3843525252
 H         -4.4060651166        4.0729368728       -0.5245860641
 H         -4.1824328740        1.7601789992        0.2865284023
 H         -0.3696605915        4.8352848706        0.5963613779
 H         -2.6982641872       -0.0206449852        0.9572385846
 H         -0.7197678939       -0.8953456986        1.8665694194
 H          1.6973867232       -0.4933187326        2.5634428892
 H          2.1497643724        1.0794718015        3.2260171231
 H          4.1280878893        0.1425536712        1.1398401449
 H          5.4050204015        2.1524828869        0.8765600164
 H          4.2828263352        4.3068015426        1.1515818533
 H          3.7667000535        3.7882635599       -0.4370979198
 H          2.8121567590        3.4281060686        3.0977881224
 H          2.2056007319        5.0370896189        2.6864121747
 H         -0.0557594469        4.3568328159        2.8276555631
 H          0.5786475804        3.0906646418        3.8467588466
 H         -1.4000773751       -0.2146973875        5.8332020520
 H          0.1203679502       -0.0692698043        6.7666984121
 H         -0.7319936501        1.3981139026        6.2014725986
  50
    -0.151522 !GC
 C          0.0000000000        0.0000000000        0.0000000000
 C          1.5455019512        0.0000000000        0.0000000000
 C         -2.3663394049        4.6554705016        0.0000000000
 C         -3.4483393754        3.8035172539       -0.0999389141
 C         -3.3429515415        2.5057194519        0.3423563444
 C         -2.1552295703        2.0394785085        0.9075008191
 C         -1.0729544199        2.9245624317        1.0662960589
 C         -1.1906987532        4.2129839783        0.5734955969
 N         -2.0096172765        0.6871151586        1.2197109032
 C         -0.6660254761        0.1238090019        1.3962952249
 C          0.1121112501        1.0550158646        2.3833381693
 C          0.2093284830        2.4896211494        1.7702321960
 C          1.5892679595        0.6097502937        2.4182060987
 C          2.1184352479        1.0550056903        1.0237618725
 C          1.4089409418        2.4351909705        0.7656830404
 C          3.6199331146        1.1062101712        1.0081864751
 C          4.3217577779        2.2172495935        0.8673443868
 C          3.7202974000        3.5529731151        0.6407142048
 N          2.2517041265        3.6930077487        1.0477328900
 C          2.0513892185        3.9872874311        2.5326600217
 C          0.6222332320        3.5525322752        2.8433291410
 O          1.7298843985        4.7032084146        0.3499340279
 H          1.0646305850        2.5073874865       -0.2677451873
 C         -0.5132766920        1.0160638144        3.7744239525
 O          0.2179560261        1.0106747620        4.7408187077
 O         -1.8725308693        1.0189840692        3.8407483141
 C         -2.2735326728        0.9946254178        5.1745427779
 H         -0.3766018102       -0.9070581643       -0.4877218499
 H         -0.3700739156        0.8206775985       -0.6217346342
 H          1.9228289463       -0.9981522825        0.2438454729
 H          1.9356133456        0.2318187641       -0.9971149018
 H         -2.4383014424        5.6649654789       -0.3710608551
 H         -4.3683762096        4.1507052477       -0.5412963214
 H         -4.1711033754        1.8253784692        0.2402669402
 H         -0.3313044325        4.8615994645        0.6124866187
 H         -2.7429828992        0.0288592983        0.9583777024
 H         -0.7494850798       -0.8665446015        1.8667883462
 H          1.6782719035       -0.4691929445        2.5660614620
 H          2.1274637130        1.1033617065        3.2308582168
 H          4.1200071452        0.1627381978        1.1586788004
 H          5.3999974905        2.1715077713        0.9014184415
 H          4.2812985134        4.3266736133        1.1702843836
 H          3.7691341875        3.8093661351       -0.4200921250
 H          2.7915839499        3.4324299432        3.1120261668
 H          2.2114914218        5.0530583197        2.7065833701
 H         -0.0605731912        4.4064769801        2.8248694163
 H          0.5482965809        3.1303813013        3.8491623866
 H         -1.8898358163        1.8848673630        5.6776227668
 H         -3.3638550950        0.9788011134        5.2231558300
 H         -1.8646442329        0.1011978577        5.6519015763
  50
    -0.140424 !GC
 C          0.0000000000        0.0000000000        0.0000000000
 C          1.5468893953        0.0000000000        0.0000000000
 C         -2.3484170815        4.6204369741        0.0000000000
 C         -3.4316583497        3.7698787410       -0.0994926810
 C         -3.3321383742        2.4748029565        0.3524380026
 C         -2.1486374686        2.0085825547        0.9262438348
 C         -1.0627958457        2.8919671916        1.0764582344
 C         -1.1761334253        4.1776061729        0.5795184756
 N         -2.0125114166        0.6587265611        1.2589371333
 C         -0.6664343770        0.0893176271        1.4045273988
 C          0.1252132111        1.0056451498        2.3849163654
 C          0.2165125596        2.4604294369        1.7849223816
 C          1.5997519034        0.5472140917        2.4199504583
 C          2.1358760299        1.0105472262        1.0349029374
 C          1.4511134324        2.4080755196        0.8097122208
 C          3.6377763208        1.0386305724        1.0184910071
 C          4.3570439034        2.1446535526        0.9395651479
 C          3.7795224476        3.5018399731        0.7883909249
 N          2.3038954631        3.6428369827        1.1682816470
 C          2.0734845969        3.8775830045        2.6614545952
 C          0.6291578906        3.4578725180        2.9168619299
 O          1.8100410571        4.6894980120        0.5045094426
 H          1.1305639296        2.5229239158       -0.2275149849
 C         -0.5159325434        0.9732041230        3.7637943184
 O          0.1944653441        0.7722843611        4.7257190176
 O         -1.8524685242        1.2148185551        3.8151369453
 C         -2.2872486015        1.1279469193        5.1361612348
 H         -0.3747382411       -0.8920597825       -0.5159949848
 H         -0.3664504784        0.8390319871       -0.5989734026
 H          1.9223086628       -1.0028855724        0.2261797004
 H          1.9357849656        0.2460770942       -0.9940831277
 H         -2.4185068874        5.6287494017       -0.3746374642
 H         -4.3496778683        4.1173140363       -0.5448643344
 H         -4.1636976509        1.7978647038        0.2558690391
 H         -0.3165559061        4.8253648934        0.6270844256
 H         -2.7100132853       -0.0091878169        0.9320885299
 H         -0.7390883518       -0.9094235411        1.8592055185
 H          1.6728087325       -0.5349431432        2.5520434502
 H          2.1433874605        1.0184653756        3.2417141299
 H          4.1229419488        0.0805556835        1.1155806542
 H          5.4344572541        2.0793916015        0.9701736586
 H          4.3401259036        4.2297691563        1.3792800265
 H          3.8574113019        3.8257169456       -0.2519394611
 H          2.7894975597        3.2856700045        3.2341601394
 H          2.2475493500        4.9319898460        2.8840338137
 H         -0.0414682261        4.3217586016        2.9085867996
 H          0.5015584924        2.9869550482        3.8983974335
 H         -2.1066088252        0.1191787893        5.5128054480
 H         -1.7574764800        1.8644818622        5.7426880611
 H         -3.3592247683        1.3392140771        5.1611607077
  50
    -0.134401 !GC
 C          0.0000000000        0.0000000000        0.0000000000
 C          1.5453080346        0.0000000000        0.0000000000
 C         -2.5090215470        4.5924711115        0.0000000000
 C         -3.5862895292        3.7285479335        0.0011554767
 C         -3.4356400824        2.4433280260        0.4663802633
 C         -2.2032737644        1.9985272203        0.9488613027
 C         -1.1249809255        2.9032416743        1.0157841761
 C         -1.2920462085        4.1765668507        0.5025853672
 N         -2.0224597095        0.6418868273        1.2697297444
 C         -0.6570246021        0.1169560032        1.4053859594
 C          0.1167301849        1.0766253832        2.3581958305
 C          0.1808463830        2.5169981623        1.7032494285
 C          1.5989310044        0.6536432580        2.4038516665
 C          2.1141649816        1.0591695473        0.9898487190
 C          1.3928391088        2.4257933236        0.6949871017
 C          3.6149285329        1.1175378783        0.9575034624
 C          4.3099806829        2.2256678752        0.7692202567
 C          3.7004516588        3.5505296476        0.5045603875
 N          2.2383180693        3.7034777485        0.9298311489
 C          2.0616357756        4.0361650033        2.4093752053
 C          0.6380244875        3.6088218697        2.7514187924
 O          1.7071471730        4.6961158139        0.2141785038
 H          1.0374208271        2.4652886626       -0.3363819673
 C         -0.5417855453        0.9926294125        3.7289255744
 O         -0.6376474538        2.0256175123        4.3569812676
 O         -0.9677228843       -0.2229324351        4.1615500646
 C         -1.4734904634       -0.1062140619        5.4537686298
 H         -0.3770305568       -0.9056141538       -0.4902780831
 H         -0.3749799643        0.8224130716       -0.6162597325
 H          1.9226317455       -0.9892416347        0.2772089175
 H          1.9353828640        0.1985544322       -1.0042019597
 H         -2.6207802934        5.5912184203       -0.3900153966
 H         -4.5392747907        4.0554352495       -0.3817263858
 H         -4.2578617977        1.7492197721        0.4329634237
 H         -0.4417410548        4.8378184935        0.4782747781
 H         -2.7013196719        0.1772906585        1.8739298042
 H         -0.6939411267       -0.8759276205        1.8781820716
 H          1.6963129425       -0.4185477016        2.5904330023
 H          2.1362940459        1.1786098625        3.1967706371
 H          4.1211736525        0.1820869890        1.1354150379
 H          5.3887157521        2.1855141402        0.7924552981
 H          4.2682007547        4.3436296317        0.9964346786
 H          3.7314901025        3.7687033773       -0.5652305091
 H          2.8116606840        3.4976336049        2.9914389407
 H          2.2226138707        5.1063798332        2.5522891420
 H         -0.0461761426        4.4617366975        2.7310439094
 H          0.5735359290        3.1992162678        3.7635807255
 H         -2.3151479387        0.5896196566        5.4448973650
 H         -1.8008266304       -1.0861494704        5.8052235586
 H         -0.6875505137        0.2814651067        6.1058712486
  50
    -0.134326 !GC
 C          0.0000000000        0.0000000000        0.0000000000
 C          1.5455016989        0.0000000000        0.0000000000
 C         -2.3710844067        4.6567658423        0.0000000000
 C         -3.4525770835        3.8040956760       -0.0994470514
 C         -3.3456614758        2.5059393315        0.3414203725
 C         -2.1570072524        2.0401589903        0.9049967953
 C         -1.0753398430        2.9260323499        1.0636873570
 C         -1.1944450992        4.2149834163        0.5720066427
 N         -2.0100466720        0.6876036379        1.2157790522
 C         -0.6661599601        0.1258531336        1.3951514604
 C          0.1097704446        1.0596766382        2.3815209607
 C          0.2073864277        2.4917432538        1.7671996577
 C          1.5875712407        0.6167396726        2.4187690058
 C          2.1171326018        1.0603721408        1.0238790206
 C          1.4051856774        2.4387246102        0.7623204438
 C          3.6185654984        1.1143034931        1.0095934281
 C          4.3184591084        2.2261933980        0.8659037595
 C          3.7145658994        3.5599706906        0.6344169856
 N          2.2459683981        3.6985881708        1.0417872494
 C          2.0457950644        3.9952217884        2.5262599795
 C          0.6175977839        3.5585336450        2.8386185306
 O          1.7224214622        4.7066675398        0.3422575276
 H          1.0608815508        2.5079585616       -0.2713142934
 C         -0.5166059240        1.0224847845        3.7722347826
 O          0.2140065003        1.0146991893        4.7389501983
 O         -1.8759050922        1.0273374643        3.8376680104
 C         -2.2780035794        1.0026694896        5.1711657248
 H         -0.3766192291       -0.9078297070       -0.4862883656
 H         -0.3700504788        0.8197270979       -0.6229916821
 H          1.9226801163       -0.9977816241        0.2456305088
 H          1.9356475275        0.2299505502       -0.9975584559
 H         -2.4440192411        5.6666473429       -0.3697983170
 H         -4.3733746094        4.1509697999       -0.5395805830
 H         -4.1733750318        1.8250159528        0.2395105709
 H         -0.3355743026        4.8642958192        0.6103069613
 H         -2.7436149501        0.0291544070        0.9555076201
 H         -0.7494611706       -0.8637502215        1.8672494192
 H          1.6780797325       -0.4618097476        2.5685963297
 H          2.1245194156        1.1126167130        3.2308752107
 H          4.1202484245        0.1722389278        1.1635052494
 H          5.3967513495        2.1825918954        0.9009866780
 H          4.2744252713        4.3366395412        1.1608666824
 H          3.7624902172        3.8124800076       -0.4273661051
 H          2.7872707733        3.4426633619        3.1061946119
 H          2.2041927635        5.0615681710        2.6982117132
 H         -0.0664758753        4.4114652674        2.8202014771
 H          0.5452026194        3.1369736705        3.8448191155
 H         -1.8846511107        0.0985271387        5.6419983848
 H         -1.8990214021        1.8873056980        5.6851412940
 H         -3.3694500631        0.9755944802        5.2083962417
  50
    -0.119682 !GC
 C          0.0000000000        0.0000000000        0.0000000000
 C          1.5459454236        0.0000000000        0.0000000000
 C         -2.3901063634        4.6218307904        0.0000000000
 C         -3.4679549839        3.7630380451       -0.0852263750
 C         -3.3533436256        2.4707154690        0.3705901969
 C         -2.1603667467        2.0172550243        0.9349252598
 C         -1.0810120932        2.9089193184        1.0760107480
 C         -1.2092040793        4.1907833531        0.5712890711
 N         -2.0070877185        0.6706209452        1.2663021706
 C         -0.6583789301        0.1077070768        1.4052064782
 C          0.1299807887        1.0299428301        2.3896098424
 C          0.2090844415        2.4869690802        1.7736960512
 C          1.6060687371        0.5834579591        2.4146905415
 C          2.1270822363        1.0307836573        1.0176423816
 C          1.4198394748        2.4135863817        0.7681067618
 C          3.6286699199        1.0778950355        0.9933318085
 C          4.3326073080        2.1876271962        0.8533667506
 C          3.7328153750        3.5252762537        0.6341042806
 N          2.2658949472        3.6637658785        1.0470821304
 C          2.0709382023        3.9571543089        2.5325117104
 C          0.6468067422        3.5103435954        2.8489851242
 O          1.7392494341        4.6727484597        0.3512494734
 H          1.0682447192        2.4890505555       -0.2626158448
 C         -0.4914791296        0.9366288484        3.7798623532
 O          0.0409359658        0.2364176384        4.6134662945
 O         -1.6250070293        1.6586926718        3.9924989577
 C         -2.0830585034        1.4331527309        5.2885213851
 H         -0.3749912471       -0.9001271673       -0.5016808482
 H         -0.3704580033        0.8291601892       -0.6100394986
 H          1.9228251738       -0.9979663181        0.2446756282
 H          1.9357027096        0.2298818645       -0.9976125563
 H         -2.4703736633        5.6269288256       -0.3814078397
 H         -4.3921452043        4.1005404117       -0.5253720879
 H         -4.1785606534        1.7850728912        0.2807984635
 H         -0.3527603191        4.8437393333        0.5989865055
 H         -2.7123096162       -0.0057035850        0.9762947047
 H         -0.7309967572       -0.8873417340        1.8683440101
 H          1.6907774021       -0.4962604923        2.5599277539
 H          2.1530271961        1.0727444025        3.2239140073
 H          4.1271610034        0.1325173973        1.1369847806
 H          5.4107899532        2.1391050989        0.8814719713
 H          4.2958722326        4.2962190137        1.1651133553
 H          3.7784594349        3.7859062328       -0.4256076966
 H          2.8190967606        3.4084782404        3.1075897900
 H          2.2232736769        5.0241285836        2.7057027011
 H         -0.0428701411        4.3589395343        2.8395589832
 H          0.5814895482        3.0812303779        3.8520130234
 H         -2.2981762660        0.3708668057        5.4177575153
 H         -1.3265717815        1.7628064842        6.0026952727
 H         -2.9986876437        2.0108924444        5.4370251662
  50
    -0.116430 !GC
 C          0.0000000000        0.0000000000        0.0000000000
 C          1.5464449136        0.0000000000        0.0000000000
 C         -2.4336838053        4.5554726728        0.0000000000
 C         -3.5138632112        3.6962504943       -0.0404896432
 C         -3.3857719340        2.4092550369        0.4263003771
 C         -2.1733149240        1.9558577023        0.9500420952
 C         -1.0934396490        2.8549430868        1.0534995893
 C         -1.2366701097        4.1317151351        0.5419134752
 N         -2.0198558106        0.5979294463        1.2982846283
 C         -0.6506207458        0.0737605598        1.4107172147
 C          0.1271932995        1.0052007182        2.3866118605
 C          0.1953955910        2.4582550579        1.7648921044
 C          1.6085553105        0.5733581752        2.4191551090
 C          2.1293737163        1.0255400361        1.0227915735
 C          1.4211161649        2.4071926783        0.7791707919
 C          3.6302929134        1.0772471959        0.9950934339
 C          4.3304998557        2.1925778919        0.8821521507
 C          3.7294636121        3.5359558090        0.7012249142
 N          2.2552528828        3.6630433460        1.0921609971
 C          2.0359178038        3.9352070180        2.5792458778
 C          0.6057661042        3.4878030233        2.8659057234
 O          1.7363908570        4.6813936242        0.4037211406
 H          1.0865213460        2.4956074532       -0.2562128384
 C         -0.5351635739        0.9377634608        3.7562634190
 O         -0.8222876458       -0.1594456681        4.1817120714
 O         -0.7633425257        2.1073538984        4.4119706543
 C         -1.4149798022        1.8477260204        5.6154624075
 H         -0.3762906594       -0.8885930072       -0.5209133630
 H         -0.3731737109        0.8420788629       -0.5899725454
 H          1.9230136759       -0.9991958087        0.2398911747
 H          1.9360019472        0.2347839265       -0.9965588323
 H         -2.5266930185        5.5573862140       -0.3867712536
 H         -4.4520386673        4.0293953663       -0.4534334167
 H         -4.2116560025        1.7211175689        0.3686528395
 H         -0.3839954102        4.7900754619        0.5553809614
 H         -2.7076180198        0.2210746517        1.9515461483
 H         -0.6792777217       -0.9350405629        1.8490567497
 H          1.7024880309       -0.5051958112        2.5663261210
 H          2.1469595005        1.0669109614        3.2312181538
 H          4.1317365260        0.1299617006        1.1126316833
 H          5.4090395442        2.1457107824        0.9056541832
 H          4.2836685593        4.2880655722        1.2671888076
 H          3.7921343747        3.8335519126       -0.3478249614
 H          2.7735385434        3.3778300264        3.1593879560
 H          2.1867579620        4.9995977627        2.7691228013
 H         -0.0848301129        4.3356269271        2.8484855279
 H          0.5138593430        3.0447531188        3.8625758946
 H         -1.5784737863        2.7849499048        6.1507434479
 H         -2.3713686991        1.3649900934        5.4047843370
 H         -0.7942731862        1.1776704326        6.2143344090
  50
    -0.112606 !GC
 C          0.0000000000        0.0000000000        0.0000000000
 C          1.5453091700        0.0000000000        0.0000000000
 C         -2.5153568850        4.5946456474        0.0000000000
 C         -3.5920193626        3.7299446112        0.0035838260
 C         -3.4390702260        2.4443539868        0.4670702411
 C         -2.2050342657        1.9999173707        0.9457544733
 C         -1.1271887827        2.9055069643        1.0101736664
 C         -1.2965515229        4.1787935808        0.4982857882
 N         -2.0232982911        0.6436966458        1.2675861994
 C         -0.6576087955        0.1199279416        1.4052785377
 C          0.1155551519        1.0828179104        2.3551769697
 C          0.1796882259        2.5209212291        1.6963279928
 C          1.5977997548        0.6597705234        2.4022327542
 C          2.1139174385        1.0618380796        0.9874708448
 C          1.3923938769        2.4276930442        0.6891942978
 C          3.6147131605        1.1200592891        0.9554227876
 C          4.3097132729        2.2277852910        0.7646941531
 C          3.6999225175        3.5521045998        0.4977280811
 N          2.2377985486        3.7058946016        0.9228077087
 C          2.0617426913        4.0400688909        2.4021959893
 C          0.6380254940        3.6135432971        2.7450803388
 O          1.7069626271        4.6979628280        0.2061835705
 H          1.0375792625        2.4652957405       -0.3424378403
 C         -0.5475099025        1.0097733091        3.7240962692
 O         -0.5466238982        2.0252288609        4.3867602322
 O         -1.0834000851       -0.1751749615        4.1172167352
 C         -1.5729857287       -0.0575693384        5.4156221494
 H         -0.3768518333       -0.9066577822       -0.4885244332
 H         -0.3750743388        0.8210767998       -0.6179857521
 H          1.9225056801       -0.9885874219        0.2797969333
 H          1.9356787467        0.1958231973       -1.0046779915
 H         -2.6293764449        5.5938916120       -0.3878664986
 H         -4.5467003689        4.0569554267       -0.3752292415
 H         -4.2612151085        1.7500195732        0.4361217135
 H         -0.4468199886        4.8407206614        0.4726864518
 H         -2.7083441740        0.1758407040        1.8622398163
 H         -0.6937250378       -0.8719485908        1.8802280760
 H          1.6948534973       -0.4119251175        2.5918729516
 H          2.1346988411        1.1864186603        3.1943708902
 H          4.1209240149        0.1850384663        1.1356213201
 H          5.3884934849        2.1877225860        0.7880071871
 H          4.2678825176        4.3461772913        0.9881851173
 H          3.7308238133        3.7684317630       -0.5725881249
 H          2.8118703708        3.5019478570        2.9845599729
 H          2.2231003087        5.1103703340        2.5439981339
 H         -0.0460827289        4.4665371366        2.7249935491
 H          0.5728202046        3.2031726026        3.7570490919
 H         -2.3616799736        0.6972420677        5.4323427229
 H         -1.9706168065       -1.0211435171        5.7381297480
 H         -0.7591805364        0.2512015257        6.0753934498
  50
    -0.112254 !GC
 C          0.0000000000        0.0000000000        0.0000000000
 C          1.5459405032        0.0000000000        0.0000000000
 C         -2.3963268600        4.6197673164        0.0000000000
 C         -3.4731492679        3.7595780592       -0.0843207760
 C         -3.3562868381        2.4671837681        0.3707537843
 C         -2.1620703930        2.0148927207        0.9336298413
 C         -1.0835931379        2.9079907010        1.0732933937
 C         -1.2139703169        4.1896064465        0.5690094894
 N         -2.0076047074        0.6685018494        1.2662163416
 C         -0.6580648461        0.1076175307        1.4053998031
 C          0.1290881360        1.0324857794        2.3882594198
 C          0.2073982167        2.4883378374        1.7703923576
 C          1.6053996579        0.5867299836        2.4143472582
 C          2.1267454028        1.0323517306        1.0167360464
 C          1.4183016795        2.4142093635        0.7652117885
 C          3.6283495238        1.0801469719        0.9926636026
 C          4.3316383876        2.1900674458        0.8507967637
 C          3.7309106969        3.5270907253        0.6300548330
 N          2.2640652606        3.6654678134        1.0433427339
 C          2.0699482520        3.9595941628        2.5288224573
 C          0.6461763393        3.5122595249        2.8465433058
 O          1.7370900633        4.6740115478        0.3472330968
 H          1.0667342135        2.4884205840       -0.2656121638
 C         -0.4962362955        0.9436260830        3.7768951099
 O         -0.0256408333        0.1657855945        4.5780311927
 O         -1.5617321149        1.7524821592        4.0249932791
 C         -2.0364781388        1.5137500532        5.3126828411
 H         -0.3748782689       -0.9003735515       -0.5014215427
 H         -0.3708115640        0.8289120222       -0.6101822926
 H          1.9226778650       -0.9976553913        0.2463238357
 H          1.9362546816        0.2283103452       -0.9978239977
 H         -2.4786746192        5.6251020185       -0.3800758160
 H         -4.3987604085        4.0965563404       -0.5221492273
 H         -4.1810386379        1.7807971579        0.2822911762
 H         -0.3585374924        4.8437827024        0.5965869205
 H         -2.7110432632       -0.0087009703        0.9732429351
 H         -0.7289947134       -0.8873862598        1.8689275446
 H          1.6904904338       -0.4927504218        2.5613542665
 H          2.1518398220        1.0772127425        3.2232287741
 H          4.1272909565        0.1352416613        1.1380772275
 H          5.4099535472        2.1421796599        0.8785387826
 H          4.2940708199        4.2989726438        1.1599135341
 H          3.7758829306        3.7864452309       -0.4301384872
 H          2.8186259436        3.4115629018        3.1038227611
 H          2.2223162343        5.0266644550        2.7012213062
 H         -0.0439442616        4.3604656153        2.8378718398
 H          0.5806565465        3.0821273973        3.8491515850
 H         -2.3268505453        0.4635180149        5.3898466445
 H         -1.2550556403        1.7400077915        6.0391274032
 H         -2.9162907421        2.1372028271        5.4874190209
  50
    -0.109607 !GC
 C          0.0000000000        0.0000000000        0.0000000000
 C          1.5455621323        0.0000000000        0.0000000000
 C         -2.4050870186        4.6333956889        0.0000000000
 C         -3.4816520803        3.7723799966       -0.0783823402
 C         -3.3612530448        2.4801622536        0.3762935765
 C         -2.1640679346        2.0291536725        0.9339460853
 C         -1.0859529151        2.9236205350        1.0691461002
 C         -1.2197409977        4.2046344291        0.5638453203
 N         -2.0054323777        0.6811721345        1.2553194351
 C         -0.6572198985        0.1228073062        1.4044204908
 C          0.1299450325        1.0532708431        2.3846644337
 C          0.2099042274        2.5056895166        1.7584597354
 C          1.6051105031        0.6051455106        2.4092030676
 C          2.1253020045        1.0413763212        1.0078317962
 C          1.4134359107        2.4198031827        0.7443100676
 C          3.6268498814        1.0910182175        0.9819167934
 C          4.3287160767        2.1979007131        0.8120584252
 C          3.7252444527        3.5280352619        0.5609043295
 N          2.2656012053        3.6790582781        0.9948864783
 C          2.0946025539        3.9888436210        2.4795456738
 C          0.6700728588        3.5622167133        2.8195373684
 O          1.7340128979        4.6834305667        0.2961613757
 H          1.0529348977        2.4805386356       -0.2842876983
 C         -0.4740383219        0.9808927958        3.7849062159
 O         -1.6617888102        1.2000354587        3.8944779993
 O          0.3503683473        0.6822700929        4.8250119228
 C         -0.3750737690        0.7038381018        6.0134820792
 H         -0.3748376744       -0.9053436278       -0.4923464327
 H         -0.3712613993        0.8226331040       -0.6183101695
 H          1.9228961554       -0.9954580716        0.2540882260
 H          1.9356551619        0.2211439906       -0.9994372844
 H         -2.4894508083        5.6376750371       -0.3823599576
 H         -4.4088128799        4.1075512245       -0.5141607611
 H         -4.1845602878        1.7919487519        0.2882133213
 H         -0.3634335801        4.8581308141        0.5827660853
 H         -2.6924343770       -0.0072533309        0.9326966304
 H         -0.7296375896       -0.8686367440        1.8751936751
 H          1.6898149949       -0.4735172699        2.5624513759
 H          2.1512897552        1.1009564879        3.2152331381
 H          4.1270016503        0.1505036893        1.1495288724
 H          5.4069917065        2.1521627849        0.8392787647
 H          4.2970345843        4.3147758559        1.0584810789
 H          3.7529688080        3.7558394891       -0.5068741381
 H          2.8431520991        3.4363702992        3.0505225927
 H          2.2618751189        5.0556417046        2.6401919767
 H         -0.0092758542        4.4190074394        2.8061732823
 H          0.6139290715        3.1514046674        3.8306470888
 H         -1.1546036416       -0.0599951109        5.9715165608
 H          0.2988752896        0.5062067992        6.8491154250
 H         -0.8349276703        1.6878763271        6.1283139673
  50
    -0.108730 !GC
 C          0.0000000000        0.0000000000        0.0000000000
 C          1.5453403330        0.0000000000        0.0000000000
 C         -2.4599171138        4.5698309607        0.0000000000
 C         -3.5265414186        3.6953251552       -0.0624815333
 C         -3.3884175416        2.4095610013        0.4052684056
 C         -2.1829089020        1.9774091330        0.9601475142
 C         -1.1135836499        2.8863861207        1.0755421809
 C         -1.2657370341        4.1610723818        0.5595571612
 N         -2.0098576171        0.6332795810        1.2999803923
 C         -0.6460398379        0.0977797289        1.4086026398
 C          0.1289925942        1.0374342898        2.3835823744
 C          0.1920864376        2.4897633054        1.7571760885
 C          1.6115127520        0.6166057934        2.4166084731
 C          2.1210738961        1.0493299305        1.0087908572
 C          1.3955814420        2.4194424477        0.7418582831
 C          3.6217677787        1.1110088495        0.9734267008
 C          4.3146198163        2.2234130909        0.8033689629
 C          3.7019791726        3.5512646617        0.5625781007
 N          2.2399839347        3.6919731154        0.9920861330
 C          2.0652891436        4.0044225554        2.4759840572
 C          0.6452348580        3.5638974891        2.8145289212
 O          1.7026811850        4.6910399493        0.2900683049
 H          1.0349624930        2.4749949363       -0.2869573570
 C         -0.5254847313        0.8990082821        3.7534568534
 O         -1.1967295919       -0.0815777956        3.9909285982
 O         -0.2733573464        1.8993076436        4.6388360455
 C         -0.9429247548        1.6409183379        5.8321905232
 H         -0.3762448347       -0.8983671336       -0.5040300134
 H         -0.3738620639        0.8320194577       -0.6038977290
 H          1.9225958810       -0.9943492544        0.2584241034
 H          1.9351933551        0.2171766814       -1.0004331772
 H         -2.5592429930        5.5699180977       -0.3900511602
 H         -4.4609038190        4.0157303750       -0.4939526688
 H         -4.2055009850        1.7122137042        0.3326975869
 H         -0.4183387320        4.8262264370        0.5702514128
 H         -2.6856133310       -0.0504326412        0.9625347760
 H         -0.6885812634       -0.8988088898        1.8730424673
 H          1.7127349856       -0.4588985911        2.5809180422
 H          2.1525927039        1.1289340711        3.2153162692
 H          4.1300170988        0.1734125765        1.1334362339
 H          5.3934592921        2.1847564098        0.8233389867
 H          4.2679538118        4.3372136169        1.0678247804
 H          3.7313320171        3.7882501001       -0.5032625487
 H          2.8194070528        3.4621067514        3.0491804673
 H          2.2210641344        5.0733337453        2.6334064590
 H         -0.0464644251        4.4111309049        2.8076510740
 H          0.5817604890        3.1419534795        3.8216867795
 H         -0.7095804550        2.4321382247        6.5481443585
 H         -2.0170144518        1.5925517743        5.6480028654
 H         -0.5880862062        0.6870868647        6.2302198298
  50
    -0.106074 !GC
 C          0.0000000000        0.0000000000        0.0000000000
 C          1.5463788028        0.0000000000        0.0000000000
 C         -2.3565085055        4.6067274119        0.0000000000
 C         -3.4321461732        3.7487813705       -0.1148138535
 C         -3.3288666480        2.4548997904        0.3388907538
 C         -2.1502224673        1.9980567611        0.9307303010
 C         -1.0734195109        2.8880633463        1.0983816155
 C         -1.1892635032        4.1722193875        0.5960718348
 N         -2.0122647021        0.6479281412        1.2698048097
 C         -0.6631787210        0.0875795278        1.4066461974
 C          0.1254946039        0.9950078614        2.4075622029
 C          0.2085282346        2.4598070515        1.8069974013
 C          1.5991960532        0.5399403511        2.4248706139
 C          2.1261187887        1.0102732942        1.0385365178
 C          1.4240533739        2.3986004549        0.8100271781
 C          3.6280635879        1.0554709533        1.0240602243
 C          4.3331346180        2.1681305947        0.9143582839
 C          3.7343794994        3.5101192672        0.7182281696
 N          2.2620932022        3.6336452962        1.1162357468
 C          2.0449863843        3.9048479536        2.6028105673
 C          0.6220680961        3.4379620130        2.8974061327
 O          1.7361233077        4.6477593723        0.4274438239
 H          1.0790933804        2.4925717843       -0.2214666288
 C         -0.4718965151        0.9246019673        3.8112484750
 O          0.2654732204        1.1132100756        4.7542628335
 O         -1.8042036982        0.6665889307        3.9229072152
 C         -2.1583176665        0.6302840331        5.2697254287
 H         -0.3748575815       -0.8931954275       -0.5140526885
 H         -0.3692600794        0.8367458597       -0.6002137256
 H          1.9236892103       -1.0021318179        0.2264114686
 H          1.9360798865        0.2482927235       -0.9932319534
 H         -2.4272577715        5.6133478101       -0.3790173793
 H         -4.3455194295        4.0883803421       -0.5755357206
 H         -4.1522777819        1.7700939607        0.2282388402
 H         -0.3326766956        4.8237021732        0.6440357729
 H         -2.7977009512        0.0194134528        1.0735112941
 H         -0.7369413391       -0.9146684245        1.8534806880
 H          1.6808840642       -0.5428473368        2.5478407015
 H          2.1453820183        1.0118929627        3.2450889554
 H          4.1250382130        0.1068506943        1.1503485169
 H          5.4111594262        2.1189891768        0.9490696007
 H          4.2884481272        4.2700182831        1.2741589020
 H          3.7922998312        3.7950929978       -0.3346587308
 H          2.7925323935        3.3565016400        3.1790256859
 H          2.1839029015        4.9709639579        2.7919394095
 H         -0.0759906245        4.2795457226        2.8876368414
 H          0.5519244712        2.9994190088        3.8960985575
 H         -1.5821505835       -0.1555335537        5.7643871947
 H         -1.9474421183        1.5960789447        5.7316282300
 H         -3.2217275324        0.3917819089        5.3472459891
  50
    -0.104030 !GC
 C          0.0000000000        0.0000000000        0.0000000000
 C          1.5456118415        0.0000000000        0.0000000000
 C         -2.4469433192        4.5826317971        0.0000000000
 C         -3.5150923194        3.7103351288       -0.0675811861
 C         -3.3806870576        2.4230341913        0.3969652476
 C         -2.1773866566        1.9868935710        0.9534236261
 C         -1.1062713321        2.8933325830        1.0731937033
 C         -1.2546253919        4.1695862253        0.5604198977
 N         -2.0096526544        0.6420611827        1.2937889407
 C         -0.6482703981        0.1015068578        1.4080540260
 C          0.1294949528        1.0405545183        2.3804885354
 C          0.1971280670        2.4919294318        1.7561366255
 C          1.6107405302        0.6148260059        2.4150640330
 C          2.1233840562        1.0479197883        1.0087514270
 C          1.4022671213        2.4208410053        0.7431822739
 C          3.6242324708        1.1052542138        0.9751214227
 C          4.3203448173        2.2160620748        0.8081576040
 C          3.7117648898        3.5463983716        0.5706356574
 N          2.2501505135        3.6914298381        1.0003668917
 C          2.0760406127        3.9976974492        2.4858053135
 C          0.6529918968        3.5644122832        2.8223095214
 O          1.7177751225        4.6965719709        0.3033079021
 H          1.0444070815        2.4803789603       -0.2863638972
 C         -0.5240719630        0.9184468150        3.7510978559
 O         -0.5189032883        1.9120741299        4.4460044106
 O         -1.0591214127       -0.2776285841        4.1103721145
 C         -1.5205770232       -0.2052797203        5.4218499064
 H         -0.3758881107       -0.8994643712       -0.5023248825
 H         -0.3731849517        0.8306643888       -0.6062345777
 H          1.9225318634       -0.9948057304        0.2571516222
 H          1.9354264699        0.2179993423       -1.0002614632
 H         -2.5433998372        5.5839641914       -0.3874745081
 H         -4.4477222282        4.0336909737       -0.5004264003
 H         -4.1989539685        1.7275524583        0.3204891446
 H         -0.4063663519        4.8336754992        0.5771065572
 H         -2.6860852947       -0.0393429785        0.9531557850
 H         -0.6953667366       -0.8936842431        1.8751028277
 H          1.7066218236       -0.4610149895        2.5803787135
 H          2.1508068425        1.1235775437        3.2167128521
 H          4.1296704767        0.1658537627        1.1333248078
 H          5.3990421468        2.1742533666        0.8290265260
 H          4.2805573223        4.3291025596        1.0777140970
 H          3.7419306854        3.7858770669       -0.4946126936
 H          2.8267678997        3.4484944413        3.0568824171
 H          2.2378154009        5.0650144018        2.6480082041
 H         -0.0314498046        4.4173970645        2.8173734304
 H          0.5896370826        3.1380748970        3.8276181103
 H         -2.2914997004        0.5658802783        5.4834654595
 H         -1.9320357075       -1.1722545099        5.7160482692
 H         -0.6860511315        0.0611035232        6.0745141565
  50
    -0.103431 !GC
 C          0.0000000000        0.0000000000        0.0000000000
 C          1.5453370527        0.0000000000        0.0000000000
 C         -2.4609880932        4.5709692561        0.0000000000
 C         -3.5274732316        3.6962610768       -0.0619495390
 C         -3.3887471166        2.4104531213        0.4054274378
 C         -2.1827347505        1.9784461081        0.9593531153
 C         -1.1134072517        2.8875737931        1.0741789023
 C         -1.2662941369        4.1623066879        0.5585974047
 N         -2.0096182253        0.6343529681        1.2991961520
 C         -0.6460850555        0.0987295565        1.4086494903
 C          0.1291204034        1.0392405993        2.3826847651
 C          0.1925037442        2.4912545610        1.7556803359
 C          1.6115807007        0.6181537291        2.4160917221
 C          2.1212330649        1.0498407988        1.0079932399
 C          1.3959613279        2.4199435922        0.7401537445
 C          3.6219306327        1.1109720527        0.9726063503
 C          4.3151618953        2.2229929860        0.8016581275
 C          3.7029607398        3.5508794054        0.5600424690
 N          2.2410980217        3.6926908576        0.9898149277
 C          2.0669479217        4.0060365023        2.4735878961
 C          0.6465949236        3.5669024186        2.8125910065
 O          1.7043796223        4.6918667984        0.2874905838
 H          1.0353829001        2.4750210268       -0.2886965523
 C         -0.5250702223        0.9036765616        3.7529323674
 O         -1.1866516878       -0.0822621687        3.9957726360
 O         -0.2825010626        1.9113213350        4.6327750992
 C         -0.9507000964        1.6536883984        5.8270506088
 H         -0.3763053796       -0.8987032615       -0.5033906835
 H         -0.3738840876        0.8316001653       -0.6044741518
 H          1.9224782082       -0.9942437141        0.2589965081
 H          1.9351487078        0.2164258842       -1.0006161275
 H         -2.5608884002        5.5711377615       -0.3896160780
 H         -4.4622152468        4.0165357049       -0.4925817478
 H         -4.2057729572        1.7129740136        0.3333944338
 H         -0.4191864529        4.8278676643        0.5693625403
 H         -2.6858620713       -0.0492249541        0.9624227059
 H         -0.6888668638       -0.8974600880        1.8739045297
 H          1.7126469867       -0.4572453831        2.5812345532
 H          2.1527389169        1.1310028628        3.2144235233
 H          4.1298474165        0.1732908960        1.1331395164
 H          5.3939822926        2.1839434702        0.8215122013
 H          4.2694483601        4.3369178949        1.0645859317
 H          3.7321888337        3.7870943466       -0.5059878871
 H          2.8206686481        3.4633869745        3.0469941997
 H          2.2235570000        5.0749078016        2.6304385485
 H         -0.0445583380        4.4145687702        2.8056111644
 H          0.5831697502        3.1453377625        3.8199061500
 H         -0.6064155894        0.6990586370        6.2302412431
 H         -0.7433243739        2.4572927561        6.5359795111
 H         -2.0230799967        1.5991613608        5.6265075568
  50
    -0.099936 !GC
 C          0.0000000000        0.0000000000        0.0000000000
 C          1.5469343103        0.0000000000        0.0000000000
 C         -2.4144664864        4.5725863601        0.0000000000
 C         -3.4856726459        3.7036924052       -0.0627816544
 C         -3.3576488335        2.4205370736        0.4148551759
 C         -2.1575823386        1.9857944164        0.9788728135
 C         -1.0822092714        2.8876621505        1.0909721167
 C         -1.2264081303        4.1569225067        0.5674949349
 N         -1.9982001765        0.6480471287        1.3445721951
 C         -0.6456750888        0.0831361785        1.4275806215
 C          0.1682329396        0.9905106215        2.4010407808
 C          0.2216013832        2.4889432401        1.7759880736
 C          1.6385428910        0.5247751357        2.4071443441
 C          2.1506589961        0.9734032679        1.0071052826
 C          1.4615250008        2.3675765973        0.7745333200
 C          3.6524888308        0.9986623519        0.9656956711
 C          4.3712169636        2.0985855368        0.8231915323
 C          3.7891493998        3.4466647301        0.6210165643
 N          2.3309541724        3.6072526305        1.0566682944
 C          2.1623771963        3.8851756042        2.5486783191
 C          0.7319800207        3.4695741427        2.8769493637
 O          1.8141490161        4.6350757414        0.3812810885
 H          1.1015818238        2.4573771643       -0.2521026973
 C         -0.4512190746        0.8920149169        3.7913085226
 O         -1.1093945574       -0.0842111446        4.0772860509
 O         -0.1970998910        1.9253658471        4.6387112817
 C         -0.8487400328        1.7041932958        5.8495781701
 H         -0.3710850861       -0.8860913342       -0.5290945571
 H         -0.3696359061        0.8448939331       -0.5883817266
 H          1.9230319020       -0.9982052181        0.2449067780
 H          1.9361460820        0.2273834061       -0.9984572069
 H         -2.5089793659        5.5700639468       -0.3976658982
 H         -4.4162889641        4.0268892885       -0.5003117647
 H         -4.1795244339        1.7284379846        0.3465676623
 H         -0.3738473257        4.8154817202        0.5804476029
 H         -2.6384756750       -0.0565984089        0.9808334024
 H         -0.7027899512       -0.9207552024        1.8735594007
 H          1.7071680421       -0.5571563084        2.5444392825
 H          2.2025111358        0.9991417507        3.2134126391
 H          4.1383931569        0.0450739775        1.0975853464
 H          5.4489172534        2.0337149241        0.8369113394
 H          4.3729962740        4.2049988903        1.1477998205
 H          3.8229590490        3.7131013136       -0.4377540679
 H          2.9042560244        3.3115812853        3.1071887033
 H          2.3422635696        4.9460756102        2.7327803252
 H          0.0601879595        4.3325837607        2.8810551464
 H          0.6573867590        3.0297511277        3.8761771558
 H         -0.6231234520        2.5305454821        6.5275121799
 H         -1.9252423697        1.6604958568        5.6741095315
 H         -0.4917778999        0.7684628277        6.2843014912
  50
    -0.099172 !GC
 C          0.0000000000        0.0000000000        0.0000000000
 C          1.5469632022        0.0000000000        0.0000000000
 C         -2.4144386418        4.5741076432        0.0000000000
 C         -3.4855736262        3.7052173183       -0.0643485859
 C         -3.3578321874        2.4216487159        0.4122228198
 C         -2.1581411310        1.9864392231        0.9767447676
 C         -1.0827351831        2.8881336353        1.0901153831
 C         -1.2265648907        4.1580792691        0.5677188956
 N         -1.9991699396        0.6484514559        1.3417368018
 C         -0.6467705857        0.0834618895        1.4264837783
 C          0.1662239696        0.9915639308        2.4000635538
 C          0.2209462243        2.4882632042        1.7746958529
 C          1.6367749590        0.5265710680        2.4067911364
 C          2.1497452095        0.9751868698        1.0070240889
 C          1.4595387966        2.3685958065        0.7727589103
 C          3.6515654868        1.0014028228        0.9661962927
 C          4.3695010206        2.1016862117        0.8225627519
 C          3.7863249982        3.4489921854        0.6184134379
 N          2.3281779899        3.6090127641        1.0543682898
 C          2.1597028661        3.8874991796        2.5463116147
 C          0.7295994955        3.4710413756        2.8750110978
 O          1.8106992186        4.6362812908        0.3786748649
 H          1.0997034612        2.4571586883       -0.2540228183
 C         -0.4539103559        0.8961162810        3.7901707815
 O         -1.1094820625       -0.0812455649        4.0791374222
 O         -0.1972363907        1.9296429084        4.6367827552
 C         -0.8475988449        1.7098723011        5.8486026313
 H         -0.3714030604       -0.8866248195       -0.5281023367
 H         -0.3697684587        0.8443942129       -0.5891483111
 H          1.9230031831       -0.9981352084        0.2454676956
 H          1.9365197132        0.2269920240       -0.9984680208
 H         -2.5086744072        5.5720159944       -0.3966451740
 H         -4.4159442698        4.0287929498       -0.5021469487
 H         -4.1796878224        1.7296051003        0.3427453444
 H         -0.3743517631        4.8170663769        0.5825360353
 H         -2.6380541091       -0.0562476180        0.9755403810
 H         -0.7043951924       -0.9202081830        1.8729209957
 H          1.7058128330       -0.5552672308        2.5446281424
 H          2.2002046699        1.0015741561        3.2130984873
 H          4.1381165098        0.0483162194        1.0993332064
 H          5.4472336560        2.0377031147        0.8367016177
 H          4.3697993282        4.2086154125        1.1437945531
 H          3.8194793936        3.7138394517       -0.4408011776
 H          2.9021097389        3.3146838925        3.1049790202
 H          2.3388515622        4.9486073010        2.7299974010
 H          0.0570681925        4.3334816575        2.8797011391
 H          0.6559563674        3.0308440443        3.8742108584
 H         -0.5032267625        0.7643553201        6.2728425044
 H         -0.6237756101        2.5313255737        6.5317664362
 H         -1.9234227406        1.6569764006        5.6668082855
  50
    -0.096812 !GC
 C          0.0000000000        0.0000000000        0.0000000000
 C          1.5469626976        0.0000000000        0.0000000000
 C         -2.4105340337        4.5728990687        0.0000000000
 C         -3.4819732067        3.7044736668       -0.0653150237
 C         -3.3555356601        2.4211976767        0.4123646114
 C         -2.1568907177        1.9858130633        0.9789791779
 C         -1.0811413122        2.8869862327        1.0931577402
 C         -1.2238352368        4.1563684322        0.5698186719
 N         -1.9993338071        0.6480939322        1.3455512295
 C         -0.6475968725        0.0811218233        1.4271843153
 C          0.1679083606        0.9860315144        2.4016682313
 C          0.2223096257        2.4863273013        1.7777869032
 C          1.6375473835        0.5182456956        2.4064987178
 C          2.1502035560        0.9680329380        1.0070015416
 C          1.4631109221        2.3634573415        0.7759249243
 C          3.6520437858        0.9909357729        0.9651232585
 C          4.3724330716        2.0899031882        0.8236048068
 C          3.7924109367        3.4391599919        0.6233139674
 N          2.3346342062        3.6013048157        1.0596450200
 C          2.1666529853        3.8777612924        2.5519786414
 C          0.7356264908        3.4639303278        2.8797485337
 O          1.8194758639        4.6308963090        0.3857314117
 H          1.1034036404        2.4546640567       -0.2507010694
 C         -0.4502096150        0.8892176447        3.7926546013
 O         -1.1152016496       -0.0825121218        4.0785684046
 O         -0.1761055820        1.9130696462        4.6453959738
 C         -0.8243113392        1.6937566545        5.8584484500
 H         -0.3714647514       -0.8858794846       -0.5293606619
 H         -0.3697620486        0.8452188047       -0.5879983116
 H          1.9233705218       -0.9983243866        0.2441728018
 H          1.9364751477        0.2284457915       -0.9981713274
 H         -2.5040334776        5.5703757712       -0.3978471114
 H         -4.4114941728        4.0281259727       -0.5047305765
 H         -4.1776413309        1.7295070899        0.3422311973
 H         -0.3712304619        4.8147851977        0.5855939897
 H         -2.6342742669       -0.0575093973        0.9739442977
 H         -0.7060915316       -0.9233061746        1.8718331572
 H          1.7044465987       -0.5639461054        2.5426085146
 H          2.2024030143        0.9908425882        3.2132222209
 H          4.1365349087        0.0363715799        1.0955845917
 H          5.4500253184        2.0233037495        0.8366263498
 H          4.3775280910        4.1960040881        1.1508513863
 H          3.8261917173        3.7069121948       -0.4351492118
 H          2.9074946172        3.3020616990        3.1097776424
 H          2.3483523507        4.9380876956        2.7376148397
 H          0.0650678185        4.3278942566        2.8851703239
 H          0.6608042933        3.0228237609        3.8784576665
 H         -0.5623070216        2.4964545602        6.5514947439
 H         -1.9029481207        1.6606229326        5.6976715074
 H         -0.4781457073        0.7427954020        6.2707535400
  50
    -0.093789 !GC
 C          0.0000000000        0.0000000000        0.0000000000
 C          1.5469063015        0.0000000000        0.0000000000
 C         -2.4120447014        4.5732641035        0.0000000000
 C         -3.4831144953        3.7044627072       -0.0662332465
 C         -3.3563791475        2.4209841529        0.4108341099
 C         -2.1578208154        1.9857719179        0.9777067759
 C         -1.0824411727        2.8872649917        1.0927867115
 C         -1.2254402281        4.1569917338        0.5701649021
 N         -1.9999354938        0.6479054883        1.3436205135
 C         -0.6480243421        0.0815198998        1.4263823802
 C          0.1667026998        0.9869827313        2.4010694397
 C          0.2210269392        2.4864402993        1.7773454781
 C          1.6366638172        0.5202143028        2.4061442839
 C          2.1491456839        0.9698727309        1.0065612445
 C          1.4607555839        2.3645568334        0.7746157784
 C          3.6509803044        0.9940648166        0.9651047345
 C          4.3704286310        2.0934808208        0.8222570249
 C          3.7891299864        3.4418615718        0.6198956404
 N          2.3315009101        3.6033475567        1.0569985861
 C          2.1641234165        3.8806973157        2.5492244785
 C          0.7336616982        3.4658318292        2.8782574807
 O          1.8151794126        4.6320452285        0.3826225565
 H          1.1005553312        2.4547010400       -0.2519300049
 C         -0.4514776001        0.8891610320        3.7920226231
 O         -1.1124187700       -0.0848927190        4.0789380115
 O         -0.1832448520        1.9158626543        4.6430507790
 C         -0.8301080256        1.6948507553        5.8564876298
 H         -0.3714478839       -0.8861102912       -0.5288594394
 H         -0.3696673352        0.8448700442       -0.5884476517
 H          1.9232207732       -0.9981749707        0.2448372898
 H          1.9363550766        0.2277558154       -0.9983174163
 H         -2.5057104227        5.5709518935       -0.3972991827
 H         -4.4125280751        4.0279513479       -0.5059978728
 H         -4.1781472227        1.7289967919        0.3399853099
 H         -0.3731044238        4.8157295325        0.5863688942
 H         -2.6348592220       -0.0575162588        0.9718339262
 H         -0.7064885305       -0.9226757279        1.8715529027
 H          1.7043593962       -0.5618380933        2.5428437962
 H          2.2010823473        0.9936263824        3.2126858242
 H          4.1362837769        0.0401215858        1.0970789211
 H          5.4480823564        2.0278877635        0.8356799791
 H          4.3738897889        4.2002044369        1.1456593079
 H          3.8219178530        3.7076667448       -0.4390747939
 H          2.9058332517        3.3060537235        3.1068980883
 H          2.3450352553        4.9412904714        2.7339747780
 H          0.0624605664        4.3292864169        2.8839175649
 H          0.6598358254        3.0249544610        3.8770971656
 H         -0.4892832146        0.7452511942        6.2755528762
 H         -0.5986266167        2.5119452606        6.5420862775
 H         -1.9069835847        1.6503424157        5.6789144267
  50
    -0.092640 !GC
 C          0.0000000000        0.0000000000        0.0000000000
 C          1.5460708323        0.0000000000        0.0000000000
 C         -2.3832136548        4.6284598482        0.0000000000
 C         -3.4614975857        3.7705926657       -0.0887400838
 C         -3.3487705944        2.4773024104        0.3648175465
 C         -2.1572400463        2.0214265712        0.9301490277
 C         -1.0770813165        2.9121557493        1.0737142473
 C         -1.2035341332        4.1953072082        0.5720767192
 N         -2.0076838461        0.6737829997        1.2610440053
 C         -0.6599151404        0.1099803054        1.4048509331
 C          0.1293506818        1.0331184234        2.3872093829
 C          0.2121249981        2.4883676543        1.7712258090
 C          1.6051799791        0.5837364102        2.4142598242
 C          2.1280473660        1.0301635234        1.0176368764
 C          1.4243604638        2.4146899067        0.7680928106
 C          3.6296809499        1.0743433780        0.9933552080
 C          4.3360315143        2.1825918893        0.8531919885
 C          3.7397270913        3.5220465352        0.6355207521
 N          2.2743884567        3.6667512735        1.0522569058
 C          2.0838080945        3.9537770171        2.5398582318
 C          0.6557219553        3.5202115853        2.8564680036
 O          1.7527106428        4.6829604113        0.3631696983
 H          1.0753638653        2.4929569066       -0.2633056884
 C         -0.4997114809        0.9615739567        3.7748066179
 O         -0.1343775658        0.0907652777        4.5340886906
 O         -1.4577156746        1.8832793890        4.0660540704
 C         -1.9574553717        1.6461949168        5.3445078651
 H         -0.3748568889       -0.9007914686       -0.5006131503
 H         -0.3699306895        0.8283556597       -0.6114711545
 H          1.9230822683       -0.9979658088        0.2444510251
 H          1.9355004951        0.2301281723       -0.9976443695
 H         -2.4622222845        5.6344874030       -0.3792373781
 H         -4.3847126401        4.1096995404       -0.5295662939
 H         -4.1748718905        1.7929407052        0.2734357776
 H         -0.3469308073        4.8479104210        0.6042454828
 H         -2.7095150556       -0.0005278643        0.9585649015
 H         -0.7335311673       -0.8846528513        1.8685795184
 H          1.6877112533       -0.4960493292        2.5598266920
 H          2.1522990314        1.0717560144        3.2240472071
 H          4.1261548309        0.1277957014        1.1364642883
 H          5.4141784456        2.1315454844        0.8802607830
 H          4.3072466943        4.2908691275        1.1646304636
 H          3.7832773673        3.7823852080       -0.4243033463
 H          2.8268786973        3.3947151559        3.1113919946
 H          2.2470756345        5.0183543714        2.7180155447
 H         -0.0260973694        4.3752304135        2.8501169971
 H          0.5846309304        3.0868093379        3.8580070044
 H         -2.4098366185        0.6530013229        5.3786218328
 H         -1.1467339229        1.7254592895        6.0711777044
 H         -2.7171002352        2.4004950175        5.5642770031
  50
    -0.091317 !GC
 C          0.0000000000        0.0000000000        0.0000000000
 C          1.5463273272        0.0000000000        0.0000000000
 C         -2.4213383983        4.6079348244        0.0000000000
 C         -3.4939467085        3.7414244965       -0.0721569586
 C         -3.3670496563        2.4515109041        0.3873950828
 C         -2.1666029930        2.0063716182        0.9426566071
 C         -1.0905209614        2.9068287640        1.0654036239
 C         -1.2318098594        4.1863577723        0.5599356612
 N         -2.0084788427        0.6604539604        1.2846534535
 C         -0.6516821098        0.1105452463        1.4068789526
 C          0.1319756823        1.0481922210        2.3745777798
 C          0.2090447379        2.4964531094        1.7489279271
 C          1.6111522089        0.6108905964        2.4115481129
 C          2.1283521488        1.0424073945        1.0063286245
 C          1.4169730330        2.4209189344        0.7426716200
 C          3.6295626361        1.0945514167        0.9755985195
 C          4.3285980549        2.2051218883        0.8175001211
 C          3.7226846825        3.5382196753        0.5861145079
 N          2.2608233855        3.6797447448        1.0157184265
 C          2.0820631089        3.9707458967        2.5043063505
 C          0.6624641402        3.5217031014        2.8384076436
 O          1.7277591779        4.6906625306        0.3277544115
 H          1.0648069858        2.4882640840       -0.2883669159
 C         -0.5414549661        0.9672037173        3.7372924084
 O         -1.4940886873        0.2298780941        3.8652798050
 O         -0.0467916562        1.7747386578        4.7143259858
 C         -0.8449448147        1.6678926951        5.8510258440
 H         -0.3753076696       -0.9020818205       -0.4980100934
 H         -0.3721748752        0.8272453590       -0.6114941650
 H          1.9229267329       -0.9950963729        0.2564863077
 H          1.9359550899        0.2182153753       -1.0002732083
 H         -2.5127584117        5.6118387108       -0.3819011536
 H         -4.4249797443        4.0719785735       -0.5031340334
 H         -4.1902005414        1.7618047375        0.3107971603
 H         -0.3801429511        4.8458092101        0.5821007306
 H         -2.6911400142       -0.0184464017        0.9505714858
 H         -0.7066861224       -0.8824892121        1.8776101804
 H          1.6978657697       -0.4660421183        2.5744817733
 H          2.1575518052        1.1126778920        3.2129814758
 H          4.1321620562        0.1527905642        1.1287323179
 H          5.4073010031        2.1607307200        0.8399932318
 H          4.2907917967        4.3178687080        1.0986555101
 H          3.7542390738        3.7835355961       -0.4777421954
 H          2.8388919014        3.4238778458        3.0695724647
 H          2.2342791302        5.0380001537        2.6758704150
 H         -0.0293937383        4.3685634139        2.8540325525
 H          0.6067675763        3.0691422339        3.8336644098
 H         -0.4388419792        2.3085061051        6.6367984946
 H         -1.8681454503        1.9589224769        5.6085061928
 H         -0.8221179857        0.6300460582        6.1928660704
  50
    -0.084003 !GC
 C          0.0000000000        0.0000000000        0.0000000000
 C          1.5468249246        0.0000000000        0.0000000000
 C         -2.3327439554        4.5870227117        0.0000000000
 C         -3.4052520451        3.7282154917       -0.1354182050
 C         -3.3093931213        2.4342627719        0.3194856251
 C         -2.1417614749        1.9777151687        0.9330143955
 C         -1.0677425510        2.8676818329        1.1176184072
 C         -1.1755543760        4.1527695139        0.6154944960
 N         -2.0141014794        0.6279150949        1.2883824740
 C         -0.6623751712        0.0681983676        1.4088251806
 C          0.1250881001        0.9648851840        2.4196449168
 C          0.2088855047        2.4349249604        1.8323007912
 C          1.5985737589        0.5079865356        2.4340533731
 C          2.1274274513        0.9947365178        1.0541755730
 C          1.4268464105        2.3861615912        0.8417744671
 C          3.6292911331        1.0415202734        1.0427126744
 C          4.3328489551        2.1569427099        0.9517337388
 C          3.7325247942        3.5010923879        0.7745110671
 N          2.2587540620        3.6158790692        1.1693882599
 C          2.0335733708        3.8646524151        2.6589543015
 C          0.6093096751        3.3928853999        2.9398368522
 O          1.7334210568        4.6393205046        0.4937722222
 H          1.0872276266        2.4941936200       -0.1901479920
 C         -0.4903088684        0.8830384247        3.8150604440
 O         -1.6922572738        0.8003979947        3.9399696217
 O          0.3865262962        0.9258693372        4.8568289011
 C         -0.3174323298        0.8673141653        6.0580722933
 H         -0.3744736126       -0.8866452005       -0.5254842633
 H         -0.3693291693        0.8441004307       -0.5895916766
 H          1.9240175445       -1.0049907922        0.2134406851
 H          1.9366886307        0.2609707907       -0.9898874984
 H         -2.3977496017        5.5942298355       -0.3785278615
 H         -4.3108045001        4.0676702236       -0.6113325681
 H         -4.1313843128        1.7497930930        0.1973831365
 H         -0.3202467006        4.8047589158        0.6791605704
 H         -2.8486296678        0.0418240840        1.1816645483
 H         -0.7334697607       -0.9397027834        1.8436183836
 H          1.6796077663       -0.5761996559        2.5439150969
 H          2.1462381130        0.9699110749        3.2588371847
 H          4.1272360406        0.0917768741        1.1557804238
 H          5.4108745864        2.1088241783        0.9878929794
 H          4.2832304337        4.2532389219        1.3442019501
 H          3.7938108146        3.8025487573       -0.2735968271
 H          2.7785423741        3.3085435345        3.2309863423
 H          2.1700304196        4.9281496054        2.8641668731
 H         -0.0901068402        4.2334199953        2.9356093503
 H          0.5340880467        2.9413355711        3.9321609375
 H         -0.9902494363        1.7263398968        6.1134777430
 H         -0.8900963263       -0.0601609665        6.1038758069
 H          0.3929625312        0.9209043922        6.8861272796
  50
    -0.083769 !GC
 C          0.0000000000        0.0000000000        0.0000000000
 C          1.5472575468        0.0000000000        0.0000000000
 C         -2.4237146393        4.5686897007        0.0000000000
 C         -3.4924659422        3.6968990761       -0.0652949430
 C         -3.3617284817        2.4135699253        0.4111696324
 C         -2.1614479325        1.9814172741        0.9766821410
 C         -1.0881203395        2.8857967684        1.0897550364
 C         -1.2350700550        4.1557395168        0.5682988903
 N         -2.0009517933        0.6444386383        1.3457360456
 C         -0.6479427559        0.0800423864        1.4262976311
 C          0.1653180537        0.9889589956        2.3980388122
 C          0.2171251682        2.4879802509        1.7722451581
 C          1.6353742935        0.5233444258        2.4057341399
 C          2.1483664835        0.9720202661        1.0059382462
 C          1.4575537439        2.3653391857        0.7710504662
 C          3.6501978309        0.9993499725        0.9661354982
 C          4.3673458912        2.0999833197        0.8207743777
 C          3.7831321943        3.4463655271        0.6132055535
 N          2.3258233523        3.6063222437        1.0518413782
 C          2.1595044622        3.8843010090        2.5440577484
 C          0.7312237552        3.4640533941        2.8770266414
 O          1.8071272602        4.6336846399        0.3773404296
 H          1.0971593795        2.4529738658       -0.2556565520
 C         -0.4537362358        0.8983064276        3.7882342930
 O         -0.3474190847        1.8595774974        4.5186278108
 O         -1.0710014685       -0.2646779739        4.1275475354
 C         -1.4904903553       -0.2012447539        5.4537330376
 H         -0.3711665774       -0.8857321546       -0.5297283888
 H         -0.3696143517        0.8452185606       -0.5879520904
 H          1.9235175891       -0.9974773097        0.2477402579
 H          1.9367053268        0.2247786994       -0.9990133658
 H         -2.5204535454        5.5661026820       -0.3972267502
 H         -4.4231325078        4.0178786157       -0.5042511733
 H         -4.1817000991        1.7193925283        0.3409644253
 H         -0.3843573441        4.8165189641        0.5831394864
 H         -2.6266087361       -0.0647166358        0.9655968074
 H         -0.7033528119       -0.9235208591        1.8734363553
 H          1.7022649850       -0.5584146960        2.5451680171
 H          2.1970020001        0.9973051732        3.2138884054
 H          4.1374909900        0.0469910784        1.1021804704
 H          5.4451273029        2.0369266202        0.8359994463
 H          4.3669461192        4.2082118559        1.1349859664
 H          3.8139840514        3.7076852421       -0.4469535883
 H          2.9045621736        3.3129566003        3.1007103385
 H          2.3369665117        4.9456719786        2.7276432041
 H          0.0579514107        4.3258485783        2.8886722667
 H          0.6657867913        3.0182253242        3.8742246862
 H         -2.1872894057        0.6316137307        5.5721560320
 H         -1.9786605459       -1.1401911940        5.7209951883
 H         -0.6167702008       -0.0405791099        6.0896055437
  50
    -0.083553 !GC
 C          0.0000000000        0.0000000000        0.0000000000
 C          1.5460794116        0.0000000000        0.0000000000
 C         -2.3824941106        4.6261193056        0.0000000000
 C         -3.4604901205        3.7679695349       -0.0895434596
 C         -3.3479360044        2.4748358962        0.3645190614
 C         -2.1569275649        2.0192369119        0.9313718047
 C         -1.0769547332        2.9103075588        1.0751527128
 C         -1.2032861132        4.1928055532        0.5730013138
 N         -2.0084426786        0.6718566298        1.2647150179
 C         -0.6604999801        0.1076645018        1.4056191807
 C          0.1304304531        1.0294257328        2.3877531502
 C          0.2126227393        2.4867799715        1.7718359131
 C          1.6056413561        0.5777760008        2.4135293410
 C          2.1286918774        1.0246333861        1.0170387456
 C          1.4273465715        2.4107238623        0.7698101333
 C          3.6303980237        1.0660998447        0.9920101582
 C          4.3386253031        2.1733496244        0.8533450858
 C          3.7446027931        3.5144935460        0.6394820302
 N          2.2796184505        3.6609393431        1.0568343097
 C          2.0899870439        3.9448573942        2.5452250720
 C          0.6608936790        3.5139583338        2.8609014613
 O          1.7600987520        4.6799377766        0.3703012874
 H          1.0789988244        2.4913418648       -0.2616471942
 C         -0.5004986730        0.9632825184        3.7745988463
 O         -0.2349575409        0.0191891116        4.4858503644
 O         -1.3431591477        1.9739237700        4.1212237336
 C         -1.8644796647        1.7308460644        5.3899840982
 H         -0.3748021205       -0.9000689369       -0.5020486924
 H         -0.3700251937        0.8291782178       -0.6103239901
 H          1.9233246504       -0.9980421202        0.2439148851
 H          1.9357602904        0.2307403085       -0.9974788485
 H         -2.4618444966        5.6319659132       -0.3793855987
 H         -4.3836065445        4.1070363603       -0.5307009852
 H         -4.1740825464        1.7905207553        0.2730668407
 H         -0.3467229838        4.8453661015        0.6061487846
 H         -2.7051826075       -0.0036614146        0.9522450981
 H         -0.7333737648       -0.8877891337        1.8677393792
 H          1.6862394853       -0.5022444051        2.5585226040
 H          2.1536539494        1.0639952772        3.2238138925
 H          4.1252561255        0.1183500767        1.1331232139
 H          5.4167450224        2.1201927674        0.8792735473
 H          4.3137424828        4.2809538442        1.1705850361
 H          3.7883527515        3.7776603376       -0.4197597680
 H          2.8316616726        3.3824501851        3.1153544826
 H          2.2559289325        5.0085572404        2.7260928126
 H         -0.0190835525        4.3704356684        2.8566388684
 H          0.5877441837        3.0774747765        3.8611073783
 H         -2.5274372723        2.5543480445        5.6655408275
 H         -2.4070466942        0.7843919043        5.3892764410
 H         -1.0379895735        1.6871920177        6.1035134338
  50
    -0.082717 !GC
 C          0.0000000000        0.0000000000        0.0000000000
 C          1.5452676615        0.0000000000        0.0000000000
 C         -2.5157939587        4.5935639847        0.0000000000
 C         -3.5926706153        3.7291590107        0.0053226679
 C         -3.4396269000        2.4440176466        0.4699564756
 C         -2.2052559401        1.9999448474        0.9479216169
 C         -1.1272364727        2.9053082556        1.0113705166
 C         -1.2968238215        4.1783213980        0.4983259681
 N         -2.0228034174        0.6437900924        1.2686232829
 C         -0.6572850731        0.1195664659        1.4052628316
 C          0.1160046186        1.0816985107        2.3560144093
 C          0.1796850179        2.5208979210        1.6980383283
 C          1.5981995395        0.6590243989        2.4026248577
 C          2.1133978920        1.0612642585        0.9876166208
 C          1.3918184007        2.4271497176        0.6896317916
 C          3.6141790404        1.1195013816        0.9555005691
 C          4.3092285026        2.2273178786        0.7654857013
 C          3.6995331014        3.5514925270        0.4979162766
 N          2.2370010117        3.7045107482        0.9218757769
 C          2.0595490861        4.0408997801        2.4004023651
 C          0.6367210505        3.6115803707        2.7431405848
 O          1.7055331239        4.6948358342        0.2032781562
 H          1.0362144389        2.4643477048       -0.3417496098
 C         -0.5430701030        1.0000658545        3.7265916322
 O         -0.6316456874        2.0328110419        4.3560721801
 O         -0.9780675233       -0.2130191960        4.1572526414
 C         -1.4827935432       -0.0947703986        5.4496906144
 H         -0.3771510228       -0.9065032714       -0.4885482730
 H         -0.3750487280        0.8213202778       -0.6176808060
 H          1.9224660161       -0.9886342381        0.2795316826
 H          1.9354075500        0.1961797088       -1.0046452459
 H         -2.6296574055        5.5922631433       -0.3895142503
 H         -4.5473225734        4.0556055307       -0.3738182684
 H         -4.2616559879        1.7495086227        0.4397087031
 H         -0.4471146043        4.8401990186        0.4712839752
 H         -2.7043745895        0.1751770975        1.8665156235
 H         -0.6937775512       -0.8722090755        1.8804128803
 H          1.6956686039       -0.4127217496        2.5917083671
 H          2.1356536569        1.1858646331        3.1942376450
 H          4.1204103145        0.1844031082        1.1352468254
 H          5.3879476707        2.1873721459        0.7893858566
 H          4.2665855650        4.3457466474        0.9887801560
 H          3.7313406655        3.7676972145       -0.5722702603
 H          2.8105522373        3.5053764791        2.9839724751
 H          2.2184813267        5.1117867468        2.5404263463
 H         -0.0489070463        4.4633371157        2.7214790017
 H          0.5729685869        3.2034741463        3.7559584180
 H         -1.8406026000       -1.0706139774        5.7845733432
 H         -0.7033603711        0.2784925271        6.1153163969
 H         -2.3236506520        0.6029535546        5.4304012533
  50
    -0.081426 !GC
 C          0.0000000000        0.0000000000        0.0000000000
 C          1.5461027522        0.0000000000        0.0000000000
 C         -2.3857630493        4.6277004265        0.0000000000
 C         -3.4634661299        3.7691221437       -0.0891046691
 C         -3.3498010582        2.4756392344        0.3637400491
 C         -2.1579803705        2.0201465777        0.9289416265
 C         -1.0783066188        2.9116405798        1.0723190851
 C         -1.2055785400        4.1947560964        0.5712647461
 N         -2.0083340177        0.6724966578        1.2606821739
 C         -0.6600018515        0.1099387426        1.4048980220
 C          0.1284830784        1.0344366096        2.3863496460
 C          0.2113902468        2.4886020351        1.7690090532
 C          1.6043900840        0.5850738247        2.4138940346
 C          2.1281153819        1.0308256305        1.0173076496
 C          1.4241443993        2.4150849817        0.7668972237
 C          3.6297883208        1.0751202812        0.9936311053
 C          4.3359269660        2.1834418475        0.8529797748
 C          3.7391915268        3.5226476920        0.6346676788
 N          2.2739612532        3.6675094899        1.0518055980
 C          2.0839666593        3.9534892568        2.5398045996
 C          0.6557042850        3.5202884003        2.8563914226
 O          1.7525002656        4.6843676928        0.3635616225
 H          1.0757204656        2.4931963737       -0.2647026609
 C         -0.5047879875        0.9695826758        3.7720809893
 O         -0.2292979891        0.0326759519        4.4892215540
 O         -1.3632986063        1.9699788522        4.1098638643
 C         -1.8840921502        1.7273114277        5.3789368783
 H         -0.3746647097       -0.9008228687       -0.5007436118
 H         -0.3700135855        0.8282751148       -0.6115154321
 H          1.9229811224       -0.9978916101        0.2450104447
 H          1.9357934667        0.2294705884       -0.9977447393
 H         -2.4657170663        5.6340020750       -0.3781206765
 H         -4.3872824790        4.1081906961       -0.5289064659
 H         -4.1757213030        1.7910161298        0.2725670071
 H         -0.3493712545        4.8478556900        0.6038622769
 H         -2.7082243679       -0.0021545075        0.9537558169
 H         -0.7324875039       -0.8847657699        1.8686525178
 H          1.6867025138       -0.4946172629        2.5604088169
 H          2.1510833194        1.0732794920        3.2238724840
 H          4.1263384117        0.1287820166        1.1378337164
 H          5.4141122352        2.1326613381        0.8805172820
 H          4.3069487310        4.2919857394        1.1631093703
 H          3.7822296869        3.7823534646       -0.4254616915
 H          2.8269964089        3.3938449725        3.1108501704
 H          2.2475457175        5.0178965542        2.7186638099
 H         -0.0259633621        4.3754175086        2.8515717859
 H          0.5839757598        3.0849275006        3.8571842659
 H         -2.4154893877        0.7726639509        5.3674301598
 H         -1.0746733818        1.6977815916        6.1096703664
 H         -2.5916771908        2.5230631886        5.6231629940
  50
    -0.079642 !GC
 C          0.0000000000        0.0000000000        0.0000000000
 C          1.5452603439        0.0000000000        0.0000000000
 C         -2.4759703542        4.5902877279        0.0000000000
 C         -3.5392068806        3.7114289174       -0.0568355016
 C         -3.3926421383        2.4263660396        0.4099016420
 C         -2.1824417915        1.9997361402        0.9589814768
 C         -1.1163277878        2.9130687162        1.0701544364
 C         -1.2770567485        4.1862108539        0.5531392730
 N         -2.0048991764        0.6569561882        1.3007578787
 C         -0.6415128927        0.1224840919        1.4087405786
 C          0.1370055662        1.0676491203        2.3809824323
 C          0.1974879867        2.5198341219        1.7391104611
 C          1.6185829922        0.6469004707        2.4074577211
 C          2.1175482800        1.0622536164        0.9893682931
 C          1.3802533707        2.4224836223        0.7010850356
 C          3.6178451862        1.1359207744        0.9470198574
 C          4.2986365831        2.2455417268        0.7187355564
 C          3.6676512236        3.5517633139        0.4156291745
 N          2.2190697777        3.7002842815        0.8860762177
 C          2.0854408907        4.0528464573        2.3635284092
 C          0.6854846553        3.5988093343        2.7649457075
 O          1.6542420519        4.6741133810        0.1707325888
 H          0.9953255497        2.4474458244       -0.3200244446
 C         -0.5147680087        0.9282396802        3.7552939910
 O         -1.7218856384        0.9765196012        3.8349773328
 O          0.3162825266        0.8017803611        4.8258722439
 C         -0.4363382109        0.7418342166        5.9955777043
 H         -0.3754695223       -0.9080852167       -0.4870542732
 H         -0.3772897385        0.8193339103       -0.6187935328
 H          1.9238450540       -0.9892453935        0.2754296681
 H          1.9358738544        0.2019472824       -1.0033215225
 H         -2.5813177140        5.5893618368       -0.3909067593
 H         -4.4770186163        4.0273728872       -0.4840383339
 H         -4.2066165585        1.7249639888        0.3407814780
 H         -0.4313809460        4.8536864619        0.5538661540
 H         -2.6702830581       -0.0310372520        0.9516361700
 H         -0.6874040627       -0.8698512143        1.8821464220
 H          1.7224468859       -0.4265524839        2.5833440188
 H          2.1650453350        1.1701105531        3.1955174053
 H          4.1358798069        0.2121467839        1.1504080756
 H          5.3778308691        2.2194585158        0.7342822345
 H          4.2394918340        4.3722347042        0.8553482612
 H          3.6609483361        3.7239284115       -0.6629310770
 H          2.8684718883        3.5402295119        2.9255099805
 H          2.2277713075        5.1284533652        2.4845537633
 H         -0.0153794226        4.4381730009        2.7733419628
 H          0.6841812112        3.2012406191        3.7821336004
 H         -1.1116492504       -0.1144910987        5.9415291184
 H          0.2349972715        0.6380725491        6.8501183752
 H         -1.0192411819        1.6611334266        6.0870592895
  50
    -0.079182 !GC
 C          0.0000000000        0.0000000000        0.0000000000
 C          1.5460998504        0.0000000000        0.0000000000
 C         -2.3878717278        4.6279268249        0.0000000000
 C         -3.4653939126        3.7689874504       -0.0878623029
 C         -3.3509819901        2.4756834696        0.3653389607
 C         -2.1584850848        2.0206537472        0.9295706898
 C         -1.0789584370        2.9125404637        1.0716259267
 C         -1.2070005303        4.1954255982        0.5701466977
 N         -2.0081796393        0.6731831780        1.2617717498
 C         -0.6597587411        0.1106460928        1.4049995311
 C          0.1290568653        1.0362587551        2.3851812663
 C          0.2112936266        2.4904203800        1.7677831833
 C          1.6049654558        0.5870094894        2.4134027683
 C          2.1275015066        1.0323013283        1.0161923996
 C          1.4233683933        2.4162863402        0.7649400051
 C          3.6291761171        1.0771972235        0.9920927541
 C          4.3349136840        2.1855234920        0.8494393792
 C          3.7377526608        3.5243253270        0.6298561306
 N          2.2728641539        3.6692780380        1.0480513127
 C          2.0839043872        3.9563930460        2.5359441737
 C          0.6561111922        3.5228563943        2.8542583446
 O          1.7506127726        4.6853420813        0.3591975934
 H          1.0742355342        2.4932663522       -0.2665010908
 C         -0.5045620233        0.9722405955        3.7708341270
 O         -0.2278320646        0.0368634617        4.4894572838
 O         -1.3705943393        1.9677074710        4.1041007837
 C         -1.8945331634        1.7234004391        5.3715940683
 H         -0.3747911818       -0.9010969093       -0.5002141987
 H         -0.3701413144        0.8279568135       -0.6119376508
 H          1.9232037224       -0.9975991987        0.2458971641
 H          1.9357535114        0.2287394425       -0.9979810947
 H         -2.4684835693        5.6341565725       -0.3782169396
 H         -4.3897306721        4.1076917217       -0.5268911770
 H         -4.1767995926        1.7908060236        0.2751110486
 H         -0.3511243793        4.8489643808        0.6022547895
 H         -2.7084660653       -0.0016368259        0.9561590552
 H         -0.7318954607       -0.8836533522        1.8696627292
 H          1.6876844363       -0.4925173208        2.5607817385
 H          2.1516640232        1.0762030085        3.2228001081
 H          4.1262501268        0.1311143226        1.1370659317
 H          5.4132543188        2.1350284387        0.8762316947
 H          4.3057175043        4.2945714346        1.1569656775
 H          3.7798409026        3.7827223234       -0.4308571155
 H          2.8277212861        3.3975448537        3.1067327520
 H          2.2472417341        5.0210039249        2.7137300994
 H         -0.0259642323        4.3776636962        2.8496477991
 H          0.5851607102        3.0876304734        3.8551598367
 H         -2.5964248587        2.5227955721        5.6211901972
 H         -2.4187401938        0.7661379747        5.3668334509
 H         -1.0817000209        1.7107771279        6.1005977128
  50
    -0.078441 !GC
 C          0.0000000000        0.0000000000        0.0000000000
 C          1.5453169923        0.0000000000        0.0000000000
 C         -2.5121998083        4.5912798055        0.0000000000
 C         -3.5888819223        3.7266044526        0.0013172296
 C         -3.4371541792        2.4412711949        0.4659197905
 C         -2.2042952594        1.9969571518        0.9478143174
 C         -1.1265510233        2.9025264391        1.0141512617
 C         -1.2946034122        4.1757041735        0.5014209557
 N         -2.0230998826        0.6403559029        1.2695859847
 C         -0.6570808203        0.1168751400        1.4055073852
 C          0.1158824475        1.0781564341        2.3571178636
 C          0.1798430021        2.5173007019        1.7007354804
 C          1.5982327693        0.6554818098        2.4034852513
 C          2.1141674937        1.0601417459        0.9894075654
 C          1.3924045490        2.4263428257        0.6935835322
 C          3.6149383086        1.1188471850        0.9574314031
 C          4.3096347813        2.2270884541        0.7685127873
 C          3.6995711905        3.5517290144        0.5037166346
 N          2.2374532489        3.7045776707        0.9291354919
 C          2.0611633826        4.0362637923        2.4090666956
 C          0.6373872317        3.6092586673        2.7510408582
 O          1.7064142087        4.6977462320        0.2141657828
 H          1.0376238960        2.4655821381       -0.3380049396
 C         -0.5468194750        1.0009574992        3.7259782914
 O         -0.5320109684        2.0107061664        4.3972496303
 O         -1.0961818082       -0.1806671311        4.1105057044
 C         -1.5825165905       -0.0672847675        5.4105477971
 H         -0.3769142160       -0.9056002319       -0.4904358411
 H         -0.3750807229        0.8223808082       -0.6162392304
 H          1.9225068407       -0.9891046082        0.2779632044
 H          1.9356871084        0.1977101721       -1.0043098004
 H         -2.6250574986        5.5902391240       -0.3889585684
 H         -4.5425376777        4.0533677328       -0.3802531276
 H         -4.2591565996        1.7468681698        0.4330908215
 H         -0.4446891681        4.8374545335        0.4771396895
 H         -2.7050458691        0.1755902308        1.8705107945
 H         -0.6926454819       -0.8759833794        1.8784653898
 H          1.6955803733       -0.4165131051        2.5912698946
 H          2.1350672888        1.1809451297        3.1964525015
 H          4.1213926354        0.1836532026        1.1360828742
 H          5.3884236172        2.1872478935        0.7917723289
 H          4.2673962155        4.3451146643        0.9954003844
 H          3.7303454176        3.7697738883       -0.5662324678
 H          2.8111627603        3.4971568781        2.9906770023
 H          2.2224740214        5.1063348943        2.5526917024
 H         -0.0467408763        4.4622474609        2.7319355869
 H          0.5718444900        3.1975390984        3.7624315727
 H         -1.9918776271       -1.0324949419        5.7172855830
 H         -0.7656299009        0.2104938530        6.0785465302
 H         -2.3717214564        0.6868379927        5.4344055565
  50
    -0.078220 !GC
 C          0.0000000000        0.0000000000        0.0000000000
 C          1.5462504923        0.0000000000        0.0000000000
 C         -2.3823894529        4.6200314955        0.0000000000
 C         -3.4606979308        3.7617375306       -0.0844363944
 C         -3.3472363835        2.4699481617        0.3732360069
 C         -2.1549619935        2.0159286409        0.9386824247
 C         -1.0746650038        2.9074040929        1.0775484439
 C         -1.2021062144        4.1879080297        0.5716605009
 N         -2.0056482071        0.6695184567        1.2755010052
 C         -0.6570820681        0.1052482730        1.4097049612
 C          0.1370304226        1.0253788475        2.3905566550
 C          0.2160661778        2.4868261664        1.7739726368
 C          1.6115968693        0.5716342603        2.4133092081
 C          2.1329868732        1.0195410775        1.0166306298
 C          1.4337241007        2.4071602068        0.7726745279
 C          3.6347002111        1.0584509161        0.9892368100
 C          4.3446688234        2.1649359285        0.8533270863
 C          3.7529081161        3.5079738190        0.6449753041
 N          2.2878490562        3.6554820721        1.0617981353
 C          2.0981528259        3.9377319658        2.5505123743
 C          0.6680991622        3.5091770532        2.8647729655
 O          1.7699845199        4.6761986256        0.3765322740
 H          1.0851300368        2.4903845076       -0.2584965501
 C         -0.4915148948        0.9592552739        3.7784442671
 O         -0.2203031755        0.0176281100        4.4909567077
 O         -1.3406281185        1.9650996121        4.1236427160
 C         -1.8599546359        1.7207688500        5.3929899778
 H         -0.3746313817       -0.8979310743       -0.5060358883
 H         -0.3700079023        0.8317413483       -0.6068546355
 H          1.9232840424       -0.9984404362        0.2426529496
 H          1.9359663573        0.2317790249       -0.9972404043
 H         -2.4627048876        5.6246491640       -0.3824201738
 H         -4.3848340133        4.0996139818       -0.5243546469
 H         -4.1736980542        1.7854848329        0.2858668595
 H         -0.3451932385        4.8401840784        0.6012020210
 H         -2.7019795273       -0.0072870489        0.9648348533
 H         -0.7279382680       -0.8911039159        1.8702194984
 H          1.6907703303       -0.5087451996        2.5564885848
 H          2.1616246556        1.0558033229        3.2234559816
 H          4.1281088797        0.1093603246        1.1262757784
 H          5.4227331679        2.1097380639        0.8775188831
 H          4.3231224390        4.2711336497        1.1796807499
 H          3.7978444851        3.7756230012       -0.4131045131
 H          2.8384287278        3.3731647624        3.1203184547
 H          2.2659914719        5.0008878417        2.7328406394
 H         -0.0104563564        4.3667863665        2.8592706386
 H          0.5930211554        3.0731576782        3.8650174700
 H         -2.4126592310        0.7791232104        5.3830880226
 H         -1.0443834275        1.6800288309        6.1170446159
 H         -2.5369466687        2.5384604878        5.6532450049
  50
    -0.078072 !GC
 C          0.0000000000        0.0000000000        0.0000000000
 C          1.5455750012        0.0000000000        0.0000000000
 C         -2.4792391988        4.5750649450        0.0000000000
 C         -3.5562069779        3.7112511940       -0.0242697502
 C         -3.4150571845        2.4250399178        0.4407789983
 C         -2.1932016203        1.9789670528        0.9489532614
 C         -1.1162695627        2.8825112958        1.0398480798
 C         -1.2728221055        4.1573898734        0.5260717542
 N         -2.0226345178        0.6199203136        1.2770326202
 C         -0.6562249796        0.0984205589        1.4068151478
 C          0.1176243935        1.0427917668        2.3786873724
 C          0.1820041742        2.4906037602        1.7394218741
 C          1.5976689995        0.6134845860        2.4133893498
 C          2.1154405078        1.0439441407        1.0086971376
 C          1.3948755729        2.4146833896        0.7346965812
 C          3.6164617891        1.1049254356        0.9850397890
 C          4.3094781523        2.2191979023        0.8271533109
 C          3.6964922885        3.5467388232        0.5835256123
 N          2.2271975462        3.6760285528        0.9909199635
 C          2.0239503849        3.9951597174        2.4695147147
 C          0.6065646445        3.5309925035        2.7913685350
 O          1.6899979027        4.6645942683        0.2742196345
 H          1.0422810894        2.4689935841       -0.2970405821
 C         -0.5056696288        0.9557349536        3.7679764529
 O         -1.6127976452        1.4334730109        3.8973120672
 O          0.1900522137        0.3384425877        4.7595415782
 C         -0.5394006169        0.3965876277        5.9442896120
 H         -0.3767316337       -0.8987229860       -0.5029925114
 H         -0.3743414436        0.8303266515       -0.6058133448
 H          1.9234305960       -0.9938266365        0.2594744587
 H          1.9358535068        0.2168774577       -1.0003167147
 H         -2.5821541555        5.5747869360       -0.3899702693
 H         -4.5007714102        4.0387876062       -0.4269475557
 H         -4.2359400551        1.7305001529        0.3882771176
 H         -0.4217318849        4.8179572094        0.5179960974
 H         -2.6436041268        0.2183256595        1.9882485168
 H         -0.6939255039       -0.9018416012        1.8635385367
 H          1.6951199003       -0.4625348889        2.5769943750
 H          2.1346601888        1.1232016808        3.2168019236
 H          4.1239674389        0.1671617344        1.1460175351
 H          5.3881114951        2.1820811113        0.8575099217
 H          4.2500734905        4.3325435789        1.1025788300
 H          3.7418342866        3.7895814848       -0.4804235500
 H          2.7795369254        3.4701491118        3.0568057666
 H          2.1582596071        5.0677571239        2.6215931490
 H         -0.0957425049        4.3687453654        2.7663430937
 H          0.5456310399        3.1191496571        3.8019754061
 H         -0.7215370875        1.4401208789        6.2076363717
 H         -1.4820572630       -0.1378639474        5.8148476532
 H          0.0444265478       -0.0815205745        6.7346326154
  50
    -0.076379 !GC
 C          0.0000000000        0.0000000000        0.0000000000
 C          1.5461124670        0.0000000000        0.0000000000
 C         -2.3827541208        4.6295279607        0.0000000000
 C         -3.4607183039        3.7714181915       -0.0904609004
 C         -3.3480476574        2.4777078571        0.3619790371
 C         -2.1569359301        2.0214374519        0.9280368833
 C         -1.0769859447        2.9123543528        1.0725561484
 C         -1.2032422083        4.1957736585        0.5720230894
 N         -2.0082312123        0.6737337579        1.2600359266
 C         -0.6603374025        0.1102582167        1.4049209342
 C          0.1288821931        1.0340962934        2.3864760242
 C          0.2121821055        2.4884596679        1.7695811599
 C          1.6047168570        0.5841965973        2.4139666096
 C          2.1285553181        1.0304113155        1.0175994789
 C          1.4250473710        2.4149826549        0.7677797488
 C          3.6302074145        1.0744421818        0.9934037177
 C          4.3366086745        2.1825718209        0.8525495086
 C          3.7403222564        3.5222017301        0.6355020250
 N          2.2753940398        3.6677468756        1.0533799205
 C          2.0862063491        3.9525096914        2.5417852463
 C          0.6572069975        3.5218435315        2.8586108983
 O          1.7544245276        4.6856850772        0.3663466475
 H          1.0768661608        2.4937029198       -0.2638532674
 C         -0.5039488732        0.9712265336        3.7725643326
 O         -0.2127522137        0.0468692375        4.4996642293
 O         -1.3805875076        1.9595100547        4.0989007189
 C         -1.8991668306        1.7207314432        5.3696124759
 H         -0.3745574821       -0.9009458304       -0.5005909823
 H         -0.3699562352        0.8281143245       -0.6117793486
 H          1.9231219744       -0.9979285457        0.2447178222
 H          1.9357717116        0.2297729445       -0.9976893833
 H         -2.4619431267        5.6360844392       -0.3775911536
 H         -4.3839665886        4.1110919070       -0.5309808962
 H         -4.1742291548        1.7935428116        0.2698999777
 H         -0.3467073743        4.8484160391        0.6056243175
 H         -2.7088920577       -0.0001100491        0.9535369166
 H         -0.7336690684       -0.8844918152        1.8684249719
 H          1.6867408662       -0.4955652973        2.5600699506
 H          2.1513097259        1.0719489061        3.2242907855
 H          4.1265755509        0.1279080471        1.1369580260
 H          5.4148137112        2.1313386624        0.8790383883
 H          4.3088121903        4.2907949803        1.1642271658
 H          3.7830030710        3.7826899948       -0.4244500571
 H          2.8283505294        3.3908252393        3.1120096090
 H          2.2519667263        5.0164102313        2.7217441059
 H         -0.0230370401        4.3781045588        2.8539050738
 H          0.5846436937        3.0861774483        3.8592223230
 H         -2.6165245522        2.5044910384        5.6205673371
 H         -2.3921659859        0.7464470512        5.3741953392
 H         -1.0801061315        1.7171117626        6.0922040686
  50
    -0.074699 !GC
 C          0.0000000000        0.0000000000        0.0000000000
 C          1.5455893840        0.0000000000        0.0000000000
 C         -2.4070294937        4.6341976225        0.0000000000
 C         -3.4833590643        3.7728380945       -0.0778904802
 C         -3.3623051135        2.4806049977        0.3766136635
 C         -2.1646801727        2.0299032438        0.9336187034
 C         -1.0867365745        2.9246854226        1.0681763727
 C         -1.2211784028        4.2056711676        0.5629505955
 N         -2.0056876388        0.6820219095        1.2551997202
 C         -0.6574788625        0.1236586426        1.4042507297
 C          0.1297271983        1.0550432554        2.3835727879
 C          0.2094120480        2.5073961599        1.7572882970
 C          1.6048805889        0.6069716503        2.4090858869
 C          2.1242410076        1.0426270336        1.0071806340
 C          1.4123003799        2.4208012967        0.7424589489
 C          3.6258390088        1.0927331069        0.9813618325
 C          4.3274324735        2.1995276997        0.8097773762
 C          3.7236132140        3.5291098057        0.5564935313
 N          2.2643175905        3.6804784702        0.9914990782
 C          2.0943111190        3.9913495452        2.4760483840
 C          0.6702079565        3.5644969276        2.8176507724
 O          1.7321600604        4.6842256048        0.2923225664
 H          1.0512978344        2.4804372533       -0.2860251041
 C         -0.4751240314        0.9841641910        3.7835443901
 O         -1.6629163900        1.2034360371        3.8923002724
 O          0.3496007895        0.6910321547        4.8250136898
 C         -0.3763503134        0.7153056651        6.0131604487
 H         -0.3748430420       -0.9056935764       -0.4917782047
 H         -0.3713806991        0.8221939891       -0.6188763550
 H          1.9231543083       -0.9951646938        0.2549440804
 H          1.9357245235        0.2205101820       -0.9996048491
 H         -2.4919503363        5.6385640787       -0.3820596533
 H         -4.4109030665        4.1078041783       -0.5130444229
 H         -4.1855016103        1.7921789986        0.2890245608
 H         -0.3652629347        4.8596637435        0.5820442911
 H         -2.6926114132       -0.0065818996        0.9327252725
 H         -0.7298617305       -0.8674225911        1.8757843499
 H          1.6898089441       -0.4715809205        2.5630490938
 H          2.1509616466        1.1035496647        3.2146889791
 H          4.1263802658        0.1525488066        1.1504528800
 H          5.4058216719        2.1540907576        0.8370460533
 H          4.2956253183        4.3170619178        1.0521670416
 H          3.7503315319        3.7548600442       -0.5119817347
 H          2.8435296810        3.4396153582        3.0468441746
 H          2.2613162219        5.0583274019        2.6356901658
 H         -0.0094241295        4.4210650050        2.8048038361
 H          0.6151743801        3.1538330415        3.8288784365
 H         -0.8275645496        1.7035695652        6.1294312952
 H         -1.1538280403       -0.0495628498        5.9825275828
 H          0.3058405014        0.5361088540        6.8472402705
  50
    -0.074324 !GC
 C          0.0000000000        0.0000000000        0.0000000000
 C          1.5468022148        0.0000000000        0.0000000000
 C         -2.3340193339        4.5884745934        0.0000000000
 C         -3.4065328724        3.7295021763       -0.1346182057
 C         -3.3100768471        2.4354727933        0.3199656305
 C         -2.1418379425        1.9790048659        0.9324024557
 C         -1.0678037359        2.8691358411        1.1163009320
 C         -1.1762285489        4.1542538471        0.6143988162
 N         -2.0139381170        0.6292764172        1.2877811877
 C         -0.6622656786        0.0696211519        1.4088173669
 C          0.1251408279        0.9671025774        2.4189852817
 C          0.2091204716        2.4366887591        1.8306168874
 C          1.5986063155        0.5101024556        2.4337997484
 C          2.1273956705        0.9956527451        1.0534001786
 C          1.4268930582        2.3869081692        0.8397560211
 C          3.6292534409        1.0422742301        1.0417925635
 C          4.3330042018        2.1574143477        0.9494275068
 C          3.7329820110        3.5015195706        0.7707329218
 N          2.2593700092        3.6172916053        1.1659694286
 C          2.0349114054        3.8675331536        2.6554124879
 C          0.6106000376        3.3964481088        2.9371581844
 O          1.7342998188        4.6402578490        0.4895494817
 H          1.0869961792        2.4939950340       -0.1921819348
 C         -0.4909105710        0.8869396988        3.8142280104
 O         -1.6927576524        0.8033622285        3.9385182311
 O          0.3851033004        0.9320697821        4.8564994822
 C         -0.3198496043        0.8761391505        6.0571509419
 H         -0.3744496361       -0.8871961245       -0.5245939056
 H         -0.3694007762        0.8435279239       -0.5903895150
 H          1.9240242344       -1.0048212013        0.2141278530
 H          1.9366116769        0.2602916836       -0.9900775947
 H         -2.3995056311        5.5957972659       -0.3781948770
 H         -4.3125775517        4.0689143711       -0.6096641347
 H         -4.1320849547        1.7508769572        0.1984409151
 H         -0.3209990879        4.8064066305        0.6775985160
 H         -2.8480127635        0.0426954512        1.1800770715
 H         -0.7334385737       -0.9378778228        1.8445403606
 H          1.6795953460       -0.5739876066        2.5446339378
 H          2.1463339831        0.9727872757        3.2581142308
 H          4.1270812516        0.0925498917        1.1555053296
 H          5.4110410297        2.1090321040        0.9850171113
 H          4.2842102359        4.2542949087        1.3390004301
 H          3.7937241811        3.8014751632       -0.2778145025
 H          2.7799363807        3.3117329780        3.2276557329
 H          2.1717889612        4.9311624934        2.8596187191
 H         -0.0885250468        4.2372311651        2.9329579852
 H          0.5357369891        2.9452974793        3.9296992719
 H         -0.8944818204       -0.0520727379        6.0930709955
 H          0.3827285971        0.9144774113        6.8916629367
 H         -1.0018933168        1.7282986275        6.1037916244
  50
    -0.073278 !GC
 C          0.0000000000        0.0000000000        0.0000000000
 C          1.5456209255        0.0000000000        0.0000000000
 C         -2.4445621413        4.5836942689        0.0000000000
 C         -3.5129761439        3.7117911670       -0.0682664313
 C         -3.3792797252        2.4244021710        0.3962569539
 C         -2.1764463925        1.9877947241        0.9533599449
 C         -1.1050447503        2.8938290359        1.0737601546
 C         -1.2528620045        4.1703739497        0.5615253059
 N         -2.0094216946        0.6428660062        1.2937017308
 C         -0.6483025030        0.1016864648        1.4080569126
 C          0.1298054659        1.0403425516        2.3805848559
 C          0.1979783050        2.4921141925        1.7572827948
 C          1.6109929716        0.6144522849        2.4157964912
 C          2.1241020384        1.0467781814        1.0094478699
 C          1.4034297071        2.4200917915        0.7448459586
 C          3.6249579232        1.1040321782        0.9760374861
 C          4.3211712495        2.2150030918        0.8103246250
 C          3.7126614071        3.5455699856        0.5738256606
 N          2.2507645878        3.6899118039        1.0028529317
 C          2.0756745361        3.9956548092        2.4882883654
 C          0.6527500622        3.5614256184        2.8241691442
 O          1.7184873590        4.6951040149        0.3057907084
 H          1.0458533342        2.4803569711       -0.2847676959
 C         -0.5237399247        0.9185770349        3.7513218199
 O         -0.5230265817        1.9137776367        4.4443411433
 O         -1.0548091442       -0.2787560110        4.1124470566
 C         -1.5182696484       -0.2053233322        5.4231868952
 H         -0.3760569727       -0.8993010729       -0.5024666126
 H         -0.3730443176        0.8308429690       -0.6060613644
 H          1.9224614229       -0.9949484343        0.2567350685
 H          1.9354004987        0.2183736447       -1.0001885008
 H         -2.5403275674        5.5850160136       -0.3876811180
 H         -4.4451629464        4.0354338911       -0.5019107046
 H         -4.1977320685        1.7291475307        0.3191416706
 H         -0.4038726986        4.8334537863        0.5769660607
 H         -2.6860730055       -0.0381869654        0.9528353383
 H         -0.6958243272       -0.8935363088        1.8749766793
 H          1.7064787517       -0.4614926042        2.5807519431
 H          2.1510342622        1.1227091826        3.2177511152
 H          4.1302959336        0.1644601318        1.1336658172
 H          5.3998800265        2.1731440712        0.8313878205
 H          4.2809680360        4.3278498875        1.0821628478
 H          3.7435448720        3.7861761636       -0.4911770089
 H          2.8264777521        3.4467055249        3.0595365799
 H          2.2368375042        5.0630235365        2.6508509191
 H         -0.0323322419        4.4138863761        2.8190322357
 H          0.5891631201        3.1346638942        3.8292753245
 H         -1.9425877955       -1.1705952006        5.7075009946
 H         -0.6970658228        0.0659665896        6.0880341774
 H         -2.3028613182        0.5542054993        5.4686840520
  50
    -0.072942 !GC
 C          0.0000000000        0.0000000000        0.0000000000
 C          1.5460543046        0.0000000000        0.0000000000
 C         -2.4605569606        4.5557393274        0.0000000000
 C         -3.5348735162        3.6894436019       -0.0437550094
 C         -3.3986051964        2.4029244503        0.4216860786
 C         -2.1846079156        1.9583557871        0.9498062671
 C         -1.1104891568        2.8636351139        1.0562350960
 C         -1.2613374330        4.1393470314        0.5432207232
 N         -2.0215058555        0.5997590805        1.2956326444
 C         -0.6511721190        0.0824903470        1.4087290142
 C          0.1198375616        1.0204974924        2.3880553661
 C          0.1838084808        2.4682982320        1.7600221887
 C          1.6009077911        0.5930309674        2.4206650233
 C          2.1190653139        1.0382146466        1.0206268011
 C          1.3969774262        2.4107236642        0.7607823060
 C          3.6199070380        1.1034002644        0.9991395992
 C          4.3093246032        2.2221438987        0.8569077983
 C          3.6921358143        3.5511421211        0.6309039277
 N          2.2217095982        3.6698282113        1.0372774082
 C          2.0121403769        3.9661845036        2.5201492737
 C          0.5941502606        3.4955893305        2.8308108819
 O          1.6830011697        4.6673182710        0.3339986883
 H          1.0491857125        2.4772676555       -0.2718718351
 C         -0.5242387570        0.9297765356        3.7675029551
 O         -0.0460628849        0.1609886310        4.5735446293
 O         -1.6047871589        1.7225234888        3.9996305852
 C         -2.0909698448        1.4813843773        5.2826757219
 H         -0.3765850744       -0.8928640176       -0.5134049565
 H         -0.3743723544        0.8370295790       -0.5963161933
 H          1.9235658409       -0.9968260739        0.2482997719
 H          1.9365628621        0.2277459291       -0.9978495016
 H         -2.5595198932        5.5563558014       -0.3884331048
 H         -4.4741631415        4.0161951526       -0.4593589599
 H         -4.2182648980        1.7078318996        0.3591806690
 H         -0.4112545515        4.8012947539        0.5492832903
 H         -2.5908580794        0.2559271851        2.0776726081
 H         -0.6827683981       -0.9229258257        1.8548690877
 H          1.6996427235       -0.4844130520        2.5736819467
 H          2.1387493058        1.0952348238        3.2280744781
 H          4.1300870914        0.1651541777        1.1482296864
 H          5.3880882529        2.1881249600        0.8878554867
 H          4.2420793733        4.3315788318        1.1621585844
 H          3.7387195948        3.8092921204       -0.4295267543
 H          2.7667310250        3.4339896733        3.1022339600
 H          2.1435298152        5.0367846600        2.6883027313
 H         -0.1103354183        4.3317385084        2.8132680934
 H          0.5289530077        3.0686812415        3.8349092020
 H         -2.3631223848        0.4266344005        5.3619312301
 H         -1.3226297740        1.7252895561        6.0172965854
 H         -2.9836436036        2.0896856106        5.4439852958
  50
    -0.072595 !GC
 C          0.0000000000        0.0000000000        0.0000000000
 C          1.5460558186        0.0000000000        0.0000000000
 C         -2.4373689678        4.5848600475        0.0000000000
 C         -3.5065361795        3.7138811316       -0.0677696242
 C         -3.3743239850        2.4268206278        0.3980746407
 C         -2.1723102311        1.9892085915        0.9563351044
 C         -1.0996324156        2.8943997430        1.0745923412
 C         -1.2461408188        4.1705410472        0.5617243806
 N         -2.0084912861        0.6439687397        1.2992756270
 C         -0.6471454994        0.1025543244        1.4087431328
 C          0.1343869504        1.0391553688        2.3805920080
 C          0.2041954451        2.4919398244        1.7552667745
 C          1.6146578539        0.6087697657        2.4133072087
 C          2.1264361186        1.0422160391        1.0063283645
 C          1.4082198434        2.4169516641        0.7426782707
 C          3.6273681867        1.0996042498        0.9716367092
 C          4.3221433005        2.2114323851        0.8041919594
 C          3.7106869336        3.5405814076        0.5658704093
 N          2.2503971123        3.6799259318        1.0014687530
 C          2.0782546547        3.9803874518        2.4883609380
 C          0.6606345792        3.5325241371        2.8299454398
 O          1.7107601298        4.6840896104        0.3087062307
 H          1.0494804046        2.4788707463       -0.2864069856
 C         -0.5269350415        0.9314489370        3.7486984129
 O         -1.4528186365        0.1626456362        3.8888895672
 O         -0.0095157497        1.7137190136        4.7328034655
 C         -0.7330697834        1.5197948537        5.9067523068
 H         -0.3755444239       -0.8998000800       -0.5019262922
 H         -0.3736982929        0.8299179715       -0.6067810319
 H          1.9230690404       -0.9947989092        0.2568973539
 H          1.9358857014        0.2184307595       -1.0001760438
 H         -2.5326475238        5.5863348392       -0.3872978610
 H         -4.4386728542        4.0384213714       -0.5009782951
 H         -4.1942110841        1.7330031103        0.3231343101
 H         -0.3967507800        4.8330121812        0.5782246565
 H         -2.6695226466       -0.0373717452        0.9289687064
 H         -0.6936493729       -0.8939045577        1.8730964138
 H          1.7087909530       -0.4677869378        2.5747997201
 H          2.1589196669        1.1149301932        3.2137029585
 H          4.1335581039        0.1606533761        1.1295999771
 H          5.4009235476        2.1710930317        0.8235535588
 H          4.2783599127        4.3258188009        1.0702675171
 H          3.7365150234        3.7784298588       -0.4998318713
 H          2.8372055034        3.4372421904        3.0543700139
 H          2.2303055682        5.0488672705        2.6526836866
 H         -0.0324275017        4.3784337671        2.8351175578
 H          0.6060437753        3.0968820601        3.8324639752
 H         -0.3048634902        2.1302363031        6.7039050423
 H         -1.7729535068        1.8045413442        5.7338953262
 H         -0.6855775121        0.4624542066        6.1765901500
  50
    -0.070993 !GC
 C          0.0000000000        0.0000000000        0.0000000000
 C          1.5456081827        0.0000000000        0.0000000000
 C         -2.4848676323        4.5748143398        0.0000000000
 C         -3.5610564514        3.7099904281       -0.0229035265
 C         -3.4179776939        2.4237034355        0.4413531162
 C         -2.1949314343        1.9783944993        0.9474797670
 C         -1.1187647145        2.8831392681        1.0368016856
 C         -1.2771676361        4.1577847365        0.5236492327
 N         -2.0235403599        0.6195540628        1.2767436859
 C         -0.6565899952        0.0994679145        1.4068343435
 C          0.1164513917        1.0465696119        2.3764516865
 C          0.1806066571        2.4926412176        1.7346986428
 C          1.5969924601        0.6186606793        2.4126552484
 C          2.1149843474        1.0463911138        1.0070869210
 C          1.3938473053        2.4164196786        0.7309217982
 C          3.6160315919        1.1073584901        0.9835751678
 C          4.3088668031        2.2214148055        0.8232477907
 C          3.6955631420        3.5485855787        0.5781245418
 N          2.2265278704        3.6787109551        0.9862584912
 C          2.0243433948        3.9977122180        2.4651785286
 C          0.6067440251        3.5349510750        2.7883038998
 O          1.6893887848        4.6674370101        0.2697821275
 H          1.0416306116        2.4695202715       -0.3009779874
 C         -0.5107702218        0.9684686201        3.7642577309
 O         -1.5586067757        1.5598746881        3.9163111616
 O          0.1105511977        0.2370576185        4.7270876393
 C         -0.6092420352        0.3266130029        5.9158964413
 H         -0.3769688364       -0.8992579285       -0.5018957407
 H         -0.3743039333        0.8295907365       -0.6068502100
 H          1.9232375013       -0.9935172336        0.2611615373
 H          1.9359541643        0.2149658446       -1.0007685415
 H         -2.5895557425        5.5746749533       -0.3888385440
 H         -4.5068833709        4.0371958936       -0.4231532023
 H         -4.2385634547        1.7286671223        0.3903862955
 H         -0.4264665850        4.8187245978        0.5138920178
 H         -2.6485140190        0.2176511012        1.9845522510
 H         -0.6927714853       -0.9002196056        1.8649339349
 H          1.6945202098       -0.4570226006        2.5786978378
 H          2.1335628182        1.1297652972        3.2154591979
 H          4.1236232779        0.1699024313        1.1460898306
 H          5.3875531774        2.1844853325        0.8534649277
 H          4.2496872650        4.3352088563        1.0956860207
 H          3.7400223666        3.7900275603       -0.4863130501
 H          2.7801415502        3.4720503053        3.0516814588
 H          2.1598050017        5.0701598905        2.6173017088
 H         -0.0949001071        4.3733044822        2.7646996487
 H          0.5451088065        3.1212952160        3.7983378874
 H         -0.6828603045        1.3778674032        6.2036125163
 H         -1.6061580674       -0.0923758448        5.7729242373
 H         -0.0720858946       -0.2172728686        6.6963414401
  50
    -0.070149 !GC
 C          0.0000000000        0.0000000000        0.0000000000
 C          1.5467713042        0.0000000000        0.0000000000
 C         -2.3364477468        4.5923572002        0.0000000000
 C         -3.4093207090        3.7334151818       -0.1319382804
 C         -3.3115393381        2.4392134269        0.3218297493
 C         -2.1416387278        1.9826230611        0.9309032075
 C         -1.0671988941        2.8727444477        1.1124598669
 C         -1.1769503598        4.1578787209        0.6109922303
 N         -2.0131117973        0.6333095385        1.2865351795
 C         -0.6617336974        0.0733105953        1.4088273416
 C          0.1259458581        0.9728241211        2.4170341597
 C          0.2103140682        2.4407723521        1.8261420060
 C          1.5993641202        0.5156634649        2.4319208829
 C          2.1285986524        0.9985571179        1.0507562435
 C          1.4278490809        2.3894456301        0.8350314734
 C          3.6304446881        1.0446952376        1.0391777926
 C          4.3343826628        2.1594897824        0.9451587510
 C          3.7343848893        3.5033150559        0.7643778393
 N          2.2606854305        3.6197242259        1.1590670370
 C          2.0361630842        3.8731708892        2.6479011279
 C          0.6120250150        3.4018791261        2.9301056747
 O          1.7356606922        4.6412018576        0.4804280297
 H          1.0878820103        2.4947711028       -0.1970602254
 C         -0.4898893190        0.8977345783        3.8126733297
 O         -1.6903809944        0.7980097973        3.9380524204
 O          0.3859993602        0.9615219818        4.8541092998
 C         -0.3173303884        0.9046783463        6.0556260085
 H         -0.3746649889       -0.8882864238       -0.5225579104
 H         -0.3691725724        0.8422934133       -0.5922942893
 H          1.9238402233       -1.0044797313        0.2159608300
 H          1.9363264826        0.2581854803       -0.9907348035
 H         -2.4030507836        5.5999252304       -0.3772966556
 H         -4.3167433273        4.0730415579       -0.6041121864
 H         -4.1339313455        1.7547094447        0.2024292451
 H         -0.3217843991        4.8102337622        0.6725775455
 H         -2.8441077008        0.0439214352        1.1724974121
 H         -0.7331797051       -0.9331552500        1.8468401086
 H          1.6801590147       -0.5682284650        2.5448092978
 H          2.1473373176        0.9796500384        3.2553620954
 H          4.1280544637        0.0949964011        1.1540330022
 H          5.4122807387        2.1109604657        0.9803702778
 H          4.2854597454        4.2568166369        1.3315054630
 H          3.7953134039        3.8016386546       -0.2844453345
 H          2.7814287689        3.3191228474        3.2214087984
 H          2.1722302724        4.9372966755        2.8498272353
 H         -0.0873466058        4.2424196295        2.9244635210
 H          0.5373717982        2.9525631910        3.9234585048
 H         -0.8686170784       -0.0367558398        6.1047445499
 H          0.3868288183        0.9696776158        6.8868974619
 H         -1.0192892138        1.7405703499        6.0950269712
  50
    -0.068500 !GC
 C          0.0000000000        0.0000000000        0.0000000000
 C          1.5472577991        0.0000000000        0.0000000000
 C         -2.4189836786        4.5674550486        0.0000000000
 C         -3.4882654544        3.6963674810       -0.0657884824
 C         -3.3590493236        2.4134091952        0.4120943054
 C         -2.1596729810        1.9808130640        0.9791703067
 C         -1.0857072267        2.8843927481        1.0923579473
 C         -1.2313156045        4.1537855855        0.5697970238
 N         -2.0005363097        0.6440696707        1.3496299274
 C         -0.6481616441        0.0778012521        1.4274423356
 C          0.1675394913        0.9837760135        2.3998223429
 C          0.2191174321        2.4858903399        1.7752717064
 C          1.6367165421        0.5153686026        2.4051664190
 C          2.1495429192        0.9655166087        1.0058602390
 C          1.4617548787        2.3608231561        0.7744271898
 C          3.6513774206        0.9896223840        0.9647807045
 C          4.3708664789        2.0891014403        0.8222596065
 C          3.7896658897        3.4375373798        0.6195262845
 N          2.3324188888        3.5993827551        1.0577846407
 C          2.1659616595        3.8750310231        2.5504230088
 C          0.7365688866        3.4572188002        2.8816837463
 O          1.8158815092        4.6289915174        0.3850116575
 H          1.1014733475        2.4515536719       -0.2520488803
 C         -0.4506889600        0.8915697714        3.7902584957
 O         -0.3467387479        1.8532484827        4.5206311247
 O         -1.0665800846       -0.2722704413        4.1291046927
 C         -1.4868800521       -0.2093449468        5.4550183432
 H         -0.3711490813       -0.8848917363       -0.5311266388
 H         -0.3696377440        0.8461158024       -0.5866552867
 H          1.9236663792       -0.9978519704        0.2459559364
 H          1.9366713191        0.2266497169       -0.9985795438
 H         -2.5148178176        5.5644551492       -0.3984983359
 H         -4.4181948995        4.0176500010       -0.5059658450
 H         -4.1794799254        1.7198151145        0.3417030082
 H         -0.3800472331        4.8138696140        0.5853360079
 H         -2.6256975727       -0.0650867754        0.9686758831
 H         -0.7041540790       -0.9264860153        1.8728790620
 H          1.7016921963       -0.5667538901        2.5426448639
 H          2.1996939290        0.9868296047        3.2138354136
 H          4.1366508744        0.0357523733        1.0974196381
 H          5.4485166311        2.0235522479        0.8364845134
 H          4.3748672287        4.1961648806        1.1444072421
 H          3.8216330948        3.7027253456       -0.4396348969
 H          2.9094842073        3.3011619248        3.1065210170
 H          2.3454975181        4.9357119517        2.7359637677
 H          0.0648543548        4.3202287133        2.8932609529
 H          0.6693752810        3.0108448585        3.8785129521
 H         -1.9757962790       -1.1472968364        5.7258955266
 H         -0.6167039792       -0.0420926827        6.0931546091
 H         -2.1846507165        0.6239201799        5.5655587823
  50
    -0.068441 !GC
 C          0.0000000000        0.0000000000        0.0000000000
 C          1.5454582979        0.0000000000        0.0000000000
 C         -2.4555534555        4.5781562088        0.0000000000
 C         -3.5224094443        3.7041471277       -0.0654823152
 C         -3.3852691434        2.4171229725        0.3990604141
 C         -2.1804753045        1.9825125301        0.9536024525
 C         -1.1103646720        2.8910410205        1.0705673958
 C         -1.2616657472        4.1671432130        0.5585558363
 N         -2.0113679592        0.6371843282        1.2934970861
 C         -0.6482013960        0.1016656957        1.4081531508
 C          0.1274988503        1.0439746477        2.3791089720
 C          0.1952337867        2.4927292457        1.7503634395
 C          1.6099538543        0.6202250994        2.4149126651
 C          2.1224172504        1.0502025364        1.0073023401
 C          1.4009827539        2.4221503564        0.7390208536
 C          3.6231880018        1.1085744100        0.9721065140
 C          4.3187220327        2.2191417859        0.8007346176
 C          3.7098828040        3.5489816650        0.5611027633
 N          2.2498373190        3.6976203798        0.9950799981
 C          2.0806970104        4.0023330238        2.4817416578
 C          0.6555657778        3.5786432017        2.8200149969
 O          1.7188253397        4.7055765264        0.3009278613
 H          1.0439590052        2.4802852750       -0.2908828073
 C         -0.5396223261        0.9406918264        3.7450094868
 O         -1.4891013201        0.1990332609        3.8733705588
 O         -0.0006467442        1.6915768452        4.7422391294
 C         -0.7312685610        1.5013509864        5.9125093837
 H         -0.3760616020       -0.8993032738       -0.5024112935
 H         -0.3731933923        0.8306222645       -0.6061443474
 H          1.9226827268       -0.9941412506        0.2592907800
 H          1.9350343122        0.2160436243       -1.0007834474
 H         -2.5547138585        5.5796081744       -0.3864084816
 H         -4.4565818911        4.0262977382       -0.4959214281
 H         -4.2033137541        1.7209416911        0.3257595477
 H         -0.4142541369        4.8323862678        0.5738567853
 H         -2.6812912331       -0.0442029782        0.9395991928
 H         -0.6908161221       -0.8940164991        1.8743283606
 H          1.7085222180       -0.4551024969        2.5815773949
 H          2.1508217922        1.1320043588        3.2140182806
 H          4.1292068462        0.1698980225        1.1328305967
 H          5.3975225057        2.1775606362        0.8198658110
 H          4.2812351171        4.3328861592        1.0635431813
 H          3.7366120590        3.7850904427       -0.5050478435
 H          2.8285631806        3.4472099705        3.0508294114
 H          2.2496918570        5.0683742705        2.6453052448
 H         -0.0264923956        4.4337528109        2.8175945327
 H          0.5843785615        3.1501359185        3.8248992540
 H         -0.2935921800        2.0966750791        6.7162362410
 H         -1.7650654531        1.8076781998        5.7391438830
 H         -0.7050550019        0.4407019973        6.1733045625
  50
    -0.067502 !GC
 C          0.0000000000        0.0000000000        0.0000000000
 C          1.5453190110        0.0000000000        0.0000000000
 C         -2.4653288857        4.5704209166        0.0000000000
 C         -3.5312082247        3.6948911814       -0.0612128049
 C         -3.3910470967        2.4089748807        0.4054611767
 C         -2.1841822211        1.9775249376        0.9581150977
 C         -1.1153332592        2.8875216094        1.0717539158
 C         -1.2695549341        4.1621013011        0.5566461860
 N         -2.0104957545        0.6335013161        1.2988457774
 C         -0.6463208510        0.0994935430        1.4086233829
 C          0.1280203572        1.0418485357        2.3812682499
 C          0.1913897634        2.4923772917        1.7520153965
 C          1.6107269087        0.6213618960        2.4154602458
 C          2.1211165225        1.0513104266        1.0070089501
 C          1.3954729654        2.4209350365        0.7376853438
 C          3.6218221526        1.1128949023        0.9717268906
 C          4.3147011774        2.2249060101        0.7993125106
 C          3.7020610453        3.5524621515        0.5567310682
 N          2.2404286140        3.6949038255        0.9871017596
 C          2.0672286699        4.0077618855        2.4712108070
 C          0.6464864857        3.5700185416        2.8106368686
 O          1.7039897865        4.6945892481        0.2853290686
 H          1.0353859560        2.4752328999       -0.2913699118
 C         -0.5306952203        0.9143285842        3.7498046842
 O         -1.2860831854       -0.0112914921        3.9522422500
 O         -0.1903419331        1.8541273160        4.6711911186
 C         -0.8799363367        1.6115965275        5.8565428952
 H         -0.3761993601       -0.8988997281       -0.5030610338
 H         -0.3739724218        0.8312006022       -0.6048721311
 H          1.9224032346       -0.9939271594        0.2604020254
 H          1.9354842528        0.2150658202       -1.0008156076
 H         -2.5667148563        5.5708866987       -0.3882971880
 H         -4.4669524347        4.0150107330       -0.4899374363
 H         -4.2078682541        1.7111070458        0.3345065580
 H         -0.4229876500        4.8283462232        0.5673239434
 H         -2.6846580872       -0.0505584829        0.9582655676
 H         -0.6876096097       -0.8964792303        1.8744662137
 H          1.7118252044       -0.4537701675        2.5823737192
 H          2.1513533414        1.1350721346        3.2135967834
 H          4.1300345080        0.1756674254        1.1340403452
 H          5.3935914090        2.1861312872        0.8191352239
 H          4.2689661805        4.3391194171        1.0601297461
 H          3.7306165405        3.7876592118       -0.5096349573
 H          2.8207354201        3.4642391494        3.0441068558
 H          2.2249503945        5.0764150903        2.6284111881
 H         -0.0439480351        4.4182698419        2.8047382463
 H          0.5819152754        3.1467672203        3.8173200948
 H         -0.6129561357        0.6203446841        6.2286404391
 H         -0.6119808387        2.3721671990        6.5917634078
 H         -1.9528202045        1.6482091290        5.6532035795
  50
    -0.065349 !GC
 C          0.0000000000        0.0000000000        0.0000000000
 C          1.5452463395        0.0000000000        0.0000000000
 C         -2.4755265137        4.5910523020        0.0000000000
 C         -3.5387877605        3.7122207011       -0.0568520144
 C         -3.3922687524        2.4271451680        0.4098620421
 C         -2.1820760714        2.0004650683        0.9589232929
 C         -1.1159036700        2.9136993574        1.0699472075
 C         -1.2765719772        4.1868706433        0.5529746040
 N         -2.0045625324        0.6577092384        1.3008183141
 C         -0.6411097977        0.1233500073        1.4088276640
 C          0.1371271684        1.0684100239        2.3814224639
 C          0.1979499009        2.5202018582        1.7385928915
 C          1.6186313933        0.6472751071        2.4068828723
 C          2.1182049671        1.0622607178        0.9889223486
 C          1.3805578543        2.4222623431        0.7004316630
 C          3.6184653217        1.1359466289        0.9464533936
 C          4.2991269011        2.2455291280        0.7176307764
 C          3.6679241255        3.5515229538        0.4140305794
 N          2.2194110074        3.7001804414        0.8846936782
 C          2.0860909475        4.0534105011        2.3620107205
 C          0.6864300762        3.5991767916        2.7643084706
 O          1.6543926864        4.6736556327        0.1690158830
 H          0.9953375382        2.4469097986       -0.3205709728
 C         -0.5142086250        0.9281548473        3.7558037792
 O         -1.7211646422        0.9776804072        3.8360588097
 O          0.3172310095        0.8018361469        4.8260377542
 C         -0.4349855288        0.7408501965        5.9959461454
 H         -0.3755467006       -0.9082758813       -0.4865713965
 H         -0.3772692312        0.8190752629       -0.6190859362
 H          1.9237169348       -0.9891824644        0.2757501589
 H          1.9359054088        0.2015508217       -1.0034045779
 H         -2.5808766476        5.5901962211       -0.3907480808
 H         -4.4765971515        4.0282057029       -0.4841190927
 H         -4.2062518568        1.7257514319        0.3406851141
 H         -0.4310305919        4.8544211018        0.5540929171
 H         -2.6692595746       -0.0303101239        0.9503352134
 H         -0.6870816419       -0.8688423113        1.8825651527
 H          1.7223640808       -0.4261569024        2.5829805729
 H          2.1652292075        1.1704928881        3.1948562567
 H          4.1365268645        0.2123677271        1.1504580641
 H          5.3783268746        2.2195584091        0.7330492947
 H          4.2397926297        4.3722488192        0.8531336805
 H          3.6609298628        3.7231490125       -0.6645667139
 H          2.8695387178        3.5413777157        2.9239655419
 H          2.2281251637        5.1291498362        2.4823976963
 H         -0.0144290961        4.4385169746        2.7729602951
 H          0.6856937622        3.2018068605        3.7815301770
 H         -1.0264494430        1.6538582096        6.0898840792
 H         -1.1015113689       -0.1224968946        5.9409751009
 H          0.2381230954        0.6393772335        6.8494571017
  50
    -0.065135 !GC
 C          0.0000000000        0.0000000000        0.0000000000
 C          1.5460694445        0.0000000000        0.0000000000
 C         -2.4216666122        4.6199166065        0.0000000000
 C         -3.5084504864        3.7692151174       -0.0440969048
 C         -3.3870757784        2.4768383581        0.4092862181
 C         -2.1753531173        2.0119665497        0.9243609046
 C         -1.0896855753        2.9011660993        1.0375912525
 C         -1.2260443523        4.1827365979        0.5350471994
 N         -2.0220527118        0.6502821391        1.2436861493
 C         -0.6687807193        0.1064705679        1.4027639858
 C          0.1161651227        1.0369986831        2.3828009259
 C          0.1955176236        2.4878290972        1.7497272236
 C          1.5909701238        0.5844979815        2.4103182813
 C          2.1194751807        1.0273140479        1.0150873108
 C          1.4159366403        2.4092813850        0.7553067442
 C          3.6213003338        1.0741485412        1.0011101649
 C          4.3247105948        2.1853722685        0.8684967095
 C          3.7239984154        3.5221106810        0.6440059674
 N          2.2512981779        3.6521741642        1.0385507519
 C          2.0325550989        3.9515619629        2.5195410980
 C          0.6100496120        3.4882136680        2.8220167722
 O          1.7251917255        4.6525412145        0.3300723172
 H          1.0726085826        2.4817999245       -0.2784639390
 C         -0.4852662005        1.0074860115        3.7857929793
 O          0.2136612062        1.3363272043        4.7195170496
 O         -1.7865346660        0.6236795365        3.9020308945
 C         -2.1658955190        0.6668385826        5.2421048320
 H         -0.3757593662       -0.9004832977       -0.5005194440
 H         -0.3710914798        0.8274124879       -0.6119051202
 H          1.9238702448       -0.9968098712        0.2480125578
 H          1.9359655887        0.2275204266       -0.9981201653
 H         -2.5090465635        5.6246066917       -0.3806380795
 H         -4.4452552840        4.1120974049       -0.4522336186
 H         -4.2157652391        1.7927851279        0.3434555717
 H         -0.3672011792        4.8330889460        0.5425269861
 H         -2.6163342298        0.2495842899        1.9787320795
 H         -0.7313855919       -0.8932133246        1.8569294738
 H          1.6747441908       -0.4952749185        2.5559002714
 H          2.1349105546        1.0741497509        3.2215900724
 H          4.1195363119        0.1291080761        1.1475582141
 H          5.4027904837        2.1386525029        0.9049729786
 H          4.2767651640        4.2942148810        1.1841777692
 H          3.7821198551        3.7850977534       -0.4145674476
 H          2.7806447339        3.4158810324        3.1068468296
 H          2.1691632116        5.0214822629        2.6877548890
 H         -0.0888822402        4.3287391760        2.7970651453
 H          0.5407026515        3.0672852459        3.8283222459
 H         -1.5280541302       -0.0140633279        5.8109851598
 H         -2.0612653136        1.6836325448        5.6234494028
 H         -3.2023870893        0.3315466852        5.3245711875
  50
    -0.063967 !GC
 C          0.0000000000        0.0000000000        0.0000000000
 C          1.5458343978        0.0000000000        0.0000000000
 C         -2.4570612693        4.5998991837        0.0000000000
 C         -3.5378110299        3.7409755542       -0.0314460590
 C         -3.4037581959        2.4515292369        0.4268183520
 C         -2.1851170663        1.9966420444        0.9345712154
 C         -1.1042619438        2.8952167439        1.0319316945
 C         -1.2537668436        4.1737397411        0.5263496880
 N         -2.0234613029        0.6357615422        1.2609091370
 C         -0.6619052403        0.1062713274        1.4051284818
 C          0.1156400266        1.0512397323        2.3725525720
 C          0.1900633917        2.4946106738        1.7323746232
 C          1.5944749237        0.6116993322        2.4110688064
 C          2.1186713140        1.0401324773        1.0082632542
 C          1.4080535451        2.4163444631        0.7354119574
 C          3.6199535497        1.0927893026        0.9865208364
 C          4.3193797810        2.2035894177        0.8320678257
 C          3.7147904703        3.5362848800        0.5951026395
 N          2.2476754067        3.6774628355        1.0068725620
 C          2.0504368573        3.9803346460        2.4905914626
 C          0.6241777561        3.5411439894        2.8079388624
 O          1.7219625576        4.6824874353        0.3045865336
 H          1.0629724194        2.4788277435       -0.2983767246
 C         -0.5308545774        1.0126489395        3.7526729931
 O         -0.3079170988        0.0606145968        4.4684777989
 O         -1.3353317383        2.0588289116        4.0866892849
 C         -1.8827735977        1.8367174150        5.3486472117
 H         -0.3760950733       -0.9010173194       -0.4993430255
 H         -0.3729690803        0.8273768675       -0.6107529014
 H          1.9232465851       -0.9943776969        0.2580450614
 H          1.9358649772        0.2175029159       -1.0002810667
 H         -2.5552986369        5.6025716747       -0.3834193135
 H         -4.4804972795        4.0755471851       -0.4327815906
 H         -4.2288271868        1.7621526811        0.3721746175
 H         -0.3997670869        4.8307365042        0.5265752635
 H         -2.6359205991        0.2368636328        1.9816749944
 H         -0.7076047009       -0.8918036377        1.8656523642
 H          1.6836587943       -0.4650475818        2.5739993817
 H          2.1357322101        1.1156572570        3.2149734423
 H          4.1219434443        0.1514441528        1.1438157607
 H          5.3978310094        2.1598230444        0.8617380690
 H          4.2764704469        4.3159205081        1.1148521259
 H          3.7587968172        3.7825742867       -0.4681742178
 H          2.7956847496        3.4334816753        3.0710571615
 H          2.2049270103        5.0483184658        2.6560397872
 H         -0.0631981897        4.3915458603        2.7908019819
 H          0.5506734980        3.1156232714        3.8131234875
 H         -2.5303347713        2.6787235762        5.6051580573
 H         -2.4712671617        0.9177093946        5.3294846149
 H         -1.0776466292        1.7596175325        6.0822716198
  50
    -0.063964 !GC
 C          0.0000000000        0.0000000000        0.0000000000
 C          1.5454484570        0.0000000000        0.0000000000
 C         -2.5055359927        4.6024926453        0.0000000000
 C         -3.5833416370        3.7392309776       -0.0007183256
 C         -3.4334268245        2.4524899425        0.4605923210
 C         -2.2013169690        2.0049351372        0.9411547590
 C         -1.1221250707        2.9091146032        1.0089325934
 C         -1.2885106266        4.1839443020        0.5002036053
 N         -2.0240981222        0.6474167809        1.2621743165
 C         -0.6595188723        0.1221085708        1.4047789933
 C          0.1151404726        1.0848486668        2.3529454621
 C          0.1836283227        2.5212083855        1.6945861131
 C          1.5970626900        0.6583712974        2.4017144441
 C          2.1153222582        1.0603329735        0.9877842273
 C          1.3981982330        2.4286024677        0.6904379511
 C          3.6161847146        1.1151398535        0.9558984158
 C          4.3139864886        2.2213335910        0.7661970398
 C          3.7081773824        3.5480489462        0.5020707183
 N          2.2476653951        3.7083129903        0.9306209976
 C          2.0756357300        4.0344764059        2.4126615856
 C          0.6475298555        3.6222277980        2.7541763361
 O          1.7224362729        4.7087678596        0.2214420701
 H          1.0464820406        2.4700069796       -0.3421002679
 C         -0.5560242058        1.0361267908        3.7183901351
 O         -0.3202048500        1.9566969904        4.4713135725
 O         -1.3456443519       -0.0290723134        4.0157952432
 C         -1.7974005856        0.0769377936        5.3288702950
 H         -0.3767140924       -0.9070508905       -0.4878684913
 H         -0.3742955625        0.8204789720       -0.6192486290
 H          1.9227851623       -0.9888231976        0.2786901443
 H          1.9352288412        0.1968013885       -1.0046647137
 H         -2.6173326736        5.6027499762       -0.3859856066
 H         -4.5365685362        4.0682508946       -0.3812364672
 H         -4.2568593383        1.7598013004        0.4272885425
 H         -0.4377609496        4.8448899314        0.4792573453
 H         -2.7194163478        0.1801543571        1.8451753768
 H         -0.6970244998       -0.8694352643        1.8801493292
 H          1.6914380878       -0.4135199919        2.5911586331
 H          2.1342533315        1.1830801786        3.1948332036
 H          4.1200753614        0.1785875078        1.1345843480
 H          5.3926681876        2.1783086494        0.7888865678
 H          4.2806784362        4.3392908930        0.9915925315
 H          3.7372984356        3.7652365399       -0.5680601024
 H          2.8199940324        3.4846491106        2.9914199709
 H          2.2483916894        5.1022019234        2.5608350696
 H         -0.0280389477        4.4821634085        2.7374337113
 H          0.5755900206        3.2066339215        3.7644234525
 H         -2.4167736001       -0.7885909971        5.5716222116
 H         -0.9346847125        0.1194482997        5.9969434273
 H         -2.3799655416        0.9952833843        5.4293012991
  50
    -0.061320 !GC
 C          0.0000000000        0.0000000000        0.0000000000
 C          1.5463545790        0.0000000000        0.0000000000
 C         -2.3540785959        4.6057411955        0.0000000000
 C         -3.4298375102        3.7480880282       -0.1160084822
 C         -3.3274364008        2.4541813686        0.3378588594
 C         -2.1496053030        1.9970380796        0.9311364652
 C         -1.0726194972        2.8866630383        1.0997756180
 C         -1.1875696339        4.1709037834        0.5973168094
 N         -2.0121362638        0.6467505550        1.2699431611
 C         -0.6630278004        0.0863906971        1.4067387008
 C          0.1256653455        0.9926728716        2.4087022295
 C          0.2087738579        2.4580055467        1.8092070518
 C          1.5989914579        0.5365028703        2.4251904611
 C          2.1264383535        1.0086403223        1.0397112431
 C          1.4245519632        2.3972452211        0.8123947368
 C          3.6283661450        1.0541305386        1.0254890818
 C          4.3332901231        2.1670374729        0.9176027491
 C          3.7343509818        3.5091395438        0.7228150515
 N          2.2618199681        3.6318007846        1.1201745414
 C          2.0440330735        3.9021492632        2.6067697111
 C          0.6211426547        3.4342819708        2.8999579093
 O          1.7359461918        4.6462821511        0.4318463373
 H          1.0798764611        2.4921773838       -0.2191256863
 C         -0.4720410334        0.9201300110        3.8121451877
 O          0.2639685005        1.1120669214        4.7553173495
 O         -1.8027016205        0.6536825383        3.9234330975
 C         -2.1567459432        0.6141586743        5.2701622969
 H         -0.3745037713       -0.8926267406       -0.5153000996
 H         -0.3693986452        0.8374413572       -0.5991487971
 H          1.9237574570       -1.0022852846        0.2254748521
 H          1.9362835100        0.2493509326       -0.9928679011
 H         -2.4241528149        5.6124249118       -0.3790844103
 H         -4.3425552862        4.0879101242       -0.5778357699
 H         -4.1508892070        1.7696037663        0.2262610973
 H         -0.3310774934        4.8224866636        0.6469758800
 H         -2.7981192508        0.0187314154        1.0742258467
 H         -0.7369861769       -0.9163899155        1.8523527891
 H          1.6805416916       -0.5464016601        2.5469253960
 H          2.1450634528        1.0075309976        3.2460424239
 H          4.1254358857        0.1054628065        1.1509944492
 H          5.4113130665        2.1179853550        0.9524978002
 H          4.2879538043        4.2684439053        1.2800297887
 H          3.7929167154        3.7953628924       -0.3296895235
 H          2.7913271955        3.3538476345        3.1833324642
 H          2.1821482829        4.9682515805        2.7965614141
 H         -0.0774918352        4.2753678418        2.8899997302
 H          0.5506698379        2.9954193383        3.8984303947
 H         -1.9474991499        1.5848808787        5.7249996178
 H         -3.2195177392        0.3808783893        5.3572506212
 H         -1.5628433383       -0.1560908193        5.7674036872
  50
    -0.061297 !GC
 C          0.0000000000        0.0000000000        0.0000000000
 C          1.5454344526        0.0000000000        0.0000000000
 C         -2.5085690890        4.6014655484        0.0000000000
 C         -3.5858781198        3.7375855258        0.0000309949
 C         -3.4348701516        2.4509241596        0.4611978872
 C         -2.2021370117        2.0040739049        0.9408581031
 C         -1.1233633242        2.9088041855        1.0077911143
 C         -1.2908958168        4.1834625893        0.4990864757
 N         -2.0240645971        0.6467900233        1.2622484463
 C         -0.6592774957        0.1221329822        1.4048830170
 C          0.1148357505        1.0858950073        2.3526346321
 C          0.1826689614        2.5222279413        1.6937184180
 C          1.5968366738        0.6599551742        2.4017804256
 C          2.1148211512        1.0610305677        0.9874388131
 C          1.3968988725        2.4286575767        0.6889982895
 C          3.6156891070        1.1162506124        0.9555023877
 C          4.3131607217        2.2224576908        0.7645404882
 C          3.7069201004        3.5486796849        0.4990004246
 N          2.2464307875        3.7089273734        0.9275822768
 C          2.0747279681        4.0368965350        2.4092328302
 C          0.6471238469        3.6237903691        2.7519563066
 O          1.7207676984        4.7083692667        0.2173600028
 H          1.0446475143        2.4690084224       -0.3434102725
 C         -0.5561503870        1.0347170042        3.7181506258
 O         -0.3339632959        1.9625673910        4.4662346691
 O         -1.3289181655       -0.0410107241        4.0216731292
 C         -1.7805466539        0.0644969923        5.3348072973
 H         -0.3767177407       -0.9073068568       -0.4874479535
 H         -0.3745478051        0.8202602147       -0.6194077415
 H          1.9227627560       -0.9885947699        0.2795724505
 H          1.9354762403        0.1960680821       -1.0047186077
 H         -2.6213205551        5.6017032349       -0.3856977258
 H         -4.5396828055        4.0662101513       -0.3794391347
 H         -4.2579862231        1.7578192017        0.4286479367
 H         -0.4407414898        4.8450670753        0.4780071703
 H         -2.7184683013        0.1793538655        1.8461965859
 H         -0.6964231527       -0.8693099308        1.8805177373
 H          1.6916597756       -0.4118104368        2.5918297493
 H          2.1339484154        1.1854008142        3.1944782969
 H          4.1198484291        0.1800109793        1.1352631986
 H          5.3919149198        2.1797780527        0.7869007450
 H          4.2793709903        4.3405641023        0.9875334184
 H          3.7357096476        3.7646514243       -0.5713994416
 H          2.8196065965        3.4883236236        2.9884483864
 H          2.2471386385        5.1048620618        2.5558616033
 H         -0.0289762328        4.4832734476        2.7346037908
 H          0.5759482533        3.2093297532        3.7625980867
 H         -2.3752220022        0.9751055882        5.4349504835
 H         -2.3896285557       -0.8083058765        5.5765590305
 H         -0.9187012654        0.1164588630        6.0038011848
  50
    -0.059244 !GC
 C          0.0000000000        0.0000000000        0.0000000000
 C          1.5459972777        0.0000000000        0.0000000000
 C         -2.4498591521        4.5771318949        0.0000000000
 C         -3.5305761775        3.7180511104       -0.0284023092
 C         -3.3970679033        2.4307501177        0.4361456859
 C         -2.1786596664        1.9777241654        0.9461660498
 C         -1.0985552899        2.8771683195        1.0408949576
 C         -1.2470942181        4.1536191872        0.5294362561
 N         -2.0177863555        0.6191898597        1.2821812384
 C         -0.6517468900        0.0942500680        1.4094418849
 C          0.1249789159        1.0350961143        2.3802893063
 C          0.1948135865        2.4822712449        1.7456577189
 C          1.6053443687        0.6007751223        2.4142592714
 C          2.1251656587        1.0388320954        1.0126392589
 C          1.4124943614        2.4157101403        0.7509570932
 C          3.6261960111        1.0937929980        0.9857745437
 C          4.3238582450        2.2073716130        0.8438481826
 C          3.7181560195        3.5430503971        0.6263973473
 N          2.2489787990        3.6773021724        1.0331892430
 C          2.0463682344        3.9718857340        2.5178887966
 C          0.6193802580        3.5290990117        2.8265163141
 O          1.7217509600        4.6843974625        0.3346994273
 H          1.0691481736        2.4859568902       -0.2829433782
 C         -0.5229600759        0.9798309898        3.7591250812
 O         -0.2653511579        0.0431673664        4.4831664783
 O         -1.3721969500        1.9946719755        4.0802807274
 C         -1.9130488218        1.7629108444        5.3432772150
 H         -0.3763038628       -0.8959823829       -0.5081761490
 H         -0.3737651680        0.8334958015       -0.6017989273
 H          1.9231387296       -0.9961762944        0.2514625735
 H          1.9358960829        0.2239427472       -0.9989071616
 H         -2.5468880460        5.5785694254       -0.3868832336
 H         -4.4729927610        4.0509290147       -0.4317828160
 H         -4.2225676732        1.7416465695        0.3847135323
 H         -0.3938022684        4.8114024570        0.5311243175
 H         -2.6809480007        0.2238228554        1.9582640356
 H         -0.6859249326       -0.9084660941        1.8611032483
 H          1.6986321768       -0.4766069301        2.5706754460
 H          2.1462381829        1.1022072169        3.2199260581
 H          4.1299149999        0.1510703155        1.1289067159
 H          5.4025713716        2.1640666221        0.8698003471
 H          4.2770721902        4.3145686485        1.1608995396
 H          3.7665520509        3.8064883788       -0.4325309318
 H          2.7897834056        3.4223275018        3.0981695806
 H          2.1997582178        5.0388483416        2.6905166369
 H         -0.0698568498        4.3779291282        2.8060963813
 H          0.5423584580        3.1025083930        3.8308718292
 H         -2.5896013896        2.5814934344        5.5978932856
 H         -2.4463273531        0.8110932773        5.3458003119
 H         -1.0985328649        1.7375124036        6.0714305147
  50
    -0.056318 !GC
 C          0.0000000000        0.0000000000        0.0000000000
 C          1.5464114797        0.0000000000        0.0000000000
 C         -2.3528740047        4.6088765952        0.0000000000
 C         -3.4287309047        3.7514604064       -0.1166888912
 C         -3.3266447495        2.4572973086        0.3365074458
 C         -2.1490018224        1.9995862722        0.9296412869
 C         -1.0719284578        2.8889034523        1.0988258051
 C         -1.1865457132        4.1734325793        0.5971781132
 N         -2.0122612613        0.6493837045        1.2689611525
 C         -0.6636623579        0.0879499531        1.4066375923
 C          0.1256454156        0.9944733298        2.4079010513
 C          0.2093605103        2.4595237218        1.8078322073
 C          1.5992083600        0.5386686424        2.4250128643
 C          2.1264819823        1.0096175993        1.0390645469
 C          1.4250043069        2.3983306295        0.8111704090
 C          3.6284377631        1.0543890839        1.0243786138
 C          4.3338919963        2.1668047846        0.9146192230
 C          3.7356622194        3.5091433328        0.7191823471
 N          2.2637200412        3.6335804328        1.1181080125
 C          2.0475325773        3.9035949839        2.6051097357
 C          0.6237984598        3.4392156134        2.8999077965
 O          1.7383050038        4.6488728158        0.4306182030
 H          1.0802828700        2.4929607768       -0.2203465252
 C         -0.4715183049        0.9258326995        3.8118040295
 O          0.2600874044        1.1381625773        4.7542176076
 O         -1.7987760476        0.6432940577        3.9235035177
 C         -2.1550049756        0.6130071173        5.2699205376
 H         -0.3746746081       -0.8933681531       -0.5138756764
 H         -0.3691847810        0.8365409090       -0.6005447172
 H          1.9238538262       -1.0021973749        0.2259185319
 H          1.9360471225        0.2487763912       -0.9931331164
 H         -2.4226811618        5.6157890355       -0.3784165704
 H         -4.3413411118        4.0917578288       -0.5783861005
 H         -4.1503023188        1.7730088124        0.2245812079
 H         -0.3296431407        4.8244215745        0.6465428557
 H         -2.7983176249        0.0218163678        1.0727140134
 H         -0.7384813862       -0.9143695153        1.8531104172
 H          1.6804479904       -0.5442233415        2.5473521228
 H          2.1453225373        1.0098916927        3.2457001853
 H          4.1251171968        0.1055806121        1.1504237627
 H          5.4119234766        2.1172072113        0.9487762200
 H          4.2905744954        4.2685651161        1.2749152743
 H          3.7930408273        3.7943403027       -0.3336774337
 H          2.7942081953        3.3532159037        3.1805269890
 H          2.1885648688        4.9692484982        2.7953320865
 H         -0.0727984510        4.2820042568        2.8904657643
 H          0.5531906011        3.0005162990        3.8985035470
 H         -1.9670717898        1.5947575994        5.7103568028
 H         -3.2130011815        0.3594443366        5.3587242739
 H         -1.5466401278       -0.1377783181        5.7795793003
  50
    -0.055994 !GC
 C          0.0000000000        0.0000000000        0.0000000000
 C          1.5459473161        0.0000000000        0.0000000000
 C         -2.4538271586        4.5618422181        0.0000000000
 C         -3.5323162170        3.7000859784       -0.0295211526
 C         -3.3971361799        2.4145236295        0.4392666299
 C         -2.1795005691        1.9658627083        0.9553317872
 C         -1.1015281975        2.8679818067        1.0500374386
 C         -1.2516818684        4.1424490944        0.5340505260
 N         -2.0172670259        0.6075752981        1.2935654886
 C         -0.6482318244        0.0872869069        1.4108378086
 C          0.1279432748        1.0256211094        2.3847691635
 C          0.1937419723        2.4767777564        1.7536668839
 C          1.6084480253        0.5947903870        2.4153669362
 C          2.1256123805        1.0368886205        1.0139548364
 C          1.4096474710        2.4125477642        0.7557083449
 C          3.6264468270        1.0942134104        0.9848211990
 C          4.3221898181        2.2087108752        0.8408150979
 C          3.7141749084        3.5432890763        0.6237606894
 N          2.2454117490        3.6756986542        1.0327033519
 C          2.0454928699        3.9731084407        2.5168053490
 C          0.6193438764        3.5304920653        2.8283515574
 O          1.7153935336        4.6803603998        0.3327418850
 H          1.0626686131        2.4821608177       -0.2770213096
 C         -0.5066919964        0.9513644098        3.7689978402
 O         -1.4106442123        1.7285835712        3.9899833122
 O         -0.0407018047        0.0340932970        4.6580342864
 C         -0.7263172497        0.1640950939        5.8630807415
 H         -0.3764383900       -0.8936776112       -0.5120488188
 H         -0.3745115300        0.8362052565       -0.5974485663
 H          1.9231989902       -0.9965906960        0.2494694234
 H          1.9358015033        0.2261008123       -0.9984625471
 H         -2.5515869737        5.5616364444       -0.3909766003
 H         -4.4738309641        4.0291482520       -0.4381772913
 H         -4.2202144099        1.7226971107        0.3849283268
 H         -0.3994698778        4.8015211196        0.5341098671
 H         -2.7110807967        0.2085972428        1.9354992033
 H         -0.6769625570       -0.9179627242        1.8573155752
 H          1.7048230392       -0.4825851481        2.5700471426
 H          2.1460182039        1.0966502874        3.2232261398
 H          4.1317750034        0.1524429019        1.1279305924
 H          5.4009073537        2.1671532082        0.8647478743
 H          4.2727520728        4.3157651363        1.1572793831
 H          3.7606787813        3.8065929611       -0.4353142187
 H          2.7896521088        3.4245944277        3.0971519627
 H          2.1989311102        5.0404471125        2.6872673866
 H         -0.0699493661        4.3790636739        2.8027417427
 H          0.5442600978        3.1126511928        3.8362272124
 H         -0.5855613879        1.1763399768        6.2481313404
 H         -1.7888497603       -0.0149086061        5.6867115791
 H         -0.3389898080       -0.5657961577        6.5765288196
  50
    -0.055867 !GC
 C          0.0000000000        0.0000000000        0.0000000000
 C          1.5458485284        0.0000000000        0.0000000000
 C         -2.3666622830        4.6522716899        0.0000000000
 C         -3.4477574593        3.7992639201       -0.1010811728
 C         -3.3418659880        2.5016650846        0.3417760584
 C         -2.1546225613        2.0366350057        0.9088658435
 C         -1.0729294611        2.9226254618        1.0675062075
 C         -1.1911469888        4.2107769944        0.5745551676
 N         -2.0102323629        0.6851749524        1.2265087299
 C         -0.6665207943        0.1200243882        1.3969686315
 C          0.1144078561        1.0496481037        2.3823231401
 C          0.2098839801        2.4881390468        1.7703282588
 C          1.5905021119        0.6016134411        2.4183199915
 C          2.1187239445        1.0468272338        1.0234022757
 C          1.4130792192        2.4296121193        0.7679435122
 C          3.6203427327        1.0953730955        1.0073751322
 C          4.3244360352        2.2053418645        0.8690061878
 C          3.7261237932        3.5431315959        0.6460588549
 N          2.2578506748        3.6851451125        1.0533343458
 C          2.0580781575        3.9763127804        2.5388810735
 C          0.6291266636        3.5406862755        2.8500586625
 O          1.7383282722        4.6982264769        0.3580845343
 H          1.0694606332        2.5043652130       -0.2655865019
 C         -0.5096371491        1.0156803379        3.7733744372
 O         -1.7148151501        0.9043980758        3.8394698834
 O          0.3134917791        1.1205217669        4.8510975899
 C         -0.4434853918        1.1202413446        6.0200592252
 H         -0.3763826899       -0.9061671447       -0.4896450513
 H         -0.3702580102        0.8218256687       -0.6201057385
 H          1.9233587797       -0.9980427576        0.2434985055
 H          1.9360447047        0.2324406139       -0.9968314374
 H         -2.4393424262        5.6614003053       -0.3719303330
 H         -4.3673671813        4.1453895053       -0.5440339574
 H         -4.1693857997        1.8206852501        0.2390148499
 H         -0.3324526203        4.8602074396        0.6155758511
 H         -2.7326264532        0.0227214062        0.9458756360
 H         -0.7488895407       -0.8706044767        1.8672687913
 H          1.6754695752       -0.4776870886        2.5661512422
 H          2.1280513650        1.0921842901        3.2331257061
 H          4.1186908460        0.1504891186        1.1550998521
 H          5.4026087623        2.1571681958        0.9023688265
 H          4.2886133629        4.3140818617        1.1777989520
 H          3.7756330554        3.8023393549       -0.4139176005
 H          2.7984173246        3.4198581140        3.1166131721
 H          2.2187233034        5.0415935939        2.7152337793
 H         -0.0526126659        4.3955967143        2.8377378318
 H          0.5608879133        3.1127780117        3.8537840112
 H         -1.1478521439        1.9541846201        5.9941788213
 H         -0.9744543785        0.1706039828        6.1071600263
 H          0.2314665795        1.2399059569        6.8711688165
  50
    -0.055229 !GC
 C          0.0000000000        0.0000000000        0.0000000000
 C          1.5459700259        0.0000000000        0.0000000000
 C         -2.4479138680        4.5763503532        0.0000000000
 C         -3.5288816732        3.7176064814       -0.0288959935
 C         -3.3960161270        2.4303185081        0.4358275040
 C         -2.1780181986        1.9769882259        0.9465031859
 C         -1.0977243623        2.8761248299        1.0418765722
 C         -1.2456195783        4.1526080726        0.5303319858
 N         -2.0175128595        0.6183468245        1.2822961689
 C         -0.6514703151        0.0934007269        1.4096026006
 C          0.1252522498        1.0333107163        2.3813726343
 C          0.1953536434        2.4805704360        1.7468459196
 C          1.6056256842        0.5988994816        2.4143419355
 C          2.1262614598        1.0375471090        1.0132558897
 C          1.4136843741        2.4146923602        0.7528095488
 C          3.6272436574        1.0920173269        0.9862713678
 C          4.3252024827        2.2056253937        0.8460873394
 C          3.7198750931        3.5418168983        0.6308103340
 N          2.2503862650        3.6758419542        1.0365757980
 C          2.0468197537        3.9693317828        2.5213580810
 C          0.6194021469        3.5268923834        2.8283704768
 O          1.7237879953        4.6836093209        0.3385670657
 H          1.0708248548        2.4860706076       -0.2811770559
 C         -0.5217974018        0.9765563004        3.7605373256
 O         -0.2636343283        0.0390522784        4.4833077530
 O         -1.3672969507        1.9933499260        4.0851811387
 C         -1.9062106079        1.7611168902        5.3488819581
 H         -0.3762984439       -0.8956221652       -0.5087375136
 H         -0.3736459099        0.8339233742       -0.6012248703
 H          1.9228805542       -0.9964665857        0.2506055624
 H          1.9358267279        0.2245760168       -0.9987374111
 H         -2.5443871328        5.5777052068       -0.3871847429
 H         -4.4709413352        4.0506854224       -0.4329073668
 H         -4.2216419986        1.7414203936        0.3839021725
 H         -0.3919495202        4.8099129901        0.5318407007
 H         -2.6807947202        0.2229639240        1.9582203152
 H         -0.6856817504       -0.9096672134        1.8604882692
 H          1.6986714979       -0.4785998937        2.5700289391
 H          2.1466455314        1.0995466329        3.2204333489
 H          4.1305541560        0.1489903862        1.1278968219
 H          5.4038020695        2.1619960018        0.8719734642
 H          4.2785815993        4.3120187036        1.1671733564
 H          3.7692634319        3.8072971533       -0.4273247014
 H          2.7895287963        3.4189628924        3.1017927892
 H          2.2005436919        5.0360942533        2.6950025250
 H         -0.0694749072        4.3760083697        2.8074489232
 H          0.5412452529        3.1001431318        3.8325741988
 H         -2.4570860290        0.8186670300        5.3421353169
 H         -1.1003627996        1.7289248984        6.0844339314
 H         -2.5888094694        2.5791214487        5.5918100211
  50
    -0.053773 !GC
 C          0.0000000000        0.0000000000        0.0000000000
 C          1.5454159062        0.0000000000        0.0000000000
 C         -2.5091593950        4.6002227914        0.0000000000
 C         -3.5865984633        3.7365021353        0.0011816347
 C         -3.4355142693        2.4500943151        0.4630157330
 C         -2.2025744834        2.0033897956        0.9422719489
 C         -1.1237551468        2.9081997098        1.0084942752
 C         -1.2913494810        4.1826104332        0.4990800674
 N         -2.0242528501        0.6459744985        1.2630667993
 C         -0.6592560256        0.1216654130        1.4048845657
 C          0.1147319800        1.0852623291        2.3526998292
 C          0.1826095001        2.5214817962        1.6937791988
 C          1.5967570837        0.6594743729        2.4017393008
 C          2.1147986891        1.0607425243        0.9874899749
 C          1.3971759457        2.4286160983        0.6894686562
 C          3.6156544018        1.1159091444        0.9559085657
 C          4.3131462006        2.2223068883        0.7662850845
 C          3.7068905852        3.5486553933        0.5014155016
 N          2.2459777508        3.7080459436        0.9289890343
 C          2.0729487874        4.0354311518        2.4105668605
 C          0.6455392556        3.6207065220        2.7518382382
 O          1.7202298667        4.7072985941        0.2185116276
 H          1.0453080569        2.4693567649       -0.3430408173
 C         -0.5566708674        1.0347393898        3.7179284668
 O         -0.3018696542        1.9428049052        4.4798576277
 O         -1.3662576479       -0.0180592300        4.0059315057
 C         -1.8141793150        0.0837468376        5.3206438505
 H         -0.3768969535       -0.9068829229       -0.4880502601
 H         -0.3743707285        0.8206907598       -0.6189233513
 H          1.9226205939       -0.9887317648        0.2791789572
 H          1.9352618950        0.1963133965       -1.0047383060
 H         -2.6218983353        5.6001460679       -0.3865766246
 H         -4.5404654521        4.0648335245       -0.3783509562
 H         -4.2586129606        1.7569345771        0.4310010707
 H         -0.4410058146        4.8440066078        0.4767212130
 H         -2.7191496890        0.1777675405        1.8460119435
 H         -0.6957852592       -0.8697520625        1.8806182886
 H          1.6915174595       -0.4122688936        2.5918320371
 H          2.1339719542        1.1848761283        3.1943810763
 H          4.1197786317        0.1795391274        1.1348848707
 H          5.3918221919        2.1797162902        0.7895887940
 H          4.2785583528        4.3403702091        0.9911561137
 H          3.7366549259        3.7655870382       -0.5687459291
 H          2.8181818964        3.4876150760        2.9900937748
 H          2.2436057710        5.1036305774        2.5576825591
 H         -0.0314954803        4.4794913021        2.7347824452
 H          0.5739992560        3.2052459854        3.7621642141
 H         -2.3722867977        1.0149185153        5.4396282455
 H         -2.4557697002       -0.7693885848        5.5486240736
 H         -0.9491467371        0.0889729969        5.9875117820
  50
    -0.053605 !GC
 C          0.0000000000        0.0000000000        0.0000000000
 C          1.5462614687        0.0000000000        0.0000000000
 C         -2.4265546753        4.5925460098        0.0000000000
 C         -3.4968470041        3.7233212121       -0.0729644273
 C         -3.3681542336        2.4350265140        0.3904961803
 C         -2.1684851291        1.9941826056        0.9511839026
 C         -1.0945347772        2.8973479699        1.0738395609
 C         -1.2375653566        4.1750547625        0.5640774468
 N         -2.0089607432        0.6484705753        1.2951169160
 C         -0.6491997129        0.1032371975        1.4080879969
 C          0.1337774963        1.0385750466        2.3788141831
 C          0.2068815962        2.4909022411        1.7565185079
 C          1.6131343607        0.6048704556        2.4132551471
 C          2.1279216729        1.0398620375        1.0081006183
 C          1.4133610781        2.4171319564        0.7472985486
 C          3.6289378515        1.0943079440        0.9752849622
 C          4.3261403597        2.2057212087        0.8151769219
 C          3.7180762273        3.5378391937        0.5843123839
 N          2.2564510606        3.6774994407        1.0154338564
 C          2.0799144309        3.9713361013        2.5033417044
 C          0.6610674646        3.5227642271        2.8400830030
 O          1.7208456776        4.6860092800        0.3258731323
 H          1.0579970392        2.4837825811       -0.2826768715
 C         -0.5266266427        0.9396085633        3.7468657874
 O         -0.1922170024        1.7708322165        4.5635265063
 O         -1.4135223972       -0.0637301703        3.9763651864
 C         -1.8128957893       -0.0361154049        5.3097643376
 H         -0.3754728007       -0.8998081194       -0.5019285265
 H         -0.3729491493        0.8299872616       -0.6071925207
 H          1.9229748483       -0.9954485514        0.2548643010
 H          1.9359921519        0.2201085320       -0.9998435114
 H         -2.5189419127        5.5949112917       -0.3857238129
 H         -4.4269750714        4.0501283377       -0.5088158013
 H         -4.1888118256        1.7425995929        0.3112719950
 H         -0.3869802550        4.8358475326        0.5844851833
 H         -2.6694594649       -0.0312149752        0.9212794715
 H         -0.6988498285       -0.8924712110        1.8738482076
 H          1.7028721169       -0.4720520304        2.5747956646
 H          2.1559750698        1.1073809221        3.2168553648
 H          4.1330687709        0.1534562628        1.1284250312
 H          5.4048260874        2.1629332676        0.8356558364
 H          4.2856579067        4.3182380606        1.0963774997
 H          3.7483173119        3.7833418115       -0.4795716481
 H          2.8372720139        3.4253353673        3.0688005801
 H          2.2323572514        5.0389318744        2.6728644606
 H         -0.0308400647        4.3696005563        2.8503087695
 H          0.6067783983        3.0785727247        3.8388964032
 H         -2.5223086208       -0.8451882732        5.4936244863
 H         -0.9317474939       -0.1591517644        5.9430694963
 H         -2.2798404428        0.9286667158        5.5193124363
  50
    -0.053143 !GC
 C          0.0000000000        0.0000000000        0.0000000000
 C          1.5457806512        0.0000000000        0.0000000000
 C         -2.3769146238        4.6538006067        0.0000000000
 C         -3.4567332790        3.7991482866       -0.1011101878
 C         -3.3479880650        2.5008727383        0.3390687667
 C         -2.1591153006        2.0367779640        0.9035013295
 C         -1.0787185429        2.9243445396        1.0622167029
 C         -1.1996909522        4.2138232988        0.5721562882
 N         -2.0116315909        0.6848140129        1.2176890149
 C         -0.6671306844        0.1233922405        1.3945679368
 C          0.1085745334        1.0585660016        2.3788612852
 C          0.2048343437        2.4910597353        1.7643244237
 C          1.5860052515        0.6151540473        2.4173308696
 C          2.1162195975        1.0591532836        1.0227666730
 C          1.4038214664        2.4374401885        0.7609202796
 C          3.6175839161        1.1142454222        1.0091000551
 C          4.3166452844        2.2266433023        0.8652652767
 C          3.7118490453        3.5598767429        0.6329794670
 N          2.2434136487        3.6978578412        1.0411332759
 C          2.0437478411        3.9931498089        2.5259310372
 C          0.6171342307        3.5521111013        2.8407883581
 O          1.7189126305        4.7062031256        0.3427484140
 H          1.0596389804        2.5065183397       -0.2727635262
 C         -0.5188803176        1.0270657972        3.7683030575
 O         -1.7227225206        0.8996003877        3.8310582307
 O          0.2976971700        1.1611062786        4.8478525682
 C         -0.4642657945        1.1622639292        6.0135946294
 H         -0.3763927260       -0.9075055562       -0.4870457035
 H         -0.3700473157        0.8200479248       -0.6225541227
 H          1.9229019625       -0.9973629371        0.2468024386
 H          1.9358657121        0.2287665999       -0.9977167026
 H         -2.4513567463        5.6636715788       -0.3695983770
 H         -4.3776256379        4.1446126210       -0.5420662214
 H         -4.1744658665        1.8186259378        0.2360244745
 H         -0.3418412196        4.8643823823        0.6112986491
 H         -2.7376660855        0.0232150909        0.9448648117
 H         -0.7484915029       -0.8659070563        1.8677792403
 H          1.6746084027       -0.4633700532        2.5684571395
 H          2.1206928208        1.1098885966        3.2315974088
 H          4.1199665843        0.1726823905        1.1639397071
 H          5.3949427092        2.1839429313        0.9009732659
 H          4.2713749234        4.3372894582        1.1583956929
 H          3.7589810717        3.8114745433       -0.4289272195
 H          2.7876671440        3.4424300862        3.1045585841
 H          2.1995645758        5.0598236464        2.6982327943
 H         -0.0684026727        4.4039835856        2.8286833668
 H          0.5520490938        3.1247891923        3.8450043059
 H         -1.2016418973        1.9660217847        5.9595098550
 H         -0.9762161223        0.2020311399        6.1040442891
 H          0.1951318594        1.3158236700        6.8704176372
  50
    -0.052750 !GC
 C          0.0000000000        0.0000000000        0.0000000000
 C          1.5466070365        0.0000000000        0.0000000000
 C         -2.4029228465        4.5997302152        0.0000000000
 C         -3.4763215658        3.7347912987       -0.0787790372
 C         -3.3548657811        2.4461384073        0.3855873772
 C         -2.1594575298        2.0020269322        0.9522124877
 C         -1.0830702945        2.8997075147        1.0830466341
 C         -1.2193964732        4.1762597783        0.5714291836
 N         -2.0042346256        0.6593063368        1.3006035520
 C         -0.6539298093        0.0956873514        1.4159198899
 C          0.1466310934        1.0130985164        2.3939140789
 C          0.2143435762        2.4883426916        1.7732278992
 C          1.6191264987        0.5547316609        2.4094102304
 C          2.1371796795        1.0038624695        1.0118543499
 C          1.4376169352        2.3915775369        0.7689017445
 C          3.6389280548        1.0414435546        0.9804769781
 C          4.3493417992        2.1463471513        0.8347102352
 C          3.7572534050        3.4878172160        0.6181720973
 N          2.2960854575        3.6399831191        1.0467845149
 C          2.1190164909        3.9262823396        2.5360929537
 C          0.6909178285        3.5008293967        2.8635273041
 O          1.7745318647        4.6595023415        0.3625704718
 H          1.0811285306        2.4721713228       -0.2597556987
 C         -0.4652709863        0.9470972326        3.7893886446
 O         -1.3111340779        1.7651208314        4.0804618890
 O         -0.0443446596       -0.0515135931        4.6105141359
 C         -0.6847057087        0.0549312488        5.8422733567
 H         -0.3731024938       -0.8932726592       -0.5153334332
 H         -0.3696829989        0.8369029824       -0.5997741794
 H          1.9231652024       -0.9976850520        0.2464305940
 H          1.9364160206        0.2272349866       -0.9982545350
 H         -2.4906278512        5.6013138267       -0.3887435241
 H         -4.4026981079        4.0648938851       -0.5200207475
 H         -4.1773942729        1.7564283145        0.3024920650
 H         -0.3653356841        4.8325339330        0.5945562239
 H         -2.6703025583       -0.0325614345        0.9589121699
 H         -0.7191481847       -0.9034409903        1.8708819698
 H          1.6950906733       -0.5262122772        2.5502597209
 H          2.1710011615        1.0354562604        3.2205387540
 H          4.1319535694        0.0930310285        1.1232166170
 H          5.4274162512        2.0907756874        0.8566154052
 H          4.3326366483        4.2556229122        1.1405606596
 H          3.7931025469        3.7451302688       -0.4427960470
 H          2.8629802314        3.3618238489        3.1012143792
 H          2.2901111981        4.9896077989        2.7144757898
 H          0.0141904881        4.3598857183        2.8623796629
 H          0.6252721538        3.0677088424        3.8658277099
 H         -0.4621963756        1.0311355207        6.2790986812
 H         -1.7618169829       -0.0416286965        5.6914214248
 H         -0.3274927713       -0.7408428069        6.4992677108
  50
    -0.052091 !GC
 C          0.0000000000        0.0000000000        0.0000000000
 C          1.5471036247        0.0000000000        0.0000000000
 C         -2.3370613237        4.6286641402        0.0000000000
 C         -3.4212776277        3.7799759996       -0.1050142926
 C         -3.3254152564        2.4837682592        0.3445446752
 C         -2.1445011507        2.0142644785        0.9209235069
 C         -1.0575046870        2.8955021805        1.0757278872
 C         -1.1673441919        4.1826836945        0.5822239639
 N         -2.0129153233        0.6639887419        1.2545526283
 C         -0.6687206789        0.0904744454        1.4037213428
 C          0.1242971692        1.0055503360        2.3829986327
 C          0.2193264394        2.4597189165        1.7858052508
 C          1.5977907770        0.5436153948        2.4199534088
 C          2.1372874772        1.0080036283        1.0368144288
 C          1.4566657456        2.4080645523        0.8143710796
 C          3.6392202760        1.0329113531        1.0229252979
 C          4.3609810582        2.1378326095        0.9511124789
 C          3.7870614546        3.4973774188        0.8066972641
 N          2.3103760715        3.6397364212        1.1819656843
 C          2.0751318978        3.8684546792        2.6755105936
 C          0.6296617894        3.4486652102        2.9260058801
 O          1.8211673806        4.6905218993        0.5213369603
 H          1.1398062016        2.5273793811       -0.2235067987
 C         -0.5156293881        0.9818646755        3.7614616389
 O         -1.7286698476        0.9860398033        3.7819337266
 O          0.2860238732        0.9532518698        4.8577200671
 C         -0.4956973204        1.0416679599        6.0073869282
 H         -0.3748029805       -0.8921323197       -0.5157667368
 H         -0.3657909545        0.8389919335       -0.5994619389
 H          1.9220198491       -1.0035116416        0.2242214316
 H          1.9360568300        0.2476413225       -0.9936614805
 H         -2.4040579687        5.6377135309       -0.3732587452
 H         -4.3370922489        4.1297157327       -0.5531388023
 H         -4.1576506041        1.8083159692        0.2434770255
 H         -0.3062684998        4.8281604791        0.6325205191
 H         -2.7101295196       -0.0021888426        0.9238673332
 H         -0.7447797767       -0.9072235818        1.8602388979
 H          1.6661624633       -0.5388330606        2.5522038062
 H          2.1399206454        1.0110877231        3.2448187253
 H          4.1222023489        0.0732727005        1.1153045920
 H          5.4382022175        2.0699391562        0.9832825956
 H          4.3473081024        4.2201446582        1.4043260030
 H          3.8695364587        3.8278282217       -0.2312479924
 H          2.7892536112        3.2737426971        3.2477439776
 H          2.2495861611        4.9217492648        2.9029388620
 H         -0.0397975625        4.3135195194        2.9228256230
 H          0.5021235631        2.9693234397        3.9035132960
 H         -1.1822765254        0.1923182198        6.0359387172
 H          0.1485785316        1.0320683664        6.8882282332
 H         -1.0687045154        1.9710313209        5.9727367379
  50
    -0.051896 !GC
 C          0.0000000000        0.0000000000        0.0000000000
 C          1.5461708817        0.0000000000        0.0000000000
 C         -2.4521275863        4.5648843201        0.0000000000
 C         -3.5274154620        3.6999525525       -0.0472305316
 C         -3.3936188662        2.4122535737        0.4157123428
 C         -2.1811463569        1.9646085711        0.9445847380
 C         -1.1057778816        2.8685655821        1.0536472536
 C         -1.2542687186        4.1458115843        0.5440182955
 N         -2.0224547504        0.6048146105        1.2895754642
 C         -0.6531872624        0.0860721774        1.4082120961
 C          0.1190642225        1.0248914538        2.3851437068
 C          0.1876616337        2.4702964708        1.7565816985
 C          1.5998423637        0.5940597743        2.4198911473
 C          2.1201425419        1.0379108464        1.0202302655
 C          1.4023684587        2.4124961387        0.7600521757
 C          3.6210536390        1.0996942515        0.9987856161
 C          4.3133435930        2.2166219560        0.8561815662
 C          3.7002478998        3.5477599198        0.6315328167
 N          2.2313897722        3.6736837503        1.0417837841
 C          2.0265342276        3.9635921439        2.5269933154
 C          0.6037956510        3.5077237741        2.8372300894
 O          1.6981792350        4.6788984623        0.3453381585
 H          1.0574785488        2.4818309443       -0.2733908863
 C         -0.5337117979        0.9600866950        3.7613764305
 O         -0.2484044602        0.0284607559        4.4821403136
 O         -1.4122507206        1.9475088610        4.0833534793
 C         -1.9467255401        1.7009011710        5.3459035521
 H         -0.3764233918       -0.8938132614       -0.5118627625
 H         -0.3736650797        0.8358842324       -0.5983843282
 H          1.9238519764       -0.9968339209        0.2478671212
 H          1.9360360392        0.2280382520       -0.9979731000
 H         -2.5493432161        5.5665895595       -0.3862010583
 H         -4.4655813891        4.0286991824       -0.4636485970
 H         -4.2145038313        1.7187364586        0.3514335954
 H         -0.4034028818        4.8068801195        0.5542508541
 H         -2.6053108947        0.2608321937        2.0614914047
 H         -0.6861691811       -0.9186176333        1.8557205683
 H          1.6959868987       -0.4834248526        2.5737181530
 H          2.1378993648        1.0951352147        3.2277509584
 H          4.1289170504        0.1600734389        1.1470356708
 H          5.3920447798        2.1795090694        0.8859484164
 H          4.2551438293        4.3261172659        1.1603791276
 H          3.7445980992        3.8051503188       -0.4290943016
 H          2.7757769790        3.4200663801        3.1054264089
 H          2.1695378193        5.0318923668        2.7006037165
 H         -0.0921939361        4.3511231312        2.8232317723
 H          0.5324228709        3.0758164669        3.8396511426
 H         -2.6577671512        2.4888243826        5.6017706190
 H         -2.4493201834        0.7314466451        5.3351761158
 H         -1.1329262563        1.6795610741        6.0742099687
  50
    -0.051571 !GC
 C          0.0000000000        0.0000000000        0.0000000000
 C          1.5458515563        0.0000000000        0.0000000000
 C         -2.4571945646        4.5989640082        0.0000000000
 C         -3.5380271684        3.7401247894       -0.0309952132
 C         -3.4039824069        2.4507754802        0.4275478289
 C         -2.1852608360        1.9959171064        0.9351424354
 C         -1.1043491623        2.8944671477        1.0321916327
 C         -1.2538377856        4.1728830893        0.5262759988
 N         -2.0234940040        0.6350460039        1.2614721420
 C         -0.6618220976        0.1057128325        1.4051939512
 C          0.1156415363        1.0505222321        2.3728381112
 C          0.1899179967        2.4940412982        1.7328909459
 C          1.5944302516        0.6109942518        2.4112470257
 C          2.1186564076        1.0398205431        1.0085850583
 C          1.4080057649        2.4160813296        0.7360897568
 C          3.6199503606        1.0925877693        0.9871986950
 C          4.3192052372        2.2036909941        0.8340965533
 C          3.7142809669        3.5363705951        0.5978444109
 N          2.2467016620        3.6761556375        1.0084575055
 C          2.0479702062        3.9787632722        2.4919952473
 C          0.6222707880        3.5370420685        2.8083613969
 O          1.7205420102        4.6806231128        0.3057271325
 H          1.0631307527        2.4789564321       -0.2977450142
 C         -0.5305961230        1.0104442856        3.7530547387
 O         -0.3020743732        0.0610680153        4.4705453193
 O         -1.3409006546        2.0526464283        4.0854544968
 C         -1.8863006457        1.8298773811        5.3481781764
 H         -0.3761168173       -0.9008335507       -0.4996542311
 H         -0.3729703664        0.8275955280       -0.6104535280
 H          1.9232769425       -0.9944621876        0.2577026059
 H          1.9358607026        0.2178468463       -1.0002173410
 H         -2.5554237053        5.6015422914       -0.3836698171
 H         -4.4807692622        4.0746739798       -0.4322172442
 H         -4.2291121092        1.7614455096        0.3732241184
 H         -0.3998170908        4.8298520511        0.5262271797
 H         -2.6360336533        0.2361164033        1.9821542380
 H         -0.7072850452       -0.8925145489        1.8654195359
 H          1.6836272147       -0.4658021034        2.5738552143
 H          2.1356552943        1.1147170555        3.2153135138
 H          4.1220444816        0.1511985490        1.1438587335
 H          5.3976536826        2.1601734864        0.8641896745
 H          4.2750098608        4.3157998834        1.1189209265
 H          3.7591848480        3.7837415420       -0.4651379778
 H          2.7937904829        3.4332033337        3.0729446796
 H          2.2004752019        5.0470257523        2.6574946415
 H         -0.0665453453        4.3862742770        2.7909384404
 H          0.5489236496        3.1112719220        3.8134272924
 H         -2.4510908534        0.8948978128        5.3342882062
 H         -1.0767534289        1.7564377590        6.0774491881
 H         -2.5460839680        2.6606881474        5.6065900715
  50
    -0.050933 !GC
 C          0.0000000000        0.0000000000        0.0000000000
 C          1.5457578152        0.0000000000        0.0000000000
 C         -2.4399665573        4.5904433758        0.0000000000
 C         -3.5085535635        3.7190240233       -0.0717583269
 C         -3.3760948967        2.4304133553        0.3898038909
 C         -2.1743647696        1.9914321411        0.9474621658
 C         -1.1024477783        2.8971446034        1.0700095983
 C         -1.2490116537        4.1750414012        0.5614713293
 N         -2.0110262969        0.6453421894        1.2878871269
 C         -0.6501714832        0.1045525836        1.4076780947
 C          0.1283375408        1.0452119344        2.3771227177
 C          0.2003072403        2.4936753261        1.7517895868
 C          1.6095336993        0.6167268597        2.4149573614
 C          2.1247803940        1.0473571119        1.0088456030
 C          1.4079546357        2.4224357608        0.7434378067
 C          3.6256943494        1.1019186714        0.9755014103
 C          4.3242275538        2.2112839188        0.8084107727
 C          3.7192409439        3.5437382668        0.5732827183
 N          2.2594246956        3.6955965608        1.0070783777
 C          2.0900295309        3.9929249606        2.4953993940
 C          0.6621868676        3.5752481523        2.8310188880
 O          1.7330363402        4.7096417793        0.3183256379
 H          1.0537446203        2.4853431435       -0.2871564646
 C         -0.5374886277        0.9556343794        3.7435463127
 O         -0.2032485964        1.7899014645        4.5573781562
 O         -1.4275205871       -0.0442561678        3.9772638296
 C         -1.8363283361       -0.0024865586        5.3075564629
 H         -0.3758126114       -0.8999538547       -0.5014979234
 H         -0.3724662269        0.8299202131       -0.6076661046
 H          1.9226040541       -0.9948097113        0.2572604446
 H          1.9353432992        0.2177145962       -1.0004159212
 H         -2.5351852846        5.5929938394       -0.3845072648
 H         -4.4402886521        4.0443714068       -0.5051221722
 H         -4.1954289318        1.7363404382        0.3114306088
 H         -0.3997786678        4.8378577345        0.5811257751
 H         -2.6810604151       -0.0336811036        0.9299145642
 H         -0.6975084757       -0.8901275581        1.8756127570
 H          1.7027378151       -0.4591026218        2.5815487206
 H          2.1492660516        1.1242413113        3.2174992203
 H          4.1291199820        0.1614002420        1.1335458284
 H          5.4028964349        2.1668561956        0.8285913868
 H          4.2928889601        4.3240556285        1.0787544163
 H          3.7471160714        3.7835302080       -0.4920523945
 H          2.8346609510        3.4309884602        3.0620599112
 H          2.2644402309        5.0572468520        2.6645770354
 H         -0.0131476258        4.4355498714        2.8306081420
 H          0.5906382507        3.1416562765        3.8336945421
 H         -2.5329740261       -0.8206806311        5.4999340302
 H         -0.9573782120       -0.0999858995        5.9484072895
 H         -2.3213128608        0.9573219041        5.4988192199
  50
    -0.050082 !GC
 C          0.0000000000        0.0000000000        0.0000000000
 C          1.5457366194        0.0000000000        0.0000000000
 C         -2.4701148451        4.5823444091        0.0000000000
 C         -3.5477425686        3.7195427258       -0.0298590648
 C         -3.4093668415        2.4319266797        0.4321623411
 C         -2.1896937590        1.9827393690        0.9428551621
 C         -1.1118142069        2.8853226593        1.0377193234
 C         -1.2655472509        4.1618179215        0.5279003105
 N         -2.0241674617        0.6223084022        1.2709813895
 C         -0.6585478247        0.1000426307        1.4063156749
 C          0.1162182058        1.0454987957        2.3755181798
 C          0.1854747703        2.4905590623        1.7363355535
 C          1.5959535741        0.6124614342        2.4127961366
 C          2.1171830595        1.0426280590        1.0092875423
 C          1.4009276809        2.4156892371        0.7361077109
 C          3.6182831244        1.1002752886        0.9864338670
 C          4.3139123868        2.2131928712        0.8301060221
 C          3.7044995537        3.5431595694        0.5904196853
 N          2.2365821181        3.6783873095        1.0012528821
 C          2.0374471110        3.9872891178        2.4831016179
 C          0.6150361686        3.5375460182        2.8028182228
 O          1.7050844979        4.6765586597        0.2935988352
 H          1.0525673908        2.4745318147       -0.2967995015
 C         -0.5195294430        0.9906323577        3.7599773624
 O         -1.3956325954        1.8001107364        3.9779390299
 O         -0.0880849782        0.0596827876        4.6521105748
 C         -0.7723142735        0.2157286086        5.8550106560
 H         -0.3763487898       -0.8989574428       -0.5028639721
 H         -0.3735965413        0.8298852202       -0.6068773311
 H          1.9235144064       -0.9941585834        0.2583188823
 H          1.9357412454        0.2177291414       -1.0002405872
 H         -2.5712177554        5.5834290478       -0.3867736986
 H         -4.4909798754        4.0493507302       -0.4337889730
 H         -4.2314707792        1.7390415025        0.3769483635
 H         -0.4137271047        4.8216532537        0.5255679127
 H         -2.6608694199        0.2216765943        1.9689477362
 H         -0.6967423184       -0.9000555596        1.8631725993
 H          1.6903047891       -0.4637258401        2.5766903155
 H          2.1326622195        1.1199506358        3.2177121185
 H          4.1235206548        0.1609891401        1.1456640032
 H          5.3925070322        2.1732796961        0.8599091036
 H          4.2625904923        4.3259214620        1.1093528248
 H          3.7482065838        3.7878053199       -0.4732501950
 H          2.7873097745        3.4492771467        3.0659280578
 H          2.1835074597        5.0572242949        2.6433877286
 H         -0.0788655580        4.3824934878        2.7828128398
 H          0.5460655457        3.1173001921        3.8104954503
 H         -0.6053285580        1.2265214252        6.2337786667
 H         -1.8390961042        0.0642527951        5.6773908329
 H         -0.4061448396       -0.5194609123        6.5743699491
  50
    -0.049483 !GC
 C          0.0000000000        0.0000000000        0.0000000000
 C          1.5461336628        0.0000000000        0.0000000000
 C         -2.4545329706        4.5643202765        0.0000000000
 C         -3.5294980749        3.6989294634       -0.0460360432
 C         -3.3946880115        2.4113906831        0.4170107899
 C         -2.1814946318        1.9643476211        0.9447376286
 C         -1.1063560605        2.8687185155        1.0525105654
 C         -1.2558855785        4.1456891350        0.5425901533
 N         -2.0220471874        0.6048146418        1.2902933361
 C         -0.6526348624        0.0864375005        1.4084367585
 C          0.1192840360        1.0263983025        2.3846916344
 C          0.1874314043        2.4716386595        1.7555365981
 C          1.6001244437        0.5960458874        2.4192008314
 C          2.1205456420        1.0388976748        1.0192167739
 C          1.4017573506        2.4128650849        0.7583973155
 C          3.6214410400        1.1007904751        0.9978906781
 C          4.3135035667        2.2176790910        0.8542916840
 C          3.6999913632        3.5483994214        0.6283949991
 N          2.2310870431        3.6742579615        1.0383918243
 C          2.0262608119        3.9665994055        2.5230523664
 C          0.6040586043        3.5094829703        2.8339367742
 O          1.6974915718        4.6781472842        0.3404324267
 H          1.0563421655        2.4811494327       -0.2749523798
 C         -0.5329339837        0.9601042549        3.7612032127
 O         -0.2330905189        0.0377896025        4.4880626219
 O         -1.4265290314        1.9359894011        4.0769093856
 C         -1.9573005089        1.6889770067        5.3409157768
 H         -0.3767047242       -0.8940384490       -0.5112854426
 H         -0.3736960644        0.8356842460       -0.5986631527
 H          1.9236465016       -0.9966913576        0.2487281095
 H          1.9360063720        0.2270561970       -0.9982135652
 H         -2.5526378119        5.5659488396       -0.3860817322
 H         -4.4683003408        4.0273336240       -0.4612253779
 H         -4.2153801222        1.7175656537        0.3537461313
 H         -0.4055598253        4.8073290777        0.5523944749
 H         -2.6035806057        0.2610321961        2.0632665731
 H         -0.6851936970       -0.9180537119        1.8564273609
 H          1.6966077883       -0.4813231158        2.5737591319
 H          2.1383570328        1.0977888969        3.2265639902
 H          4.1294117045        0.1612830409        1.1467630852
 H          5.3921377907        2.1807599095        0.8833353062
 H          4.2546876366        4.3272202093        1.1563745116
 H          3.7441495374        3.8047099428       -0.4323164985
 H          2.7760083059        3.4249447788        3.1023971370
 H          2.1682501240        5.0352798229        2.6947392959
 H         -0.0925634239        4.3522782433        2.8188969848
 H          0.5332026837        3.0791667884        3.8369087646
 H         -2.6832936682        2.4708071743        5.5765546141
 H         -2.4564894860        0.7184970522        5.3375717226
 H         -1.1529790094        1.7042815210        6.0790677117
  50
    -0.049384 !GC
 C          0.0000000000        0.0000000000        0.0000000000
 C          1.5470950454        0.0000000000        0.0000000000
 C         -2.3374847646        4.6279120786        0.0000000000
 C         -3.4217082145        3.7791787898       -0.1046746250
 C         -3.3256859985        2.4829873819        0.3448579516
 C         -2.1446425074        2.0135904293        0.9210659924
 C         -1.0576634896        2.8948903584        1.0756614340
 C         -1.1675581199        4.1819566589        0.5818453863
 N         -2.0128315807        0.6633406014        1.2547438672
 C         -0.6685179464        0.0901393368        1.4038222974
 C          0.1245876647        1.0051441107        2.3831033913
 C          0.2190925099        2.4594227676        1.7860929214
 C          1.5981200270        0.5433204603        2.4198611519
 C          2.1373556733        1.0080564767        1.0367448460
 C          1.4563137285        2.4079547757        0.8144714432
 C          3.6392614301        1.0331037764        1.0222167424
 C          4.3608515700        2.1381417445        0.9507038102
 C          3.7866987887        3.4976792946        0.8071366509
 N          2.3099292932        3.6396996024        1.1823217601
 C          2.0748762331        3.8680450875        2.6759703289
 C          0.6293855365        3.4483509274        2.9263958365
 O          1.8204157067        4.6905585387        0.5219858589
 H          1.1393713142        2.5274618385       -0.2233526433
 C         -0.5151661926        0.9812994990        3.7616557803
 O         -1.7282675379        0.9853966329        3.7823331621
 O          0.2866576593        0.9537193459        4.8577721324
 C         -0.4948315548        1.0423995968        6.0075622885
 H         -0.3746666160       -0.8920677379       -0.5159973157
 H         -0.3656990932        0.8391011745       -0.5993816588
 H          1.9222142636       -1.0034719269        0.2241261499
 H          1.9358913862        0.2477455583       -0.9937041187
 H         -2.4046975507        5.6370202946       -0.3730520553
 H         -4.3376211798        4.1288443397       -0.5526669375
 H         -4.1579075485        1.8074897352        0.2440177087
 H         -0.3069128797        4.8279622678        0.6333117580
 H         -2.7100291984       -0.0028464188        0.9242449238
 H         -0.7443445896       -0.9077834720        1.8599046386
 H          1.6667389003       -0.5391241764        2.5519604922
 H          2.1401858562        1.0108454366        3.2447316998
 H          4.1223884586        0.0735209068        1.1144173438
 H          5.4380982312        2.0703604039        0.9824054415
 H          4.3468100709        4.2201094021        1.4052941334
 H          3.8692889522        3.8288422139       -0.2305700703
 H          2.7890264648        3.2731591315        3.2479833958
 H          2.2493801376        4.9212690741        2.9036727707
 H         -0.0399975944        4.3132615054        2.9231686736
 H          0.5018214523        2.9691209115        3.9039422223
 H         -1.0582762208        1.9776032020        5.9918375669
 H         -1.1719394052        0.1873666027        6.0497263632
 H          0.1641822307        1.0283262995        6.8791179855
  50
    -0.046414 !GC
 C          0.0000000000        0.0000000000        0.0000000000
 C          1.5460583419        0.0000000000        0.0000000000
 C         -2.4381606719        4.5288289347        0.0000000000
 C         -3.5142004955        3.6648066802       -0.0467646953
 C         -3.3843826009        2.3800186319        0.4254218528
 C         -2.1744871472        1.9337966982        0.9614080758
 C         -1.0991533574        2.8375327870        1.0705538542
 C         -1.2437384446        4.1117684223        0.5528181571
 N         -2.0186278958        0.5764325194        1.3167886971
 C         -0.6464161742        0.0599013678        1.4126681043
 C          0.1287045998        0.9857320140        2.3984826628
 C          0.1902545407        2.4450637837        1.7839598339
 C          1.6096044644        0.5544837159        2.4244324433
 C          2.1271894138        1.0172122649        1.0301195097
 C          1.4156579062        2.3987313699        0.7956013300
 C          3.6279883353        1.0712185534        1.0008298779
 C          4.3267703425        2.1876610910        0.8908856705
 C          3.7237981112        3.5307600515        0.7150904740
 N          2.2496590311        3.6549757813        1.1075585709
 C          2.0312841306        3.9251345820        2.5946434085
 C          0.5995536122        3.4820624432        2.8785282069
 O          1.7290453493        4.6732696260        0.4206135615
 H          1.0780686524        2.4904674457       -0.2384774219
 C         -0.5198747613        0.8936556269        3.7755038903
 O         -0.1865841837       -0.0181840022        4.5011534890
 O         -1.4462376857        1.8377702837        4.0929332045
 C         -1.9669450371        1.5714376206        5.3572101093
 H         -0.3766795404       -0.8844013065       -0.5277742634
 H         -0.3746140464        0.8468191196       -0.5821367212
 H          1.9228835196       -1.0006598946        0.2334241547
 H          1.9359980824        0.2418769501       -0.9947291867
 H         -2.5317036783        5.5283945034       -0.3926061826
 H         -4.4500377534        3.9921615540       -0.4695368333
 H         -4.2062655363        1.6875738965        0.3623349326
 H         -0.3929650745        4.7725188278        0.5670558488
 H         -2.6652042926        0.2320147984        2.0358896208
 H         -0.6688947274       -0.9529034212        1.8425371102
 H          1.7064331389       -0.5250216468        2.5631193417
 H          2.1490551232        1.0447966556        3.2379347764
 H          4.1306787464        0.1241084522        1.1144196086
 H          5.4054496627        2.1418824202        0.9130180631
 H          4.2776302510        4.2817146021        1.2829214779
 H          3.7852716376        3.8315880109       -0.3330849620
 H          2.7659663954        3.3633783561        3.1743727035
 H          2.1857138400        4.9886261470        2.7868661860
 H         -0.0879013913        4.3320922344        2.8511407800
 H          0.5059010633        3.0507959745        3.8790617179
 H         -2.7150017848        2.3252127092        5.6098547645
 H         -2.4217460163        0.5787249344        5.3520420164
 H         -1.1525209647        1.5933687115        6.0844958020
  50
    -0.046178 !GC
 C          0.0000000000        0.0000000000        0.0000000000
 C          1.5456563780        0.0000000000        0.0000000000
 C         -2.4091135422        4.6454207124        0.0000000000
 C         -3.4893346671        3.7881206023       -0.0686514318
 C         -3.3690591997        2.4948765200        0.3833391485
 C         -2.1676046868        2.0388259796        0.9272745394
 C         -1.0855565514        2.9300012252        1.0539187092
 C         -1.2201643886        4.2120241389        0.5524675987
 N         -2.0089999187        0.6910223274        1.2424600446
 C         -0.6642703629        0.1258737200        1.4017023613
 C          0.1274424431        1.0579460226        2.3740775189
 C          0.2091141165        2.5114451906        1.7448828397
 C          1.6028102966        0.6080222605        2.4035297165
 C          2.1250571203        1.0384458166        1.0016125723
 C          1.4219354159        2.4208368530        0.7377077778
 C          3.6268417853        1.0785089387        0.9746672848
 C          4.3361598219        2.1824997401        0.8175269087
 C          3.7430488554        3.5204393588        0.5836364749
 N          2.2795161714        3.6755793685        1.0031923913
 C          2.0975196313        3.9814609896        2.4879367920
 C          0.6700205506        3.5554520657        2.8166424792
 O          1.7589125964        4.6849404597        0.3034980464
 H          1.0684664780        2.4873811352       -0.2929387092
 C         -0.4868751764        1.0030129691        3.7686007058
 O         -1.3490819775        1.8187768472        4.0152132905
 O         -0.0521950625        0.0572490369        4.6442475253
 C         -0.7138501720        0.2093942286        5.8602553091
 H         -0.3751482211       -0.9064919330       -0.4900741180
 H         -0.3698907558        0.8212960999       -0.6211011882
 H          1.9226223164       -0.9947843852        0.2574057225
 H          1.9352727964        0.2171951814       -1.0005575216
 H         -2.4944897520        5.6509209886       -0.3789554326
 H         -4.4199472872        4.1274856457       -0.4937279919
 H         -4.1961481680        1.8102083846        0.3034637494
 H         -0.3629449922        4.8642005665        0.5693802333
 H         -2.6397740383       -0.0126773912        0.8613893062
 H         -0.7408739621       -0.8634900680        1.8757105646
 H          1.6840058379       -0.4702057958        2.5613970977
 H          2.1489547165        1.1039071962        3.2093535117
 H          4.1209386624        0.1326300053        1.1301290989
 H          5.4142394278        2.1288056288        0.8435798934
 H          4.3149848377        4.2945093196        1.1005765104
 H          3.7837578075        3.7664237036       -0.4798586675
 H          2.8420521617        3.4272343771        3.0623993929
 H          2.2651981872        5.0474971527        2.6525681179
 H         -0.0088915501        4.4126943817        2.8066029612
 H          0.6019184377        3.1318410987        3.8228969720
 H         -0.5111625807        1.2110024794        6.2471499669
 H         -1.7865838696        0.0753698436        5.7129061172
 H         -0.3281071089       -0.5286729579        6.5672659410
  50
    -0.045788 !GC
 C          0.0000000000        0.0000000000        0.0000000000
 C          1.5467388796        0.0000000000        0.0000000000
 C         -2.3848095012        4.6162347274        0.0000000000
 C         -3.4711150352        3.7665487735       -0.0688406809
 C         -3.3598396742        2.4725211138        0.3821551974
 C         -2.1590754910        2.0042712228        0.9192633164
 C         -1.0737875280        2.8912347114        1.0528067071
 C         -1.1993919733        4.1753458695        0.5543131722
 N         -2.0195606108        0.6423235891        1.2559403600
 C         -0.6651432593        0.0963834683        1.4045697975
 C          0.1199959587        1.0189827358        2.3903141696
 C          0.2040556505        2.4686470622        1.7716857432
 C          1.5942309948        0.5629535871        2.4170050942
 C          2.1265103855        1.0199643206        1.0280563230
 C          1.4261502207        2.4064776975        0.7844391156
 C          3.6282115717        1.0669338290        1.0181290815
 C          4.3312759684        2.1805205059        0.9047549832
 C          3.7306814276        3.5207741789        0.7001019803
 N          2.2569347313        3.6451638432        1.0926514514
 C          2.0312528048        3.9188579200        2.5780078331
 C          0.6050602520        3.4562633692        2.8660402233
 O          1.7345237270        4.6589061979        0.4005493237
 H          1.0901823667        2.4944852490       -0.2505849439
 C         -0.4968594752        0.9974423441        3.7857554360
 O          0.1808199538        1.3985770379        4.7071034405
 O         -1.7498235456        0.4825360952        3.9232368760
 C         -2.1052246156        0.4739587940        5.2705436807
 H         -0.3754512141       -0.8958179468       -0.5089515550
 H         -0.3702922933        0.8328628073       -0.6048221815
 H          1.9238759230       -1.0001742881        0.2349470612
 H          1.9365159315        0.2397326538       -0.9952672960
 H         -2.4638994652        5.6228087977       -0.3774306373
 H         -4.3998308402        4.1119970744       -0.4926771187
 H         -4.1887576367        1.7903882233        0.3016121874
 H         -0.3400341025        4.8247201812        0.5811624609
 H         -2.5595155578        0.2997101678        2.0595606956
 H         -0.7276284102       -0.9067843093        1.8514443100
 H          1.6741291074       -0.5183793088        2.5525219390
 H          2.1380076159        1.0415675546        3.2347683717
 H          4.1264106617        0.1198767389        1.1508426891
 H          5.4091781362        2.1334723571        0.9422530228
 H          4.2820430548        4.2841390690        1.2535691915
 H          3.7915317460        3.8003572517       -0.3538643596
 H          2.7745515768        3.3707260577        3.1596921023
 H          2.1698333392        4.9854128275        2.7650566034
 H         -0.0891211326        4.3007465620        2.8478410743
 H          0.5317450707        3.0192198129        3.8649397191
 H         -1.3687120763       -0.1027229499        5.8337465065
 H         -2.1214333176        1.5016367381        5.6389232721
 H         -3.0941720386        0.0238917197        5.3779630770
  50
    -0.042972 !GC
 C          0.0000000000        0.0000000000        0.0000000000
 C          1.5463145844        0.0000000000        0.0000000000
 C         -2.3762926494        4.6379689074        0.0000000000
 C         -3.4548128920        3.7809118200       -0.0939846661
 C         -3.3439901954        2.4861591134        0.3559629393
 C         -2.1540800066        2.0275846755        0.9226312035
 C         -1.0733761869        2.9172485732        1.0699493249
 C         -1.1979676581        4.2020200337        0.5727469200
 N         -2.0085876818        0.6795731030        1.2555101654
 C         -0.6622099865        0.1129792200        1.4040378055
 C          0.1279027301        1.0373013009        2.3832746463
 C          0.2144214705        2.4902521249        1.7674275209
 C          1.6027568510        0.5844072426        2.4131342201
 C          2.1294718399        1.0298615401        1.0177757969
 C          1.4291412691        2.4162559711        0.7682870987
 C          3.6312157893        1.0715203677        0.9965741537
 C          4.3395003997        2.1790290290        0.8601088097
 C          3.7456931821        3.5201426764        0.6450268715
 N          2.2799415293        3.6664460811        1.0596962910
 C          2.0869048063        3.9477388114        2.5483627678
 C          0.6579323455        3.5138285805        2.8624826928
 O          1.7618925691        4.6866540434        0.3739337220
 H          1.0835186216        2.4972382583       -0.2640438992
 C         -0.5042223585        0.9830412992        3.7688307304
 O         -1.3801111976        1.7931500694        3.9830664007
 O         -0.0360533674        0.0968606222        4.6881284029
 C         -0.6649482104        0.3155903040        5.9113580642
 H         -0.3747583964       -0.9015589425       -0.4992872670
 H         -0.3694502611        0.8273800065       -0.6131031710
 H          1.9227196779       -0.9982002710        0.2444953385
 H          1.9361027131        0.2296544981       -0.9976557809
 H         -2.4538637035        5.6451651262       -0.3762305237
 H         -4.3769624978        4.1221449288       -0.5356378818
 H         -4.1704735593        1.8027771609        0.2608083869
 H         -0.3404521951        4.8531776542        0.6075365331
 H         -2.7084913069        0.0065360688        0.9454446374
 H         -0.7382465337       -0.8800726233        1.8708672717
 H          1.6804062640       -0.4954338996        2.5610760470
 H          2.1481365172        1.0698310744        3.2256277800
 H          4.1258831929        0.1238714001        1.1382862207
 H          5.4175398227        2.1261830312        0.8891752388
 H          4.3138678235        4.2866533458        1.1771033309
 H          3.7913137774        3.7832320620       -0.4141702017
 H          2.8291675897        3.3861933371        3.1185855758
 H          2.2508173795        5.0114781675        2.7308376590
 H         -0.0228191684        4.3697065455        2.8634042487
 H          0.5875790918        3.0698709555        3.8596423255
 H         -0.4925794766        1.3484629820        6.2215453186
 H         -1.7371875053        0.1430424967        5.7969270084
 H         -0.2521578067       -0.3715205645        6.6529141461
  50
    -0.040718 !GC
 C          0.0000000000        0.0000000000        0.0000000000
 C          1.5466754183        0.0000000000        0.0000000000
 C         -2.3966157227        4.5994928263        0.0000000000
 C         -3.4710123444        3.7357182889       -0.0777858534
 C         -3.3510809743        2.4474756081        0.3881347732
 C         -2.1562048123        2.0026443533        0.9553117119
 C         -1.0788295472        2.8992664902        1.0852739561
 C         -1.2135879885        4.1749881571        0.5717400003
 N         -2.0026446198        0.6602401418        1.3055518220
 C         -0.6530424206        0.0943672905        1.4176408655
 C          0.1505978667        1.0088904097        2.3957168662
 C          0.2181113213        2.4874510880        1.7761120240
 C          1.6223209732        0.5479383268        2.4106992343
 C          2.1390345503        0.9968784231        1.0125924406
 C          1.4440266149        2.3873101030        0.7727582194
 C          3.6409079766        1.0304284050        0.9799267876
 C          4.3545438124        2.1337256225        0.8374693925
 C          3.7667187366        3.4779620578        0.6263385699
 N          2.3054495565        3.6328039345        1.0536491166
 C          2.1277953191        3.9170655878        2.5432701038
 C          0.6980735369        3.4952310390        2.8679526377
 O          1.7872553065        4.6549258596        0.3707473151
 H          1.0881577814        2.4711353922       -0.2558785241
 C         -0.4601972249        0.9420794643        3.7916948643
 O         -1.3023359732        1.7630047312        4.0855174753
 O         -0.0454898017       -0.0626155734        4.6085908640
 C         -0.6852783968        0.0425738763        5.8407370886
 H         -0.3730306287       -0.8925824187       -0.5166270823
 H         -0.3699001470        0.8377756838       -0.5984185529
 H          1.9232549931       -0.9981762242        0.2444208346
 H          1.9366395790        0.2294583529       -0.9976752051
 H         -2.4834041849        5.6007224852       -0.3898789446
 H         -4.3969983179        4.0663803083       -0.5193987582
 H         -4.1744244074        1.7586816225        0.3059710571
 H         -0.3590218647        4.8307141652        0.5957966968
 H         -2.6677050993       -0.0318372728        0.9624178854
 H         -0.7190871472       -0.9052843581        1.8713556878
 H          1.6961319384       -0.5333801242        2.5500160851
 H          2.1757894297        1.0265401070        3.2219013012
 H          4.1312909974        0.0800172566        1.1182726740
 H          5.4324875152        2.0747380875        0.8581612368
 H          4.3438099558        4.2416801667        1.1528462315
 H          3.8046436478        3.7399394997       -0.4334261422
 H          2.8693083392        3.3494132145        3.1083943390
 H          2.3017639059        4.9795741536        2.7236952279
 H          0.0236793113        4.3561236810        2.8657977281
 H          0.6301398054        3.0625531821        3.8702620385
 H         -0.3401854211       -0.7576632246        6.4985455087
 H         -0.4528762237        1.0154079412        6.2789459594
 H         -1.7635172228       -0.0385874469        5.6853675987
  50
    -0.038812 !GC
 C          0.0000000000        0.0000000000        0.0000000000
 C          1.5457801466        0.0000000000        0.0000000000
 C         -2.3729980613        4.6525547061        0.0000000000
 C         -3.4530917329        3.7983824357       -0.1020731029
 C         -3.3456470470        2.5003875124        0.3392230195
 C         -2.1578464567        2.0360910914        0.9057525264
 C         -1.0771453107        2.9231343705        1.0652631848
 C         -1.1969679924        4.2120867571        0.5742442082
 N         -2.0117609446        0.6843519221        1.2215391542
 C         -0.6675664976        0.1212697706        1.3952558052
 C          0.1104036754        1.0535991448        2.3804911243
 C          0.2061676186        2.4890967558        1.7674142058
 C          1.5871563032        0.6078811650        2.4170291755
 C          2.1168270966        1.0532030135        1.0226893160
 C          1.4069527544        2.4333436657        0.7640614845
 C          3.6182760904        1.1055013993        1.0079586692
 C          4.3193788845        2.2169014553        0.8662497392
 C          3.7171453327        3.5519762135        0.6378470694
 N          2.2489999641        3.6915781836        1.0464110082
 C          2.0498151035        3.9848136742        2.5316379189
 C          0.6224098457        3.5458575274        2.8455771443
 O          1.7263550973        4.7021123096        0.3498150906
 H          1.0627808797        2.5049281685       -0.2694858276
 C         -0.5148501129        1.0205481502        3.7709643223
 O         -1.7196028073        0.9046285488        3.8362550667
 O          0.3063315489        1.1351833171        4.8491460195
 C         -0.4520388872        1.1362179101        6.0172230772
 H         -0.3764543850       -0.9068181179       -0.4883332841
 H         -0.3700408669        0.8209179015       -0.6214381024
 H          1.9232689919       -0.9975534619        0.2455080002
 H          1.9358211715        0.2302193437       -0.9974174471
 H         -2.4466401811        5.6620244546       -0.3707931653
 H         -4.3731106929        4.1439406722       -0.5446483601
 H         -4.1723469948        1.8184982964        0.2355299329
 H         -0.3387651042        4.8620799472        0.6143335115
 H         -2.7349042521        0.0219630415        0.9425756913
 H         -0.7493559221       -0.8688241674        1.8667595631
 H          1.6740458984       -0.4710254918        2.5664142677
 H          2.1231633103        1.1004526112        3.2317393393
 H          4.1190174467        0.1625662509        1.1601073001
 H          5.3976254776        2.1719487781        0.9008326560
 H          4.2780723623        4.3268808989        1.1654466203
 H          3.7647025523        3.8064943621       -0.4233435758
 H          2.7924609951        3.4314444008        3.1093915574
 H          2.2077889205        5.0508407102        2.7059167280
 H         -0.0614997697        4.3990408051        2.8342314040
 H          0.5563665828        3.1175560446        3.8493113220
 H         -0.9859284878        0.1864575433        6.0966077954
 H          0.2072763403        1.2693087608        6.8767118812
 H         -1.1718626744        1.9565390214        5.9685692993
  50
    -0.034945 !GC
 C          0.0000000000        0.0000000000        0.0000000000
 C          1.5459423956        0.0000000000        0.0000000000
 C         -2.4031430828        4.6041390590        0.0000000000
 C         -3.4907125740        3.7547228977       -0.0503431228
 C         -3.3741036823        2.4625727990        0.4050749994
 C         -2.1661486384        1.9960345038        0.9273296319
 C         -1.0806845216        2.8844452760        1.0471677764
 C         -1.2116441814        4.1661355200        0.5432607240
 N         -2.0180048524        0.6352409452        1.2534691315
 C         -0.6619561397        0.0937597522        1.4063441612
 C          0.1210661949        1.0196063270        2.3904368843
 C          0.2002055347        2.4722230999        1.7666830708
 C          1.5971695311        0.5696524556        2.4156991271
 C          2.1272631061        1.0235672467        1.0250115233
 C          1.4256200908        2.4087179684        0.7799438562
 C          3.6287594814        1.0672433952        1.0067677739
 C          4.3360065517        2.1776292004        0.8901321292
 C          3.7429333989        3.5221448531        0.6942223912
 N          2.2694173610        3.6609404216        1.0837882593
 C          2.0511435694        3.9435848341        2.5686012887
 C          0.6142701832        3.5173921854        2.8539891970
 O          1.7584591612        4.6788628648        0.3887782403
 H          1.0896506367        2.4949297149       -0.2552296139
 C         -0.4842613081        0.9878899190        3.7910818531
 O         -1.5631435245        0.4442366902        3.8940090078
 O          0.1808234041        1.5685867410        4.8269200278
 C         -0.5844716625        1.4723486883        5.9868190271
 H         -0.3755841926       -0.8945792118       -0.5110239630
 H         -0.3707914920        0.8347168743       -0.6020244272
 H          1.9228406454       -0.9996380123        0.2377341576
 H          1.9357850135        0.2368400201       -0.9959189586
 H         -2.4856823424        5.6087904915       -0.3817902317
 H         -4.4242626689        4.0983527023       -0.4651466917
 H         -4.2035432245        1.7799030534        0.3348611519
 H         -0.3521742929        4.8156394499        0.5584902167
 H         -2.6617556672        0.2402141810        1.9484619719
 H         -0.7164855604       -0.9102433178        1.8521853812
 H          1.6813781175       -0.5108171857        2.5553471331
 H          2.1371021123        1.0532355379        3.2332099556
 H          4.1241299862        0.1182140975        1.1354598762
 H          5.4139535987        2.1252159464        0.9218957175
 H          4.3010466623        4.2772498322        1.2523978087
 H          3.8075764400        3.8079874063       -0.3578849461
 H          2.7781874904        3.3773804769        3.1536369129
 H          2.2171246277        5.0064581765        2.7545206704
 H         -0.0619915563        4.3760062067        2.8178543108
 H          0.5206344782        3.1000014779        3.8597411544
 H         -1.5511810413        1.9531145355        5.8249786257
 H         -0.7171917801        0.4208923349        6.2471029941
 H         -0.0551389639        1.9830099798        6.7949318942
  50
    -0.034938 !GC
 C          0.0000000000        0.0000000000        0.0000000000
 C          1.5458533227        0.0000000000        0.0000000000
 C         -2.3781905526        4.6510142056        0.0000000000
 C         -3.4579388192        3.7960309618       -0.0990007965
 C         -3.3485261565        2.4983353526        0.3426989544
 C         -2.1589957334        2.0351416248        0.9064888016
 C         -1.0786861017        2.9231736038        1.0632852364
 C         -1.2004335325        4.2118120764        0.5716454826
 N         -2.0108154698        0.6835028458        1.2218364660
 C         -0.6658366830        0.1224805630        1.3961405255
 C          0.1107693292        1.0572198969        2.3801032867
 C          0.2055035926        2.4912287268        1.7651653961
 C          1.5880423794        0.6133969268        2.4174112216
 C          2.1175076217        1.0578120454        1.0227272815
 C          1.4053908323        2.4364384161        0.7617935762
 C          3.6189050069        1.1124377231        1.0086091071
 C          4.3182369183        2.2247581964        0.8651551359
 C          3.7137265726        3.5582772608        0.6333916846
 N          2.2454683233        3.6965162229        1.0421272842
 C          2.0462988544        3.9913606359        2.5270855695
 C          0.6194622414        3.5510373067        2.8419385410
 O          1.7210364295        4.7052591406        0.3442630040
 H          1.0608106424        2.5060869335       -0.2717317039
 C         -0.5154069654        1.0252561179        3.7701576533
 O         -1.7187930050        0.8936848982        3.8340070507
 O          0.3012170023        1.1657374752        4.8489243234
 C         -0.4603186387        1.1688184128        6.0149059223
 H         -0.3763210018       -0.9067213319       -0.4886058172
 H         -0.3700210500        0.8210459143       -0.6212529917
 H          1.9231259005       -0.9974575000        0.2467486134
 H          1.9359638127        0.2288452679       -0.9978228087
 H         -2.4532522379        5.6602918600       -0.3710100949
 H         -4.3792966971        4.1407279668       -0.5395581839
 H         -4.1749328175        1.8157828570        0.2412527423
 H         -0.3426041807        4.8624897895        0.6092751031
 H         -2.7370883177        0.0214346179        0.9507373201
 H         -0.7460683402       -0.8672457157        1.8686583065
 H          1.6763992973       -0.4652340149        2.5679490045
 H          2.1234026340        1.1075943969        3.2315673173
 H          4.1210524715        0.1707130382        1.1631069928
 H          5.3965364058        2.1817675518        0.9008874445
 H          4.2737110164        4.3355136041        1.1588898728
 H          3.7605670890        3.8101820541       -0.4285939897
 H          2.7899712594        3.4399681498        3.1053563536
 H          2.2027768157        5.0578616844        2.6997837009
 H         -0.0656595611        4.4032497625        2.8295364495
 H          0.5541987826        3.1240513171        3.8463022745
 H         -0.9777809107        0.2116928410        6.1080542819
 H          0.1965637554        1.3239511476        6.8727771321
 H         -1.1938600015        1.9762121968        5.9543555901
  50
    -0.034933 !GC
 C          0.0000000000        0.0000000000        0.0000000000
 C          1.5459271296        0.0000000000        0.0000000000
 C         -2.4523542912        4.5612934460        0.0000000000
 C         -3.5310611986        3.6998381173       -0.0302409318
 C         -3.3964413653        2.4141481468        0.4382980453
 C         -2.1792012530        1.9651123657        0.9548968416
 C         -1.1010674384        2.8669509256        1.0505333845
 C         -1.2506501934        4.1415849483        0.5348186396
 N         -2.0173961472        0.6066648821        1.2926684121
 C         -0.6483935442        0.0865015860        1.4107909339
 C          0.1275678993        1.0239590540        2.3857334808
 C          0.1937694566        2.4750866156        1.7546534224
 C          1.6081263588        0.5931950806        2.4157995373
 C          2.1262608031        1.0355831026        1.0148552443
 C          1.4103562143        2.4114461308        0.7574137254
 C          3.6270684420        1.0924471272        0.9858448761
 C          4.3231203510        2.2069807806        0.8436907406
 C          3.7154751799        3.5420347496        0.6284707370
 N          2.2463167739        3.6741649780        1.0361784438
 C          2.0452705228        3.9704317491        2.5203697412
 C          0.6186617523        3.5281973403        2.8302078164
 O          1.7170217247        4.6795460160        0.3367354374
 H          1.0640920763        2.4821441450       -0.2754802312
 C         -0.5064844949        0.9490789254        3.7701856625
 O         -1.4076396412        1.7290422316        3.9930680073
 O         -0.0472174924        0.0245783348        4.6551243346
 C         -0.7336655692        0.1523867538        5.8598858807
 H         -0.3763877809       -0.8933491916       -0.5126004474
 H         -0.3744018280        0.8365637977       -0.5969579062
 H          1.9229523858       -0.9968477142        0.2487827819
 H          1.9358524891        0.2266492097       -0.9982619534
 H         -2.5496316598        5.5611235542       -0.3909502151
 H         -4.4722442702        4.0291719611       -0.4394133819
 H         -4.2196354919        1.7225179086        0.3833847480
 H         -0.3981150060        4.8002549353        0.5349647345
 H         -2.7118206019        0.2073989463        1.9337487308
 H         -0.6772644064       -0.9191022313        1.8564800257
 H          1.7042378900       -0.4843046833        2.5698447911
 H          2.1456694420        1.0943338019        3.2241086392
 H          4.1319680659        0.1504077724        1.1277895994
 H          5.4017027436        2.1651325936        0.8678791478
 H          4.2737562809        4.3133231812        1.1637974977
 H          3.7631166992        3.8071939764       -0.4298606744
 H          2.7886573146        3.4210711125        3.1009349050
 H          2.1990416619        5.0375647093        2.6919389518
 H         -0.0702479599        4.3770728514        2.8041911859
 H          0.5424176722        3.1100455257        3.8378799819
 H         -0.3573995750       -0.5823157112        6.5742106946
 H         -0.5839448520        1.1623884301        6.2469034486
 H         -1.7976827277       -0.0130314991        5.6777337944
  50
    -0.034711 !GC
 C          0.0000000000        0.0000000000        0.0000000000
 C          1.5459315454        0.0000000000        0.0000000000
 C         -2.3931397116        4.6208792288        0.0000000000
 C         -3.4705358789        3.7614470098       -0.0844815679
 C         -3.3548005193        2.4691813567        0.3712032265
 C         -2.1611231792        2.0164216756        0.9346540123
 C         -1.0821403975        2.9086568967        1.0749015789
 C         -1.2114966320        4.1903843966        0.5701765637
 N         -2.0069910820        0.6700073799        1.2663857549
 C         -0.6580562510        0.1077382903        1.4053198879
 C          0.1297918590        1.0310128995        2.3893303798
 C          0.2082446227        2.4879793007        1.7728748261
 C          1.6059654671        0.5850420767        2.4147731623
 C          2.1266622229        1.0315055236        1.0172715565
 C          1.4186116706        2.4137116573        0.7666442683
 C          3.6282572154        1.0790349018        0.9928849686
 C          4.3318629481        2.1888381046        0.8516450596
 C          3.7316329897        3.5260452446        0.6309755009
 N          2.2647488915        3.6644919170        1.0440425576
 C          2.0701603138        3.9596780449        2.5291351771
 C          0.6465563949        3.5119712251        2.8468749248
 O          1.7376499781        4.6724770132        0.3471721615
 H          1.0664496095        2.4881265616       -0.2639719056
 C         -0.4914693572        0.9352903802        3.7795802267
 O          0.0504061296        0.2469604182        4.6169442757
 O         -1.6366096659        1.6401746878        3.9873167768
 C         -2.0935730728        1.4120590092        5.2832470035
 H         -0.3749947293       -0.9003895818       -0.5012639845
 H         -0.3707106397        0.8289441247       -0.6102022673
 H          1.9228028055       -0.9977683841        0.2455654360
 H          1.9359504332        0.2291509325       -0.9976903904
 H         -2.4743688959        5.6259832797       -0.3811261939
 H         -4.3953851457        4.0985524642       -0.5235978373
 H         -4.1797407151        1.7831034165        0.2821600007
 H         -0.3556570795        4.8440344005        0.5977263447
 H         -2.7121848143       -0.0068267288        0.9775070364
 H         -0.7303100098       -0.8872282627        1.8687173798
 H          1.6911243997       -0.4945803471        2.5606134412
 H          2.1528727863        1.0750763053        3.2235918918
 H          4.1270204138        0.1339263556        1.1376044468
 H          5.4101229446        2.1406794684        0.8794026232
 H          4.2946617194        4.2976745101        1.1610096138
 H          3.7769095216        3.7854827140       -0.4290591179
 H          2.8188475105        3.4122584442        3.1046583314
 H          2.2221586746        5.0269197710        2.7007879213
 H         -0.0436501179        4.3601063496        2.8368665038
 H          0.5820278536        3.0839937443        3.8503133891
 H         -3.0067827212        1.9887729193        5.4446852151
 H         -2.2809927318        0.3469815390        5.4256370396
 H         -1.3302366448        1.7550227659        5.9861766886
  50
    -0.034392 !GC
 C          0.0000000000        0.0000000000        0.0000000000
 C          1.5457438108        0.0000000000        0.0000000000
 C         -2.4429875925        4.5894583506        0.0000000000
 C         -3.5111078923        3.7174075977       -0.0710130807
 C         -3.3775275366        2.4288676259        0.3904138232
 C         -2.1751119806        1.9905926975        0.9471851131
 C         -1.1035861057        2.8968697728        1.0688947302
 C         -1.2513106951        4.1746149197        0.5603556139
 N         -2.0109161755        0.6447332899        1.2879701189
 C         -0.6498455448        0.1045941663        1.4077936515
 C          0.1281256962        1.0462886468        2.3768386516
 C          0.1994442979        2.4946822041        1.7509598629
 C          1.6094036003        0.6183386634        2.4150431715
 C          2.1243556819        1.0480941370        1.0084966385
 C          1.4067210663        2.4225530901        0.7419922302
 C          3.6252747159        1.1030752205        0.9750925246
 C          4.3234696606        2.2124838251        0.8067350893
 C          3.7180411069        3.5444730258        0.5701920695
 N          2.2582524359        3.6963082175        1.0040374273
 C          2.0892010308        3.9954479816        2.4920052638
 C          0.6618667964        3.5768840845        2.8288320122
 O          1.7314157965        4.7093593218        0.3142298534
 H          1.0519628997        2.4844039156       -0.2884885344
 C         -0.5374867908        0.9542513537        3.7432762766
 O         -0.2160014331        1.7975057103        4.5529420760
 O         -1.4117544633       -0.0581758529        3.9822244971
 C         -1.8201446210       -0.0165173039        5.3126239147
 H         -0.3758162367       -0.9002161415       -0.5010811177
 H         -0.3727186097        0.8297040516       -0.6078287767
 H          1.9225816381       -0.9946003964        0.2581476521
 H          1.9355907148        0.2169825320       -1.0004851477
 H         -2.5391648211        5.5920028712       -0.3842229081
 H         -4.4434871336        4.0423530217       -0.5033442735
 H         -4.1965729762        1.7343653894        0.3127909745
 H         -0.4026883824        4.8381150124        0.5798642916
 H         -2.6810019849       -0.0348164589        0.9310996770
 H         -0.6968163993       -0.8899904576        1.8759942708
 H          1.7030625877       -0.4573783357        2.5822395643
 H          2.1490645863        1.1265997505        3.2171738034
 H          4.1289763695        0.1628482647        1.1342110887
 H          5.4022112760        2.1684124522        0.8265809965
 H          4.2916410006        4.3254556252        1.0746826714
 H          3.7455697896        3.7830563568       -0.4954374676
 H          2.8343634740        3.4347587320        3.0591381296
 H          2.2632622403        5.0600417154        2.6596422294
 H         -0.0140042112        4.4367410769        2.8278121984
 H          0.5910962962        3.1444159602        3.8319222247
 H         -2.3187924977        0.9365131363        5.5024478570
 H         -2.5080208206       -0.8428109651        5.5013463368
 H         -0.9424657563       -0.1045315272        5.9569533589
  50
    -0.034308 !GC
 C          0.0000000000        0.0000000000        0.0000000000
 C          1.5465733503        0.0000000000        0.0000000000
 C         -2.3321001550        4.6601756927        0.0000000000
 C         -3.4169939485        3.8129958247       -0.1089492782
 C         -3.3212619929        2.5152768199        0.3356582285
 C         -2.1405308841        2.0451044870        0.9118431332
 C         -1.0546664065        2.9236718938        1.0771285603
 C         -1.1634902591        4.2113562227        0.5830126966
 N         -2.0057339823        0.6959425868        1.2373038034
 C         -0.6691567057        0.1137490031        1.4025663013
 C          0.1294276481        1.0217934311        2.3948989309
 C          0.2223056563        2.4828295873        1.7882232739
 C          1.5994390865        0.5536329165        2.4138062533
 C          2.1319219305        1.0144301271        1.0272350362
 C          1.4404083085        2.4075380420        0.7929959139
 C          3.6341436424        1.0488307851        1.0135864083
 C          4.3474947826        2.1557800417        0.9002848745
 C          3.7589318136        3.5016013554        0.7000889790
 N          2.2879427806        3.6391871180        1.0987260671
 C          2.0753787846        3.9140622029        2.5855220675
 C          0.6471053075        3.4642630939        2.8825864744
 O          1.7717417846        4.6583752973        0.4101098485
 H          1.0977994748        2.5010848320       -0.2393299080
 C         -0.4572437256        0.9821159200        3.8032385863
 O         -1.4964457361        0.3697354361        3.9257589613
 O          0.1624550727        1.6414026649        4.8190844193
 C         -0.5889483621        1.5193352968        5.9853397540
 H         -0.3737437976       -0.9007324093       -0.5015226411
 H         -0.3675043327        0.8277253464       -0.6138673111
 H          1.9234324067       -1.0008895605        0.2325844176
 H          1.9364379994        0.2414532386       -0.9948455739
 H         -2.3970294121        5.6695538499       -0.3725917595
 H         -4.3315678576        4.1638219002       -0.5586495271
 H         -4.1516770326        1.8385603923        0.2278537771
 H         -0.3012946463        4.8555783395        0.6295066652
 H         -2.7195582686        0.0275047426        0.9491817085
 H         -0.7638963740       -0.8809890594        1.8614205129
 H          1.6705051994       -0.5291923724        2.5426949275
 H          2.1469862689        1.0226935889        3.2347843342
 H          4.1241142152        0.0970978496        1.1439330397
 H          5.4251141757        2.0986769941        0.9356106686
 H          4.3198397371        4.2586615224        1.2530517814
 H          3.8185338003        3.7825167283       -0.3538054546
 H          2.8169848417        3.3575598095        3.1615969343
 H          2.2272298363        4.9785847975        2.7735864787
 H         -0.0390543891        4.3153803527        2.8712191441
 H          0.5776446317        3.0280340354        3.8820157477
 H         -0.1147084865        2.0903217993        6.7856210287
 H         -1.5959927995        1.8987320290        5.7999412211
 H         -0.6424909850        0.4635078611        6.2601760529
  50
    -0.033145 !GC
 C          0.0000000000        0.0000000000        0.0000000000
 C          1.5459918526        0.0000000000        0.0000000000
 C         -2.4044773802        4.6067944858        0.0000000000
 C         -3.4917123480        3.7569539467       -0.0503062768
 C         -3.3744759953        2.4647151172        0.4047800061
 C         -2.1661929793        1.9984279861        0.9265678486
 C         -1.0809235021        2.8871192649        1.0459026681
 C         -1.2125408964        4.1689059335        0.5423876896
 N         -2.0179162152        0.6377928986        1.2533145997
 C         -0.6620299019        0.0958771660        1.4062005839
 C          0.1214529380        1.0228776281        2.3888699198
 C          0.2004777570        2.4751759047        1.7645829182
 C          1.5974217715        0.5726543424        2.4148453527
 C          2.1265921647        1.0254890346        1.0234552078
 C          1.4248154033        2.4103058665        0.7767192754
 C          3.6281365268        1.0697058987        1.0055314302
 C          4.3349918416        2.1800061024        0.8857053555
 C          3.7412921708        3.5235712121        0.6853924330
 N          2.2685421237        3.6631411653        1.0774552130
 C          2.0522917851        3.9478089440        2.5621672651
 C          0.6161686801        3.5208384073        2.8506733203
 O          1.7564019976        4.6799323505        0.3816572160
 H          1.0877132200        2.4946043505       -0.2582486854
 C         -0.4841471680        0.9930442980        3.7894278359
 O         -1.5593490445        0.4427778261        3.8942801731
 O          0.1738066864        1.5876323376        4.8219255215
 C         -0.5933589579        1.4943707443        5.9809166033
 H         -0.3755878995       -0.8953958391       -0.5096601421
 H         -0.3709235055        0.8337811698       -0.6033087592
 H          1.9231381967       -0.9992477032        0.2389921897
 H          1.9357466767        0.2357367945       -0.9962616368
 H         -2.4876021950        5.6116309758       -0.3812506048
 H         -4.4255624018        4.1004169884       -0.4646114818
 H         -4.2037236752        1.7817931509        0.3346211479
 H         -0.3535335309        4.8189471885        0.5580586384
 H         -2.6614956848        0.2432290423        1.9487541925
 H         -0.7169238208       -0.9074277317        1.8535338957
 H          1.6816830302       -0.5076557739        2.5556671296
 H          2.1374655111        1.0572482047        3.2316969430
 H          4.1239549274        0.1211984462        1.1369895845
 H          5.4130489825        2.1281329915        0.9179014707
 H          4.3001690896        4.2813353411        1.2393759685
 H          3.8035985842        3.8050561813       -0.3682539908
 H          2.7808172202        3.3831861900        3.1468728121
 H          2.2176482320        5.0111082054        2.7460859323
 H         -0.0608247176        4.3789133296        2.8158026313
 H          0.5247684702        3.1034821785        3.8566416385
 H         -1.5712399438        1.9463005532        5.8019493412
 H         -0.7203090979        0.4407824073        6.2381268630
 H         -0.0825243249        2.0171158962        6.7921377636
  50
    -0.032483 !GC
 C          0.0000000000        0.0000000000        0.0000000000
 C          1.5465594720        0.0000000000        0.0000000000
 C         -2.3309026805        4.6599396422        0.0000000000
 C         -3.4158088523        3.8128998361       -0.1099250557
 C         -3.3206728221        2.5151449262        0.3347796943
 C         -2.1405723194        2.0447932012        0.9120726671
 C         -1.0548037502        2.9232208263        1.0782306377
 C         -1.1629033628        4.2109519554        0.5840361905
 N         -2.0059703216        0.6955910983        1.2375446424
 C         -0.6692034819        0.1133568998        1.4025106128
 C          0.1292177395        1.0207526773        2.3955493045
 C          0.2219752667        2.4819317428        1.7892036390
 C          1.5993625432        0.5529048087        2.4142129877
 C          2.1317394787        1.0143273668        1.0277922337
 C          1.4399834890        2.4073549689        0.7940593558
 C          3.6339550541        1.0492246139        1.0138431801
 C          4.3470596093        2.1562861428        0.9000652781
 C          3.7583398619        3.5020573513        0.6999393596
 N          2.2876667133        3.6398671743        1.0994500203
 C          2.0760167279        3.9141150812        2.5865280959
 C          0.6474941742        3.4653946239        2.8841157889
 O          1.7712865335        4.6594576220        0.4115613366
 H          1.0971406941        2.5009521164       -0.2381883611
 C         -0.4581385673        0.9797091836        3.8035949195
 O         -1.5070957967        0.3834869987        3.9221759342
 O          0.1713132018        1.6229756235        4.8235721516
 C         -0.5819573251        1.5051824346        5.9890740861
 H         -0.3736611599       -0.9005826389       -0.5018519705
 H         -0.3674811308        0.8279313127       -0.6135930411
 H          1.9235194542       -1.0009047080        0.2323537841
 H          1.9364867541        0.2418570051       -0.9947158557
 H         -2.3952584902        5.6693197830       -0.3727668650
 H         -4.3299091920        4.1638842457       -0.5605727921
 H         -4.1510517784        1.8385299218        0.2261245247
 H         -0.3004612256        4.8547910731        0.6307277838
 H         -2.7194459322        0.0270409461        0.9488653374
 H         -0.7639270116       -0.8816163313        1.8608676855
 H          1.6706138268       -0.5299564244        2.5426173821
 H          2.1468263729        1.0217125090        3.2353870977
 H          4.1241906473        0.0976362411        1.1443363823
 H          5.4247066762        2.0993725323        0.9351059315
 H          4.3196557968        4.2592737454        1.2522711234
 H          3.8171701530        3.7826512651       -0.3540747786
 H          2.8174700409        3.3567037487        3.1619146533
 H          2.2289622800        4.9783932277        2.7750942853
 H         -0.0378094297        4.3172153760        2.8731267091
 H          0.5778389830        3.0290385842        3.8835056105
 H         -0.0799396592        2.0465860070        6.7938319925
 H         -1.5821737499        1.9068581960        5.8219942504
 H         -0.6434433458        0.4476203086        6.2572908229
  50
    -0.031530 !GC
 C          0.0000000000        0.0000000000        0.0000000000
 C          1.5457232458        0.0000000000        0.0000000000
 C         -2.4726261072        4.5816665237        0.0000000000
 C         -3.5500765850        3.7185797609       -0.0284009304
 C         -3.4108631142        2.4311273673        0.4338608514
 C         -2.1904959289        1.9824060972        0.9433264904
 C         -1.1128058220        2.8853628656        1.0369873306
 C         -1.2673954717        4.1616333474        0.5268168709
 N         -2.0241249405        0.6221189699        1.2714593038
 C         -0.6582168763        0.1005186039        1.4064266631
 C          0.1162599365        1.0464610503        2.3754044883
 C          0.1849134449        2.4911938672        1.7351934623
 C          1.5961468938        0.6140630236        2.4125199426
 C          2.1167871373        1.0435522801        1.0085877804
 C          1.4001230276        2.4162440780        0.7345653242
 C          3.6178831380        1.1015219885        0.9854551635
 C          4.3132977977        2.2144033264        0.8279509255
 C          3.7036638570        3.5440367441        0.5870479932
 N          2.2358540838        3.6795749751        0.9981578068
 C          2.0371075388        3.9897528343        2.4797754867
 C          0.6148520602        3.5399775121        2.8001677686
 O          1.7040564786        4.6770366383        0.2897250730
 H          1.0512929644        2.4740935856       -0.2982397022
 C         -0.5192691688        0.9903752072        3.7598937531
 O         -1.4016183958        1.7934671192        3.9757309138
 O         -0.0814375018        0.0642818253        4.6540018745
 C         -0.7666846289        0.2181260566        5.8565900436
 H         -0.3764775292       -0.8991104717       -0.5025004885
 H         -0.3736633318        0.8297146968       -0.6070647949
 H          1.9235851725       -0.9939170038        0.2591199240
 H          1.9357078707        0.2170130408       -1.0004070337
 H         -2.5744196026        5.5826030232       -0.3870251091
 H         -4.4938277897        4.0480123986       -0.4314796613
 H         -4.2327910046        1.7379631271        0.3795857896
 H         -0.4157709920        4.8217115952        0.5234118138
 H         -2.6605736797        0.2209459981        1.9693247918
 H         -0.6959003075       -0.8993997011        1.8637371730
 H          1.6909405201       -0.4619719204        2.5771405872
 H          2.1328417848        1.1223492101        3.2169489145
 H          4.1233261919        0.1625259217        1.1456589428
 H          5.3919013974        2.1747089041        0.8576946172
 H          4.2618412232        4.3274006241        1.1049894623
 H          3.7470011209        3.7875601536       -0.4768927164
 H          2.7872543816        3.4524187975        3.0628630050
 H          2.1830217576        5.0598531316        2.6390808092
 H         -0.0791301994        4.3848460796        2.7799011073
 H          0.5464074010        3.1205162678        3.8081800349
 H         -0.3971002076       -0.5080553951        6.5831105787
 H         -0.6074798463        1.2330452752        6.2269183864
 H         -1.8323813093        0.0597420408        5.6774842706
  50
    -0.031176 !GC
 C          0.0000000000        0.0000000000        0.0000000000
 C          1.5461264714        0.0000000000        0.0000000000
 C         -2.3387056311        4.6553648406        0.0000000000
 C         -3.4223585324        3.8067806910       -0.1108712597
 C         -3.3253798756        2.5088857747        0.3329894105
 C         -2.1446455088        2.0397690172        0.9100554685
 C         -1.0605863752        2.9200427138        1.0781787885
 C         -1.1703186587        4.2079160531        0.5844571888
 N         -2.0076780115        0.6901664212        1.2328213179
 C         -0.6703049651        0.1108268763        1.4022133074
 C          0.1243038458        1.0206729785        2.3962089520
 C          0.2165048768        2.4804501327        1.7897262584
 C          1.5958189460        0.5560645582        2.4158412147
 C          2.1293887227        1.0170203241        1.0299908862
 C          1.4366558188        2.4093001486        0.7955983342
 C          3.6314734598        1.0503140037        1.0153635162
 C          4.3470235753        2.1553490252        0.8991733199
 C          3.7628294827        3.5030446015        0.7007827106
 N          2.2932900399        3.6525157186        1.1013159693
 C          2.0878100219        3.9274216685        2.5893449994
 C          0.6500985780        3.5101911684        2.8841993704
 O          1.7876607052        4.6795435549        0.4160886518
 H          1.0954804270        2.5026591037       -0.2372167105
 C         -0.4659565745        0.9796964724        3.8035964247
 O         -1.5376470111        0.4234952931        3.9143744171
 O          0.1937032626        1.5706078803        4.8360149689
 C         -0.5627119800        1.4633978614        6.0005930678
 H         -0.3740407907       -0.8997515570       -0.5030710718
 H         -0.3670944000        0.8291341956       -0.6122688189
 H          1.9230923786       -1.0010306686        0.2319039184
 H          1.9357493405        0.2420024456       -0.9948253248
 H         -2.4042816077        5.6647018147       -0.3727732538
 H         -4.3367190567        4.1566471785       -0.5619013387
 H         -4.1545929588        1.8309843009        0.2232780573
 H         -0.3086751757        4.8529151424        0.6315102976
 H         -2.7234603778        0.0216022766        0.9496851745
 H         -0.7635591160       -0.8842642941        1.8604649214
 H          1.6692750615       -0.5263972197        2.5461393651
 H          2.1411042808        1.0269404467        3.2373084468
 H          4.1199255662        0.0978513404        1.1464204724
 H          5.4245929647        2.0954807789        0.9332162395
 H          4.3299819767        4.2571085993        1.2515367704
 H          3.8216098401        3.7834979222       -0.3533489012
 H          2.8153145324        3.3523874487        3.1651952259
 H          2.2631915061        4.9878553981        2.7803880393
 H         -0.0196083309        4.3744901463        2.8646351606
 H          0.5627650575        3.0833039880        3.8863804795
 H         -1.5328238384        1.9379100734        5.8342111385
 H         -0.6995000008        0.4102884932        6.2506385697
 H         -0.0460834042        1.9858627632        6.8087622839
  50
    -0.031124 !GC
 C          0.0000000000        0.0000000000        0.0000000000
 C          1.5457691702        0.0000000000        0.0000000000
 C         -2.4379186253        4.5902445246        0.0000000000
 C         -3.5067014930        3.7191236938       -0.0723710991
 C         -3.3749011852        2.4305285923        0.3894139681
 C         -2.1736318941        1.9912433453        0.9478289969
 C         -1.1015100069        2.8966550419        1.0709646621
 C         -1.2474257686        4.1745790958        0.5622643512
 N         -2.0108554679        0.6450654880        1.2881973224
 C         -0.6501854882        0.1037623037        1.4076688219
 C          0.1285669325        1.0439290774        2.3773563884
 C          0.2009585190        2.4928211704        1.7531437658
 C          1.6096232841        0.6150038051        2.4148309986
 C          2.1254821526        1.0465175896        1.0092356261
 C          1.4086334773        2.4217746885        0.7447906551
 C          3.6264038166        1.1008284715        0.9762402651
 C          4.3249517474        2.2104476812        0.8109612244
 C          3.7197587396        3.5430895965        0.5773527109
 N          2.2594920047        3.6935460530        1.0102032800
 C          2.0888670623        3.9900614497        2.4985328100
 C          0.6614398531        3.5702908659        2.8332947478
 O          1.7328203837        4.7075100990        0.3215593216
 H          1.0547511531        2.4856694560       -0.2858610580
 C         -0.5373504402        0.9532196292        3.7436842021
 O         -0.2040014511        1.7875831985        4.5578126157
 O         -1.4287285437       -0.0457615727        3.9761243461
 C         -1.8392510450       -0.0036253257        5.3058846451
 H         -0.3758028037       -0.8996881316       -0.5019741000
 H         -0.3723658379        0.8302300068       -0.6073129780
 H          1.9226160016       -0.9950378303        0.2563801416
 H          1.9352548047        0.2185093494       -1.0002784780
 H         -2.5325656046        5.5927630961       -0.3847378769
 H         -4.4380470037        4.0446634578       -0.5064411240
 H         -4.1943643578        1.7366656378        0.3105367696
 H         -0.3980268664        4.8371681343        0.5823528813
 H         -2.6811059823       -0.0336649982        0.9300347601
 H         -0.6977194579       -0.8911705127        1.8750418518
 H          1.7025056589       -0.4609624650        2.5806938686
 H          2.1494090490        1.1217723409        3.2178112636
 H          4.1297226990        0.1600358585        1.1329666277
 H          5.4036175901        2.1660540745        0.8313244928
 H          4.2926251447        4.3228565152        1.0845562211
 H          3.7485399510        3.7845256962       -0.4875845598
 H          2.8339574017        3.4289341621        3.0653953446
 H          2.2616670953        5.0545706436        2.6682036424
 H         -0.0151218183        4.4296227514        2.8330142480
 H          0.5901748074        3.1361372272        3.8357458355
 H         -2.3235295259        0.9552473752        5.5032299864
 H         -2.5368266453       -0.8222337189        5.4924825737
 H         -0.9606770298       -0.1083168898        5.9465681754
  50
    -0.029929 !GC
 C          0.0000000000        0.0000000000        0.0000000000
 C          1.5461003551        0.0000000000        0.0000000000
 C         -2.3411605994        4.6557180899        0.0000000000
 C         -3.4244552828        3.8066751077       -0.1103582843
 C         -3.3267115935        2.5087564295        0.3333260342
 C         -2.1455718655        2.0401539150        0.9099527323
 C         -1.0618117472        2.9208522317        1.0775311154
 C         -1.1723371539        4.2086855973        0.5838851648
 N         -2.0080282063        0.6906441843        1.2327713771
 C         -0.6705428847        0.1115382329        1.4020034531
 C          0.1236918281        1.0224547252        2.3953934024
 C          0.2156952417        2.4823187017        1.7889254090
 C          1.5953018863        0.5582273609        2.4157867322
 C          2.1285509104        1.0180598028        1.0293911780
 C          1.4357165282        2.4102399576        0.7947118039
 C          3.6306598781        1.0520266216        1.0142094425
 C          4.3458187493        2.1571462848        0.8963726073
 C          3.7611125463        3.5043835501        0.6963131909
 N          2.2920666697        3.6540211680        1.0983509849
 C          2.0878570250        3.9296879835        2.5864361467
 C          0.6503731181        3.5124111930        2.8824236209
 O          1.7856268001        4.6803394676        0.4128267363
 H          1.0938353377        2.5025845566       -0.2379826390
 C         -0.4665140362        0.9807866638        3.8028240980
 O         -1.5329569762        0.4151779389        3.9153327706
 O          0.1864329595        1.5828757224        4.8330098783
 C         -0.5690282568        1.4720155577        5.9977649913
 H         -0.3739144056       -0.8999957783       -0.5027151200
 H         -0.3673236384        0.8288048207       -0.6125796849
 H          1.9230454605       -1.0008476991        0.2326292674
 H          1.9357818923        0.2414338968       -0.9949392323
 H         -2.4074087792        5.6650492718       -0.3726007222
 H         -4.3391945199        4.1561471579       -0.5609069925
 H         -4.1556615137        1.8305197076        0.2239212588
 H         -0.3108818850        4.8539452644        0.6301758962
 H         -2.7235702824        0.0217550011        0.9493136885
 H         -0.7636144675       -0.8832708769        1.8608905269
 H          1.6691182768       -0.5241663246        2.5466436106
 H          2.1406912140        1.0297371987        3.2368099316
 H          4.1194704984        0.0999919519        1.1468297979
 H          5.4234124284        2.0976830940        0.9300221802
 H          4.3285099218        4.2595568847        1.2451804589
 H          3.8186552890        3.7830099516       -0.3583595334
 H          2.8157729762        3.3549668166        3.1620066617
 H          2.2632369005        4.9902403333        2.7768065914
 H         -0.0194014716        4.3765979612        2.8624176935
 H          0.5634428799        3.0864117439        3.8849470408
 H         -0.0667249241        2.0013827534        6.8094997602
 H         -1.5564803241        1.9043037066        5.8227122367
 H         -0.6737334823        0.4142326946        6.2494959025
  50
    -0.029576 !GC
 C          0.0000000000        0.0000000000        0.0000000000
 C          1.5456455278        0.0000000000        0.0000000000
 C         -2.4041280088        4.6450981177        0.0000000000
 C         -3.4846427876        3.7883793522       -0.0713022088
 C         -3.3660606003        2.4949589846        0.3806298200
 C         -2.1660960374        2.0381506595        0.9272479601
 C         -1.0836808555        2.9285706159        1.0560801005
 C         -1.2165550046        4.2108970203        0.5548034166
 N         -2.0087879458        0.6900562659        1.2421855728
 C         -0.6643448460        0.1242631464        1.4017668543
 C          0.1276346007        1.0547653750        2.3754350436
 C          0.2100170102        2.5090511400        1.7482842498
 C          1.6024801191        0.6031081582        2.4042989493
 C          2.1258640736        1.0360137661        1.0036096073
 C          1.4233083393        2.4190504258        0.7416945117
 C          3.6276345448        1.0760983845        0.9772051446
 C          4.3370075512        2.1804533026        0.8230331660
 C          3.7439090091        3.5188498928        0.5916706245
 N          2.2799895535        3.6727359676        1.0103343569
 C          2.0968912042        3.9765137585        2.4953559971
 C          0.6692407308        3.5494586019        2.8220274038
 O          1.7597478725        4.6831350831        0.3118701189
 H          1.0706184677        2.4875116771       -0.2891125453
 C         -0.4872229557        0.9989299885        3.7697053818
 O         -1.3464843910        1.8172362920        4.0177588163
 O         -0.0534545084        0.0523996951        4.6449157541
 C         -0.7137907246        0.2057297575        5.8614889009
 H         -0.3746656252       -0.9058080688       -0.4917016828
 H         -0.3699624098        0.8221914202       -0.6198687404
 H          1.9226197893       -0.9952062612        0.2556721834
 H          1.9355098119        0.2189802644       -1.0000593281
 H         -2.4881419458        5.6508033547       -0.3787755390
 H         -4.4141041738        4.1283338167       -0.4983503697
 H         -4.1933677426        1.8107980135        0.2988673593
 H         -0.3592087726        4.8629364557        0.5744884513
 H         -2.6408690483       -0.0127471439        0.8615747023
 H         -0.7416427195       -0.8658248222        1.8741386587
 H          1.6831117353       -0.4754126385        2.5602342759
 H          2.1484907557        1.0973147411        3.2112638512
 H          4.1216353102        0.1298788829        1.1309339994
 H          5.4150775603        2.1266730812        0.8493358323
 H          4.3152710676        4.2918084006        1.1109022808
 H          3.7856598578        3.7671907868       -0.4712305816
 H          2.8409213956        3.4217202691        3.0698992275
 H          2.2638735276        5.0424053512        2.6616312002
 H         -0.0102296304        4.4062486439        2.8120821092
 H          0.6003028017        3.1247598975        3.8277380804
 H         -0.3378546850       -0.5443530093        6.5615742378
 H         -0.5148979213        1.2040539604        6.2553095325
 H         -1.7852504689        0.0593592347        5.7109475981
  50
    -0.027819 !GC
 C          0.0000000000        0.0000000000        0.0000000000
 C          1.5466233119        0.0000000000        0.0000000000
 C         -2.3322177580        4.6606439213        0.0000000000
 C         -3.4169248525        3.8132660310       -0.1091497346
 C         -3.3210444135        2.5154860534        0.3353320737
 C         -2.1403800202        2.0454787695        0.9117809537
 C         -1.0546163240        2.9241701891        1.0769037986
 C         -1.1635486277        4.2118821618        0.5829407729
 N         -2.0055192001        0.6962755201        1.2373647993
 C         -0.6689446902        0.1141767280        1.4026475530
 C          0.1296195364        1.0225227331        2.3947434153
 C          0.2225340662        2.4833517964        1.7875011366
 C          1.5996232019        0.5542360315        2.4136833954
 C          2.1320261840        1.0147510173        1.0269189901
 C          1.4405548082        2.4077855793        0.7922057970
 C          3.6342329035        1.0489553134        1.0131552317
 C          4.3478134931        2.1556183572        0.8986881892
 C          3.7597519810        3.5014559134        0.6973887586
 N          2.2891388095        3.6407367835        1.0970029305
 C          2.0778050728        3.9161954372        2.5839810942
 C          0.6489296742        3.4690575278        2.8816620577
 O          1.7735119384        4.6604803535        0.4086659480
 H          1.0978866923        2.5007914783       -0.2401457518
 C         -0.4573842740        0.9837846132        3.8029326848
 O         -1.4981277431        0.3740321744        3.9250936414
 O          0.1631123623        1.6423599741        4.8191455679
 C         -0.5884748203        1.5211258618        5.9853341607
 H         -0.3738049506       -0.9008374760       -0.5013037556
 H         -0.3675328318        0.8276125814       -0.6139892344
 H          1.9234028739       -1.0008235088        0.2328215887
 H          1.9364405788        0.2411243750       -0.9949000026
 H         -2.3973313371        5.6700382265       -0.3724661864
 H         -4.3316126686        4.1641528784       -0.5586591580
 H         -4.1513533898        1.8386673335        0.2275040384
 H         -0.3012046282        4.8558657548        0.6291149284
 H         -2.7188830480        0.0280743110        0.9493463077
 H         -0.7635360798       -0.8804076489        1.8618436059
 H          1.6707031434       -0.5285277512        2.5428796913
 H          2.1472548223        1.0235644624        3.2344359802
 H          4.1240244089        0.0972896784        1.1441947070
 H          5.4253994871        2.0983085724        0.9343646503
 H          4.3216306343        4.2588606254        1.2489547612
 H          3.8187076770        3.7810329719       -0.3569192694
 H          2.8186915902        3.3583841826        3.1597708426
 H          2.2317961014        4.9804732181        2.7718608232
 H         -0.0357107416        4.3213579563        2.8702271911
 H          0.5789839990        3.0332998118        3.8812476640
 H         -1.5985276423        1.8924978561        5.8018865028
 H         -0.6322871198        0.4680845341        6.2701421937
 H         -0.1135319315        2.1024498219        6.7787485084
  50
    -0.026845 !GC
 C          0.0000000000        0.0000000000        0.0000000000
 C          1.5463129443        0.0000000000        0.0000000000
 C         -2.4215628381        4.6083459357        0.0000000000
 C         -3.4941745441        3.7418336403       -0.0719715602
 C         -3.3672440594        2.4519658869        0.3877104640
 C         -2.1666744856        2.0068039342        0.9426981562
 C         -1.0905944807        2.9072989519        1.0652573539
 C         -1.2320275091        4.1868677786        0.5599595988
 N         -2.0085306192        0.6608858186        1.2846583021
 C         -0.6518055114        0.1108057898        1.4068200149
 C          0.1318418034        1.0487598920        2.3742662363
 C          0.2091595000        2.4968841810        1.7483730332
 C          1.6110429390        0.6115566048        2.4115923176
 C          2.1283028369        1.0425523611        1.0062137350
 C          1.4172278230        2.4211461371        0.7423381409
 C          3.6295177151        1.0947265316        0.9758377033
 C          4.3286355781        2.2051934917        0.8173014289
 C          3.7229036985        3.5383259946        0.5856262686
 N          2.2610578059        3.6800209969        1.0151070336
 C          2.0819810062        3.9713781193        2.5035642366
 C          0.6624043449        3.5223116795        2.8377527242
 O          1.7282392931        4.6907760578        0.3267582234
 H          1.0651671092        2.4882508783       -0.2887523085
 C         -0.5415527544        0.9681058097        3.7370382631
 O         -1.4954098854        0.2323804021        3.8645771473
 O         -0.0456552106        1.7743769484        4.7145021204
 C         -0.8443306380        1.6685807272        5.8509329851
 H         -0.3755197453       -0.9020947473       -0.4978050972
 H         -0.3722842244        0.8271830237       -0.6115078645
 H          1.9227086681       -0.9950931395        0.2567815176
 H          1.9361317742        0.2179290982       -1.0002595192
 H         -2.5129463661        5.6121472672       -0.3821757980
 H         -4.4252747054        4.0723739019       -0.5028173509
 H         -4.1904036238        1.7622558965        0.3112581156
 H         -0.3799614453        4.8458057489        0.5805515818
 H         -2.6913344784       -0.0180291417        0.9507567856
 H         -0.7068366976       -0.8819631668        1.8780953825
 H          1.6976636793       -0.4653275011        2.5749012737
 H          2.1574609562        1.1135569701        3.2128899912
 H          4.1320617741        0.1529014235        1.1287614224
 H          5.4073351280        2.1607031282        0.8397857528
 H          4.2910447967        4.3179952369        1.0981015441
 H          3.7545615693        3.7834607607       -0.4782680807
 H          2.8387895903        3.4246416615        3.0690070875
 H          2.2342346263        5.0386748884        2.6748881081
 H         -0.0295585162        4.3690989882        2.8532321680
 H          0.6063405098        3.0694707661        3.8328806312
 H         -0.8438364621        0.6301074186        6.1894860197
 H         -0.4487716277        2.3177084941        6.6343191173
 H         -1.8635512558        1.9672616124        5.5954128639
  50
    -0.026139 !GC
 C          0.0000000000        0.0000000000        0.0000000000
 C          1.5459821378        0.0000000000        0.0000000000
 C         -2.3996818483        4.6100054866        0.0000000000
 C         -3.4743321679        3.7474833908       -0.0869995282
 C         -3.3562854558        2.4557801407        0.3696694883
 C         -2.1633067743        2.0059727101        0.9373098415
 C         -1.0864874250        2.9015530304        1.0778480969
 C         -1.2180601559        4.1827087556        0.5724731267
 N         -2.0096525790        0.6587480265        1.2707591031
 C         -0.6570961755        0.1033295156        1.4059731231
 C          0.1288436650        1.0284255156        2.3889721909
 C          0.2063416788        2.4845272685        1.7726976892
 C          1.6056811423        0.5855507399        2.4155371825
 C          2.1263188458        1.0328186166        1.0181388299
 C          1.4167907700        2.4139888091        0.7673307505
 C          3.6278140826        1.0820460847        0.9931472361
 C          4.3302291805        2.1924745006        0.8505299128
 C          3.7287853012        3.5291754401        0.6300318438
 N          2.2626593993        3.6680993292        1.0459524827
 C          2.0706938699        3.9601656324        2.5321374112
 C          0.6461498887        3.5165931471        2.8509317953
 O          1.7354394837        4.6781884410        0.3521792037
 H          1.0651181702        2.4884645569       -0.2634343858
 C         -0.4934643041        0.9474958457        3.7787549776
 O         -1.4054091790        1.7149498014        4.0006514658
 O         -0.0091942992        0.0485066711        4.6757672683
 C         -0.6951441660        0.1737964758        5.8808929183
 H         -0.3749943724       -0.8987104403       -0.5042905219
 H         -0.3706598319        0.8308363098       -0.6075728426
 H          1.9232254527       -0.9976380794        0.2454864457
 H          1.9356810333        0.2295131407       -0.9977359120
 H         -2.4826705267        5.6147525454       -0.3815376119
 H         -4.3987741103        4.0817906493       -0.5290982684
 H         -4.1792388720        1.7676081456        0.2782885283
 H         -0.3639157188        4.8386600049        0.6021308588
 H         -2.6944201331       -0.0167044261        0.9340842217
 H         -0.7220325177       -0.8935463151        1.8662286629
 H          1.6931540439       -0.4935949346        2.5632306524
 H          2.1478777245        1.0774838119        3.2264678465
 H          4.1275869447        0.1376388177        1.1389126589
 H          5.4085918185        2.1453869299        0.8777820648
 H          4.2929742624        4.3013249710        1.1582075688
 H          3.7717742485        3.7877888414       -0.4303641912
 H          2.8183373739        3.4091578216        3.1056206523
 H          2.2260650119        5.0266263135        2.7059267775
 H         -0.0420200604        4.3664075594        2.8429852047
 H          0.5785158941        3.0862984275        3.8541598909
 H         -0.2852998419       -0.5306040674        6.6073103314
 H         -0.5847359008        1.1969447693        6.2463686211
 H         -1.7523171038       -0.0388577853        5.7075355788
  50
    -0.025783 !GC
 C          0.0000000000        0.0000000000        0.0000000000
 C          1.5459716661        0.0000000000        0.0000000000
 C         -2.4030085158        4.6062289418        0.0000000000
 C         -3.4904482498        3.7566966251       -0.0510257901
 C         -3.3737685167        2.4643404933        0.4038086198
 C         -2.1658896953        1.9976815837        0.9261273968
 C         -1.0804761231        2.8860823847        1.0463912845
 C         -1.2115243559        4.1680280303        0.5431518352
 N         -2.0180367029        0.6368958155        1.2524133639
 C         -0.6622104455        0.0950882553        1.4061499675
 C          0.1210337465        1.0212064556        2.3898380983
 C          0.2004760304        2.4734812785        1.7655541331
 C          1.5970591127        0.5710618109        2.4152932317
 C          2.1272093556        1.0241695063        1.0243831052
 C          1.4254916897        2.4091799864        0.7784467566
 C          3.6287221070        1.0679238618        1.0065892514
 C          4.3358747895        2.1782250526        0.8886219962
 C          3.7425388390        3.5222335787        0.6901453389
 N          2.2694052075        3.6615651132        1.0809502820
 C          2.0520075091        3.9451077211        2.5657230579
 C          0.6154433465        3.5185662814        2.8525107555
 O          1.7580100817        4.6790693341        0.3856797782
 H          1.0891240432        2.4945581840       -0.2566698113
 C         -0.4839926741        0.9907233155        3.7906200490
 O         -1.5610601362        0.4439064627        3.8946843025
 O          0.1791557400        1.5758405728        4.8251182408
 C         -0.5862651157        1.4804975606        5.9850458828
 H         -0.3755372991       -0.8950688568       -0.5102128473
 H         -0.3708137677        0.8341428424       -0.6028193393
 H          1.9228915725       -0.9994974759        0.2383028147
 H          1.9357976689        0.2362832475       -0.9960557608
 H         -2.4856510813        5.6110949674       -0.3812212373
 H         -4.4239583023        4.1004298284       -0.4658446239
 H         -4.2031223527        1.7816198501        0.3330753085
 H         -0.3522012278        4.8176660580        0.5589082511
 H         -2.6622850995        0.2420249575        1.9470463994
 H         -0.7172452553       -0.9085691468        1.8526931266
 H          1.6810589505       -0.5093613638        2.5554767756
 H          2.1370579893        1.0549271650        3.2325906938
 H          4.1241164625        0.1191703685        1.1368823280
 H          5.4137915703        2.1260560133        0.9210781465
 H          4.3010874041        4.2787782743        1.2459148272
 H          3.8060027812        3.8055462556       -0.3627108651
 H          2.7797334678        3.3796344418        3.1506314208
 H          2.2176955594        5.0081824187        2.7507519165
 H         -0.0611330591        4.3769584379        2.8172382606
 H          0.5228685601        3.1009165729        3.8582624541
 H         -0.0759223316        1.9915684203        6.8034503274
 H         -1.5602274316        1.9406608569        5.8057485390
 H         -0.7225054142        0.4249363570        6.2308644327
  50
    -0.024471 !GC
 C          0.0000000000        0.0000000000        0.0000000000
 C          1.5462854402        0.0000000000        0.0000000000
 C         -2.4217348804        4.6085052331        0.0000000000
 C         -3.4943648789        3.7419742815       -0.0718372714
 C         -3.3672291692        2.4519538228        0.3873199691
 C         -2.1665046481        2.0067568242        0.9419042203
 C         -1.0903329726        2.9071964142        1.0643295652
 C         -1.2319210869        4.1868653705        0.5593111941
 N         -2.0083252436        0.6608440711        1.2838695510
 C         -0.6515931716        0.1111080843        1.4069047462
 C          0.1327363223        1.0487815447        2.3741277007
 C          0.2093628709        2.4963447692        1.7473320951
 C          1.6118526784        0.6111907155        2.4110416790
 C          2.1288864467        1.0426827810        1.0057158126
 C          1.4170407012        2.4207571539        0.7408174758
 C          3.6300513567        1.0946965899        0.9752350997
 C          4.3290330582        2.2051819012        0.8163724704
 C          3.7230240754        3.5381519606        0.5846753986
 N          2.2610622808        3.6795268082        1.0139857932
 C          2.0821464325        3.9707487812        2.5024943658
 C          0.6626708122        3.5215596317        2.8369637181
 O          1.7279741696        4.6903529162        0.3259195433
 H          1.0650666377        2.4877892979       -0.2902726843
 C         -0.5411727898        0.9705572202        3.7367352779
 O         -1.5013905166        0.2426657758        3.8623913157
 O         -0.0382281457        1.7698623887        4.7162207922
 C         -0.8371422116        1.6673938971        5.8527976476
 H         -0.3754479526       -0.9022713092       -0.4975720038
 H         -0.3720641290        0.8270062145       -0.6118932540
 H          1.9228258813       -0.9950201604        0.2569451270
 H          1.9359600722        0.2175791078       -1.0003976910
 H         -2.5134057538        5.6125181963       -0.3815640965
 H         -4.4256227175        4.0725896374       -0.5022895296
 H         -4.1903906677        1.7622141551        0.3110373306
 H         -0.3802603417        4.8463255755        0.5811679974
 H         -2.6914952954       -0.0180203432        0.9511889072
 H         -0.7066231187       -0.8817800693        1.8779712254
 H          1.6983209557       -0.4656481402        2.5744832787
 H          2.1581845044        1.1133030285        3.2123235110
 H          4.1326114811        0.1528955743        1.1278153994
 H          5.4076086612        2.1609199618        0.8384395928
 H          4.2910794649        4.3178543449        1.0973458326
 H          3.7547555340        3.7835240230       -0.4792156809
 H          2.8391306021        3.4239766426        3.0676612785
 H          2.2344618548        5.0380001320        2.6740412713
 H         -0.0291853240        4.3684112751        2.8530407798
 H          0.6070715301        3.0683313390        3.8319736664
 H         -0.8513607041        0.6278974197        6.1876990269
 H         -0.4277006794        2.3071398815        6.6368152464
 H         -1.8520650257        1.9852590788        5.6035206912
  50
    -0.024038 !GC
 C          0.0000000000        0.0000000000        0.0000000000
 C          1.5460083803        0.0000000000        0.0000000000
 C         -2.4612691710        4.5575881219        0.0000000000
 C         -3.5356927354        3.6913215724       -0.0424993244
 C         -3.3989681779        2.4048203046        0.4228432259
 C         -2.1844023943        1.9602101131        0.9495881715
 C         -1.1101346694        2.8654812274        1.0548575790
 C         -1.2614510614        4.1410909394        0.5417974434
 N         -2.0212119677        0.6017170065        1.2956222230
 C         -0.6510113930        0.0841736854        1.4088004047
 C          0.1201525997        1.0230341975        2.3871826468
 C          0.1845151771        2.4703409094        1.7580884281
 C          1.6011695053        0.5953825261        2.4196071124
 C          2.1197334767        1.0391937139        1.0192179685
 C          1.3975688033        2.4115125110        0.7585818624
 C          3.6205551919        1.1038367254        0.9977992198
 C          4.3103154375        2.2221095197        0.8544800030
 C          3.6934969973        3.5510700147        0.6271576656
 N          2.2231442474        3.6708082771        1.0334864064
 C          2.0139482358        3.9692763610        2.5159546310
 C          0.5958976369        3.4991138209        2.8268216312
 O          1.6848202640        4.6674989253        0.3289332878
 H          1.0495558701        2.4771251715       -0.2740669476
 C         -0.5242462397        0.9349422878        3.7666806939
 O         -0.0445351147        0.1696719628        4.5750769904
 O         -1.6048920546        1.7279826751        3.9972527103
 C         -2.0899427617        1.4902154557        5.2812303126
 H         -0.3768388107       -0.8933611193       -0.5123443060
 H         -0.3742226750        0.8364652935       -0.5972211621
 H          1.9233894406       -0.9966910091        0.2489526958
 H          1.9362088855        0.2268101763       -0.9981805967
 H         -2.5606388597        5.5582417657       -0.3882572766
 H         -4.4754184402        4.0181012133       -0.4570206920
 H         -4.2187218634        1.7097381057        0.3611827959
 H         -0.4113957315        4.8030685817        0.5471093488
 H         -2.5910091844        0.2577009867        2.0772495541
 H         -0.6826761639       -0.9207274382        1.8560839878
 H          1.6997044644       -0.4819215669        2.5737198054
 H          2.1393127684        1.0982319729        3.2264339693
 H          4.1304189070        0.1654491334        1.1470935225
 H          5.3889479285        2.1875846181        0.8845042835
 H          4.2438093068        4.3318324491        1.1570738374
 H          3.7397343229        3.8078127284       -0.4334081203
 H          2.7685370975        3.4379690870        3.0987119965
 H          2.1451238099        5.0400776293        2.6827069052
 H         -0.1083537265        4.3354157760        2.8088263429
 H          0.5307477634        3.0730724585        3.8312553909
 H         -2.9778175403        2.1057752782        5.4418456729
 H         -2.3564020371        0.4363448383        5.3749089849
 H         -1.3239665103        1.7586644807        6.0113928340
  50
    -0.022902 !GC
 C          0.0000000000        0.0000000000        0.0000000000
 C          1.5458077769        0.0000000000        0.0000000000
 C         -2.4270496187        4.6061864930        0.0000000000
 C         -3.4988647109        3.7387351956       -0.0730642403
 C         -3.3707078881        2.4485026615        0.3851514443
 C         -2.1697903222        2.0038760052        0.9397692232
 C         -1.0949523363        2.9056259984        1.0648895188
 C         -1.2371847233        4.1851730766        0.5596720860
 N         -2.0101425320        0.6573953363        1.2783324135
 C         -0.6531796755        0.1096464372        1.4066222575
 C          0.1278777665        1.0496648247        2.3745584482
 C          0.2047950406        2.4963220295        1.7488006237
 C          1.6082100168        0.6148309199        2.4125420362
 C          2.1264731537        1.0456721875        1.0077903605
 C          1.4144738610        2.4236012400        0.7431018818
 C          3.6275679866        1.0955901933        0.9756890670
 C          4.3293518987        2.2033900617        0.8120432924
 C          3.7281575632        3.5383810490        0.5811692197
 N          2.2686561359        3.6934115108        1.0148656196
 C          2.0996604412        3.9837883821        2.5048428856
 C          0.6691576101        3.5726067287        2.8376175452
 O          1.7469623791        4.7133320840        0.3313291262
 H          1.0635630819        2.4908058210       -0.2883422134
 C         -0.5485598293        0.9741479249        3.7366845052
 O         -1.5124699175        0.2513262203        3.8640961286
 O         -0.0378286981        1.7663682555        4.7173558509
 C         -0.8347143559        1.6657952688        5.8555580837
 H         -0.3753188857       -0.9018027834       -0.4985267380
 H         -0.3718502655        0.8276520192       -0.6112401827
 H          1.9224476988       -0.9951855616        0.2562868913
 H          1.9354017586        0.2182390690       -1.0003451680
 H         -2.5193419339        5.6102621470       -0.3813094787
 H         -4.4301001350        4.0686291108       -0.5039628356
 H         -4.1930692814        1.7579946808        0.3075258888
 H         -0.3865531384        4.8461894926        0.5838750845
 H         -2.6968396497       -0.0213155347        0.9501263335
 H         -0.7077538798       -0.8832667914        1.8774946604
 H          1.6965417456       -0.4616273936        2.5775881060
 H          2.1524350965        1.1184775827        3.2143461657
 H          4.1281029066        0.1529444247        1.1304099886
 H          5.4078839125        2.1556234407        0.8316475364
 H          4.3040193079        4.3152797512        1.0892352807
 H          3.7570276277        3.7816600321       -0.4832946339
 H          2.8407808052        3.4151924914        3.0693310630
 H          2.2791612194        5.0463815702        2.6793505313
 H         -0.0018265373        4.4364154758        2.8405331015
 H          0.5941213161        3.1332997996        3.8376132645
 H         -0.8597582274        0.6229731189        6.1805750165
 H         -0.4196858618        2.2939323396        6.6460727265
 H         -1.8465912340        1.9937726090        5.6082383480
  50
    -0.021763 !GC
 C          0.0000000000        0.0000000000        0.0000000000
 C          1.5463060052        0.0000000000        0.0000000000
 C         -2.3767148437        4.6372127095        0.0000000000
 C         -3.4552393932        3.7801116265       -0.0936446310
 C         -3.3442584393        2.4853766697        0.3562757112
 C         -2.1542217954        2.0269092102        0.9227724188
 C         -1.0735365453        2.9166342198        1.0698816519
 C         -1.1981846855        4.2012889538        0.5723675059
 N         -2.0085056602        0.6789254173        1.2556987817
 C         -0.6620110225        0.1126440749        1.4041362149
 C          0.1281896900        1.0368943784        2.3833782490
 C          0.2141859029        2.4899503966        1.7677158749
 C          1.6030807492        0.5841111853        2.4130418390
 C          2.1295349727        1.0299134233        1.0177037273
 C          1.4287861326        2.4161428096        0.7683897241
 C          3.6312475365        1.0717014217        0.9958659973
 C          4.3393428733        2.1793538656        0.8597005732
 C          3.7452847887        3.5204933627        0.6454655413
 N          2.2794427689        3.6664014284        1.0600628351
 C          2.0865888131        3.9473221713        2.5488398069
 C          0.6576066289        3.5134501498        2.8628800035
 O          1.7610621489        4.6866719464        0.3745959211
 H          1.0830880331        2.4973119114       -0.2638949332
 C         -0.5037611444        0.9824755951        3.7690195251
 O         -1.3797244634        1.7925368917        3.9834927057
 O         -0.0346983580        0.0969812800        4.6884706879
 C         -0.6631344433        0.3157940707        5.9119080259
 H         -0.3746220194       -0.9014986046       -0.4995190109
 H         -0.3693585559        0.8274907831       -0.6130251273
 H          1.9229140050       -0.9981622102        0.2443992411
 H          1.9359373222        0.2297579519       -0.9977004183
 H         -2.4545005141        5.6444664091       -0.3760235959
 H         -4.3774854643        4.1212701701       -0.5351650916
 H         -4.1707266921        1.8019504082        0.2613483809
 H         -0.3410905107        4.8529841283        0.6083285952
 H         -2.7083883820        0.0058798742        0.9458202621
 H         -0.7378175477       -0.8806374857        1.8705314125
 H          1.6809773807       -0.4957265352        2.5608301425
 H          2.1483933799        1.0695880499        3.2255415829
 H          4.1260730857        0.1241080519        1.1373976096
 H          5.4174045215        2.1266137587        0.8882999810
 H          4.3133147376        4.2867205313        1.1780983186
 H          3.7910173152        3.7843092753       -0.4135436384
 H          2.8288943023        3.3856228532        3.1188515963
 H          2.2505202443        5.0110082187        2.7315901907
 H         -0.0231040898        4.3693580386        2.8637472082
 H          0.5872385420        3.0696018532        3.8600750799
 H         -0.2560810319       -0.3687247662        6.6583775632
 H         -0.4883453890        1.3496786798        6.2174652709
 H         -1.7359666444        0.1474459598        5.7937353020
  50
    -0.021054 !GC
 C          0.0000000000        0.0000000000        0.0000000000
 C          1.5467620941        0.0000000000        0.0000000000
 C         -2.3854205995        4.6158144497        0.0000000000
 C         -3.4715697085        3.7659599016       -0.0692870509
 C         -3.3601918640        2.4718436700        0.3814685519
 C         -2.1594840080        2.0036968968        0.9188298121
 C         -1.0743672016        2.8908053615        1.0528216124
 C         -1.2000915807        4.1750385200        0.5546254821
 N         -2.0198508711        0.6417206378        1.2553176767
 C         -0.6653790366        0.0960657582        1.4044672649
 C          0.1195458067        1.0185603953        2.3904942368
 C          0.2034046699        2.4683329490        1.7718886771
 C          1.5938038068        0.5625798000        2.4178042499
 C          2.1256730965        1.0197381785        1.0287390558
 C          1.4255151225        2.4062543808        0.7846662877
 C          3.6273973555        1.0670386890        1.0186430674
 C          4.3303497245        2.1807434291        0.9050017712
 C          3.7297276199        3.5209604993        0.7001863645
 N          2.2560521252        3.6453444562        1.0930618639
 C          2.0306668880        3.9183909923        2.5786291527
 C          0.6044610404        3.4561161880        2.8672582503
 O          1.7335716454        4.6594013354        0.4014351724
 H          1.0895272955        2.4942569187       -0.2503506500
 C         -0.4977473117        0.9960820951        3.7857150053
 O          0.1801918479        1.3950601405        4.7077440511
 O         -1.7503330476        0.4802461264        3.9226302918
 C         -2.1049988312        0.4681412175        5.2701035073
 H         -0.3751733989       -0.8958599861       -0.5091150201
 H         -0.3705138336        0.8328496316       -0.6047082901
 H          1.9240590173       -1.0001163656        0.2349757247
 H          1.9367929887        0.2399813897       -0.9951003938
 H         -2.4645822484        5.6224573285       -0.3772652101
 H         -4.4002709169        4.1113538189       -0.4933152458
 H         -4.1890034624        1.7895944393        0.3006616353
 H         -0.3408004468        4.8245169021        0.5817602842
 H         -2.5600918334        0.2988459044        2.0586597647
 H         -0.7279164627       -0.9072046857        1.8511256689
 H          1.6738228533       -0.5187614190        2.5531954771
 H          2.1373297110        1.0412805920        3.2356621417
 H          4.1257649666        0.1201392273        1.1518089835
 H          5.4083910267        2.1338685136        0.9428924342
 H          4.2812410078        4.2845508599        1.2535603717
 H          3.7904270204        3.8004369695       -0.3540174849
 H          2.7739856224        3.3696642392        3.1598513755
 H          2.1699014333        4.9848273854        2.7660781373
 H         -0.0896355278        4.3007192208        2.8495112144
 H          0.5314063141        3.0186093684        3.8660181906
 H         -3.0970592940        0.0272708405        5.3835269127
 H         -1.3695399067       -0.1170042147        5.8260905731
 H         -2.1076412403        1.4952687869        5.6421802084
  50
    -0.018729 !GC
 C          0.0000000000        0.0000000000        0.0000000000
 C          1.5460452207        0.0000000000        0.0000000000
 C         -2.4192147576        4.6189610742        0.0000000000
 C         -3.5061743958        3.7685273582       -0.0453005049
 C         -3.3856361428        2.4761202509        0.4082544331
 C         -2.1746178550        2.0109673387        0.9247907134
 C         -1.0887436030        2.8998146866        1.0390069880
 C         -1.2242437239        4.1814732682        0.5362997858
 N         -2.0217716906        0.6491239374        1.2438334567
 C         -0.6684646900        0.1053303369        1.4028657291
 C          0.1164839612        1.0347581834        2.3839696599
 C          0.1959247803        2.4860934936        1.7519401134
 C          1.5909284794        0.5811784047        2.4106787265
 C          2.1199327134        1.0258314410        1.0162630483
 C          1.4165339423        2.4080848304        0.7576744320
 C          3.6217388707        1.0730040925        1.0025233740
 C          4.3249691927        2.1845322530        0.8717153945
 C          3.7240337289        3.5213953085        0.6485684962
 N          2.2510893639        3.6505392675        1.0424937422
 C          2.0316703511        3.9490655044        2.5235221191
 C          0.6092108588        3.4846683400        2.8246202532
 O          1.7250441436        4.6512680032        0.3344769797
 H          1.0734802250        2.4815553235       -0.2761395610
 C         -0.4852488175        1.0030876835        3.7867851175
 O          0.2118489174        1.3351062147        4.7205171230
 O         -1.7840286531        0.6110169550        3.9030855306
 C         -2.1633073774        0.6508861824        5.2432678345
 H         -0.3754056669       -0.8999337537       -0.5017749787
 H         -0.3712299476        0.8281226896       -0.6108509108
 H          1.9239384636       -0.9969834983        0.2470796434
 H          1.9361691943        0.2285859066       -0.9977782240
 H         -2.5059222272        5.6237237740       -0.3807095144
 H         -4.4423996741        4.1116169739       -0.4545598939
 H         -4.2144007887        1.7922749266        0.3414729407
 H         -0.3654329682        4.8319493487        0.5454880750
 H         -2.6156545027        0.2486823858        1.9793483778
 H         -0.7312214536       -0.8948990290        1.8558161902
 H          1.6745967848       -0.4987351876        2.5550265107
 H          2.1347477012        1.0699327513        3.2225995171
 H          4.1200972338        0.1279134248        1.1481861938
 H          5.4030484592        2.1379350595        0.9083664267
 H          4.2763171947        4.2929463689        1.1900326297
 H          3.7827841872        3.7856424556       -0.4096487878
 H          2.7795273272        3.4134565830        3.1111686296
 H          2.1674475644        5.0189873382        2.6923975823
 H         -0.0903214853        4.3246712398        2.7994950215
 H          0.5395565898        3.0634139791        3.8307121812
 H         -2.0590755508        1.6723048812        5.6157302339
 H         -3.1997793965        0.3221245894        5.3370122418
 H         -1.5085189600       -0.0117999948        5.8134920653
  50
    -0.018094 !GC
 C          0.0000000000        0.0000000000        0.0000000000
 C          1.5463490277        0.0000000000        0.0000000000
 C         -2.3727990059        4.6412043015        0.0000000000
 C         -3.4519780923        3.7849466743       -0.0937343879
 C         -3.3418627475        2.4900157621        0.3557843870
 C         -2.1520986105        2.0305309401        0.9220123688
 C         -1.0706984616        2.9194275185        1.0693889853
 C         -1.1945219173        4.2041388105        0.5720780210
 N         -2.0076771461        0.6822954388        1.2543434280
 C         -0.6620854351        0.1147517946        1.4044190769
 C          0.1294187844        1.0388083336        2.3829796936
 C          0.2166429036        2.4920194656        1.7675125747
 C          1.6040487741        0.5848280333        2.4132208461
 C          2.1306079888        1.0290494740        1.0174818634
 C          1.4315787527        2.4162474795        0.7684750850
 C          3.6323505843        1.0691219350        0.9951505254
 C          4.3418269839        2.1756349435        0.8569580476
 C          3.7495316306        3.5173966935        0.6420478573
 N          2.2847945613        3.6672170040        1.0594653821
 C          2.0953781989        3.9472724091        2.5488584970
 C          0.6638518055        3.5226877416        2.8636720912
 O          1.7687099814        4.6901109009        0.3761385131
 H          1.0860338715        2.4980605171       -0.2637958950
 C         -0.5017551269        0.9917738874        3.7692440267
 O         -1.4110378636        1.7698178473        3.9641480579
 O          0.0061762001        0.1521894692        4.7110313194
 C         -0.6346285148        0.3725495590        5.9277745937
 H         -0.3745623418       -0.9019680612       -0.4987253627
 H         -0.3693129873        0.8268126521       -0.6139583136
 H          1.9228109489       -0.9982133003        0.2443958581
 H          1.9361002719        0.2296884692       -0.9976668035
 H         -2.4499576580        5.6486281416       -0.3755976456
 H         -4.3740969155        4.1269172574       -0.5347418192
 H         -4.1689213575        1.8072694372        0.2609586558
 H         -0.3369954026        4.8553489127        0.6085866180
 H         -2.7084735391        0.0100406310        0.9445104606
 H         -0.7392232986       -0.8781727918        1.8712764204
 H          1.6809593596       -0.4950636276        2.5612767325
 H          2.1495365841        1.0698503589        3.2258700395
 H          4.1260720033        0.1210736435        1.1378577296
 H          5.4198525456        2.1214869096        0.8849373191
 H          4.3202974612        4.2832278172        1.1723589948
 H          3.7935416359        3.7796110912       -0.4174394988
 H          2.8345305373        3.3801380115        3.1175749307
 H          2.2660598279        5.0097824167        2.7324763532
 H         -0.0098957115        4.3839478670        2.8604361561
 H          0.5912537903        3.0828700773        3.8624475195
 H         -0.1946986097       -0.2694064028        6.6930618155
 H         -0.5135103120        1.4219980153        6.2045337378
 H         -1.6973371901        0.1466667536        5.8140419360
  50
    -0.016084 !GC
 C          0.0000000000        0.0000000000        0.0000000000
 C          1.5460784023        0.0000000000        0.0000000000
 C         -2.4364114629        4.5839184753        0.0000000000
 C         -3.5056398382        3.7130744009       -0.0685509921
 C         -3.3739209071        2.4259835135        0.3973941130
 C         -2.1723423566        1.9881651419        0.9564294580
 C         -1.0996213858        2.8932502538        1.0755127276
 C         -1.2456661608        4.1694684833        0.5626655923
 N         -2.0089132680        0.6428330557        1.2992255124
 C         -0.6477119548        0.1010551709        1.4086455934
 C          0.1341850838        1.0371861183        2.3805950150
 C          0.2038373223        2.4906829098        1.7569350961
 C          1.6145441944        0.6072066183        2.4142702436
 C          2.1259008046        1.0414758414        1.0074185555
 C          1.4083721418        2.4167555632        0.7448603135
 C          3.6268703316        1.0985381482        0.9730520086
 C          4.3220558842        2.2104065706        0.8075598056
 C          3.7112505885        3.5402109302        0.5711758789
 N          2.2505662257        3.6793067190        1.0055935555
 C          2.0772657870        3.9784981207        2.4926318175
 C          0.6591937985        3.5308007192        2.8324191967
 O          1.7117191440        4.6842367674        0.3133201026
 H          1.0502812920        2.4797771564       -0.2843963408
 C         -0.5271856033        0.9299678636        3.7487759308
 O         -1.4502189138        0.1578827112        3.8902906997
 O         -0.0120963215        1.7151591578        4.7318212595
 C         -0.7369842773        1.5229560758        5.9052447827
 H         -0.3754671146       -0.8993653242       -0.5028413291
 H         -0.3736638765        0.8304839979       -0.6061083874
 H          1.9231971153       -0.9950375956        0.2559151472
 H          1.9358403244        0.2194732263       -0.9999548115
 H         -2.5312559667        5.5853753536       -0.3874770140
 H         -4.4374160980        4.0377382043       -0.5023726236
 H         -4.1938569983        1.7322828268        0.3218490496
 H         -0.3960540034        4.8317225894        0.5794385935
 H         -2.6704533204       -0.0382639076        0.9294766452
 H         -0.6943069098       -0.8957440855        1.8722053150
 H          1.7087221710       -0.4694567230        2.5750565698
 H          2.1586061544        1.1129207502        3.2150637311
 H          4.1327904883        0.1591287534        1.1294165378
 H          5.4008181375        2.1696422484        0.8273044986
 H          4.2787499190        4.3243821588        1.0776269844
 H          3.7382182265        3.7800534857       -0.4941155725
 H          2.8354983651        3.4345834133        3.0588957509
 H          2.2294853482        5.0467600377        2.6580497328
 H         -0.0338970189        4.3767343326        2.8373902083
 H          0.6035282237        3.0945040140        3.8346517590
 H         -0.7000452230        0.4664732745        6.1793978918
 H         -0.3032008943        2.1326960488        6.7001189518
 H         -1.7742036711        1.8180194841        5.7309341678
  50
    -0.015817 !GC
 C          0.0000000000        0.0000000000        0.0000000000
 C          1.5460453468        0.0000000000        0.0000000000
 C         -2.4574038276        4.5568962353        0.0000000000
 C         -3.5323026847        3.6913536481       -0.0439163925
 C         -3.3971400961        2.4049553406        0.4221389713
 C         -2.1836595699        1.9599080524        0.9508388303
 C         -1.1090110288        2.8643310998        1.0578520392
 C         -1.2588598840        4.1401657153        0.5443869761
 N         -2.0209225582        0.6012670826        1.2957734847
 C         -0.6511610997        0.0825774472        1.4086455281
 C          0.1205921667        1.0189738596        2.3891375588
 C          0.1846980608        2.4679757450        1.7625140401
 C          1.6015154787        0.5912398505        2.4210938091
 C          2.1190220850        1.0372555041        1.0211624592
 C          1.3973635167        2.4101463004        0.7622284688
 C          3.6198603465        1.1021265719        0.9993571499
 C          4.3096308790        2.2207369529        0.8577618945
 C          3.6929806940        3.5499480834        0.6318453212
 N          2.2225207197        3.6687481371        1.0380020079
 C          2.0124804518        3.9661491474        2.5204826793
 C          0.5946508102        3.4952279702        2.8311682860
 O          1.6837318647        4.6656980725        0.3339741901
 H          1.0489720804        2.4769076531       -0.2702193349
 C         -0.5193619596        0.9214476715        3.7702872903
 O          0.0284208956        0.2438914610        4.6132182550
 O         -1.6772449379        1.6091381006        3.9615596216
 C         -2.1457515306        1.3793576459        5.2531459553
 H         -0.3767014294       -0.8928819952       -0.5132476144
 H         -0.3742715878        0.8370622699       -0.5963358727
 H          1.9236907208       -0.9969404726        0.2475418198
 H          1.9362586315        0.2285865199       -0.9977164244
 H         -2.5552605254        5.5572875036       -0.3894887789
 H         -4.4708713097        4.0182286416       -0.4608158633
 H         -4.2170027880        1.7101616724        0.3590536920
 H         -0.4083720068        4.8015979749        0.5504232946
 H         -2.5862825463        0.2573509276        2.0804048343
 H         -0.6841143333       -0.9228523616        1.8546507729
 H          1.7002898685       -0.4863560669        2.5729345236
 H          2.1398486549        1.0929760415        3.2284474026
 H          4.1298364774        0.1636554066        1.1477430516
 H          5.3883417466        2.1864107742        0.8887223508
 H          4.2428226567        4.3301079981        1.1632803364
 H          3.7398728872        3.8081927983       -0.4284232810
 H          2.7670520930        3.4345395458        3.1030799470
 H          2.1435373658        5.0369047928        2.6878941253
 H         -0.1098838442        4.3313208282        2.8122976689
 H          0.5303927932        3.0704885923        3.8360909373
 H         -3.0709842603        1.9400204231        5.4008046247
 H         -2.3157463098        0.3117942285        5.3986444653
 H         -1.3974012977        1.7389646299        5.9635631911
  50
    -0.014581 !GC
 C          0.0000000000        0.0000000000        0.0000000000
 C          1.5454442935        0.0000000000        0.0000000000
 C         -2.4585689112        4.5771608291        0.0000000000
 C         -3.5249535878        3.7025228420       -0.0647366537
 C         -3.3866927421        2.4155730094        0.3996704712
 C         -2.1812192842        1.9816700909        0.9533247849
 C         -1.1115041116        2.8907606953        1.0694514372
 C         -1.2639648342        4.1667082416        0.5574395171
 N         -2.0112570218        0.6365756724        1.2935790022
 C         -0.6478781547        0.1017057489        1.4082684000
 C          0.1272808786        1.0450482012        2.3788262876
 C          0.1943662809        2.4937348471        1.7495316818
 C          1.6098157238        0.6218316249        2.4150012268
 C          2.1219894391        1.0509314690        1.0069585047
 C          1.3997493033        2.4222550216        0.7375812513
 C          3.6227642710        1.1097205902        0.9717049165
 C          4.3179605073        2.2203254399        0.7990678427
 C          3.7086814272        3.5496942234        0.5580214726
 N          2.2486627715        3.6983112942        0.9920452137
 C          2.0798558978        4.0048345993        2.4783432173
 C          0.6552381717        3.5802671584        2.8178277228
 O          1.7172080159        4.7052659809        0.2968432745
 H          1.0421837951        2.4793319429       -0.2922047317
 C         -0.5396002155        0.9393019545        3.7447290109
 O         -1.4783800167        0.1847051340        3.8761433368
 O         -0.0136897205        1.7044815591        4.7380040971
 C         -0.7442694832        1.5116088778        5.9078389175
 H         -0.3760652342       -0.8995659819       -0.5019948227
 H         -0.3734457036        0.8304062682       -0.6063071920
 H          1.9226603181       -0.9939301278        0.2601774345
 H          1.9352817290        0.2153114423       -1.0008514536
 H         -2.5586866340        5.5786040156       -0.3861233845
 H         -4.4597644209        4.0242710189       -0.4941423393
 H         -4.2044444300        1.7189645730        0.3271205539
 H         -0.4171668509        4.8326336990        0.5725946476
 H         -2.6812254302       -0.0453372036        0.9407853063
 H         -0.6901280658       -0.8938793586        1.8747102977
 H          1.7088375065       -0.4533812786        2.5822708664
 H          2.1506085941        1.1343549944        3.2136940879
 H          4.1290578672        0.1713394332        1.1335033744
 H          5.3968323256        2.1790982796        0.8178657087
 H          4.2799826549        4.3342599410        1.0594795413
 H          3.7350700508        3.7845923147       -0.5084191000
 H          2.8282463022        3.4509630024        3.0478963812
 H          2.2484996015        5.0711376977        2.6403656527
 H         -0.0273518400        4.4349274409        2.8148045808
 H          0.5848230486        3.1528866973        3.8231205478
 H         -0.7106941163        0.4540836364        6.1792157181
 H         -0.3125128494        2.1169897245        6.7069196906
 H         -1.7800774649        1.8100208072        5.7291403878
  50
    -0.014129 !GC
 C          0.0000000000        0.0000000000        0.0000000000
 C          1.5458167346        0.0000000000        0.0000000000
 C         -2.4062384115        4.6044451363        0.0000000000
 C         -3.4804674551        3.7410425489       -0.0833478364
 C         -3.3605266350        2.4504158532        0.3757884085
 C         -2.1660422682        2.0032362379        0.9422856361
 C         -1.0899694954        2.8994773783        1.0804008020
 C         -1.2234454238        4.1794005147        0.5718141602
 N         -2.0082592897        0.6572250375        1.2757367830
 C         -0.6552956490        0.1017954675        1.4063330276
 C          0.1300340260        1.0255685414        2.3919148492
 C          0.2034830336        2.4843877593        1.7763351213
 C          1.6070970571        0.5858338907        2.4163416041
 C          2.1249015132        1.0335626350        1.0180295524
 C          1.4114817237        2.4127186797        0.7666773520
 C          3.6263269605        1.0857281368        0.9922682270
 C          4.3265053568        2.1972776443        0.8478494520
 C          3.7220081525        3.5319316989        0.6237110138
 N          2.2547895510        3.6660673509        1.0369161615
 C          2.0597887664        3.9675920601        2.5203439735
 C          0.6394195639        3.5121048501        2.8413531024
 O          1.7225433891        4.6678748873        0.3350811375
 H          1.0558714728        2.4831456404       -0.2630386522
 C         -0.4804552617        0.9151851655        3.7857320397
 O         -1.6023188279        1.3547980798        3.9226914821
 O          0.2428284044        0.3307001333        4.7767151032
 C         -0.4830653736        0.3598246077        5.9643381405
 H         -0.3752267026       -0.8985082104       -0.5044719965
 H         -0.3713374426        0.8312333399       -0.6066218653
 H          1.9230403149       -0.9974723646        0.2461857966
 H          1.9358308580        0.2290333998       -0.9977150849
 H         -2.4903434323        5.6081156164       -0.3842305727
 H         -4.4057094985        4.0734887853       -0.5251397690
 H         -4.1824260968        1.7607943658        0.2858517152
 H         -0.3696936050        4.8358860594        0.5970988322
 H         -2.6989870080       -0.0204659514        0.9566624888
 H         -0.7204484404       -0.8952126113        1.8664279806
 H          1.6972246824       -0.4932363750        2.5634639268
 H          2.1495822715        1.0795508473        3.2260880824
 H          4.1280800623        0.1425934954        1.1395872498
 H          5.4049171264        2.1525395487        0.8753847042
 H          4.2825280676        4.3068278536        1.1516584733
 H          3.7661463257        3.7886548434       -0.4370392348
 H          2.8123988376        3.4275841472        3.0977943646
 H          2.2055130688        5.0365070884        2.6868144968
 H         -0.0557220188        4.3560877478        2.8287356716
 H          0.5791386161        3.0896992794        3.8473933057
 H          0.1069798147       -0.1105916323        6.7535478741
 H         -0.7191115226        1.3925173409        6.2242222221
 H         -1.4042251044       -0.2105400379        5.8218953496
  50
    -0.012639 !GC
 C          0.0000000000        0.0000000000        0.0000000000
 C          1.5454852973        0.0000000000        0.0000000000
 C         -2.4543757139        4.5775428553        0.0000000000
 C         -3.5212489466        3.7036076937       -0.0660577341
 C         -3.3844254747        2.4165764487        0.3985766955
 C         -2.1799631090        1.9818826784        0.9538155907
 C         -1.1099024524        2.8903927346        1.0713794054
 C         -1.2608776573        4.1665293080        0.5593377118
 N         -2.0110882272        0.6365217896        1.2936870826
 C         -0.6479845955        0.1007739284        1.4082532043
 C          0.1278427399        1.0428136787        2.3794517672
 C          0.1954583342        2.4919368514        1.7515337427
 C          1.6101907408        0.6187130888        2.4151160471
 C          2.1225844209        1.0496130495        1.0077680567
 C          1.4011131842        2.4216655597        0.7400888849
 C          3.6233551075        1.1078204770        0.9727932637
 C          4.3189103203        2.2185063789        0.8022815308
 C          3.7100050274        3.5484831325        0.5635585985
 N          2.2497602333        3.6964095599        0.9971422569
 C          2.0801271162        4.0005415172        2.4838599344
 C          0.6552081386        3.5758181754        2.8216718995
 O          1.7185981320        4.7044249767        0.3031964087
 H          1.0442028681        2.4803853188       -0.2898195764
 C         -0.5389712224        0.9382764788        3.7454710388
 O         -1.4912704199        0.1999747787        3.8726029255
 O          0.0044895267        1.6833511246        4.7446306448
 C         -0.7263332145        1.4933732726        5.9148037125
 H         -0.3760512292       -0.8990908780       -0.5028986508
 H         -0.3732058181        0.8309900090       -0.6057267730
 H          1.9226327862       -0.9943339151        0.2586418271
 H          1.9350030127        0.2165614158       -1.0007063777
 H         -2.5531533345        5.5789210142       -0.3866709602
 H         -4.4551585571        4.0257856029       -0.4971145598
 H         -4.2024738706        1.7204836661        0.3247794938
 H         -0.4133426772        4.8316125844        0.5747510549
 H         -2.6810364976       -0.0447156137        0.9395726882
 H         -0.6907703978       -0.8951315203        1.8739522850
 H          1.7086708462       -0.4567192989        2.5811655893
 H          2.1511037848        1.1300739364        3.2144799870
 H          4.1292672605        0.1689151235        1.1324206553
 H          5.3976939872        2.1769318359        0.8214348074
 H          4.2810547547        4.3320201618        1.0669745000
 H          3.7371150963        3.7855295693       -0.5024066271
 H          2.8281947865        3.4456729009        3.0529426027
 H          2.2483775939        5.0666428004        2.6478294199
 H         -0.0274773519        4.4304228770        2.8195041516
 H          0.5841458017        3.1468399179        3.8263709055
 H         -1.7582343085        1.8105345172        5.7496406041
 H         -0.7074711232        0.4323581531        6.1732823902
 H         -0.2768496309        2.0814646073        6.7173577744
  50
    -0.011329 !GC
 C          0.0000000000        0.0000000000        0.0000000000
 C          1.5460585942        0.0000000000        0.0000000000
 C         -2.4166918905        4.6196095106        0.0000000000
 C         -3.5038092969        3.7694710936       -0.0467570908
 C         -3.3841067678        2.4769146804        0.4065569275
 C         -2.1737988940        2.0113004865        0.9243187192
 C         -1.0877575718        2.8997666647        1.0397348122
 C         -1.2224018152        4.1816336000        0.5373794836
 N         -2.0217953776        0.6493234437        1.2433604898
 C         -0.6687942656        0.1048715354        1.4027612895
 C          0.1164295839        1.0338136376        2.3840865291
 C          0.1964660178        2.4854598090        1.7530766688
 C          1.5907155964        0.5796001662        2.4109621380
 C          2.1203283206        1.0249094089        1.0169843781
 C          1.4173415397        2.4075159945        0.7592278688
 C          3.6221347835        1.0717533851        1.0035364774
 C          4.3255754976        2.1832911095        0.8739080873
 C          3.7248605544        3.5204656791        0.6519650768
 N          2.2518051982        3.6493205550        1.0455757168
 C          2.0319678473        3.9465868055        2.5268121243
 C          0.6093473196        3.4822428981        2.8271987625
 O          1.7260750070        4.6507521340        0.3383229433
 H          1.0747777706        2.4819700925       -0.2746779484
 C         -0.4854898280        1.0033457167        3.7868696990
 O          0.2144413281        1.3276082952        4.7213341539
 O         -1.7868955273        0.6200035195        3.9026471754
 C         -2.1655782582        0.6597855061        5.2430150250
 H         -0.3752768852       -0.8997809053       -0.5021386720
 H         -0.3711630883        0.8282939517       -0.6106638276
 H          1.9238676972       -0.9972153742        0.2462757348
 H          1.9362025676        0.2292999960       -0.9976034916
 H         -2.5027092809        5.6245085630       -0.3804560754
 H         -4.4395078547        4.1129318953       -0.4568656549
 H         -4.2130341297        1.7933548164        0.3388383354
 H         -0.3634095142        4.8318589111        0.5476394284
 H         -2.6159214357        0.2493965602        1.9789788818
 H         -0.7320563015       -0.8955219937        1.8552609271
 H          1.6739419971       -0.5004465399        2.5545867473
 H          2.1345297468        1.0675543750        3.2233606604
 H          4.1202886820        0.1263927781        1.1482334804
 H          5.4036434964        2.1364722423        0.9106302879
 H          4.2770391532        4.2913957139        1.1944096576
 H          3.7840007960        3.7858177081       -0.4059558004
 H          2.7795278391        3.4102996572        3.1142164954
 H          2.1678869081        5.0163380634        2.6966594503
 H         -0.0900983549        4.3223314947        2.8023073193
 H          0.5391464564        3.0602116342        3.8329547377
 H         -3.2079859535        0.3419809459        5.3240277173
 H         -1.5323007189       -0.0168445630        5.8194217444
 H         -2.0680474909        1.6826352702        5.6124879620
  50
    -0.010734 !GC
 C          0.0000000000        0.0000000000        0.0000000000
 C          1.5460643979        0.0000000000        0.0000000000
 C         -2.4359660469        4.5846786699        0.0000000000
 C         -3.5052187820        3.7138619855       -0.0685672598
 C         -3.3735457568        2.4267593722        0.3973558226
 C         -2.1719754264        1.9888914841        0.9563735183
 C         -1.0991956735        2.8938778417        1.0753075977
 C         -1.2451792910        4.1701253133        0.5625023133
 N         -2.0085763822        0.6435840947        1.2992895448
 C         -0.6473084085        0.1019179962        1.4087369965
 C          0.1343077042        1.0379459321        2.3810370272
 C          0.2043014304        2.4910478293        1.7564213196
 C          1.6145951580        0.6075768844        2.4136968253
 C          2.1265688725        1.0414681154        1.0069754566
 C          1.4087030145        2.4165377676        0.7442047361
 C          3.6275035409        1.0985336037        0.9724984253
 C          4.3225783417        2.2103847040        0.8064738663
 C          3.7115753778        3.5400002758        0.5695836644
 N          2.2509523670        3.6792202549        1.0042206759
 C          2.0779631307        3.9790714807        2.4911587696
 C          0.6601537606        3.5311356388        2.8318139296
 O          1.7119248746        4.6838163796        0.3115999444
 H          1.0503175847        2.4792568224       -0.2849637164
 C         -0.5266438771        0.9298774274        3.7493017381
 O         -1.4504264963        0.1587052314        3.8902786953
 O         -0.0117254551        1.7150506269        4.7323871714
 C         -0.7360279460        1.5219524913        5.9060219608
 H         -0.3755442869       -0.8995643954       -0.5023618919
 H         -0.3736434757        0.8302298058       -0.6064053717
 H          1.9230689591       -0.9949808268        0.2562369491
 H          1.9358718757        0.2190781605       -1.0000448288
 H         -2.5308140885        5.5862041668       -0.3873194705
 H         -4.4369915946        4.0385665603       -0.5024538629
 H         -4.1934900307        1.7330670702        0.3217542710
 H         -0.3957051389        4.8324508154        0.5796652749
 H         -2.6693915283       -0.0375393290        0.9281947765
 H         -0.6939850635       -0.8947413676        1.8726298987
 H          1.7086259184       -0.4690685342        2.5746960456
 H          2.1587963876        1.1132926062        3.2144072344
 H          4.1334360108        0.1592784987        1.1294885729
 H          5.4013477663        2.1697244199        0.8261030215
 H          4.2791244014        4.3244578065        1.0754447350
 H          3.7382530576        3.7793177294       -0.4957855736
 H          2.8366172964        3.4357328734        3.0574325073
 H          2.2299054897        5.0474925846        2.6559429380
 H         -0.0329495093        4.3770327082        2.8370418433
 H          0.6050514814        3.0950184592        3.8341105627
 H         -1.7765135425        1.8077366374        5.7375710604
 H         -0.6872356122        0.4659169137        6.1801262115
 H         -0.3023221148        2.1341791522        6.6990828525
  50
    -0.009958 !GC
 C          0.0000000000        0.0000000000        0.0000000000
 C          1.5454885777        0.0000000000        0.0000000000
 C         -2.4533065128        4.5764028162        0.0000000000
 C         -3.5203173395        3.7026708440       -0.0665896398
 C         -3.3840964668        2.4156832136        0.3984171925
 C         -2.1801399781        1.9808435110        0.9546089770
 C         -1.1100821427        2.8892017085        1.0727416754
 C         -1.2603232420        4.1652937778        0.5602970196
 N         -2.0113321588        0.6354456875        1.2944682476
 C         -0.6479412718        0.0998199225        1.4082032900
 C          0.1277088921        1.0410078511        2.3803493280
 C          0.1950375189        2.4904428497        1.7530284241
 C          1.6101189580        0.6171692207        2.4156293717
 C          2.1224194129        1.0491099647        1.0085620502
 C          1.4007221550        2.4211705876        0.7417933214
 C          3.6231872245        1.1078699190        0.9736074298
 C          4.3183598402        2.2189421554        0.8039862626
 C          3.7090092956        3.5488813681        0.5660914682
 N          2.2486275726        3.6956981097        0.9994164795
 C          2.0784557000        3.9989330248        2.4862558166
 C          0.6538248162        3.5728094968        2.8236149061
 O          1.7168682898        4.7036039465        0.3057839278
 H          1.0437696666        2.4803670058       -0.2880783183
 C         -0.5394155788        0.9336089575        3.7460450585
 O         -1.4988700499        0.2041507662        3.8694894874
 O          0.0112319284        1.6679193523        4.7491071658
 C         -0.7203543280        1.4776416752        5.9187636172
 H         -0.3759906792       -0.8987550875       -0.5035382349
 H         -0.3731837941        0.8314101579       -0.6051507650
 H          1.9227504588       -0.9944392505        0.2580693858
 H          1.9350476660        0.2173122814       -1.0005233372
 H         -2.5515084753        5.5777008734       -0.3871049735
 H         -4.4538459818        4.0249807246       -0.4984851576
 H         -4.2022020577        1.7197235407        0.3240815415
 H         -0.4124998039        4.8299729308        0.5756381976
 H         -2.6807783062       -0.0459225050        0.9396891753
 H         -0.6904844850       -0.8964859004        1.8730853837
 H          1.7087589956       -0.4583693888        2.5808440881
 H          2.1509524229        1.1280092086        3.2153687202
 H          4.1294355990        0.1690507637        1.1327090802
 H          5.3971637781        2.1777645515        0.8232532528
 H          4.2795450947        4.3323332763        1.0702105701
 H          3.7362426611        3.7866983219       -0.4996837179
 H          2.8269334772        3.4443973816        3.0551203748
 H          2.2458690318        5.0650796924        2.6507995145
 H         -0.0294153122        4.4269827435        2.8215562991
 H          0.5827236680        3.1434469132        3.8281516573
 H         -0.7153310599        0.4154726126        6.1739450744
 H         -0.2683938909        2.0590739665        6.7244655849
 H         -1.7476806268        1.8080157701        5.7503120602
  50
    -0.008343 !GC
 C          0.0000000000        0.0000000000        0.0000000000
 C          1.5453002123        0.0000000000        0.0000000000
 C         -2.5121763693        4.5958390305        0.0000000000
 C         -3.5894249697        3.7318900266        0.0034220637
 C         -3.4375524680        2.4464116069        0.4675313854
 C         -2.2040076995        2.0014874431        0.9468027904
 C         -1.1256125203        2.9062220982        1.0118079354
 C         -1.2939881004        4.1796592332        0.4994499090
 N         -2.0226557918        0.6452266523        1.2677299964
 C         -0.6575516884        0.1200041500        1.4051561377
 C          0.1164068356        1.0812808927        2.3562575255
 C          0.1806986095        2.5206184574        1.6988435406
 C          1.5985011425        0.6579220568        2.4025987949
 C          2.1139165345        1.0608581013        0.9879099554
 C          1.3928320835        2.4271393109        0.6905991099
 C          3.6147049515        1.1187388872        0.9554908175
 C          4.3100624083        2.2263536515        0.7653987136
 C          3.7008082348        3.5508959195        0.4985721664
 N          2.2386698535        3.7047872323        0.9235069345
 C          2.0622255542        4.0399599658        2.4025073892
 C          0.6386731572        3.6130988880        2.7454643042
 O          1.7077024087        4.6963261140        0.2062035572
 H          1.0373782403        2.4650012866       -0.3408133493
 C         -0.5424752014        1.0014401370        3.7270662950
 O         -0.6525060620        2.0382890606        4.3462615761
 O         -0.9545617074       -0.2156526079        4.1686254072
 C         -1.4635423274       -0.0951388178        5.4591924473
 H         -0.3769681778       -0.9066713771       -0.4883666467
 H         -0.3749735795        0.8211090192       -0.6180063221
 H          1.9226305847       -0.9887258460        0.2790429016
 H          1.9353745026        0.1966676574       -1.0045717369
 H         -2.6250956925        5.5948758486       -0.3889227528
 H         -4.5434388472        4.0590262626       -0.3767041101
 H         -4.2599181489        1.7523722694        0.4359940657
 H         -0.4438672396        4.8410897863        0.4738205364
 H         -2.7046492231        0.1775495297        1.8656791467
 H         -0.6950211012       -0.8718980274        1.8799417112
 H          1.6955875342       -0.4139722667        2.5910337609
 H          2.1359310133        1.1840707272        3.1946895931
 H          4.1207051329        0.1834587082        1.1349471652
 H          5.3887887443        2.1859757238        0.7886858084
 H          4.2686945457        4.3446812836        0.9892207310
 H          3.7319723228        3.7673541129       -0.5715856627
 H          2.8123790297        3.5024126794        2.9853212635
 H          2.2232530791        5.1104033833        2.5435996594
 H         -0.0455061530        4.4660185314        2.7241109946
 H          0.5745238396        3.2048418324        3.7582006488
 H         -0.6859428109        0.2924503650        6.1198949220
 H         -2.3258996060        0.5734604771        5.4462492900
 H         -1.7752576916       -1.0840380523        5.8040817571
  50
    -0.006655 !GC
 C          0.0000000000        0.0000000000        0.0000000000
 C          1.5457738383        0.0000000000        0.0000000000
 C         -2.3904464080        4.6016000548        0.0000000000
 C         -3.4639536514        3.7385259684       -0.0957245745
 C         -3.3489379417        2.4469918905        0.3621245525
 C         -2.1603117745        1.9981675885        0.9396330576
 C         -1.0851751173        2.8939773577        1.0890270805
 C         -1.2132954959        4.1748961070        0.5821861223
 N         -2.0087462060        0.6510626970        1.2787763199
 C         -0.6566214646        0.0958389862        1.4074543028
 C          0.1282575197        1.0155941706        2.3986136746
 C          0.2050865479        2.4751501615        1.7878692042
 C          1.6039188877        0.5675958853        2.4207345134
 C          2.1251125713        1.0232784338        1.0261800427
 C          1.4172746004        2.4069591209        0.7835309124
 C          3.6266724206        1.0705952036        1.0019920188
 C          4.3307954180        2.1805317095        0.8641345460
 C          3.7315835145        3.5191949131        0.6497532886
 N          2.2660928695        3.6603801182        1.0673669321
 C          2.0758546827        3.9450827072        2.5550772624
 C          0.6460516400        3.5157166700        2.8682188973
 O          1.7426413034        4.6767139627        0.3796858640
 H          1.0665599056        2.4876528570       -0.2471199567
 C         -0.4920013147        0.9275421288        3.7909800856
 O          0.1842986245        0.5245905870        4.7130957242
 O         -1.8010799610        1.2841188513        3.8969354886
 C         -2.2276249030        1.0982990245        5.2100295925
 H         -0.3751356384       -0.8965385715       -0.5080063609
 H         -0.3712960266        0.8334533993       -0.6035603649
 H          1.9229684119       -0.9994149040        0.2382365407
 H          1.9357458139        0.2367868948       -0.9959450596
 H         -2.4709079237        5.6059260656       -0.3831502198
 H         -4.3850029833        4.0721648847       -0.5454262954
 H         -4.1706997014        1.7581583033        0.2650732262
 H         -0.3587847677        4.8301349373        0.6157236193
 H         -2.7552632925       -0.0083032222        1.0355824966
 H         -0.7230431740       -0.9029638709        1.8636358247
 H          1.6891928500       -0.5129899873        2.5592088784
 H          2.1510771686        1.0529029653        3.2323345785
 H          4.1250419048        0.1247195151        1.1433025093
 H          5.4090958168        2.1315449362        0.8913664905
 H          4.2980213727        4.2880807454        1.1804543268
 H          3.7741675124        3.7820728881       -0.4097280694
 H          2.8158048172        3.3817728826        3.1265725730
 H          2.2425876457        5.0087098802        2.7358504453
 H         -0.0330554791        4.3727264256        2.8523008512
 H          0.5716665596        3.0924294502        3.8728896385
 H         -3.2882084965        1.3527711660        5.2760340894
 H         -2.0859179832        0.0524539279        5.4885137832
 H         -1.6538413269        1.7516964246        5.8702605350
  50
    -0.006373 !GC
 C          0.0000000000        0.0000000000        0.0000000000
 C          1.5457600862        0.0000000000        0.0000000000
 C         -2.4403028046        4.5891855269        0.0000000000
 C         -3.5088228237        3.7176701120       -0.0716862737
 C         -3.3763137929        2.4291616995        0.3901213321
 C         -2.1745752053        1.9903428405        0.9478916698
 C         -1.1027384086        2.8961601585        1.0703974298
 C         -1.2491907123        4.1737940131        0.5611591923
 N         -2.0110880179        0.6442593644        1.2882843196
 C         -0.6501541975        0.1035820537        1.4076653516
 C          0.1282545808        1.0441410960        2.3772589728
 C          0.2001070558        2.4926374909        1.7519955374
 C          1.6093700117        0.6153766270        2.4140984037
 C          2.1247661508        1.0476589966        1.0085389573
 C          1.4074736448        2.4225257741        0.7431255429
 C          3.6256805903        1.1020502913        0.9753251636
 C          4.3241277403        2.2115068930        0.8087956192
 C          3.7188656239        3.5439211223        0.5741625061
 N          2.2588849717        3.6950694573        1.0077115192
 C          2.0892356843        3.9921077801        2.4960441649
 C          0.6616912384        3.5732876460        2.8314270918
 O          1.7321252560        4.7089852461        0.3190643770
 H          1.0533051132        2.4856938978       -0.2874614242
 C         -0.5376978972        0.9530833234        3.7434593300
 O         -0.2006322930        1.7842095385        4.5590706516
 O         -1.4323808172       -0.0432336530        3.9744173761
 C         -1.8412594105       -0.0029529217        5.3047124967
 H         -0.3756339228       -0.8998513179       -0.5018322346
 H         -0.3725064994        0.8300512363       -0.6074860545
 H          1.9226864418       -0.9948952745        0.2567967452
 H          1.9352807786        0.2181350146       -1.0003515010
 H         -2.5356421005        5.5917146160       -0.3845317032
 H         -4.4406131646        4.0429224375       -0.5049568525
 H         -4.1955925901        1.7350705331        0.3118834816
 H         -0.4005218099        4.8373845539        0.5824959793
 H         -2.6811257403       -0.0348206025        0.9303531126
 H         -0.6972624149       -0.8913190974        1.8751672929
 H          1.7026471434       -0.4604863766        2.5803211188
 H          2.1491820390        1.1226393572        3.2167736256
 H          4.1290993980        0.1614283571        1.1326272388
 H          5.4027820639        2.1671626476        0.8289658711
 H          4.2922168948        4.3241100752        1.0801067092
 H          3.7469276119        3.7842315174       -0.4910195614
 H          2.8342399048        3.4307281205        3.0627427818
 H          2.2626507281        5.0565610782        2.6653501435
 H         -0.0142205834        4.4331391540        2.8313406322
 H          0.5906527021        3.1395622034        3.8340873075
 H         -0.9660932038       -0.1100641545        5.9494564918
 H         -2.3232961026        0.9573210268        5.4995474988
 H         -2.5439621721       -0.8183488386        5.4877232253
  50
    -0.006010 !GC
 C          0.0000000000        0.0000000000        0.0000000000
 C          1.5463043650        0.0000000000        0.0000000000
 C         -2.4219765289        4.6075857653        0.0000000000
 C         -3.4945871612        3.7410318114       -0.0716304154
 C         -3.3674990038        2.4511840237        0.3880255679
 C         -2.1668065454        2.0061304116        0.9428418963
 C         -1.0907493698        2.9066852339        1.0651909286
 C         -1.2322418445        4.1861332644        0.5595795137
 N         -2.0084382523        0.6602428418        1.2848503712
 C         -0.6516020773        0.1104764482        1.4069202832
 C          0.1321359284        1.0483611622        2.3743688476
 C          0.2089312906        2.4965886740        1.7486635912
 C          1.6113726658        0.6112650812        2.4114973555
 C          2.1283670326        1.0426031386        1.0061336390
 C          1.4168752312        2.4210304613        0.7424337564
 C          3.6295459408        1.0948979593        0.9751177220
 C          4.3284732762        2.2055127421        0.8168760096
 C          3.7224934248        3.5386804912        0.5860456104
 N          2.2605590882        3.6799727120        1.0154623071
 C          2.0816713396        3.9709640133        2.5040303712
 C          0.6620866139        3.5219276715        2.8381420798
 O          1.7274045213        4.6907850067        0.3274098889
 H          1.0647358972        2.4883184561       -0.2886114905
 C         -0.5410837261        0.9675553343        3.7372304167
 O         -1.4949356411        0.2317377687        3.8648853617
 O         -0.0457860258        1.7745665174        4.7143384556
 C         -0.8445373111        1.6690108553        5.8507241457
 H         -0.3753834083       -0.9020348747       -0.4980369319
 H         -0.3721926448        0.8272938325       -0.6114299566
 H          1.9229029919       -0.9950562679        0.2566849600
 H          1.9359663871        0.2180320203       -1.0003053723
 H         -2.5135723363        5.6114434720       -0.3819683069
 H         -4.4257807138        4.0714966324       -0.5023435815
 H         -4.1906392805        1.7614312675        0.3118014611
 H         -0.3805867588        4.8456108348        0.5813441346
 H         -2.6912266746       -0.0186803866        0.9511343875
 H         -0.7064098627       -0.8825194118        1.8777605289
 H          1.6982399021       -0.4656154004        2.5746553172
 H          2.1577240942        1.1133204234        3.2127987683
 H          4.1322477280        0.1531278228        1.1278614688
 H          5.4071912195        2.1611231692        0.8388903289
 H          4.2904950919        4.3180793335        1.0990799934
 H          3.7542576687        3.7845415832       -0.4776756201
 H          2.8385260144        3.4240785286        3.0692634788
 H          2.2339416557        5.0382114916        2.6756269538
 H         -0.0298421640        4.3687412510        2.8535652078
 H          0.6060116214        3.0691975793        3.8333075673
 H         -1.8619510928        1.9824322965        5.6090560665
 H         -0.8349277845        0.6350120297        6.2007971372
 H         -0.4365541624        2.3208457998        6.6271421191
  50
    -0.005958 !GC
 C          0.0000000000        0.0000000000        0.0000000000
 C          1.5464589180        0.0000000000        0.0000000000
 C         -2.4341240784        4.5547133002        0.0000000000
 C         -3.5142790527        3.6954634597       -0.0404726428
 C         -3.3861419050        2.4084806566        0.4263422783
 C         -2.1736761947        1.9551342840        0.9501042692
 C         -1.0938557034        2.8543172285        1.0537117105
 C         -1.2371470434        4.1310617434        0.5420766478
 N         -2.0201917259        0.5971810609        1.2982295657
 C         -0.6510239285        0.0728953027        1.4106410482
 C          0.1270676034        1.0044409588        2.3861883645
 C          0.1949347326        2.4578938859        1.7654093990
 C          1.6084985245        0.5729783900        2.4197627668
 C          2.1287078355        1.0255393920        1.0232723609
 C          1.4207847150        2.4073937152        0.7798601442
 C          3.6296614003        1.0772463813        0.9956917931
 C          4.3299719914        2.1925730014        0.8832832856
 C          3.7291267570        3.5361125549        0.7028646499
 N          2.2548607727        3.6631022253        1.0935653195
 C          2.0352060120        3.9346178973        2.5807249670
 C          0.6048135926        3.4874907457        2.8665109650
 O          1.7361851118        4.6817805725        0.4054736585
 H          1.0864943016        2.4961039519       -0.2556006614
 C         -0.5357002062        0.9378652041        3.7557350421
 O         -0.8217623242       -0.1592379170        4.1823787430
 O         -0.7634020778        2.1078037418        4.4110828081
 C         -1.4156707909        1.8488863692        5.6143887661
 H         -0.3762135340       -0.8883840767       -0.5213884262
 H         -0.3731940981        0.8423271777       -0.5896705920
 H          1.9231418411       -0.9992473412        0.2395684505
 H          1.9359703971        0.2351775581       -0.9964626001
 H         -2.5271289543        5.5565586758       -0.3869280918
 H         -4.4524563096        4.0285666424       -0.4533534189
 H         -4.2120166794        1.7203347424        0.3687519703
 H         -0.3843418913        4.7893572539        0.5551500742
 H         -2.7068507937        0.2204173909        1.9526459314
 H         -0.6795996584       -0.9360338183        1.8486480954
 H          1.7025808766       -0.5055898764        2.5667259061
 H          2.1467570224        1.0665333577        3.2319086762
 H          4.1310984301        0.1298370006        1.1126040189
 H          5.4085034735        2.1456016258        0.9069013066
 H          4.2832635618        4.2879045356        1.2693982778
 H          3.7920947923        3.8342196240       -0.3460706838
 H          2.7723936461        3.3766611185        3.1608393402
 H          2.1863155081        4.9988354922        2.7712346391
 H         -0.0857413553        4.3353675352        2.8488268008
 H          0.5123348843        3.0442734240        3.8630992396
 H         -2.3846888488        1.3897750880        5.4097249437
 H         -0.7989255312        1.1890317946        6.2270609871
 H         -1.5656432987        2.7963968585        6.1378717744
  50
    -0.005526 !GC
 C          0.0000000000        0.0000000000        0.0000000000
 C          1.5462700479        0.0000000000        0.0000000000
 C         -2.4261439685        4.5933063370        0.0000000000
 C         -3.4964371709        3.7241233353       -0.0733054721
 C         -3.3679033787        2.4358083503        0.3901810440
 C         -2.1683580203        1.9948552368        0.9510400873
 C         -1.0943843995        2.8979604222        1.0739059543
 C         -1.2373558490        4.1757884769        0.5644575960
 N         -2.0090588621        0.6491121457        1.2949241584
 C         -0.6494073702        0.1035643424        1.4079877339
 C          0.1334767252        1.0389709427        2.3787142633
 C          0.2071057591        2.4911966455        1.7562282265
 C          1.6127984355        0.6051587754        2.4133549625
 C          2.1278545878        1.0398096572        1.0081859660
 C          1.4137106240        2.4172473064        0.7472077571
 C          3.6289077821        1.0941337352        0.9760129836
 C          4.3263023536        2.2053984289        0.8156125173
 C          3.7184871620        3.5374819048        0.5839029678
 N          2.2569493249        3.6775464101        1.0150854576
 C          2.0802209647        3.9717469633        2.5028820615
 C          0.6613810827        3.5231461467        2.8396969607
 O          1.7216818386        4.6860000618        0.3252280872
 H          1.0584268141        2.4837162554       -0.2828134981
 C         -0.5271065145        0.9401552046        3.7466782182
 O         -0.1927413791        1.7714016387        4.5632388258
 O         -1.4149240651       -0.0624892377        3.9758567095
 C         -1.8147506386       -0.0344359808        5.3091230081
 H         -0.3756091290       -0.8998689834       -0.5016969603
 H         -0.3730406912        0.8298768044       -0.6072708933
 H          1.9227805370       -0.9954856212        0.2549607915
 H          1.9361575376        0.2200055132       -0.9997978618
 H         -2.5183201176        5.5956142823       -0.3859317145
 H         -4.4264710387        4.0510067482       -0.5092894012
 H         -4.1885797473        1.7434243321        0.3107287183
 H         -0.3863550622        4.8360348203        0.5836959030
 H         -2.6695641238       -0.0305648744        0.9209040025
 H         -0.6992803448       -0.8919204870        1.8741845585
 H          1.7022895792       -0.4717682676        2.5750462139
 H          2.1557044251        1.1076145059        3.2169525082
 H          4.1328797826        0.1532262817        1.1293333583
 H          5.4049704250        2.1625086026        0.8365634008
 H          4.2862071495        4.3181500716        1.0954104279
 H          3.7486249930        3.7822588017       -0.4801535321
 H          2.8375310714        3.4258942307        3.0685512700
 H          2.2326474552        5.0393911929        2.6721336155
 H         -0.0305598875        4.3699570787        2.8499789031
 H          0.6071011332        3.0788421874        3.8384730035
 H         -0.9364828837       -0.1574330139        5.9466694028
 H         -2.2868510453        0.9275663218        5.5189776630
 H         -2.5234706115       -0.8457278113        5.4863851937
  50
    -0.004707 !GC
 C          0.0000000000        0.0000000000        0.0000000000
 C          1.5467923739        0.0000000000        0.0000000000
 C         -2.3832004251        4.6140264551        0.0000000000
 C         -3.4694954417        3.7644542521       -0.0703955263
 C         -3.3590213578        2.4703885606        0.3808223963
 C         -2.1591350757        2.0020200006        0.9198370831
 C         -1.0740941168        2.8889613223        1.0549943505
 C         -1.1987684757        4.1731703800        0.5563568067
 N         -2.0198080293        0.6399770392        1.2562753981
 C         -0.6650881976        0.0942156374        1.4045060723
 C          0.1197482619        1.0155941526        2.3917088242
 C          0.2031722942        2.4660425445        1.7745389312
 C          1.5939759118        0.5595863143        2.4184640735
 C          2.1256835311        1.0187119445        1.0299870806
 C          1.4252188686        2.4052969029        0.7874383433
 C          3.6274033897        1.0664158666        1.0201426159
 C          4.3299506955        2.1805654282        0.9082750882
 C          3.7287726173        3.5208189361        0.7051968750
 N          2.2547866170        3.6434142194        1.0973132600
 C          2.0283245751        3.9149591385        2.5829852789
 C          0.6026782321        3.4503023174        2.8705958497
 O          1.7315933045        4.6574141825        0.4061625939
 H          1.0893071700        2.4943636719       -0.2475161283
 C         -0.4976883187        0.9889710554        3.7869054971
 O          0.1848876517        1.3697714287        4.7131126160
 O         -1.7571403156        0.4889291838        3.9184760464
 C         -2.1126336004        0.4683754545        5.2656265594
 H         -0.3751022945       -0.8953033880       -0.5102382235
 H         -0.3705042671        0.8336361545       -0.6037114956
 H          1.9241266247       -1.0003846511        0.2337470231
 H          1.9368064267        0.2412431369       -0.9948097822
 H         -2.4613936626        5.6205081457       -0.3779510371
 H         -4.3975578896        4.1100017523       -0.4958783764
 H         -4.1878825168        1.7883631513        0.2989872029
 H         -0.3390913086        4.8220975949        0.5835240722
 H         -2.5609445378        0.2969344562        2.0589174538
 H         -0.7275255141       -0.9096594412        1.8498547037
 H          1.6741025480       -0.5219224740        2.5523944313
 H          2.1374449303        1.0373404267        3.2369225386
 H          4.1260400623        0.1194401652        1.1516797415
 H          5.4079949182        2.1341001122        0.9463208042
 H          4.2794158341        4.2838744732        1.2602163197
 H          3.7899724485        3.8019991309       -0.3485421496
 H          2.7722065550        3.3668264294        3.1640552274
 H          2.1659556912        4.9814452050        2.7713716670
 H         -0.0925757432        4.2939653053        2.8531238624
 H          0.5296591732        3.0119781037        3.8690114029
 H         -2.0996389513        1.4885663349        5.6553125118
 H         -3.1117049383        0.0410896343        5.3683830586
 H         -1.3892842181       -0.1390898808        5.8137464829
  50
    -0.004197 !GC
 C          0.0000000000        0.0000000000        0.0000000000
 C          1.5468687041        0.0000000000        0.0000000000
 C         -2.3471732371        4.6181423992        0.0000000000
 C         -3.4306327196        3.7678618685       -0.0996127793
 C         -3.3317364457        2.4729537959        0.3529595089
 C         -2.1486110363        2.0066065723        0.9274436020
 C         -1.0626273395        2.8897925280        1.0779125142
 C         -1.1753399661        4.1752719446        0.5803965952
 N         -2.0125973524        0.6566824307        1.2599656377
 C         -0.6663722089        0.0873609892        1.4046685243
 C          0.1251071235        1.0028618982        2.3859042736
 C          0.2162691639        2.4582396345        1.7871595546
 C          1.5997487722        0.5446571047        2.4206988198
 C          2.1360160867        1.0092270035        1.0361519973
 C          1.4516542168        2.4071654863        0.8127188303
 C          3.6378926689        1.0369311400        1.0194915378
 C          4.3575253490        2.1429109642        0.9433201426
 C          3.7807034484        3.5008551680        0.7961855526
 N          2.3044178869        3.6414152311        1.1738211910
 C          2.0722702997        3.8747205710        2.6669695387
 C          0.6274730561        3.4555089302        2.9200509715
 O          1.8116956790        4.6889191540        0.5104937564
 H          1.1318881521        2.5236306157       -0.2245747001
 C         -0.5159694885        0.9688143369        3.7648043105
 O          0.1943460665        0.7663561132        4.7265766491
 O         -1.8525761735        1.2103280273        3.8162964605
 C         -2.2877052932        1.1207435012        5.1370014437
 H         -0.3747850963       -0.8913222456       -0.5172350743
 H         -0.3663729939        0.8399092989       -0.5977937618
 H          1.9222577513       -1.0031802109        0.2249430523
 H          1.9357586024        0.2472765943       -0.9937912686
 H         -2.4167226186        5.6262864129       -0.3752207316
 H         -4.3483174726        4.1153582573       -0.5456347520
 H         -4.1634384752        1.7961975609        0.2562429882
 H         -0.3155342124        4.8227432724        0.6281045296
 H         -2.7100230329       -0.0111221193        0.9327530695
 H         -0.7386813515       -0.9119291619        1.8581945437
 H          1.6729317802       -0.5376154832        2.5517666589
 H          2.1432359499        1.0151845656        3.2429705529
 H          4.1227906352        0.0784147394        1.1139854386
 H          5.4349453051        2.0771003662        0.9734795529
 H          4.3406526282        4.2263432057        1.3907970603
 H          3.8606780699        3.8286131754       -0.2427945940
 H          2.7872302229        3.2818322752        3.2400197025
 H          2.2465703436        4.9288041328        2.8908745657
 H         -0.0427930324        4.3196971901        2.9109629555
 H          0.4982646581        2.9844365823        3.9013055724
 H         -3.3546043983        1.3529109250        5.1765371017
 H         -2.0988169179        0.1171198314        5.5202867856
 H         -1.7434224154        1.8570800547        5.7333258585
  50
    -0.003937 !GC
 C          0.0000000000        0.0000000000        0.0000000000
 C          1.5458528180        0.0000000000        0.0000000000
 C         -2.3742743638        4.6497696237        0.0000000000
 C         -3.4542991488        3.7952657699       -0.0999639479
 C         -3.3461863069        2.4978515430        0.3428527731
 C         -2.1577257286        2.0344575038        0.9087397147
 C         -1.0771106029        2.9219668413        1.0663315600
 C         -1.1977094984        4.2100767068        0.5737339522
 N         -2.0109421036        0.6830444283        1.2256865200
 C         -0.6662779162        0.1203554235        1.3968285687
 C          0.1126000371        1.0522434026        2.3817313582
 C          0.2068397587        2.4892682601        1.7682549973
 C          1.5891897261        0.6061043034        2.4171071673
 C          2.1181153483        1.0518385338        1.0226486039
 C          1.4085353519        2.4323221779        0.7649331426
 C          3.6195966140        1.1036586354        1.0074651294
 C          4.3209796008        2.2149737580        0.8661358899
 C          3.7190443570        3.5503372358        0.6382553485
 N          2.2510778569        3.6902083803        1.0474016564
 C          2.0523913790        3.9829979230        2.5327882210
 C          0.6247607963        3.5447698679        2.8467249622
 O          1.7285112304        4.7011429943        0.3513263953
 H          1.0639672208        2.5044796923       -0.2684545417
 C         -0.5113749395        1.0187312950        3.7728143325
 O         -1.7157105219        0.8987118196        3.8391800593
 O          0.3099474906        1.1398163747        4.8502551102
 C         -0.4479565012        1.1427983718        6.0185954330
 H         -0.3763826614       -0.9060316840       -0.4898922933
 H         -0.3700146007        0.8219141202       -0.6201355768
 H          1.9234929587       -0.9976479019        0.2454540511
 H          1.9359192659        0.2302981673       -0.9975234401
 H         -2.4485393801        5.6586441947       -0.3722054209
 H         -4.3747852851        4.1400555520       -0.5421405298
 H         -4.1728161469        1.8156561972        0.2407576527
 H         -0.3395250650        4.8601882627        0.6123111700
 H         -2.7343330546        0.0201813403        0.9484447193
 H         -0.7469476168       -0.8701647804        1.8676364857
 H          1.6758235641       -0.4729085088        2.5659042950
 H          2.1258727686        1.0981336548        3.2317052543
 H          4.1200941100        0.1605589077        1.1592722881
 H          5.3992273149        2.1697215910        0.9007423221
 H          4.2804364657        4.3250599156        1.1659358050
 H          3.7663129187        3.8051619318       -0.4230135896
 H          2.7947844382        3.4289512503        3.1101841067
 H          2.2110351162        5.0488488880        2.7074622442
 H         -0.0587257691        4.3982984347        2.8350822254
 H          0.5585366575        3.1168058509        3.8506076450
 H          0.2190192120        1.2575994097        6.8760373733
 H         -1.1719142287        1.9582544133        5.9835215332
 H         -0.9673471191        0.1844478396        6.0982241523
  50
    -0.003657 !GC
 C          0.0000000000        0.0000000000        0.0000000000
 C          1.5467848040        0.0000000000        0.0000000000
 C         -2.3841319619        4.6143728409        0.0000000000
 C         -3.4703092438        3.7646672280       -0.0700940561
 C         -3.3594869952        2.4706287111        0.3809968454
 C         -2.1593076715        2.0024177863        0.9194752154
 C         -1.0741907281        2.8893821260        1.0541742250
 C         -1.1993296069        4.1735901518        0.5557298808
 N         -2.0198822825        0.6403703798        1.2559473180
 C         -0.6653263536        0.0946975023        1.4045045741
 C          0.1196177076        1.0164610951        2.3911901051
 C          0.2032892149        2.4666029864        1.7736042458
 C          1.5939192549        0.5606459531        2.4180809785
 C          2.1258157742        1.0190322243        1.0295050122
 C          1.4255065376        2.4057082121        0.7866698145
 C          3.6275431751        1.0665719353        1.0195361283
 C          4.3302440794        2.1806206534        0.9072615153
 C          3.7292491824        3.5208785157        0.7039141571
 N          2.2554123294        3.6441971508        1.0964650329
 C          2.0293087999        3.9157747384        2.5821784223
 C          0.6031772391        3.4527312977        2.8699786794
 O          1.7326066230        4.6587104806        0.4056371500
 H          1.0897821754        2.4946339235       -0.2483451940
 C         -0.4970146104        0.9922826475        3.7866564165
 O          0.1817023873        1.3891488842        4.7091558448
 O         -1.7499979763        0.4771073807        3.9231102917
 C         -2.1049816323        0.4642095264        5.2706116986
 H         -0.3751973608       -0.8953245869       -0.5100144824
 H         -0.3704422386        0.8334357406       -0.6039208441
 H          1.9240523294       -1.0003002107        0.2342922567
 H          1.9368699398        0.2406641752       -0.9949242197
 H         -2.4628142107        5.6209057704       -0.3776010294
 H         -4.3985746831        4.1100897367       -0.4950086144
 H         -4.1882977281        1.7884910556        0.2996109522
 H         -0.3399609345        4.8229309624        0.5833269246
 H         -2.5593716844        0.2979210527        2.0599574238
 H         -0.7277294419       -0.9089852060        1.8502434290
 H          1.6740395304       -0.5208085644        2.5525080410
 H          2.1373655246        1.0386255855        3.2364144465
 H          4.1260769535        0.1196662729        1.1520589409
 H          5.4082759534        2.1340746752        0.9457068211
 H          4.2802066466        4.2838998746        1.2587131407
 H          3.7904672090        3.8018606556       -0.3498818709
 H          2.7726078397        3.3667777863        3.1631862750
 H          2.1680694217        4.9821040497        2.7706279594
 H         -0.0912564103        4.2970509979        2.8522162242
 H          0.5298017696        3.0148258775        3.8685321164
 H         -2.1128022695        1.4882099027        5.6492741491
 H         -3.0950933020        0.0180171336        5.3790703870
 H         -1.3685312862       -0.1224928970        5.8242662328
  50
    -0.003424 !GC
 C          0.0000000000        0.0000000000        0.0000000000
 C          1.5453492907        0.0000000000        0.0000000000
 C         -2.4630782319        4.5686726087        0.0000000000
 C         -3.5291159015        3.6934182090       -0.0623205268
 C         -3.3898732802        2.4075374030        0.4048181883
 C         -2.1838412909        1.9758590179        0.9591228360
 C         -1.1150428954        2.8856872263        1.0739297023
 C         -1.2682048602        4.1602563714        0.5583881590
 N         -2.0104526958        0.6317654035        1.2998201930
 C         -0.6460565196        0.0976510752        1.4086760044
 C          0.1282409132        1.0388798578        2.3825090220
 C          0.1912022041        2.4900941459        1.7546817335
 C          1.6109006093        0.6182987413        2.4161789429
 C          2.1211262203        1.0502075304        1.0082692062
 C          1.3952267744        2.4199486846        0.7404561423
 C          3.6218284141        1.1121727517        0.9732290926
 C          4.3143506515        2.2246858838        0.8025649339
 C          3.7012065969        3.5523468467        0.5617178357
 N          2.2392469917        3.6929766627        0.9914308484
 C          2.0650113781        4.0043574778        2.4757225849
 C          0.6447887115        3.5641959087        2.8142305414
 O          1.7020791829        4.6926142985        0.2901680331
 H          1.0352103006        2.4753077294       -0.2885709994
 C         -0.5304446754        0.9072439335        3.7507842505
 O         -1.2983591066       -0.0093850186        3.9465380647
 O         -0.1757290084        1.8339648902        4.6798419264
 C         -0.8669863973        1.5908951792        5.8641115205
 H         -0.3761284454       -0.8983507353       -0.5041875358
 H         -0.3739628626        0.8319869738       -0.6038777859
 H          1.9224709702       -0.9942265294        0.2591808733
 H          1.9354976137        0.2163345077       -1.0005567466
 H         -2.5635072507        5.5689845270       -0.3889948910
 H         -4.4642203567        4.0136961023       -0.4925023727
 H         -4.2067573250        1.7098892598        0.3328290500
 H         -0.4212226392        4.8259350702        0.5691073623
 H         -2.6841521635       -0.0522781055        0.9583521608
 H         -0.6872774101       -0.8989439802        1.8732267660
 H          1.7120654496       -0.4570448839        2.5816433047
 H          2.1514965760        1.1310688620        3.2149500748
 H          4.1302656303        0.1747977895        1.1339215706
 H          5.3932429671        2.1863084357        0.8225245654
 H          4.2672976269        4.3385447190        1.0667951912
 H          3.7302641878        3.7892540516       -0.5042730606
 H          2.8191100169        3.4614235094        3.0484062529
 H          2.2211576813        5.0731048609        2.6338979962
 H         -0.0468114987        4.4115062875        2.8086850741
 H          0.5802949272        3.1400986765        3.8205741789
 H         -1.9386634716        1.6647186424        5.6646836819
 H         -0.6224160225        0.5936928779        6.2321472530
 H         -0.5902787936        2.3505544220        6.5985246209
  50
    -0.002898 !GC
 C          0.0000000000        0.0000000000        0.0000000000
 C          1.5463872559        0.0000000000        0.0000000000
 C         -2.3504448223        4.6078884393        0.0000000000
 C         -3.4264213228        3.7507658473       -0.1178832566
 C         -3.3252141562        2.4565782967        0.3354755864
 C         -2.1483865799        1.9985668999        0.9300469590
 C         -1.0711314442        2.8875017247        1.1002192072
 C         -1.1848543642        4.1721151316        0.5984227056
 N         -2.0121357770        0.6482057554        1.2690991386
 C         -0.6635148127        0.0867597793        1.4067301358
 C          0.1258116886        0.9921366963        2.4090408403
 C          0.2096021930        2.4577208405        1.8100413802
 C          1.5989987098        0.5352298967        2.4253329278
 C          2.1267983989        1.0079819847        1.0402409172
 C          1.4255003734        2.3969722426        0.8135387250
 C          3.6287373079        1.0530459753        1.0258107564
 C          4.3340449684        2.1657088926        0.9178672720
 C          3.7356312726        3.5081601110        0.7237719569
 N          2.2634430955        3.6317315214        1.1220487575
 C          2.0465743727        3.9008922802        2.6090703180
 C          0.6228662344        3.4355311076        2.9024605590
 O          1.7381235138        4.6473899377        0.4350229013
 H          1.0810647348        2.4925629303       -0.2180046089
 C         -0.4716697648        0.9213595337        3.8127022499
 O          0.2584802235        1.1369899245        4.7552621144
 O         -1.7971223002        0.6304190400        3.9240719232
 C         -2.1532620855        0.5969103202        5.2704194877
 H         -0.3743207765       -0.8927996611       -0.5151232588
 H         -0.3693233507        0.8372368353       -0.5994800304
 H          1.9239220660       -1.0023503694        0.2249818790
 H          1.9362507514        0.2498344511       -0.9927685629
 H         -2.4195768048        5.6148636943       -0.3784833413
 H         -4.3383743415        4.0912864625       -0.5806854550
 H         -4.1489122675        1.7725185876        0.2226036738
 H         -0.3280484336        4.8232033146        0.6494823499
 H         -2.7987388456        0.0211351633        1.0734285079
 H         -0.7385299325       -0.9160916551        1.8519825249
 H          1.6801003128       -0.5477781333        2.5464372784
 H          2.1449978687        1.0055281660        3.2466535439
 H          4.1255115968        0.1041901876        1.1510738359
 H          5.4120747114        2.1162011929        0.9522089828
 H          4.2900773218        4.2669878388        1.2807891446
 H          3.7936567578        3.7946059118       -0.3287056887
 H          2.7929991950        3.3505585946        3.1848347278
 H          2.1868044156        4.9665330311        2.7999561148
 H         -0.0743076835        4.2778226754        2.8928298595
 H          0.5519287685        2.9965125075        3.9008362665
 H         -3.2096694112        0.3363422527        5.3600861880
 H         -1.5391606190       -0.1473825554        5.7816429982
 H         -1.9722186666        1.5809446540        5.7085504101
  50
    -0.002740 !GC
 C          0.0000000000        0.0000000000        0.0000000000
 C          1.5452766193        0.0000000000        0.0000000000
 C         -2.5189733553        4.5923680918        0.0000000000
 C         -3.5952633725        3.7272114465        0.0054844438
 C         -3.4411439958        2.4419584031        0.4694951916
 C         -2.2062830226        1.9983734106        0.9468731252
 C         -1.1288142951        2.9045911775        1.0097360526
 C         -1.2993878200        4.1774533681        0.4971618959
 N         -2.0234460349        0.6422590931        1.2684799504
 C         -0.6573432525        0.1194897004        1.4053860168
 C          0.1151495817        1.0832345618        2.3549344565
 C          0.1786717097        2.5211986965        1.6955223966
 C          1.5974948584        0.6608732693        2.4022607459
 C          2.1133971595        1.0622451396        0.9871805187
 C          1.3913781508        2.4277032728        0.6882295015
 C          3.6141854363        1.1208240635        0.9554371059
 C          4.3088768435        2.2287522940        0.7647864373
 C          3.6986438400        3.5527030895        0.4970769746
 N          2.2361255707        3.7056182776        0.9211800530
 C          2.0590608765        4.0410088737        2.4000955246
 C          0.6360673539        3.6120225271        2.7427580000
 O          1.7047878832        4.6964731247        0.2032610139
 H          1.0364145736        2.4646418870       -0.3433719128
 C         -0.5481171902        1.0083941844        3.7236256141
 O         -0.5262141723        2.0170467181        4.3963093032
 O         -1.1062760154       -0.1697711557        4.1062116183
 C         -1.5916346035       -0.0550654447        5.4064540425
 H         -0.3770346888       -0.9064896621       -0.4887060586
 H         -0.3751494845        0.8212880448       -0.6176602436
 H          1.9223411027       -0.9884954248        0.2802856747
 H          1.9357117912        0.1953352116       -1.0047510719
 H         -2.6339359462        5.5912763242       -0.3884576223
 H         -4.5505805740        4.0535327690       -0.3723431828
 H         -4.2629515347        1.7471548126        0.4398362596
 H         -0.4500682034        4.8398273509        0.4701498493
 H         -2.7080693260        0.1734653694        1.8630772447
 H         -0.6924828230       -0.8722588890        1.8806998241
 H          1.6949316208       -0.4106734235        2.5925494662
 H          2.1344169219        1.1882131144        3.1939212443
 H          4.1206277730        0.1859857705        1.1359259642
 H          5.3876497683        2.1891229942        0.7887135613
 H          4.2657685789        4.3472450057        0.9877501375
 H          3.7301895989        3.7687769466       -0.5732679921
 H          2.8100392120        3.5049120145        2.9832172678
 H          2.2183215262        5.1117553739        2.5408305637
 H         -0.0494911356        4.4638529395        2.7223621732
 H          0.5712614495        3.2017999802        3.7548081062
 H         -0.7642469642        0.2064937299        6.0698585416
 H         -2.3591808640        0.7190207074        5.4426014896
 H         -2.0026349435       -1.0184673459        5.7163678753
  50
    -0.002429 !GC
 C          0.0000000000        0.0000000000        0.0000000000
 C          1.5455823188        0.0000000000        0.0000000000
 C         -2.4065591723        4.6339619362        0.0000000000
 C         -3.4829292042        3.7726342286       -0.0776650161
 C         -3.3619732128        2.4805348483        0.3772612039
 C         -2.1643681465        2.0299046276        0.9343851746
 C         -1.0863876243        2.9246624575        1.0686582188
 C         -1.2207448976        4.2055186795        0.5630796984
 N         -2.0053206907        0.6820725212        1.2562065632
 C         -0.6570566492        0.1235931068        1.4044744313
 C          0.1303482042        1.0549401458        2.3836889252
 C          0.2099016649        2.5073747561        1.7574868779
 C          1.6054575695        0.6067361102        2.4087462953
 C          2.1246633084        1.0426756710        1.0069009570
 C          1.4127396939        2.4208986498        0.7425824430
 C          3.6262403624        1.0927712427        0.9808432399
 C          4.3278049420        2.1995676071        0.8091307733
 C          3.7239697208        3.5291823451        0.5561598285
 N          2.2647567679        3.6805828977        0.9913649831
 C          2.0949135834        3.9915235263        2.4759023287
 C          0.6708466088        3.5646133030        2.8176016067
 O          1.7324879755        4.6842633708        0.2921312513
 H          1.0515101537        2.4805590728       -0.2858245043
 C         -0.4741964860        0.9832109825        3.7837317472
 O         -1.6627140024        1.1984431821        3.8924323415
 O          0.3518921771        0.6952881599        4.8256025626
 C         -0.3738118605        0.7197726765        6.0139024184
 H         -0.3748882685       -0.9056596062       -0.4917871594
 H         -0.3713711419        0.8222623062       -0.6187926578
 H          1.9231427491       -0.9951973344        0.2547734353
 H          1.9356041876        0.2205945325       -0.9996348639
 H         -2.4914048563        5.6382117538       -0.3823870869
 H         -4.4104420881        4.1075307783       -0.5129319167
 H         -4.1851815453        1.7921170092        0.2897533611
 H         -0.3647633098        4.8594281763        0.5819105604
 H         -2.6926173974       -0.0065098173        0.9345207440
 H         -0.7293111266       -0.8674746336        1.8760466840
 H          1.6904217974       -0.4718053031        2.5626353217
 H          2.1516839852        1.1032685353        3.2143159034
 H          4.1268170296        0.1525522616        1.1496121779
 H          5.4062173107        2.1541079816        0.8360829112
 H          4.2960542008        4.3170288317        1.0518776603
 H          3.7505394217        3.7551063965       -0.5122751815
 H          2.8442065531        3.4398476395        3.0466452146
 H          2.2618997772        5.0585138421        2.6354357175
 H         -0.0088224803        4.4211513060        2.8046431454
 H          0.6158447312        3.1541171467        3.8288898240
 H          0.3083011190        0.5316568762        6.8465464793
 H         -0.8337168482        1.7023854387        6.1336088818
 H         -1.1377823175       -0.0597040260        5.9848309884
  50
    -0.002416 !GC
 C          0.0000000000        0.0000000000        0.0000000000
 C          1.5471180075        0.0000000000        0.0000000000
 C         -2.3368436200        4.6282494230        0.0000000000
 C         -3.4210524494        3.7795652308       -0.1051995239
 C         -3.3252215669        2.4833134549        0.3442283621
 C         -2.1444360186        2.0138316369        0.9208786261
 C         -1.0574421594        2.8950295484        1.0758703169
 C         -1.1671342427        4.1821704872        0.5821987959
 N         -2.0128712975        0.6635564628        1.2545447617
 C         -0.6686039977        0.0902112541        1.4037807962
 C          0.1244130693        1.0049808869        2.3833087037
 C          0.2191916322        2.4592849062        1.7863520841
 C          1.5978832799        0.5429574780        2.4199094412
 C          2.1373316335        1.0078591427        1.0369456628
 C          1.4564040553        2.4078370255        0.8147124322
 C          3.6392632551        1.0327457570        1.0227048100
 C          4.3609517397        2.1377321206        0.9513357343
 C          3.7868632189        3.4972331245        0.8072031214
 N          2.3101560249        3.6394397875        1.1825803102
 C          2.0752161108        3.8677900438        2.6762524091
 C          0.6297208684        3.4480544148        2.9266605875
 O          1.8207077242        4.6903840989        0.5223354615
 H          1.1394409359        2.5273965903       -0.2231053888
 C         -0.5155559151        0.9809527215        3.7617266089
 O         -1.7286588078        0.9829703267        3.7822350367
 O          0.2861750888        0.9540577931        4.8579607316
 C         -0.4956615322        1.0411034655        6.0076539834
 H         -0.3745908652       -0.8921151672       -0.5159713857
 H         -0.3656813273        0.8390535441       -0.5994467361
 H          1.9222380203       -1.0035055386        0.2239261836
 H          1.9358800826        0.2479279276       -0.9936664767
 H         -2.4038807236        5.6373991358       -0.3729838043
 H         -4.3367967147        4.1293191425       -0.5534536921
 H         -4.1574450894        1.8078663354        0.2430154484
 H         -0.3064877018        4.8281449433        0.6340645807
 H         -2.7099450149       -0.0026076091        0.9236784905
 H         -0.7446261863       -0.9077444453        1.8597537368
 H          1.6663492537       -0.5395299618        2.5517851890
 H          2.1399879721        1.0102116420        3.2449048810
 H          4.1222898259        0.0731509599        1.1153008648
 H          5.4381771907        2.0699234695        0.9835240581
 H          4.3470858382        4.2199633157        1.4048968803
 H          3.8692430304        3.8278658704       -0.2306928146
 H          2.7893518096        3.2729414592        3.2483041887
 H          2.2496392300        4.9210292380        2.9039173704
 H         -0.0396227384        4.3129889626        2.9236327741
 H          0.5025414492        2.9689797445        3.9043261572
 H          0.1529781302        1.0162880737        6.8862610646
 H         -1.0793993545        1.9624065656        5.9866319326
 H         -1.1634095820        0.1763781595        6.0360577072
  50
    -0.002239 !GC
 C          0.0000000000        0.0000000000        0.0000000000
 C          1.5463679525        0.0000000000        0.0000000000
 C         -2.3515674406        4.6063552272        0.0000000000
 C         -3.4274177908        3.7490277662       -0.1174509668
 C         -3.3258765757        2.4549833935        0.3361801938
 C         -2.1488534676        1.9973596452        0.9306701113
 C         -1.0717347847        2.8865748934        1.1005014629
 C         -1.1858122790        4.1710165480        0.5983885238
 N         -2.0122814205        0.6469423043        1.2694784536
 C         -0.6635029131        0.0858777535        1.4066603308
 C          0.1254672593        0.9916445026        2.4088536844
 C          0.2092012362        2.4573524003        1.8103644009
 C          1.5986197201        0.5347930829        2.4255310423
 C          2.1267240533        1.0075609041        1.0405147493
 C          1.4252980734        2.3965209963        0.8140201906
 C          3.6286536922        1.0526710889        1.0266138713
 C          4.3338252729        2.1655409716        0.9199237036
 C          3.7351534500        3.5079472173        0.7263313419
 N          2.2625049786        3.6303712777        1.1233343554
 C          2.0442705067        3.8994636956        2.6101083539
 C          0.6211971450        3.4317075680        2.9025522340
 O          1.7369957089        4.6455564688        0.4357697857
 H          1.0811416412        2.4924482748       -0.2175812136
 C         -0.4724712398        0.9203223855        3.8122814771
 O          0.2654690894        1.1041601346        4.7556838002
 O         -1.8048766638        0.6628503398        3.9235421624
 C         -2.1586336014        0.6230550957        5.2703532437
 H         -0.3743749524       -0.8924683268       -0.5156615217
 H         -0.3693317382        0.8376098828       -0.5989590462
 H          1.9236866745       -1.0024996931        0.2246659513
 H          1.9363168854        0.2500612767       -0.9926783137
 H         -2.4209507838        5.6131647257       -0.3788271316
 H         -4.3395465634        4.0892334563       -0.5801204734
 H         -4.1494598931        1.7707113467        0.2236511010
 H         -0.3291715896        4.8223270411        0.6491128256
 H         -2.7988061213        0.0195698270        1.0737887581
 H         -0.7380158943       -0.9170568719        1.8518171243
 H          1.6796915904       -0.5482309939        2.5465424996
 H          2.1446803350        1.0049949752        3.2468574223
 H          4.1254860049        0.1037388652        1.1511602461
 H          5.4118343058        2.1162329815        0.9549111794
 H          4.2886607208        4.2665934942        1.2845266151
 H          3.7941449333        3.7952664406       -0.3258526526
 H          2.7912355545        3.3504662444        3.1864339151
 H          2.1825561573        4.9653718064        2.8008715189
 H         -0.0773237124        4.2728969268        2.8928121572
 H          0.5501388601        2.9920775335        3.9006734660
 H         -3.2259482650        0.4014166848        5.3475970009
 H         -1.5862679570       -0.1599992056        5.7710312205
 H         -1.9550732131        1.5955818674        5.7233388877
  50
    -0.002115 !GC
 C          0.0000000000        0.0000000000        0.0000000000
 C          1.5456095706        0.0000000000        0.0000000000
 C         -2.4466096377        4.5838900089        0.0000000000
 C         -3.5148258981        3.7116892927       -0.0676533574
 C         -3.3804713310        2.4242852640        0.3966473853
 C         -2.1771793147        1.9879816789        0.9529936002
 C         -1.1059835077        2.8943157362        1.0728055110
 C         -1.2544486002        4.1708337616        0.5607320338
 N         -2.0095942428        0.6431421639        1.2933906488
 C         -0.6482895228        0.1024751753        1.4080651925
 C          0.1295746854        1.0416241267        2.3803515332
 C          0.1973255403        2.4929659859        1.7559296816
 C          1.6109015952        0.6161738559        2.4159219519
 C          2.1233989106        1.0476157405        1.0090579144
 C          1.4027481849        2.4207502563        0.7434949515
 C          3.6242464398        1.1051215673        0.9752980469
 C          4.3204440884        2.2158387845        0.8077742477
 C          3.7121380582        3.5462143956        0.5697587932
 N          2.2506843562        3.6919530737        0.9997378475
 C          2.0768314357        3.9985091627        2.4851642369
 C          0.6534735688        3.5663602593        2.8219020442
 O          1.7186734148        4.6972258206        0.3025768958
 H          1.0448458734        2.4800287676       -0.2860571146
 C         -0.5238845925        0.9209942015        3.7512066767
 O         -0.5221124279        1.9163895224        4.4439090537
 O         -1.0533188345       -0.2765973952        4.1138927825
 C         -1.5147036173       -0.2028687161        5.4253406135
 H         -0.3760667803       -0.8995670545       -0.5019906398
 H         -0.3731446796        0.8305336585       -0.6064147756
 H          1.9224494755       -0.9947200013        0.2576152918
 H          1.9354889826        0.2175789601       -1.0003258084
 H         -2.5429457612        5.5852440237       -0.3874499897
 H         -4.4474008960        4.0351402277       -0.5005916930
 H         -4.1987938226        1.7288217421        0.3200356831
 H         -0.4056279675        4.8341411215        0.5757381230
 H         -2.6860249822       -0.0382040548        0.9527144166
 H         -0.6956131277       -0.8924956029        1.8755459678
 H          1.7067099510       -0.4596341450        2.5816049743
 H          2.1508877037        1.1251759237        3.2174379062
 H          4.1296919507        0.1658257346        1.1342431034
 H          5.3991562112        2.1739479227        0.8286537268
 H          4.2812266327        4.3290487402        1.0763657920
 H          3.7421184274        3.7851745964       -0.4956425247
 H          2.8271962417        3.4487458339        3.0562022328
 H          2.2396005946        5.0657047100        2.6472424277
 H         -0.0303975481        4.4197974091        2.8166434883
 H          0.5896139700        3.1401447131        3.8272243178
 H         -0.6851632891        0.0543912108        6.0865279414
 H         -2.3034917130        0.5489515371        5.4867713557
 H         -1.9182698583       -1.1783031742        5.7079986837
  50
    -0.001651 !GC
 C          0.0000000000        0.0000000000        0.0000000000
 C          1.5469338056        0.0000000000        0.0000000000
 C         -2.4105623651        4.5713779929        0.0000000000
 C         -3.4820737130        3.7029484834       -0.0637482275
 C         -3.3553531532        2.4200865109        0.4149967138
 C         -2.1563310705        1.9851699446        0.9811069990
 C         -1.0806140311        2.8865170921        1.0940141071
 C         -1.2236783492        4.1552118980        0.5695949743
 N         -1.9983617946        0.6476919892        1.3483866965
 C         -0.6465045244        0.0807948732        1.4282820998
 C          0.1699175644        0.9849720329        2.4026435162
 C          0.2229666516        2.4870091497        1.7790788385
 C          1.6393111558        0.5164372295        2.4068494055
 C          2.1511152560        0.9662347222        1.0070804540
 C          1.4651061751        2.3624213761        0.7776955130
 C          3.6529625813        0.9881734458        0.9646185996
 C          4.3741507832        2.0867717896        0.8242268526
 C          3.7952482943        3.4367971266        0.6259094475
 N          2.3374254885        3.5995212538        1.0619376121
 C          2.1693429987        3.8754188466        2.5543364071
 C          0.7380216046        3.4624567223        2.8816799325
 O          1.8229495370        4.6296675944        0.3883289647
 H          1.1052945971        2.4548660937       -0.2487827871
 C         -0.4475236579        0.8851127591        3.7937840430
 O         -1.1151117103       -0.0854362598        4.0767398161
 O         -0.1759471603        1.9088269195        4.6473066426
 C         -0.8254230361        1.6881527002        5.8594213721
 H         -0.3711467729       -0.8853446072       -0.5303521393
 H         -0.3696294948        0.8457174799       -0.5872310265
 H          1.9233992179       -0.9983936491        0.2436118573
 H          1.9361015080        0.2288371666       -0.9981599291
 H         -2.5043413861        5.5684223864       -0.3988680870
 H         -4.4118414838        4.0262209850       -0.5028954431
 H         -4.1774794795        1.7283401226        0.3460532533
 H         -0.3707234783        4.8131997479        0.5835069156
 H         -2.6347114811       -0.0578618592        0.9792249943
 H         -0.7044956398       -0.9238537558        1.8724720008
 H          1.7057912949       -0.5658462292        2.5424184656
 H          2.2047066530        0.9883945232        3.2135319172
 H          4.1367993983        0.0331093823        1.0938333591
 H          5.4517078081        2.0192799904        0.8368275564
 H          4.3807398590        4.1923444600        1.1548442892
 H          3.8296905817        3.7061334688       -0.4321057960
 H          2.9096503754        3.2989376412        3.1119782077
 H          2.3517871342        4.9355336615        2.7403863078
 H          0.0682101125        4.3269939476        2.8865164661
 H          0.6622469356        3.0217292711        3.8804182702
 H         -1.9033694161        1.6702353587        5.6811645482
 H         -0.4996896599        0.7355487389        6.2799076886
 H         -0.5925078509        2.5089626836        6.5412777150
  50
    -0.001161 !GC
 C          0.0000000000        0.0000000000        0.0000000000
 C          1.5469068062        0.0000000000        0.0000000000
 C         -2.4159500898        4.5744715292        0.0000000000
 C         -3.4867161176        3.7052050477       -0.0652669099
 C         -3.3586763669        2.4214347660        0.4106921005
 C         -2.1590710380        1.9863987378        0.9754721727
 C         -1.0840345302        2.8884131450        1.0897442116
 C         -1.2281699808        4.1587019662        0.5680653459
 N         -1.9997708161        0.6482648853        1.3398058398
 C         -0.6472021311        0.0838587435        1.4256823914
 C          0.1650156299        0.9925094246        2.3994647128
 C          0.2196639761        2.4883764626        1.7742543205
 C          1.6358846586        0.5285288582        2.4064370059
 C          2.1486843329        0.9770132445        1.0065847136
 C          1.4571890524        2.3696800707        0.7714499830
 C          3.6504959507        1.0045128126        0.9661781609
 C          4.3674955801        2.1052362084        0.8212145954
 C          3.7830530740        3.4516602999        0.6149948102
 N          2.3250552689        3.6110333176        1.0517201970
 C          2.1571816753        3.8904169264        2.5435537692
 C          0.7276424057        3.4729375818        2.8735164901
 O          1.8064228073        4.6374072241        0.3755641582
 H          1.0968648655        2.4571804557       -0.2552501947
 C         -0.4551813750        0.8960555981        3.7895395864
 O         -1.1066856035       -0.0835808013        4.0795248094
 O         -0.2044162139        1.9323312871        4.6344066304
 C         -0.8534261263        1.7108716677        5.8466201585
 H         -0.3713861958       -0.8868549136       -0.5276007893
 H         -0.3696737460        0.8440448419       -0.5895971632
 H          1.9228534307       -0.9979848982        0.2461320658
 H          1.9363996423        0.2263018605       -0.9986131075
 H         -2.5103535871        5.5725899027       -0.3960973816
 H         -4.4169802787        4.0286162785       -0.5034144384
 H         -4.1801946934        1.7290943265        0.3404990974
 H         -0.3762256949        4.8180101213        0.5833113555
 H         -2.6386367662       -0.0562563147        0.9734318920
 H         -0.7048020124       -0.9195778726        1.8726404470
 H          1.7057135025       -0.5531677551        2.5448642516
 H          2.1988768852        1.0043437392        3.2125613650
 H          4.1378522954        0.0520505460        1.1008279336
 H          5.4452866365        2.0422560688        0.8357541669
 H          4.3661698146        4.2127737454        1.1385984864
 H          3.8152227517        3.7145556239       -0.4447217465
 H          2.9004496283        3.3186553935        3.1020952717
 H          2.3355486005        4.9517873256        2.7263524389
 H          0.0544758976        4.3348720253        2.8784438844
 H          0.6549910934        3.0329735266        3.8728468220
 H         -1.9290791158        1.6402815640        5.6711357438
 H         -0.4912079668        0.7740887094        6.2752218798
 H         -0.6375235496        2.5395266994        6.5241024628
  50
    -0.000870 !GC
 C          0.0000000000        0.0000000000        0.0000000000
 C          1.5465561917        0.0000000000        0.0000000000
 C         -2.3319415678        4.6611082846        0.0000000000
 C         -3.4167301556        3.8138543009       -0.1093940092
 C         -3.3209836944        2.5160464392        0.3349478091
 C         -2.1403501892        2.0458426351        0.9112984563
 C         -1.0545550446        2.9244282058        1.0768909911
 C         -1.1634004745        4.2122124709        0.5830870400
 N         -2.0056756213        0.6966743576        1.2367757667
 C         -0.6692334338        0.1143187259        1.4025411199
 C          0.1294396208        1.0225163456        2.3946629448
 C          0.2224771528        2.4834325799        1.7877376401
 C          1.5994926788        0.5543247437        2.4136824763
 C          2.1319489727        1.0147339249        1.0269597204
 C          1.4404814561        2.4078098883        0.7923659312
 C          3.6341596294        1.0490227201        1.0129564664
 C          4.3476941854        2.1557061564        0.8983007084
 C          3.7594775780        3.5015642088        0.6973985877
 N          2.2889506082        3.6405029650        1.0972451233
 C          2.0778970474        3.9156176949        2.5842477219
 C          0.6490605037        3.4683131468        2.8823497884
 O          1.7731755893        4.6602407001        0.4091053849
 H          1.0976647301        2.5009729805       -0.2399245048
 C         -0.4574597960        0.9843226674        3.8029305597
 O         -1.5003944693        0.3780190890        3.9244296296
 O          0.1659393558        1.6387107253        4.8196665374
 C         -0.5866411942        1.5201972762        5.9855317830
 H         -0.3737218723       -0.9009171864       -0.5012114043
 H         -0.3675030366        0.8275054471       -0.6141667308
 H          1.9234018449       -1.0008139141        0.2329290245
 H          1.9364421536        0.2411110213       -0.9949174392
 H         -2.3968817476        5.6705766287       -0.3723432491
 H         -4.3312374319        4.1647037534       -0.5592127234
 H         -4.1513238675        1.8392892592        0.2268280120
 H         -0.3012381789        4.8564599678        0.6298522213
 H         -2.7195852711        0.0282716418        0.9487890667
 H         -0.7642180911       -0.8802572476        1.8616868807
 H          1.6705365005       -0.5284619662        2.5428921699
 H          2.1470768416        1.0236181843        3.2345099073
 H          4.1240156576        0.0973117991        1.1439366557
 H          5.4253159847        2.0983616277        0.9331978878
 H          4.3213562204        4.2588626114        1.2490555885
 H          3.8181766412        3.7814196340       -0.3568344797
 H          2.8189472757        3.3578285522        3.1597907587
 H          2.2317274491        4.9798597681        2.7722853053
 H         -0.0356695252        4.3205832100        2.8713226186
 H          0.5794766854        3.0322948050        3.8818872702
 H         -0.6581466025        0.4660596144        6.2608484628
 H         -0.1020425449        2.0834174963        6.7849511169
 H         -1.5870944013        1.9180573743        5.8010975232
  50
    -0.000715 !GC
 C          0.0000000000        0.0000000000        0.0000000000
 C          1.5454562792        0.0000000000        0.0000000000
 C         -2.5023864561        4.5991195824        0.0000000000
 C         -3.5802054056        3.7358870560       -0.0029843185
 C         -3.4315136351        2.4494039403        0.4594424186
 C         -2.2005880886        2.0019690238        0.9432147999
 C         -1.1215006258        2.9061250119        1.0129100211
 C         -1.2865759533        4.1808475965        0.5033382153
 N         -2.0239139197        0.6440707587        1.2641702821
 C         -0.6589988689        0.1190491556        1.4050061395
 C          0.1154485459        1.0801899918        2.3548875052
 C          0.1837687860        2.5175824022        1.6989938320
 C          1.5974807796        0.6540943759        2.4029668296
 C          2.1155586748        1.0586522604        0.9897223344
 C          1.3981844870        2.4272611997        0.6948308215
 C          3.6163968556        1.1139553257        0.9579073279
 C          4.3138870442        2.2206691064        0.7700157684
 C          3.7077946560        3.5476970027        0.5080617255
 N          2.2472849005        3.7070018127        0.9369563952
 C          2.0750142250        4.0306727788        2.4195262500
 C          0.6468526159        3.6179371926        2.7601509725
 O          1.7218461039        4.7085417924        0.2294440557
 H          1.0465042624        2.4703018799       -0.3376583433
 C         -0.5553827294        1.0273118296        3.7203346350
 O         -0.3068976798        1.9382738167        4.4809264894
 O         -1.3570891769       -0.0309493960        4.0101993435
 C         -1.8057399633        0.0699377482        5.3247817514
 H         -0.3767764771       -0.9059947302       -0.4897807527
 H         -0.3743019513        0.8217856690       -0.6175033689
 H          1.9227863231       -0.9893383319        0.2768559803
 H          1.9352372022        0.1986883380       -1.0042946853
 H         -2.6130189434        5.5990909039       -0.3870760798
 H         -4.5324004639        4.0646617475       -0.3862592838
 H         -4.2548013011        1.7566498561        0.4242574240
 H         -0.4356516043        4.8416169873        0.4837085448
 H         -2.7162233724        0.1798918076        1.8535050483
 H         -0.6959478849       -0.8734790533        1.8783844080
 H          1.6921581899       -0.4180958591        2.5905551714
 H          2.1346007705        1.1776208670        3.1969133245
 H          4.1205383979        0.1772357618        1.1350449726
 H          5.3925783680        2.1778760262        0.7926501127
 H          4.2801532992        4.3382589173        0.9988072602
 H          3.7367896314        3.7666022762       -0.5617003156
 H          2.8192468370        3.4798715565        2.9975130378
 H          2.2477144774        5.0981588539        2.5695196055
 H         -0.0287430048        4.4778589206        2.7444002025
 H          0.5745796233        3.2009992845        3.7698121370
 H         -0.9445901640        0.0933040994        5.9962004868
 H         -2.3788321628        0.9929831763        5.4345559646
 H         -2.4368605569       -0.7908586654        5.5544368049
  50
    -0.000652 !GC
 C          0.0000000000        0.0000000000        0.0000000000
 C          1.5453100532        0.0000000000        0.0000000000
 C         -2.4621665511        4.5715807637        0.0000000000
 C         -3.5286328330        3.6967994528       -0.0613738183
 C         -3.3895896714        2.4109989995        0.4059117580
 C         -2.1832473302        1.9790749040        0.9591405382
 C         -1.1138706866        2.8882202397        1.0733673359
 C         -1.2670835709        4.1629191502        0.5578152954
 N         -2.0098995708        0.6350147810        1.2990056231
 C         -0.6463035637        0.0996195943        1.4085488678
 C          0.1287747939        1.0403996728        2.3823425909
 C          0.1922779822        2.4920458190        1.7545109525
 C          1.6113414152        0.6196632471        2.4158887452
 C          2.1210652904        1.0504285851        1.0075283088
 C          1.3958300027        2.4204266012        0.7390874424
 C          3.6217625218        1.1117249273        0.9719206271
 C          4.3149721432        2.2236275192        0.8001131325
 C          3.7028362739        3.5513749659        0.5575901518
 N          2.2411689576        3.6938955740        0.9877583130
 C          2.0675132357        4.0078202376        2.4714735813
 C          0.6469390242        3.5697134977        2.8109377201
 O          1.7045938505        4.6930112082        0.2852334419
 H          1.0351393045        2.4749199698       -0.2897559408
 C         -0.5257369724        0.9060901715        3.7524963694
 O         -1.1835912803       -0.0818083779        3.9973216832
 O         -0.2889355978        1.9176057056        4.6294551325
 C         -0.9565814755        1.6600639721        5.8240713971
 H         -0.3763157393       -0.8989159232       -0.5029034966
 H         -0.3738716282        0.8312330621       -0.6048921150
 H          1.9225281489       -0.9940508186        0.2596453937
 H          1.9351799971        0.2159081390       -1.0006931108
 H         -2.5624486604        5.5718238067       -0.3893530862
 H         -4.4636367934        4.0170473659       -0.4913885782
 H         -4.2066111451        1.7134321551        0.3343750225
 H         -0.4201012845        4.8286415187        0.5684672586
 H         -2.6861138124       -0.0487122698        0.9624495805
 H         -0.6889133890       -0.8963473950        1.8742794269
 H          1.7124962001       -0.4556314632        2.5816460560
 H          2.1524533076        1.1329299219        3.2139625058
 H          4.1297862853        0.1742743323        1.1335496319
 H          5.3938094217        2.1845726213        0.8199449994
 H          4.2696264218        4.3377824427        1.0611589224
 H          3.7316856985        3.7866518386       -0.5086256334
 H          2.8210406937        3.4649146645        3.0448800002
 H          2.2248644593        5.0766367718        2.6279225430
 H         -0.0435947042        4.4178874128        2.8037091402
 H          0.5833917735        3.1486129566        3.8184324304
 H         -2.0305490056        1.6094139850        5.6351291427
 H         -0.5950955238        0.7208512787        6.2463039629
 H         -0.7464185988        2.4769027217        6.5194086313
  50
    -0.000512 !GC
 C          0.0000000000        0.0000000000        0.0000000000
 C          1.5466036300        0.0000000000        0.0000000000
 C         -2.3299003611        4.6583605157        0.0000000000
 C         -3.4149100947        3.8114765757       -0.1100530498
 C         -3.3201066026        2.5138124239        0.3350096542
 C         -2.1402600643        2.0434108135        0.9128302406
 C         -1.0544927929        2.9217956689        1.0792748798
 C         -1.1622437632        4.2094518038        0.5847385180
 N         -2.0057694234        0.6941899341        1.2382687903
 C         -0.6689354746        0.1118933529        1.4026470235
 C          0.1295060794        1.0188719194        2.3961309010
 C          0.2219722815        2.4805214355        1.7908519801
 C          1.5994952312        0.5507228272        2.4145456013
 C          2.1318638887        1.0134357292        1.0285697603
 C          1.4400249747        2.4065807448        0.7957755193
 C          3.6340849422        1.0482701486        1.0152158172
 C          4.3470196374        2.1556749016        0.9036619924
 C          3.7578826864        3.5015128386        0.7051301124
 N          2.2865492219        3.6372980522        1.1029591157
 C          2.0728446534        3.9107458203        2.5898480668
 C          0.6451055415        3.4585398521        2.8858680665
 O          1.7696341850        4.6563933834        0.4147617702
 H          1.0975296344        2.5011366090       -0.2364998977
 C         -0.4573660104        0.9750902482        3.8043766136
 O         -1.5050169962        0.3766327759        3.9230943188
 O          0.1722663807        1.6172096006        4.8249856496
 C         -0.5799733730        1.4966906575        5.9908602712
 H         -0.3736725932       -0.9001852507       -0.5026511732
 H         -0.3674946078        0.8285228329       -0.6128772307
 H          1.9235000240       -1.0011549234        0.2313548202
 H          1.9364514344        0.2427146816       -0.9945530934
 H         -2.3938577356        5.6675693332       -0.3732730628
 H         -4.3287957298        4.1624647649       -0.5611970047
 H         -4.1505467626        1.8373326880        0.2261776496
 H         -0.2996518983        4.8531014768        0.6312700538
 H         -2.7191998619        0.0257556260        0.9492345326
 H         -0.7635748340       -0.8834508413        1.8602414636
 H          1.6706836107       -0.5322554333        2.5420203205
 H          2.1469454292        1.0188787141        3.2361139954
 H          4.1243361637        0.0964770394        1.1439873253
 H          5.4246463470        2.0990049048        0.9391760957
 H          4.3178888122        4.2580798222        1.2597231496
 H          3.8180258279        3.7840820351       -0.3483086164
 H          2.8150160460        3.3548763265        3.1658138030
 H          2.2230676944        4.9753461078        2.7788160758
 H         -0.0422396375        4.3087096364        2.8747241119
 H          0.5756503418        3.0215387931        3.8849718569
 H         -0.6553302951        0.4406753408        6.2590580394
 H         -0.0921755280        2.0534550919        6.7929691102
 H         -1.5793539608        1.8982559542        5.8108546319
  50
    -0.000450 !GC
 C          0.0000000000        0.0000000000        0.0000000000
 C          1.5454019018        0.0000000000        0.0000000000
 C         -2.5121915167        4.5991932994        0.0000000000
 C         -3.5891327891        3.7348550013        0.0019310155
 C         -3.4369559699        2.4485276827        0.4636211912
 C         -2.2033946188        2.0025278523        0.9419749505
 C         -1.1249945864        2.9078878843        1.0073523369
 C         -1.2937354663        4.1821264760        0.4979628278
 N         -2.0242199076        0.6453476488        1.2631407300
 C         -0.6590158992        0.1216894234        1.4049886532
 C          0.1144250541        1.0863077383        2.3523889143
 C          0.1816481952        2.5225011334        1.6929107522
 C          1.5965285454        0.6610573946        2.4018057777
 C          2.1142963743        1.0614387233        0.9871459526
 C          1.3958759551        2.4286690665        0.6880302408
 C          3.6151575148        1.1170185481        0.9555148111
 C          4.3123194787        2.2234294775        0.7646311273
 C          3.7056329111        3.5492837715        0.4983476363
 N          2.2447425830        3.7086571465        0.9259525326
 C          2.0720386465        4.0378476122        2.4071388313
 C          0.6451325955        3.6222668497        2.7496214978
 O          1.7185618245        4.7068952340        0.2144326767
 H          1.0434739505        2.4683559513       -0.3443491787
 C         -0.5567945316        1.0333283181        3.7176879806
 O         -0.3154603830        1.9489984199        4.4748524230
 O         -1.3497253958       -0.0303714099        4.0117154585
 C         -1.7974986647        0.0709531425        5.3264902923
 H         -0.3769006064       -0.9071389724       -0.4876298075
 H         -0.3746229654        0.8204720518       -0.6190825297
 H          1.9225981851       -0.9885028999        0.2800611910
 H          1.9355092894        0.1955800760       -1.0047918276
 H         -2.6258848295        5.5990963437       -0.3862884816
 H         -4.5435758681        4.0627911707       -0.3765533541
 H         -4.2597372042        1.7549522589        0.4323604089
 H         -0.4439876915        4.8441811091        0.4754710041
 H         -2.7182020129        0.1769677701        1.8470330075
 H         -0.6951855443       -0.8696265601        1.8809869514
 H          1.6917363341       -0.4105596740        2.5925036552
 H          2.1336637654        1.1871955118        3.1940265423
 H          4.1195500271        0.1809615452        1.1355662639
 H          5.3910680226        2.1811845753        0.7876060432
 H          4.2772502330        4.3416410277        0.9870995427
 H          3.7350668125        3.7649995493       -0.5720827139
 H          2.8177903064        3.4912872825        2.9871207425
 H          2.2423502633        5.1062847580        2.5527097286
 H         -0.0324323139        4.4805982580        2.7319570989
 H          0.5743563050        3.2079406385        3.7603420544
 H         -0.9324296682        0.0737894519        5.9939885853
 H         -2.3669519986        0.9935203703        5.4483439928
 H         -2.4190280477       -0.7975098125        5.5560512704
  50
    -0.000322 !GC
 C          0.0000000000        0.0000000000        0.0000000000
 C          1.5459511011        0.0000000000        0.0000000000
 C         -2.4017424533        4.6039466196        0.0000000000
 C         -3.4894031697        3.7546899723       -0.0511435938
 C         -3.3733193573        2.4625045031        0.4043513514
 C         -2.1657868361        1.9957195243        0.9273664988
 C         -1.0802298596        2.8839299655        1.0478821337
 C         -1.2106724317        4.1657176200        0.5440351676
 N         -2.0180500509        0.6348645794        1.2534774849
 C         -0.6620718138        0.0931492242        1.4063334400
 C          0.1210087252        1.0184403346        2.3908689458
 C          0.2003136800        2.4713415082        1.7678274256
 C          1.5971407338        0.5685433467        2.4160700607
 C          2.1274141204        1.0229018913        1.0256457720
 C          1.4260812640        2.4083489152        0.7814639245
 C          3.6289065007        1.0662860637        1.0076035468
 C          4.3364105410        2.1766533772        0.8923861269
 C          3.7437471570        3.5215621803        0.6979259341
 N          2.2699332447        3.6602915844        1.0865172031
 C          2.0508178101        3.9423541816        2.5713380589
 C          0.6137768189        3.5161458698        2.8558011872
 O          1.7596066509        4.6786452196        0.3916636664
 H          1.0904694801        2.4953475271       -0.2537681171
 C         -0.4839254328        0.9863283523        3.7916825294
 O         -1.5612574554        0.4397510462        3.8952754720
 O          0.1794392890        1.5703919554        4.8267126754
 C         -0.5862720744        1.4748971682        5.9864097071
 H         -0.3755840993       -0.8943391035       -0.5114573818
 H         -0.3707364650        0.8350261914       -0.6016466682
 H          1.9228408545       -0.9998071638        0.2370708149
 H          1.9357713924        0.2374849341       -0.9957756378
 H         -2.4838503893        5.6086443612       -0.3818091061
 H         -4.4226025202        4.0984771317       -0.4666251243
 H         -4.2028158664        1.7799575087        0.3334770705
 H         -0.3511223616        4.8150779837        0.5599277852
 H         -2.6625549854        0.2399451957        1.9478340888
 H         -0.7167453366       -0.9110439273        1.8517159241
 H          1.6812758880       -0.5120011756        2.5552265052
 H          2.1369975916        1.0516898016        3.2338819227
 H          4.1240501770        0.1170033478        1.1353126711
 H          5.4143410266        2.1239329383        0.9244039183
 H          4.3016804947        4.2758278413        1.2575162165
 H          3.8092425835        3.8088373571       -0.3537552962
 H          2.7775406276        3.3759412353        3.1566215224
 H          2.2167034238        5.0051604440        2.7577077744
 H         -0.0624902351        4.3747795732        2.8197218470
 H          0.5196199570        3.0982947856        3.8613261886
 H         -0.7314921873        0.4210112784        6.2339933832
 H         -0.0685879829        1.9832660836        6.8018197518
 H         -1.5567823617        1.9438584503        5.8102572888
  50
    -0.000285 !GC
 C          0.0000000000        0.0000000000        0.0000000000
 C          1.5467790003        0.0000000000        0.0000000000
 C         -2.3334115765        4.5888878643        0.0000000000
 C         -3.4061023398        3.7300723161       -0.1341751996
 C         -3.3097518471        2.4361328707        0.3206480402
 C         -2.1414334675        1.9795768937        0.9328347966
 C         -1.0672128310        2.8695716218        1.1162878069
 C         -1.1755109140        4.1545663815        0.6140904151
 N         -2.0136452722        0.6298810793        1.2884004700
 C         -0.6620453677        0.0699308603        1.4089180761
 C          0.1255839427        0.9675073042        2.4188141621
 C          0.2097804384        2.4370011603        1.8304120399
 C          1.5990181545        0.5104491369        2.4330177420
 C          2.1282347815        0.9958459858        1.0527359182
 C          1.4275535119        2.3871004338        0.8395473349
 C          3.6300703303        1.0421104258        1.0413009100
 C          4.3339509566        2.1571166802        0.9492089328
 C          3.7339783730        3.5012651705        0.7706774987
 N          2.2602941801        3.6170708932        1.1655781708
 C          2.0355313664        3.8679623639        2.6548194442
 C          0.6112247382        3.3965893367        2.9359536676
 O          1.7353154899        4.6397401805        0.4886771619
 H          1.0876856712        2.4942006096       -0.1923998715
 C         -0.4900486561        0.8882843397        3.8143075603
 O         -1.6917988555        0.8031882422        3.9389780854
 O          0.3864165069        0.9331470085        4.8562807218
 C         -0.3179804756        0.8751111202        6.0571588135
 H         -0.3747275350       -0.8871570886       -0.5244298134
 H         -0.3691791559        0.8435428590       -0.5905030491
 H          1.9238411355       -1.0048785039        0.2140979870
 H          1.9363345951        0.2600463721       -0.9902494988
 H         -2.3988267381        5.5961399053       -0.3783621873
 H         -4.3121764115        4.0695293901       -0.6090299089
 H         -4.1318752300        1.7516471993        0.1993856808
 H         -0.3202072153        4.8066219908        0.6770035861
 H         -2.8478671903        0.0434597066        1.1811586477
 H         -0.7331752680       -0.9374677421        1.8448578154
 H          1.6798684100       -0.5736372496        2.5439742088
 H          2.1469968909        0.9730383406        3.2572400876
 H          4.1277135777        0.0922295797        1.1545588331
 H          5.4118470515        2.1085526128        0.9844099779
 H          4.2850626100        4.2538029582        1.3390398614
 H          3.7948833068        3.8013249572       -0.2776290490
 H          2.7805223747        3.3127361647        3.2275373287
 H          2.1717706515        4.9317122166        2.8586314891
 H         -0.0879711277        4.2372704278        2.9312964232
 H          0.5360854213        2.9458967728        3.9286375210
 H          0.3925523434        0.9213657202        6.8859340408
 H         -1.0014208158        1.7240260501        6.1156453011
 H         -0.8705155058       -0.0655149138        6.1034147362
  50
    -0.000214 !GC
 C          0.0000000000        0.0000000000        0.0000000000
 C          1.5472850509        0.0000000000        0.0000000000
 C         -2.4222276604        4.5668072211        0.0000000000
 C         -3.4914200463        3.6953881283       -0.0628098873
 C         -3.3606991360        2.4126743546        0.4153315692
 C         -2.1599570025        1.9808168757        0.9800810711
 C         -1.0862938937        2.8850490879        1.0909811100
 C         -1.2333048479        4.1539633169        0.5677282196
 N         -1.9993742334        0.6442305892        1.3505006528
 C         -0.6464263672        0.0793149131        1.4281979659
 C          0.1685324810        0.9869458744        2.3996171524
 C          0.2190609667        2.4885473682        1.7739776599
 C          1.6380218641        0.5195577762        2.4064499955
 C          2.1503418251        0.9683672999        1.0064681755
 C          1.4619107633        2.3631995209        0.7741375250
 C          3.6521920201        0.9934364616        0.9656677424
 C          4.3710821288        2.0932613557        0.8227662098
 C          3.7892596205        3.4413085564        0.6192367894
 N          2.3317520496        3.6024885318        1.0567948963
 C          2.1647246558        3.8790079817        2.5491862144
 C          0.7355750874        3.4606438736        2.8804575217
 O          1.8148929236        4.6313008610        0.3830603252
 H          1.1019030967        2.4531362560       -0.2525068889
 C         -0.4497819559        0.8942629909        3.7900118760
 O         -0.3357623636        1.8512864076        4.5246441195
 O         -1.0698895539       -0.2679506635        4.1266718442
 C         -1.4851127955       -0.2083370504        5.4543877329
 H         -0.3708654310       -0.8849649401       -0.5312205169
 H         -0.3695765116        0.8460652811       -0.5867349622
 H          1.9236960377       -0.9976995600        0.2465154462
 H          1.9364517527        0.2258605376       -0.9988591028
 H         -2.5190785629        5.5635769297       -0.3987946300
 H         -4.4224394896        4.0161515543       -0.5011480895
 H         -4.1810285978        1.7187375376        0.3470316126
 H         -0.3819745941        4.8139938958        0.5802763666
 H         -2.6264822974       -0.0650737909        0.9729682797
 H         -0.7013674349       -0.9247025214        1.8743546210
 H          1.7036945390       -0.5624342951        2.5447556503
 H          2.2006269008        0.9920651948        3.2147482075
 H          4.1380220990        0.0399423595        1.0989569133
 H          5.4487722079        2.0282993307        0.8371758020
 H          4.3738125138        4.2003757987        1.1442006106
 H          3.8217563839        3.7061703218       -0.4399837819
 H          2.9083896395        3.3058257592        3.1058130568
 H          2.3437125123        4.9399082041        2.7340727723
 H          0.0636731017        4.3235178399        2.8912774204
 H          0.6681834649        3.0149483120        3.8775630155
 H         -0.6089702560       -0.0735096747        6.0930976053
 H         -2.1746113838        0.6274843754        5.5826317194
 H         -1.9716842194       -1.1513531411        5.7136857154
  50
    -0.000143 !GC
 C          0.0000000000        0.0000000000        0.0000000000
 C          1.5459989179        0.0000000000        0.0000000000
 C         -2.4049468713        4.6070298911        0.0000000000
 C         -3.4921458222        3.7571550500       -0.0505323807
 C         -3.3748207049        2.4647803857        0.4041290884
 C         -2.1665197886        1.9984256145        0.9257954336
 C         -1.0812821397        2.8871400655        1.0454164691
 C         -1.2129770712        4.1690580120        0.5422593848
 N         -2.0183006826        0.6377410610        1.2523014130
 C         -0.6624751711        0.0959414833        1.4059859695
 C          0.1208022419        1.0229901471        2.3887571521
 C          0.1999704874        2.4751915138        1.7643774335
 C          1.5968144368        0.5728984160        2.4152039256
 C          2.1261459763        1.0254374558        1.0237498236
 C          1.4243506051        2.4102068474        0.7765919347
 C          3.6277100917        1.0696664983        1.0060744714
 C          4.3345852693        2.1799638438        0.8863697610
 C          3.7408940938        3.5235029025        0.6857264773
 N          2.2680635305        3.6630348280        1.0775741473
 C          2.0516360477        3.9476459681        2.5622873377
 C          0.6154819613        3.5207244811        2.8506903886
 O          1.7560281269        4.6798796544        0.3818239203
 H          1.0874825949        2.4944689177       -0.2584512427
 C         -0.4850954754        0.9940199596        3.7892223391
 O         -1.5622335118        0.4473744688        3.8933505712
 O          0.1754200605        1.5841371660        4.8226193877
 C         -0.5914244164        1.4911202095        5.9818359793
 H         -0.3755426918       -0.8954300050       -0.5096518896
 H         -0.3709330637        0.8337144330       -0.6033937314
 H          1.9231497517       -0.9992177691        0.2391633542
 H          1.9358670232        0.2356519994       -0.9962329339
 H         -2.4881484303        5.6119828584       -0.3809224335
 H         -4.4260243430        4.1006871436       -0.4647233744
 H         -4.2040580691        1.7818500338        0.3338873877
 H         -0.3540307686        4.8191777078        0.5581946677
 H         -2.6624250506        0.2428935142        1.9470932764
 H         -0.7174856716       -0.9073702628        1.8532995264
 H          1.6810419339       -0.5074219883        2.5561118401
 H          2.1367061552        1.0575482994        3.2320863204
 H          4.1234985596        0.1211856900        1.1378683805
 H          5.4126173723        2.1281090374        0.9188904836
 H          4.2996865902        4.2813880466        1.2396654565
 H          3.8033526117        3.8048065051       -0.3679667020
 H          2.7800862191        3.3829766838        3.1470530243
 H          2.2169967981        5.0109340854        2.7463054784
 H         -0.0614852862        4.3788231262        2.8159196654
 H          0.5240488063        3.1032103018        3.8565994893
 H         -0.7279672361        0.4386703779        6.2388252910
 H         -0.0814798532        2.0109268721        6.7949428600
 H         -1.5652325911        1.9505397671        5.7973618290
  50
    -0.000133 !GC
 C          0.0000000000        0.0000000000        0.0000000000
 C          1.5454290274        0.0000000000        0.0000000000
 C         -2.3698029334        4.6595504502        0.0000000000
 C         -3.4513646955        3.8072117071       -0.1015564976
 C         -3.3451166021        2.5084776419        0.3377894200
 C         -2.1571215208        2.0417978324        0.9020080785
 C         -1.0753698751        2.9272039849        1.0626173721
 C         -1.1936987702        4.2169938365        0.5725170463
 N         -2.0108538166        0.6889225377        1.2116306770
 C         -0.6674601901        0.1267611235        1.3935787213
 C          0.1075755360        1.0610117738        2.3802798929
 C          0.2067164111        2.4915749924        1.7663567119
 C          1.5855290235        0.6184703643        2.4186935137
 C          2.1158480302        1.0616804470        1.0239247207
 C          1.4036355084        2.4397006950        0.7614510971
 C          3.6172487492        1.1160621055        1.0100946986
 C          4.3168842487        2.2280218940        0.8660258591
 C          3.7127199927        3.5615202400        0.6340147263
 N          2.2439462160        3.6998955242        1.0407991575
 C          2.0432756973        3.9969790832        2.5251098439
 C          0.6152940057        3.5595899138        2.8374682817
 O          1.7203437220        4.7075823926        0.3407476233
 H          1.0597325627        2.5083674116       -0.2723427630
 C         -0.5200829407        1.0242911584        3.7703815451
 O          0.2095800643        1.0127714878        4.7377227785
 O         -1.8793421416        1.0361341690        3.8345604230
 C         -2.2828462013        1.0144777672        5.1677174627
 H         -0.3766909385       -0.9086099273       -0.4847264730
 H         -0.3700767445        0.8187263525       -0.6242906941
 H          1.9224561847       -0.9976871078        0.2456844410
 H          1.9355494229        0.2298717652       -0.9974524379
 H         -2.4421205362        5.6700218694       -0.3683862725
 H         -4.3716956247        4.1548516394       -0.5420881273
 H         -4.1729001058        1.8278604849        0.2342814018
 H         -0.3348085678        4.8661870405        0.6123303391
 H         -2.7441989590        0.0309337435        0.9496276128
 H         -0.7519022801       -0.8624132228        1.8663655250
 H          1.6762723683       -0.4599727561        2.5691115082
 H          2.1218085539        1.1148787476        3.2309114832
 H          4.1191566301        0.1741536098        1.1643499018
 H          5.3951740049        2.1846988396        0.9010874434
 H          4.2721277031        4.3383599003        1.1603835643
 H          3.7609409305        3.8137218839       -0.4276891696
 H          2.7849912798        3.4450847265        3.1054032121
 H          2.2010239855        5.0634974229        2.6966653415
 H         -0.0691869963        4.4121906420        2.8193462410
 H          0.5430670109        3.1376907622        3.8435223311
 H         -3.3748328899        1.0035835146        5.2060789873
 H         -1.8911076471        0.1175026897        5.6505978396
 H         -1.9099534769        1.9113044480        5.6666414704
  50
    -0.000077 !GC
 C          0.0000000000        0.0000000000        0.0000000000
 C          1.5468348917        0.0000000000        0.0000000000
 C         -2.3303991794        4.5906057349        0.0000000000
 C         -3.4031073661        3.7321733318       -0.1364873081
 C         -3.3078510301        2.4378682074        0.3175890069
 C         -2.1406434129        1.9805283752        0.9313144583
 C         -1.0663532094        2.8699611650        1.1167419111
 C         -1.1735477501        4.1554479898        0.6155003601
 N         -2.0139959281        0.6307332541        1.2869331716
 C         -0.6628118464        0.0699641455        1.4088115805
 C          0.1252296372        0.9665310487        2.4193237223
 C          0.2099053526        2.4363976510        1.8314506922
 C          1.5985499040        0.5087766166        2.4339505598
 C          2.1277114133        0.9949262768        1.0539479875
 C          1.4278161939        2.3865681932        0.8409110630
 C          3.6295816083        1.0411040989        1.0421434700
 C          4.3337324620        2.1559916144        0.9497223580
 C          3.7342542015        3.5004449821        0.7717136411
 N          2.2609788541        3.6171377566        1.1678630361
 C          2.0374250088        3.8661989283        2.6577165290
 C          0.6122864040        3.3976407569        2.9396833508
 O          1.7364802423        4.6412688390        0.4927518313
 H          1.0881717379        2.4943134594       -0.1910450741
 C         -0.4906035042        0.8881605391        3.8147973435
 O         -1.6905199749        0.7819789375        3.9401235559
 O          0.3844207499        0.9601698889        4.8563112062
 C         -0.3190595102        0.9020795383        6.0577324030
 H         -0.3742666416       -0.8873708741       -0.5244188755
 H         -0.3693254885        0.8433268640       -0.5907228210
 H          1.9241888491       -1.0048807307        0.2136341563
 H          1.9365789173        0.2607740849       -0.9899729197
 H         -2.3949438388        5.5982155644       -0.3775920405
 H         -4.3083684898        4.0722863415       -0.6125050657
 H         -4.1300943055        1.7537956120        0.1947925101
 H         -0.3180206519        4.8070995150        0.6800976784
 H         -2.8486583920        0.0451825347        1.1792619166
 H         -0.7350622399       -0.9376033116        1.8441726176
 H          1.6790761225       -0.5754109849        2.5441573938
 H          2.1462023106        0.9707236657        3.2587305331
 H          4.1271004408        0.0911883548        1.1556202539
 H          5.4117762053        2.1071467553        0.9847649297
 H          4.2863306390        4.2527421904        1.3397826262
 H          3.7944716185        3.8006168433       -0.2768058406
 H          2.7815698067        3.3083691301        3.2291418201
 H          2.1764276075        4.9293523237        2.8630147723
 H         -0.0853678913        4.2396370688        2.9358211504
 H          0.5369443794        2.9463428333        3.9321259517
 H          0.3817340608        0.9691538627        6.8922553620
 H         -1.0277526011        1.7319846689        6.0959661191
 H         -0.8642823242       -0.0434925119        6.1020688352
  50
    -0.000070 !GC
 C          0.0000000000        0.0000000000        0.0000000000
 C          1.5456298832        0.0000000000        0.0000000000
 C         -2.4477305298        4.5825466497        0.0000000000
 C         -3.5155603286        3.7098934316       -0.0681055043
 C         -3.3807427927        2.4223859255        0.3958068280
 C         -2.1773822281        1.9862512259        0.9523349840
 C         -1.1065037236        2.8931395637        1.0721476002
 C         -1.2553332118        4.1695665437        0.5603564209
 N         -2.0100194470        0.6413572662        1.2935410755
 C         -0.6483154540        0.1015646730        1.4081310429
 C          0.1290629322        1.0417965055        2.3795075920
 C          0.1971003303        2.4924543494        1.7547892416
 C          1.6103904215        0.6161552509        2.4153652477
 C          2.1241611805        1.0476614719        1.0089239895
 C          1.4030789081        2.4206050521        0.7434368874
 C          3.6250257408        1.1052035047        0.9758380965
 C          4.3209081008        2.2162870849        0.8095157154
 C          3.7118920561        3.5466634424        0.5729560966
 N          2.2500303245        3.6909245877        1.0021880676
 C          2.0753949730        3.9955992222        2.4880116403
 C          0.6523055326        3.5617331492        2.8238609803
 O          1.7178880649        4.6966801340        0.3058814189
 H          1.0461043627        2.4806726595       -0.2863872265
 C         -0.5286414835        0.9268331940        3.7485913943
 O         -0.4193926838        1.8861996012        4.4821377980
 O         -1.1796382034       -0.2228118798        4.0652801363
 C         -1.6242407535       -0.1578283660        5.3830685322
 H         -0.3759405741       -0.8992849308       -0.5026241597
 H         -0.3731451490        0.8308105968       -0.6060413921
 H          1.9223364824       -0.9948269430        0.2574921496
 H          1.9357047582        0.2175316109       -1.0003130985
 H         -2.5446024897        5.5840934332       -0.3866263028
 H         -4.4484943897        4.0334081750       -0.5004609076
 H         -4.1989985038        1.7268286080        0.3192731112
 H         -0.4067571396        4.8331698134        0.5758233410
 H         -2.6845948371       -0.0400345993        0.9486608442
 H         -0.6945156696       -0.8936690760        1.8751656899
 H          1.7058188942       -0.4596275841        2.5814777833
 H          2.1499473694        1.1248584962        3.2173819500
 H          4.1305533311        0.1658514285        1.1341525308
 H          5.3996706259        2.1747092789        0.8305692525
 H          4.2803149176        4.3291948424        1.0811224582
 H          3.7424793742        3.7871899686       -0.4921979760
 H          2.8261777127        3.4460372231        3.0587449000
 H          2.2369263777        5.0627994609        2.6513231446
 H         -0.0326800458        4.4142650248        2.8200566725
 H          0.5876898501        3.1328279322        3.8281443865
 H         -0.7641753923       -0.0031335427        6.0385316484
 H         -2.3302223605        0.6667591167        5.4897718783
 H         -2.0999649668       -1.1069642275        5.6404499335
  50
    -0.000039 !GC
 C          0.0000000000        0.0000000000        0.0000000000
 C          1.5463447380        0.0000000000        0.0000000000
 C         -2.4034444790        4.6311277934        0.0000000000
 C         -3.4921632601        3.7832851632       -0.0516024925
 C         -3.3763019425        2.4893642954        0.3989158892
 C         -2.1683005580        2.0199249965        0.9185435111
 C         -1.0806668175        2.9059339117        1.0383610711
 C         -1.2114277146        4.1892903388        0.5392056775
 N         -2.0211104664        0.6573970024        1.2381009353
 C         -0.6702767582        0.1084460885        1.4021814970
 C          0.1174891676        1.0361437591        2.3818089719
 C          0.2010175256        2.4870050781        1.7532135426
 C          1.5905705366        0.5777816594        2.4105288770
 C          2.1224559418        1.0230350867        1.0176859561
 C          1.4237429322        2.4083657406        0.7620317325
 C          3.6243537242        1.0662977763        1.0058475827
 C          4.3305700977        2.1764651503        0.8794025820
 C          3.7335053867        3.5158659648        0.6608035922
 N          2.2607306788        3.6483913773        1.0544173787
 C          2.0409940335        3.9396428411        2.5370409926
 C          0.6156299024        3.4813331287        2.8351921582
 O          1.7392365133        4.6552870201        0.3518291510
 H          1.0836215105        2.4866084961       -0.2724005162
 C         -0.4822768403        1.0178142420        3.7846544732
 O         -1.5545857778        0.4629517260        3.8956244314
 O          0.1731188637        1.6280023581        4.8093349004
 C         -0.5937392233        1.5450729698        5.9693358191
 H         -0.3751564316       -0.9005836122       -0.5008605091
 H         -0.3705022304        0.8274112570       -0.6123687901
 H          1.9238598399       -0.9976271908        0.2450416094
 H          1.9364782556        0.2302517367       -0.9973895922
 H         -2.4862137174        5.6369264156       -0.3788055581
 H         -4.4259784046        4.1295229920       -0.4637654274
 H         -4.2063587158        1.8076423199        0.3270451086
 H         -0.3508059497        4.8373072927        0.5527627027
 H         -2.6202998608        0.2588178744        1.9702014649
 H         -0.7377146950       -0.8907234165        1.8568768218
 H          1.6688369406       -0.5025654372        2.5547535299
 H          2.1331271500        1.0621800762        3.2258540684
 H          4.1200956565        0.1194252243        1.1488048511
 H          5.4084826322        2.1269453859        0.9171462820
 H          4.2880009138        4.2837287538        1.2053088477
 H          3.7935342073        3.7837152114       -0.3964721222
 H          2.7857194097        3.3971031102        3.1223240997
 H          2.1821506040        5.0079791711        2.7116388773
 H         -0.0772637372        4.3267450326        2.8121094824
 H          0.5456567687        3.0549580186        3.8391027613
 H         -0.7263617692        0.4946165294        6.2370278751
 H         -0.0840532553        2.0753312481        6.7757561303
 H         -1.5695488718        1.9983140163        5.7828661692
  50
    -0.000002 !GC
 C          0.0000000000        0.0000000000        0.0000000000
 C          1.5463386821        0.0000000000        0.0000000000
 C         -2.4081231982        4.6338722357        0.0000000000
 C         -3.4965117151        3.7854835383       -0.0492894417
 C         -3.3789263578        2.4915405092        0.4005876240
 C         -2.1694253390        2.0225981207        0.9170911800
 C         -1.0819288662        2.9091209206        1.0347537842
 C         -1.2145886098        4.1924095196        0.5362184975
 N         -2.0215003007        0.6602916083        1.2369772238
 C         -0.6709745432        0.1113915706        1.4020070392
 C          0.1169307790        1.0412381101        2.3793937988
 C          0.2007959313        2.4910227754        1.7483286549
 C          1.5903850200        0.5839176834        2.4094583269
 C          2.1219345768        1.0253650476        1.0152335404
 C          1.4234504435        2.4103652779        0.7568936944
 C          3.6238555118        1.0678142774        1.0029015587
 C          4.3307050932        2.1771811804        0.8728992576
 C          3.7344802788        3.5164330774        0.6512476918
 N          2.2622800176        3.6517377859        1.0462278043
 C          2.0443242086        3.9453254083        2.5286961290
 C          0.6183471760        3.4905216839        2.8292151480
 O          1.7414840077        4.6583624634        0.3427177609
 H          1.0829693316        2.4866291867       -0.2775447081
 C         -0.4823742192        1.0292155741        3.7823931221
 O         -1.5494162173        0.4645389729        3.8971929766
 O          0.1681654982        1.6516567563        4.8029241086
 C         -0.5971811936        1.5684925795        5.9639279287
 H         -0.3755812512       -0.9016751920       -0.4984747287
 H         -0.3703732916        0.8259009194       -0.6144098876
 H          1.9237239933       -0.9971721354        0.2472003315
 H          1.9362612156        0.2279215675       -0.9980086372
 H         -2.4925311103        5.6397586995       -0.3780458856
 H         -4.4315245626        4.1313663472       -0.4588690158
 H         -4.2088551444        1.8093913244        0.3306959214
 H         -0.3543076146        4.8408484293        0.5480387234
 H         -2.6202794078        0.2616202935        1.9693837020
 H         -0.7384026812       -0.8866168351        1.8592023626
 H          1.6686011538       -0.4961124856        2.5563554968
 H          2.1331539774        1.0701182008        3.2235323960
 H          4.1191643059        0.1210628990        1.1482512001
 H          5.4086115567        2.1270771948        0.9103109322
 H          4.2903700348        4.2853233302        1.1928201409
 H          3.7933763537        3.7813348572       -0.4068243840
 H          2.7886915360        3.4020734181        3.1137874191
 H          2.1879671492        5.0135812008        2.7017107417
 H         -0.0727390644        4.3374198822        2.8060326741
 H          0.5486302123        3.0652724079        3.8336655961
 H         -0.7182795345        0.5189406744        6.2401326627
 H         -0.0951223363        2.1108491674        6.7672266224
 H         -1.5778267154        2.0099967477        5.7714545278
