 Entering Gaussian System, Link 0=g16
 Initial command:
 /home/dinglab/software/g16/l1.exe "/home/dinglab/software/g16/scratch/Gau-2823484.inp" -scrdir="/home/dinglab/software/g16/scratch/"
 Default is to use a total of  18 processors:
                               18 via shared-memory
                                1 via Linda
 Entering Link 1 = /home/dinglab/software/g16/l1.exe PID=   2823485.
  
 Copyright (c) 1988,1990,1992,1993,1995,1998,2003,2009,2016,
            Gaussian, Inc.  All Rights Reserved.
  
 This is part of the Gaussian(R) 16 program.  It is based on
 the Gaussian(R) 09 system (copyright 2009, Gaussian, Inc.),
 the Gaussian(R) 03 system (copyright 2003, Gaussian, Inc.),
 the Gaussian(R) 98 system (copyright 1998, Gaussian, Inc.),
 the Gaussian(R) 94 system (copyright 1995, Gaussian, Inc.),
 the Gaussian 92(TM) system (copyright 1992, Gaussian, Inc.),
 the Gaussian 90(TM) system (copyright 1990, Gaussian, Inc.),
 the Gaussian 88(TM) system (copyright 1988, Gaussian, Inc.),
 the Gaussian 86(TM) system (copyright 1986, Carnegie Mellon
 University), and the Gaussian 82(TM) system (copyright 1983,
 Carnegie Mellon University). Gaussian is a federally registered
 trademark of Gaussian, Inc.
  
 This software contains proprietary and confidential information,
 including trade secrets, belonging to Gaussian, Inc.
  
 This software is provided under written license and may be
 used, copied, transmitted, or stored only in accord with that
 written license.
  
 The following legend is applicable only to US Government
 contracts under FAR:
  
                    RESTRICTED RIGHTS LEGEND
  
 Use, reproduction and disclosure by the US Government is
 subject to restrictions as set forth in subparagraphs (a)
 and (c) of the Commercial Computer Software - Restricted
 Rights clause in FAR 52.227-19.
  
 Gaussian, Inc.
 340 Quinnipiac St., Bldg. 40, Wallingford CT 06492
  
  
 ---------------------------------------------------------------
 Warning -- This program may not be used in any manner that
 competes with the business of Gaussian, Inc. or will provide
 assistance to any competitor of Gaussian, Inc.  The licensee
 of this program is prohibited from giving any competitor of
 Gaussian, Inc. access to this program.  By using this program,
 the user acknowledges that Gaussian, Inc. is engaged in the
 business of creating and licensing software in the field of
 computational chemistry and represents and warrants to the
 licensee that it is not a competitor of Gaussian, Inc. and that
 it will not use this program in any manner prohibited above.
 ---------------------------------------------------------------
  

 Cite this work as:
 Gaussian 16, Revision A.03,
 M. J. Frisch, G. W. Trucks, H. B. Schlegel, G. E. Scuseria, 
 M. A. Robb, J. R. Cheeseman, G. Scalmani, V. Barone, 
 G. A. Petersson, H. Nakatsuji, X. Li, M. Caricato, A. V. Marenich, 
 J. Bloino, B. G. Janesko, R. Gomperts, B. Mennucci, H. P. Hratchian, 
 J. V. Ortiz, A. F. Izmaylov, J. L. Sonnenberg, D. Williams-Young, 
 F. Ding, F. Lipparini, F. Egidi, J. Goings, B. Peng, A. Petrone, 
 T. Henderson, D. Ranasinghe, V. G. Zakrzewski, J. Gao, N. Rega, 
 G. Zheng, W. Liang, M. Hada, M. Ehara, K. Toyota, R. Fukuda, 
 J. Hasegawa, M. Ishida, T. Nakajima, Y. Honda, O. Kitao, H. Nakai, 
 T. Vreven, K. Throssell, J. A. Montgomery, Jr., J. E. Peralta, 
 F. Ogliaro, M. J. Bearpark, J. J. Heyd, E. N. Brothers, K. N. Kudin, 
 V. N. Staroverov, T. A. Keith, R. Kobayashi, J. Normand, 
 K. Raghavachari, A. P. Rendell, J. C. Burant, S. S. Iyengar, 
 J. Tomasi, M. Cossi, J. M. Millam, M. Klene, C. Adamo, R. Cammi, 
 J. W. Ochterski, R. L. Martin, K. Morokuma, O. Farkas, 
 J. B. Foresman, and D. J. Fox, Gaussian, Inc., Wallingford CT, 2016.
 
 ******************************************
 Gaussian 16:  ES64L-G16RevA.03 25-Dec-2016
                 9-Aug-2026 
 ******************************************
 %mem=36GB
 %nprocs=18
 Will use up to   18 processors via shared memory.
 ----------------------------------------------------------------------
 # mPW1PW91/6-31G** nmr scrf(solvent=chloroform,pcm) g09default scf=noi
 ncore
 ----------------------------------------------------------------------
 1/38=1,158=3,167=1,172=1/1;
 2/12=2,17=6,18=5,40=1/2;
 3/5=1,6=6,7=101,11=2,25=1,27=10,30=1,70=2201,72=7,74=-7,75=-4,158=3/1,2,3,8;
 4/60=-1/1;
 5/5=4,38=5,53=7,87=10/2;
 8/6=1,10=90,11=11,87=10/1;
 10/13=100,20=2,30=2,45=16,87=10/2;
 6/7=2,8=2,9=2,10=2,28=1,87=10/1;
 99/9=1/99;
 Using 2006 physical constants.
 -------------
 Template file
 -------------
 Symbolic Z-matrix:
 Charge =  0 Multiplicity = 1
 C                    -1.55382  -1.18193   2.1708 
 C                    -2.68339  -1.23937   1.12858 
 C                    -2.27601  -0.79435  -0.29617 
 C                    -1.55058   0.61583  -0.26576 
 C                    -0.2734    0.4213    0.63209 
 C                    -0.71787   0.10735   2.0932 
 C                    -1.12472   1.06147  -1.68497 
 C                    -0.20338   2.28573  -1.65507 
 C                     1.10684   2.0134   -0.90013 
 C                     0.88769   1.52017   0.57694 
 C                     0.48154  -0.77681   0.11381 
 C                     2.15325   0.66256   0.96116 
 C                     1.85089  -0.69097   0.35011 
 C                     2.68137  -1.73279  -0.06128 
 C                     2.10826  -2.82901  -0.72588 
 C                     0.73829  -2.88254  -0.98892 
 C                    -0.09224  -1.83642  -0.56415 
 O                    -1.42618  -1.83762  -0.87366 
 O                     4.04434  -1.7377    0.12725 
 C                    -3.50615  -0.83197  -1.20907 
 C                    -2.52132   1.68698   0.291 
 C                     2.04683   3.22477  -1.01761 
 C                     0.70625   2.69624   1.54877 
 H                    -1.98175  -1.28388   3.17626 
 H                    -0.89168  -2.04305   2.03211 
 H                    -3.52528  -0.61822   1.45627 
 H                    -3.06919  -2.26298   1.05661 
 H                     0.16449  -0.01066   2.73285 
 H                    -1.28357   0.95135   2.5036 
 H                    -0.61224   0.24131  -2.20021 
 H                    -2.01649   1.29272  -2.27948 
 H                     0.0415    2.57616  -2.68554 
 H                    -0.72153   3.15068  -1.21875 
 H                     1.59074   1.18085  -1.42863 
 H                     2.27132   0.60836   2.05321 
 H                     3.07249   1.12089   0.57209 
 H                     2.76116  -3.63292  -1.05207 
 H                     0.31098  -3.72221  -1.52862 
 H                     4.28938  -0.93333   0.60922 
 H                    -3.93071  -1.84088  -1.19392 
 H                    -4.27801  -0.1335   -0.87431 
 H                    -3.24236  -0.59851  -2.24354 
 H                    -2.97297   1.41465   1.24623 
 H                    -2.00792   2.63922   0.44272 
 H                    -3.33591   1.87139  -0.41709 
 H                     2.9913    3.07895  -0.48081 
 H                     2.29505   3.40164  -2.07062 
 H                     1.58308   4.14055  -0.6332 
 H                     1.61773   3.30086   1.60018 
 H                    -0.10841   3.36369   1.24757 
 H                     0.49352   2.35153   2.56455 
 
 Stoichiometry    C21H28O2
 Framework group  C1[X(C21H28O2)]
 Deg. of freedom   147
 Full point group                 C1      NOp   1
 Largest Abelian subgroup         C1      NOp   1
 Largest concise Abelian subgroup C1      NOp   1
                         Standard orientation:                         
 ---------------------------------------------------------------------
 Center     Atomic      Atomic             Coordinates (Angstroms)
 Number     Number       Type             X           Y           Z
 ---------------------------------------------------------------------
      1          6           0       -1.553815   -1.181925    2.170803
      2          6           0       -2.683387   -1.239373    1.128581
      3          6           0       -2.276012   -0.794347   -0.296174
      4          6           0       -1.550577    0.615830   -0.265760
      5          6           0       -0.273400    0.421296    0.632089
      6          6           0       -0.717873    0.107346    2.093196
      7          6           0       -1.124721    1.061468   -1.684973
      8          6           0       -0.203377    2.285725   -1.655074
      9          6           0        1.106838    2.013397   -0.900125
     10          6           0        0.887690    1.520169    0.576943
     11          6           0        0.481537   -0.776809    0.113805
     12          6           0        2.153250    0.662563    0.961163
     13          6           0        1.850890   -0.690970    0.350105
     14          6           0        2.681372   -1.732794   -0.061277
     15          6           0        2.108258   -2.829005   -0.725881
     16          6           0        0.738294   -2.882537   -0.988923
     17          6           0       -0.092236   -1.836415   -0.564152
     18          8           0       -1.426176   -1.837619   -0.873656
     19          8           0        4.044341   -1.737696    0.127251
     20          6           0       -3.506154   -0.831968   -1.209073
     21          6           0       -2.521320    1.686980    0.290998
     22          6           0        2.046826    3.224769   -1.017615
     23          6           0        0.706246    2.696242    1.548774
     24          1           0       -1.981754   -1.283881    3.176265
     25          1           0       -0.891681   -2.043049    2.032108
     26          1           0       -3.525284   -0.618217    1.456269
     27          1           0       -3.069187   -2.262981    1.056608
     28          1           0        0.164489   -0.010660    2.732853
     29          1           0       -1.283567    0.951351    2.503601
     30          1           0       -0.612244    0.241312   -2.200208
     31          1           0       -2.016490    1.292718   -2.279483
     32          1           0        0.041502    2.576156   -2.685536
     33          1           0       -0.721534    3.150682   -1.218751
     34          1           0        1.590743    1.180854   -1.428628
     35          1           0        2.271317    0.608357    2.053211
     36          1           0        3.072486    1.120888    0.572088
     37          1           0        2.761154   -3.632921   -1.052073
     38          1           0        0.310975   -3.722213   -1.528618
     39          1           0        4.289380   -0.933334    0.609217
     40          1           0       -3.930710   -1.840876   -1.193923
     41          1           0       -4.278005   -0.133497   -0.874307
     42          1           0       -3.242360   -0.598508   -2.243537
     43          1           0       -2.972969    1.414654    1.246228
     44          1           0       -2.007915    2.639215    0.442717
     45          1           0       -3.335907    1.871391   -0.417090
     46          1           0        2.991304    3.078954   -0.480812
     47          1           0        2.295055    3.401638   -2.070618
     48          1           0        1.583078    4.140552   -0.633197
     49          1           0        1.617727    3.300864    1.600175
     50          1           0       -0.108411    3.363690    1.247565
     51          1           0        0.493519    2.351525    2.564546
 ---------------------------------------------------------------------
 Rotational constants (GHZ):           0.3621595           0.3072578           0.2264648
 Standard basis: 6-31G(d,p) (6D, 7F)
 There are   485 symmetry adapted cartesian basis functions of A   symmetry.
 There are   485 symmetry adapted basis functions of A   symmetry.
   485 basis functions,   840 primitive gaussians,   485 cartesian basis functions
    85 alpha electrons       85 beta electrons
       nuclear repulsion energy      2220.6216428929 Hartrees.
 NAtoms=   51 NActive=   51 NUniq=   51 SFac= 1.00D+00 NAtFMM=   60 NAOKFM=F Big=F
 Integral buffers will be    131072 words long.
 Raffenetti 2 integral format.
 Two-electron integral symmetry is turned on.
 Force PCM accuracy= 1.00D-10.
 ------------------------------------------------------------------------------
 Polarizable Continuum Model (PCM)
 =================================
 Model                : PCM (using non-symmetric T matrix).
 Atomic radii         : UFF (Universal Force Field).
 Polarization charges : Total charges.
 Charge compensation  : None.
 Solution method      : On-the-fly selection.
 Cavity type          : Scaled VdW (van der Waals Surface) (Alpha=1.100).
 Cavity algorithm     : GePol (No added spheres)
                        Default sphere list used, NSphG=   51.
                        Lebedev-Laikov grids with approx.  5.0 points / Ang**2.
                        Smoothing algorithm: York/Karplus (Gamma=1.0000).
                        Polarization charges: spherical gaussians, with
                                              point-specific exponents (IZeta= 3).
                        Self-potential: point-specific (ISelfS= 7).
                        Self-field    : sphere-specific E.n sum rule (ISelfD= 2).
 Solvent              : Chloroform, Eps=   4.711300 Eps(inf)=   2.090627
 ------------------------------------------------------------------------------
 One-electron integrals computed using PRISM.
 NBasis=   485 RedAO= T EigKep=  2.94D-04  NBF=   485
 NBsUse=   485 1.00D-06 EigRej= -1.00D+00 NBFU=   485
 ExpMin= 1.61D-01 ExpMax= 5.48D+03 ExpMxC= 8.25D+02 IAcc=2 IRadAn=         4 AccDes= 0.00D+00
 Harris functional with IExCor=  908 and IRadAn=      -1 diagonalized for initial guess.
 HarFok:  IExCor=  908 AccDes= 0.00D+00 IRadAn=        -1 IDoV= 1 UseB2=F ITyADJ=14
 ICtDFT=  3500011 ScaDFX=  1.000000  1.000000  1.000000  1.000000
 FoFCou: FMM=F IPFlag=           0 FMFlag=      100000 FMFlg1=           0
         NFxFlg=           0 DoJE=T BraDBF=F KetDBF=T FulRan=T
         wScrn=  0.000000 ICntrl=       500 IOpCl=  0 I1Cent=   200000004 NGrid=           0
         NMat0=    1 NMatS0=      1 NMatT0=    0 NMatD0=    1 NMtDS0=    0 NMtDT0=    0
 Petite list used in FoFCou.
 Requested convergence on RMS density matrix=1.00D-08 within 128 cycles.
 Requested convergence on MAX density matrix=1.00D-06.
 Requested convergence on             energy=1.00D-06.
 No special actions if energy rises.
 Inv3:  Mode=1 IEnd=    22638027.
 Iteration    1 A*A^-1 deviation from unit magnitude is 3.11D-15 for   1329.
 Iteration    1 A*A^-1 deviation from orthogonality  is 3.46D-15 for   2404    246.
 Iteration    1 A^-1*A deviation from unit magnitude is 3.33D-15 for    866.
 Iteration    1 A^-1*A deviation from orthogonality  is 6.08D-14 for   2632   2631.
 Error on total polarization charges =  0.00898
 SCF Done:  E(RmPW1PW91) =  -967.403626984     A.U. after   12 cycles
            NFock= 12  Conv=0.81D-08     -V/T= 2.0096
 DoSCS=F DFT=T ScalE2(SS,OS)=  1.000000  1.000000
 Range of M.O.s used for correlation:     1   485
 NBasis=   485 NAE=    85 NBE=    85 NFC=     0 NFV=     0
 NROrb=    485 NOA=    85 NOB=    85 NVA=   400 NVB=   400
 NEqPCM:  Using equilibrium solvation (IEInf=0, Eps=   4.7113, EpsInf=   2.0906)
          Differentiating once with respect to magnetic field using GIAOs.
          Electric field/nuclear overlap derivatives assumed to be zero.
 FoFJK:  IHMeth= 1 ICntrl=    6127 DoSepK=F KAlg= 0 I1Cent=           0 FoldK=F
 IRaf=         1 NMat=       1 IRICut=       1 DoRegI=T DoRafI=F ISym2E= 0 IDoP0=0 IntGTp=1.
          There are     3 degrees of freedom in the 1st order CPHF.  IDoFFX=0 NUNeed=     3.
      3 vectors produced by pass  0 Test12= 1.13D-12 3.33D-08 XBig12= 4.79D+01 1.53D+00.
 AX will form     3 AO Fock derivatives at one time.
      3 vectors produced by pass  1 Test12= 1.13D-12 3.33D-08 XBig12= 9.67D-02 1.25D-01.
      3 vectors produced by pass  2 Test12= 1.13D-12 3.33D-08 XBig12= 4.65D-04 7.01D-03.
      3 vectors produced by pass  3 Test12= 1.13D-12 3.33D-08 XBig12= 1.18D-06 3.18D-04.
      3 vectors produced by pass  4 Test12= 1.13D-12 3.33D-08 XBig12= 2.99D-09 2.23D-05.
      3 vectors produced by pass  5 Test12= 1.13D-12 3.33D-08 XBig12= 9.41D-12 5.78D-07.
      2 vectors produced by pass  6 Test12= 1.13D-12 3.33D-08 XBig12= 2.47D-14 3.65D-08.
 InvSVY:  IOpt=1 It=  1 EMax= 2.22D-16
 Solved reduced A of dimension    20 with     3 vectors.
 Calculating GIAO nuclear magnetic shielding tensors.
 SCF GIAO Magnetic shielding tensor (ppm):
      1  C    Isotropic =   174.4934   Anisotropy =    12.2456
   XX=   176.0754   YX=     9.6954   ZX=     0.8528
   XY=     7.4851   YY=   171.3953   ZY=    -2.6362
   XZ=     3.3236   YZ=    -1.7177   ZZ=   176.0097
   Eigenvalues:   164.0785   176.7446   182.6572
      2  C    Isotropic =   159.2714   Anisotropy =    27.8499
   XX=   152.0193   YX=     3.6703   ZX=    -2.8734
   XY=     3.3163   YY=   148.7405   ZY=    -9.3262
   XZ=    -0.5162   YZ=     1.0107   ZZ=   177.0544
   Eigenvalues:   146.2885   153.6877   177.8380
      3  C    Isotropic =   112.6509   Anisotropy =    53.8724
   XX=   114.6769   YX=   -20.2351   ZX=   -14.1679
   XY=   -26.9084   YY=   123.5715   ZY=     8.8523
   XZ=   -14.0588   YZ=     9.9648   ZZ=    99.7043
   Eigenvalues:    90.0660    99.3208   148.5658
      4  C    Isotropic =   154.7428   Anisotropy =    11.9458
   XX=   152.4949   YX=     1.6305   ZX=    -3.8287
   XY=     7.3059   YY=   153.6713   ZY=     0.5857
   XZ=    -9.7591   YZ=     3.4811   ZZ=   158.0621
   Eigenvalues:   145.1664   156.3553   162.7066
      5  C    Isotropic =   142.7379   Anisotropy =    20.5775
   XX=   142.3958   YX=    -1.1459   ZX=     1.3031
   XY=     6.8320   YY=   154.4949   ZY=    -2.1791
   XZ=   -12.1729   YZ=    -6.9254   ZZ=   131.3232
   Eigenvalues:   128.7012   143.0564   156.4563
      6  C    Isotropic =   166.1759   Anisotropy =    10.6261
   XX=   165.1575   YX=    -0.2410   ZX=    -1.3365
   XY=     8.2134   YY=   164.4407   ZY=    -5.9588
   XZ=    -8.4035   YZ=     4.5461   ZZ=   168.9294
   Eigenvalues:   159.7558   165.5119   173.2599
      7  C    Isotropic =   164.5064   Anisotropy =    10.8843
   XX=   168.1318   YX=     1.1589   ZX=    -2.2981
   XY=     2.9552   YY=   157.7783   ZY=    -5.0087
   XZ=    -3.8814   YZ=    -0.3307   ZZ=   167.6090
   Eigenvalues:   156.9496   164.8070   171.7626
      8  C    Isotropic =   167.6820   Anisotropy =    24.7117
   XX=   178.8409   YX=    11.9278   ZX=     5.9096
   XY=     3.9558   YY=   161.0595   ZY=    -1.6215
   XZ=    10.3128   YZ=    -2.9214   ZZ=   163.1455
   Eigenvalues:   154.4501   164.4394   184.1564
      9  C    Isotropic =   158.6845   Anisotropy =    11.5958
   XX=   159.4950   YX=     0.6995   ZX=     0.8206
   XY=    -1.5474   YY=   152.7842   ZY=    -5.4332
   XZ=     6.3229   YZ=    -0.7156   ZZ=   163.7743
   Eigenvalues:   151.9458   157.6927   166.4150
     10  C    Isotropic =   139.3471   Anisotropy =    25.3073
   XX=   150.7868   YX=     5.2099   ZX=     1.6369
   XY=    -0.7417   YY=   155.1332   ZY=    12.0928
   XZ=     4.7871   YZ=    -9.4331   ZZ=   112.1212
   Eigenvalues:   111.8260   149.9966   156.2186
     11  C    Isotropic =    65.5885   Anisotropy =   140.2366
   XX=    32.1430   YX=    33.7005   ZX=    -2.3497
   XY=    31.0274   YY=    47.9851   ZY=   -56.4213
   XZ=   -38.4079   YZ=   -60.1264   ZZ=   116.6375
   Eigenvalues:     0.9441    36.7419   159.0796
     12  C    Isotropic =   156.2271   Anisotropy =    37.9053
   XX=   154.2609   YX=   -19.7170   ZX=     4.0641
   XY=   -17.2404   YY=   168.7354   ZY=    -0.3018
   XZ=    14.0520   YZ=     7.1596   ZZ=   145.6851
   Eigenvalues:   133.9973   153.1867   181.4973
     13  C    Isotropic =    74.7954   Anisotropy =   120.4829
   XX=    51.7796   YX=   -23.3855   ZX=   -20.9731
   XY=    -6.8186   YY=    47.9630   ZY=   -52.3146
   XZ=     5.9400   YZ=   -61.9674   ZZ=   124.6435
   Eigenvalues:    10.5881    58.6806   155.1173
     14  C    Isotropic =    53.3892   Anisotropy =   114.8231
   XX=   -12.8280   YX=    -0.7251   ZX=   -20.6757
   XY=    -6.3120   YY=    62.4152   ZY=   -36.3872
   XZ=   -16.4580   YZ=   -32.1315   ZZ=   110.5804
   Eigenvalues:   -16.5797    46.8094   129.9379
     15  C    Isotropic =    84.9713   Anisotropy =   131.4760
   XX=    51.2751   YX=    34.8339   ZX=    -1.3887
   XY=    31.1290   YY=    63.2903   ZY=   -54.3911
   XZ=    -6.2927   YZ=   -57.1348   ZZ=   140.3484
   Eigenvalues:    13.1082    69.1836   172.6219
     16  C    Isotropic =    86.2833   Anisotropy =   129.9691
   XX=    63.0869   YX=   -13.1128   ZX=   -25.9275
   XY=    -5.9432   YY=    62.9844   ZY=   -61.7358
   XZ=   -21.0115   YZ=   -66.1744   ZZ=   132.7786
   Eigenvalues:    16.0797    69.8408   172.9294
     17  C    Isotropic =    52.3483   Anisotropy =   116.8174
   XX=   -13.2749   YX=    14.0863   ZX=   -23.1832
   XY=     2.6752   YY=    62.5109   ZY=   -37.1538
   XZ=   -27.6355   YZ=   -29.2927   ZZ=   107.8090
   Eigenvalues:   -18.4291    45.2475   130.2266
     18  O    Isotropic =   208.8230   Anisotropy =    79.4455
   XX=   202.9233   YX=     7.3028   ZX=    -8.5684
   XY=     3.2216   YY=   173.3824   ZY=   -49.5871
   XZ=    31.9274   YZ=    -9.7131   ZZ=   250.1634
   Eigenvalues:   161.3816   203.3007   261.7867
     19  O    Isotropic =   240.4553   Anisotropy =    54.7072
   XX=   262.0956   YX=     7.7323   ZX=     4.0413
   XY=    17.9063   YY=   212.8326   ZY=   -29.2081
   XZ=   -23.0288   YZ=   -26.3294   ZZ=   246.4377
   Eigenvalues:   196.5000   247.9391   276.9268
     20  C    Isotropic =   172.4857   Anisotropy =    34.1137
   XX=   181.8977   YX=    -5.4815   ZX=    17.6240
   XY=    -1.4099   YY=   160.0955   ZY=     3.6218
   XZ=    14.6291   YZ=    -1.1974   ZZ=   175.4639
   Eigenvalues:   157.8011   164.4278   195.2282
     21  C    Isotropic =   175.7740   Anisotropy =    24.8664
   XX=   179.8992   YX=   -14.2933   ZX=    -1.3646
   XY=   -14.3514   YY=   174.9280   ZY=     5.6556
   XZ=    -0.5067   YZ=     0.8657   ZZ=   172.4948
   Eigenvalues:   162.5086   172.4619   192.3516
     22  C    Isotropic =   176.7194   Anisotropy =    26.7161
   XX=   179.9062   YX=    12.6216   ZX=     3.0081
   XY=    16.9901   YY=   179.4367   ZY=    -1.1548
   XZ=    -0.0737   YZ=    -4.9363   ZZ=   170.8152
   Eigenvalues:   163.4637   172.1643   194.5301
     23  C    Isotropic =   178.3853   Anisotropy =    18.9794
   XX=   174.3337   YX=    -3.8651   ZX=    -1.0533
   XY=    -4.0537   YY=   186.1769   ZY=     7.7611
   XZ=    -1.5403   YZ=     7.6132   ZZ=   174.6453
   Eigenvalues:   170.6682   173.4496   191.0383
     24  H    Isotropic =    30.1904   Anisotropy =    12.8890
   XX=    27.6207   YX=     2.2410   ZX=    -2.7885
   XY=     2.9962   YY=    26.2923   ZY=    -3.6417
   XZ=    -3.4998   YZ=    -2.5559   ZZ=    36.6583
   Eigenvalues:    24.2252    27.5630    38.7831
     25  H    Isotropic =    30.2570   Anisotropy =     6.2021
   XX=    29.0730   YX=    -2.5197   ZX=    -0.0371
   XY=    -1.1985   YY=    32.5249   ZY=    -2.9999
   XZ=    -1.8673   YZ=    -2.6231   ZZ=    29.1732
   Eigenvalues:    26.3716    30.0077    34.3918
     26  H    Isotropic =    29.6143   Anisotropy =     7.7126
   XX=    33.1331   YX=    -1.2255   ZX=    -2.8208
   XY=    -0.1102   YY=    26.5993   ZY=    -0.2224
   XZ=    -3.1273   YZ=     0.2582   ZZ=    29.1105
   Eigenvalues:    26.4724    27.6145    34.7560
     27  H    Isotropic =    30.0648   Anisotropy =     9.1386
   XX=    30.0164   YX=     5.2020   ZX=     0.9475
   XY=     4.9620   YY=    31.8796   ZY=    -0.9601
   XZ=    -0.1045   YZ=    -1.2359   ZZ=    28.2983
   Eigenvalues:    25.4121    28.6250    36.1572
     28  H    Isotropic =    30.2477   Anisotropy =     7.5584
   XX=    31.7529   YX=     2.3833   ZX=     3.0299
   XY=     3.1048   YY=    25.8762   ZY=    -2.7784
   XZ=     2.4062   YZ=     0.1021   ZZ=    33.1139
   Eigenvalues:    24.1982    31.2582    35.2866
     29  H    Isotropic =    29.6245   Anisotropy =     6.4883
   XX=    28.3563   YX=    -0.4631   ZX=    -2.0421
   XY=    -0.2861   YY=    29.6550   ZY=     1.9668
   XZ=    -2.5896   YZ=     3.7532   ZZ=    30.8622
   Eigenvalues:    26.3566    28.5668    33.9500
     30  H    Isotropic =    30.1390   Anisotropy =     4.7452
   XX=    26.7402   YX=     0.5194   ZX=    -1.9485
   XY=    -1.1684   YY=    31.1659   ZY=     1.5447
   XZ=     0.0872   YZ=     0.7286   ZZ=    32.5109
   Eigenvalues:    26.5891    30.5255    33.3025
     31  H    Isotropic =    30.2848   Anisotropy =     9.4409
   XX=    31.9044   YX=     1.9955   ZX=     4.5526
   XY=     1.8099   YY=    27.5982   ZY=    -2.3566
   XZ=     5.2932   YZ=    -2.8273   ZZ=    31.3519
   Eigenvalues:    23.9202    30.3556    36.5787
     32  H    Isotropic =    30.4581   Anisotropy =    11.1105
   XX=    27.9063   YX=     2.6187   ZX=     0.1485
   XY=     2.6980   YY=    28.0941   ZY=    -4.5152
   XZ=     0.4768   YZ=    -5.1354   ZZ=    35.3738
   Eigenvalues:    24.0283    29.4809    37.8651
     33  H    Isotropic =    30.1161   Anisotropy =     6.4322
   XX=    30.2628   YX=    -1.4322   ZX=    -0.0999
   XY=    -1.7270   YY=    33.5619   ZY=    -0.6768
   XZ=    -0.2214   YZ=    -2.1940   ZZ=    26.5235
   Eigenvalues:    26.1856    29.7584    34.4042
     34  H    Isotropic =    30.2329   Anisotropy =     4.2680
   XX=    29.2713   YX=    -1.1268   ZX=    -2.7431
   XY=    -0.7027   YY=    32.6333   ZY=     0.3359
   XZ=    -2.4378   YZ=    -3.0878   ZZ=    28.7940
   Eigenvalues:    26.0269    31.5935    33.0782
     35  H    Isotropic =    29.0770   Anisotropy =     8.0360
   XX=    29.3694   YX=    -1.5880   ZX=     3.2904
   XY=    -1.4305   YY=    25.8076   ZY=    -0.6075
   XZ=     3.6233   YZ=     1.8396   ZZ=    32.0541
   Eigenvalues:    24.6953    28.1014    34.4344
     36  H    Isotropic =    29.2617   Anisotropy =     7.8653
   XX=    34.4511   YX=     0.1607   ZX=     0.2184
   XY=     0.8349   YY=    29.8815   ZY=    -0.5244
   XZ=    -0.1535   YZ=    -1.5643   ZZ=    23.4526
   Eigenvalues:    23.2861    29.9938    34.5053
     37  H    Isotropic =    24.8984   Anisotropy =     3.8265
   XX=    26.6654   YX=     0.0033   ZX=     1.0661
   XY=    -0.3532   YY=    26.0843   ZY=     2.6120
   XZ=     0.7232   YZ=     2.6635   ZZ=    21.9454
   Eigenvalues:    20.5354    26.7104    27.4493
     38  H    Isotropic =    24.9563   Anisotropy =     6.0839
   XX=    26.5710   YX=    -2.2350   ZX=    -0.3088
   XY=    -1.5883   YY=    26.4347   ZY=     2.6760
   XZ=     0.1436   YZ=     2.7525   ZZ=    21.8633
   Eigenvalues:    20.5055    25.3512    29.0123
     39  H    Isotropic =    27.8115   Anisotropy =    12.2317
   XX=    30.5856   YX=     1.6354   ZX=     3.5681
   XY=     0.0035   YY=    31.1594   ZY=     6.8095
   XZ=     4.3449   YZ=     6.5755   ZZ=    21.6895
   Eigenvalues:    17.4545    30.0139    35.9660
     40  H    Isotropic =    30.5718   Anisotropy =    10.0808
   XX=    31.6212   YX=     4.9584   ZX=     2.4321
   XY=     4.0461   YY=    32.3584   ZY=     0.9881
   XZ=     2.5999   YZ=     1.7922   ZZ=    27.7357
   Eigenvalues:    26.3021    28.1209    37.2923
     41  H    Isotropic =    30.5978   Anisotropy =     9.1272
   XX=    35.8532   YX=    -2.5264   ZX=     1.2593
   XY=    -1.9124   YY=    29.6408   ZY=     1.5144
   XZ=     1.8864   YZ=     1.1918   ZZ=    26.2993
   Eigenvalues:    25.3264    29.7843    36.6826
     42  H    Isotropic =    30.3068   Anisotropy =     8.7629
   XX=    29.0247   YX=     2.4726   ZX=     3.6128
   XY=     2.2668   YY=    27.0398   ZY=    -0.2082
   XZ=     2.4069   YZ=    -0.9548   ZZ=    34.8559
   Eigenvalues:    24.9522    29.8195    36.1487
     43  H    Isotropic =    30.1565   Anisotropy =     7.3473
   XX=    30.7541   YX=    -1.7472   ZX=    -3.9934
   XY=    -1.9221   YY=    28.3855   ZY=     0.7729
   XZ=    -3.4290   YZ=    -0.4329   ZZ=    31.3298
   Eigenvalues:    26.4389    28.9758    35.0547
     44  H    Isotropic =    29.9937   Anisotropy =     7.2450
   XX=    30.6343   YX=    -0.1645   ZX=    -0.4909
   XY=     0.9865   YY=    34.2249   ZY=     2.2780
   XZ=    -0.3235   YZ=     2.4478   ZZ=    25.1219
   Eigenvalues:    24.5054    30.6520    34.8237
     45  H    Isotropic =    30.8589   Anisotropy =    10.3448
   XX=    35.0513   YX=    -3.1897   ZX=     3.7414
   XY=    -3.5007   YY=    30.0263   ZY=    -0.6922
   XZ=     3.0796   YZ=    -0.1183   ZZ=    27.4990
   Eigenvalues:    25.9638    28.8574    37.7554
     46  H    Isotropic =    30.6560   Anisotropy =    10.0806
   XX=    36.1309   YX=     2.5993   ZX=     2.0634
   XY=     3.6214   YY=    28.9090   ZY=    -1.1735
   XZ=     1.3480   YZ=    -2.5811   ZZ=    26.9280
   Eigenvalues:    24.9089    29.6827    37.3764
     47  H    Isotropic =    30.9576   Anisotropy =    11.7664
   XX=    29.6728   YX=     3.4327   ZX=    -3.9670
   XY=     2.9915   YY=    29.1023   ZY=    -3.6951
   XZ=    -3.8745   YZ=    -3.7208   ZZ=    34.0977
   Eigenvalues:    26.1606    27.9104    38.8019
     48  H    Isotropic =    30.8415   Anisotropy =     8.9166
   XX=    27.8716   YX=     1.3429   ZX=    -1.0653
   XY=     0.4415   YY=    36.6861   ZY=     0.8339
   XZ=    -1.4736   YZ=     0.0231   ZZ=    27.9668
   Eigenvalues:    26.5613    29.1773    36.7859
     49  H    Isotropic =    30.6504   Anisotropy =    10.3408
   XX=    30.8002   YX=     4.8914   ZX=     0.8087
   XY=     5.0477   YY=    32.1139   ZY=     2.9509
   XZ=     1.1336   YZ=     3.3114   ZZ=    29.0371
   Eigenvalues:    25.7261    28.6808    37.5443
     50  H    Isotropic =    30.4927   Anisotropy =     8.4699
   XX=    30.8616   YX=    -3.1743   ZX=     0.7565
   XY=    -3.9625   YY=    33.4538   ZY=     1.7200
   XZ=     0.3664   YZ=     2.1583   ZZ=    27.1626
   Eigenvalues:    25.9685    29.3702    36.1393
     51  H    Isotropic =    30.3953   Anisotropy =     7.2848
   XX=    26.9970   YX=     2.4892   ZX=    -0.9395
   XY=     1.8462   YY=    29.4855   ZY=     2.0779
   XZ=    -1.1636   YZ=     1.4097   ZZ=    34.7034
   Eigenvalues:    25.3933    30.5408    35.2518
 End of Minotr F.D. properties file   721 does not exist.
 End of Minotr F.D. properties file   722 does not exist.
 End of Minotr F.D. properties file   788 does not exist.

 **********************************************************************

            Population analysis using the SCF density.

 **********************************************************************

 Orbital symmetries:
       Occupied  (A) (A) (A) (A) (A) (A) (A) (A) (A) (A) (A) (A)
                 (A) (A) (A) (A) (A) (A) (A) (A) (A) (A) (A) (A)
                 (A) (A) (A) (A) (A) (A) (A) (A) (A) (A) (A) (A)
                 (A) (A) (A) (A) (A) (A) (A) (A) (A) (A) (A) (A)
                 (A) (A) (A) (A) (A) (A) (A) (A) (A) (A) (A) (A)
                 (A) (A) (A) (A) (A) (A) (A) (A) (A) (A) (A) (A)
                 (A) (A) (A) (A) (A) (A) (A) (A) (A) (A) (A) (A)
                 (A)
       Virtual   (A) (A) (A) (A) (A) (A) (A) (A) (A) (A) (A) (A)
                 (A) (A) (A) (A) (A) (A) (A) (A) (A) (A) (A) (A)
                 (A) (A) (A) (A) (A) (A) (A) (A) (A) (A) (A) (A)
                 (A) (A) (A) (A) (A) (A) (A) (A) (A) (A) (A) (A)
                 (A) (A) (A) (A) (A) (A) (A) (A) (A) (A) (A) (A)
                 (A) (A) (A) (A) (A) (A) (A) (A) (A) (A) (A) (A)
                 (A) (A) (A) (A) (A) (A) (A) (A) (A) (A) (A) (A)
                 (A) (A) (A) (A) (A) (A) (A) (A) (A) (A) (A) (A)
                 (A) (A) (A) (A) (A) (A) (A) (A) (A) (A) (A) (A)
                 (A) (A) (A) (A) (A) (A) (A) (A) (A) (A) (A) (A)
                 (A) (A) (A) (A) (A) (A) (A) (A) (A) (A) (A) (A)
                 (A) (A) (A) (A) (A) (A) (A) (A) (A) (A) (A) (A)
                 (A) (A) (A) (A) (A) (A) (A) (A) (A) (A) (A) (A)
                 (A) (A) (A) (A) (A) (A) (A) (A) (A) (A) (A) (A)
                 (A) (A) (A) (A) (A) (A) (A) (A) (A) (A) (A) (A)
                 (A) (A) (A) (A) (A) (A) (A) (A) (A) (A) (A) (A)
                 (A) (A) (A) (A) (A) (A) (A) (A) (A) (A) (A) (A)
                 (A) (A) (A) (A) (A) (A) (A) (A) (A) (A) (A) (A)
                 (A) (A) (A) (A) (A) (A) (A) (A) (A) (A) (A) (A)
                 (A) (A) (A) (A) (A) (A) (A) (A) (A) (A) (A) (A)
                 (A) (A) (A) (A) (A) (A) (A) (A) (A) (A) (A) (A)
                 (A) (A) (A) (A) (A) (A) (A) (A) (A) (A) (A) (A)
                 (A) (A) (A) (A) (A) (A) (A) (A) (A) (A) (A) (A)
                 (A) (A) (A) (A) (A) (A) (A) (A) (A) (A) (A) (A)
                 (A) (A) (A) (A) (A) (A) (A) (A) (A) (A) (A) (A)
                 (A) (A) (A) (A) (A) (A) (A) (A) (A) (A) (A) (A)
                 (A) (A) (A) (A) (A) (A) (A) (A) (A) (A) (A) (A)
                 (A) (A) (A) (A) (A) (A) (A) (A) (A) (A) (A) (A)
                 (A) (A) (A) (A) (A) (A) (A) (A) (A) (A) (A) (A)
                 (A) (A) (A) (A) (A) (A) (A) (A) (A) (A) (A) (A)
                 (A) (A) (A) (A) (A) (A) (A) (A) (A) (A) (A) (A)
                 (A) (A) (A) (A) (A) (A) (A) (A) (A) (A) (A) (A)
                 (A) (A) (A) (A) (A) (A) (A) (A) (A) (A) (A) (A)
                 (A) (A) (A) (A)
 The electronic state is 1-A.
 Alpha  occ. eigenvalues --  -19.26226 -19.25608 -10.31055 -10.30033 -10.29335
 Alpha  occ. eigenvalues --  -10.26600 -10.26394 -10.26084 -10.25100 -10.24812
 Alpha  occ. eigenvalues --  -10.24472 -10.24441 -10.24383 -10.23953 -10.23879
 Alpha  occ. eigenvalues --  -10.23819 -10.23815 -10.23481 -10.23391 -10.23297
 Alpha  occ. eigenvalues --  -10.23246 -10.23150 -10.23034  -1.07738  -1.07627
 Alpha  occ. eigenvalues --   -0.90388  -0.86847  -0.83457  -0.81593  -0.79400
 Alpha  occ. eigenvalues --   -0.78677  -0.75744  -0.73654  -0.72179  -0.71964
 Alpha  occ. eigenvalues --   -0.69812  -0.68802  -0.66475  -0.63257  -0.61501
 Alpha  occ. eigenvalues --   -0.61278  -0.60399  -0.58139  -0.55568  -0.54542
 Alpha  occ. eigenvalues --   -0.52712  -0.50642  -0.49271  -0.48820  -0.47748
 Alpha  occ. eigenvalues --   -0.46400  -0.45840  -0.45529  -0.44508  -0.43395
 Alpha  occ. eigenvalues --   -0.43045  -0.42311  -0.41649  -0.41538  -0.41351
 Alpha  occ. eigenvalues --   -0.40992  -0.39966  -0.39622  -0.39226  -0.39062
 Alpha  occ. eigenvalues --   -0.38865  -0.38506  -0.37925  -0.37913  -0.37003
 Alpha  occ. eigenvalues --   -0.36225  -0.35402  -0.34744  -0.34099  -0.34019
 Alpha  occ. eigenvalues --   -0.33759  -0.33524  -0.32392  -0.31469  -0.30537
 Alpha  occ. eigenvalues --   -0.29676  -0.28774  -0.27867  -0.24055  -0.20240
 Alpha virt. eigenvalues --    0.00574   0.03389   0.08249   0.08789   0.10282
 Alpha virt. eigenvalues --    0.11015   0.11934   0.12276   0.12489   0.13664
 Alpha virt. eigenvalues --    0.14342   0.15031   0.15431   0.15600   0.16195
 Alpha virt. eigenvalues --    0.16754   0.16991   0.17660   0.17944   0.18037
 Alpha virt. eigenvalues --    0.18536   0.18777   0.19258   0.19917   0.19978
 Alpha virt. eigenvalues --    0.20679   0.20971   0.21109   0.22219   0.22447
 Alpha virt. eigenvalues --    0.23124   0.23434   0.23660   0.24193   0.24651
 Alpha virt. eigenvalues --    0.25278   0.25497   0.25994   0.26309   0.27110
 Alpha virt. eigenvalues --    0.27782   0.28130   0.29015   0.29082   0.30576
 Alpha virt. eigenvalues --    0.30912   0.31936   0.31996   0.32791   0.33634
 Alpha virt. eigenvalues --    0.34629   0.35171   0.37990   0.39152   0.41072
 Alpha virt. eigenvalues --    0.43165   0.49894   0.50498   0.51377   0.51719
 Alpha virt. eigenvalues --    0.52604   0.53453   0.53953   0.55195   0.55536
 Alpha virt. eigenvalues --    0.56327   0.56585   0.57115   0.57770   0.58483
 Alpha virt. eigenvalues --    0.60162   0.60826   0.61177   0.61685   0.62154
 Alpha virt. eigenvalues --    0.62998   0.64142   0.64401   0.64663   0.65284
 Alpha virt. eigenvalues --    0.66600   0.66873   0.67581   0.68406   0.69067
 Alpha virt. eigenvalues --    0.69878   0.70590   0.71272   0.72302   0.73335
 Alpha virt. eigenvalues --    0.74473   0.75448   0.75658   0.76290   0.76585
 Alpha virt. eigenvalues --    0.76972   0.78732   0.79822   0.80897   0.82162
 Alpha virt. eigenvalues --    0.82412   0.83158   0.83664   0.84379   0.85387
 Alpha virt. eigenvalues --    0.86094   0.86502   0.87371   0.87631   0.88205
 Alpha virt. eigenvalues --    0.89156   0.89478   0.89720   0.90090   0.90623
 Alpha virt. eigenvalues --    0.90765   0.91072   0.91812   0.92925   0.93108
 Alpha virt. eigenvalues --    0.93894   0.94208   0.94330   0.94947   0.95997
 Alpha virt. eigenvalues --    0.96274   0.96871   0.97366   0.97971   0.98882
 Alpha virt. eigenvalues --    0.99622   0.99954   1.00591   1.01477   1.01851
 Alpha virt. eigenvalues --    1.02775   1.03584   1.03968   1.04865   1.06489
 Alpha virt. eigenvalues --    1.07346   1.07918   1.09145   1.10570   1.10671
 Alpha virt. eigenvalues --    1.11713   1.12791   1.13745   1.16829   1.17926
 Alpha virt. eigenvalues --    1.19216   1.19771   1.20468   1.21897   1.24505
 Alpha virt. eigenvalues --    1.25060   1.25884   1.27611   1.28372   1.30222
 Alpha virt. eigenvalues --    1.30902   1.34933   1.35710   1.37009   1.38056
 Alpha virt. eigenvalues --    1.38436   1.40181   1.41231   1.42147   1.42847
 Alpha virt. eigenvalues --    1.44334   1.49223   1.50630   1.51429   1.53026
 Alpha virt. eigenvalues --    1.54450   1.56274   1.58361   1.58947   1.61009
 Alpha virt. eigenvalues --    1.61411   1.62405   1.63541   1.65306   1.67167
 Alpha virt. eigenvalues --    1.67828   1.69041   1.70140   1.72416   1.73562
 Alpha virt. eigenvalues --    1.73839   1.75508   1.75875   1.77393   1.78293
 Alpha virt. eigenvalues --    1.79067   1.79912   1.80795   1.81680   1.81976
 Alpha virt. eigenvalues --    1.83187   1.83976   1.85118   1.86329   1.86946
 Alpha virt. eigenvalues --    1.87887   1.88478   1.88557   1.89816   1.89931
 Alpha virt. eigenvalues --    1.90880   1.91010   1.92343   1.93171   1.93534
 Alpha virt. eigenvalues --    1.94112   1.94630   1.95904   1.96857   1.97048
 Alpha virt. eigenvalues --    1.97799   1.98400   1.98819   2.00275   2.01054
 Alpha virt. eigenvalues --    2.01891   2.03227   2.04525   2.04806   2.05839
 Alpha virt. eigenvalues --    2.06341   2.06784   2.07165   2.08249   2.08892
 Alpha virt. eigenvalues --    2.09714   2.10218   2.11193   2.12273   2.13178
 Alpha virt. eigenvalues --    2.13600   2.14161   2.14820   2.15225   2.16223
 Alpha virt. eigenvalues --    2.16820   2.17041   2.18357   2.18545   2.19362
 Alpha virt. eigenvalues --    2.19818   2.20774   2.21390   2.22436   2.23089
 Alpha virt. eigenvalues --    2.25062   2.25416   2.26401   2.26616   2.27155
 Alpha virt. eigenvalues --    2.28972   2.30069   2.30563   2.32063   2.32884
 Alpha virt. eigenvalues --    2.33548   2.34677   2.35872   2.36592   2.37262
 Alpha virt. eigenvalues --    2.38376   2.39007   2.39774   2.41561   2.41884
 Alpha virt. eigenvalues --    2.42568   2.43750   2.43953   2.45305   2.45768
 Alpha virt. eigenvalues --    2.47471   2.48506   2.48886   2.50049   2.51196
 Alpha virt. eigenvalues --    2.53398   2.54241   2.55002   2.55451   2.56960
 Alpha virt. eigenvalues --    2.57404   2.59022   2.60016   2.61236   2.61940
 Alpha virt. eigenvalues --    2.62557   2.62882   2.64136   2.65180   2.66504
 Alpha virt. eigenvalues --    2.67449   2.68438   2.69238   2.70438   2.71118
 Alpha virt. eigenvalues --    2.71809   2.72492   2.73326   2.73907   2.75896
 Alpha virt. eigenvalues --    2.76469   2.78123   2.78626   2.79204   2.80320
 Alpha virt. eigenvalues --    2.80562   2.80858   2.81858   2.82114   2.83339
 Alpha virt. eigenvalues --    2.83913   2.85587   2.86047   2.87417   2.88269
 Alpha virt. eigenvalues --    2.88457   2.89716   2.90829   2.91056   2.91905
 Alpha virt. eigenvalues --    2.92901   2.93930   2.94529   2.95107   2.96771
 Alpha virt. eigenvalues --    2.97702   2.98234   2.99055   3.01848   3.03505
 Alpha virt. eigenvalues --    3.05551   3.08992   3.10719   3.12197   3.15260
 Alpha virt. eigenvalues --    3.16629   3.21038   3.22934   3.25812   3.27337
 Alpha virt. eigenvalues --    3.27504   3.29798   3.31606   3.32683   3.33565
 Alpha virt. eigenvalues --    3.34569   3.37643   3.38400   3.39310   3.40762
 Alpha virt. eigenvalues --    3.41616   3.47554   3.48336   3.49009   3.49780
 Alpha virt. eigenvalues --    3.50091   3.50531   3.50899   3.51625   3.52754
 Alpha virt. eigenvalues --    3.53303   3.54968   3.55254   3.55931   3.57931
 Alpha virt. eigenvalues --    3.60574   3.77988   4.11867   4.19964   4.25268
 Alpha virt. eigenvalues --    4.30002   4.32740   4.38238   4.44107   4.48182
 Alpha virt. eigenvalues --    4.54459   4.56768   4.58819   4.60247   4.62366
 Alpha virt. eigenvalues --    4.63914   4.67689   4.70061   4.80172   4.82134
 Alpha virt. eigenvalues --    4.86023   4.90447   4.94755   4.98893   5.07416
          Condensed to atoms (all electrons):
 Mulliken charges:
               1
     1  C   -0.271188
     2  C   -0.228308
     3  C    0.232015
     4  C   -0.011193
     5  C   -0.037021
     6  C   -0.233676
     7  C   -0.238543
     8  C   -0.241594
     9  C   -0.094870
    10  C   -0.017318
    11  C    0.019982
    12  C   -0.304014
    13  C    0.038341
    14  C    0.248005
    15  C   -0.162784
    16  C   -0.194527
    17  C    0.335717
    18  O   -0.600126
    19  O   -0.609440
    20  C   -0.395456
    21  C   -0.397003
    22  C   -0.400671
    23  C   -0.397794
    24  H    0.130323
    25  H    0.143457
    26  H    0.130429
    27  H    0.136309
    28  H    0.129149
    29  H    0.132075
    30  H    0.137026
    31  H    0.123161
    32  H    0.126346
    33  H    0.117804
    34  H    0.129677
    35  H    0.147000
    36  H    0.134393
    37  H    0.138716
    38  H    0.138080
    39  H    0.346906
    40  H    0.142422
    41  H    0.137074
    42  H    0.144135
    43  H    0.135093
    44  H    0.136034
    45  H    0.134361
    46  H    0.127289
    47  H    0.132862
    48  H    0.132091
    49  H    0.134407
    50  H    0.131801
    51  H    0.133047
 Sum of Mulliken charges =  -0.00000
 Mulliken charges with hydrogens summed into heavy atoms:
               1
     1  C    0.002592
     2  C    0.038431
     3  C    0.232015
     4  C   -0.011193
     5  C   -0.037021
     6  C    0.027548
     7  C    0.021644
     8  C    0.002556
     9  C    0.034806
    10  C   -0.017318
    11  C    0.019982
    12  C   -0.022622
    13  C    0.038341
    14  C    0.248005
    15  C   -0.024068
    16  C   -0.056447
    17  C    0.335717
    18  O   -0.600126
    19  O   -0.262534
    20  C    0.028174
    21  C    0.008485
    22  C   -0.008428
    23  C    0.001461
 Electronic spatial extent (au):  <R**2>=           5711.3823
 Charge=             -0.0000 electrons
 Dipole moment (field-independent basis, Debye):
    X=             -1.1098    Y=              3.4366    Z=              1.7215  Tot=              4.0007
 Quadrupole moment (field-independent basis, Debye-Ang):
   XX=           -133.3816   YY=           -141.1717   ZZ=           -136.3436
   XY=              5.5148   XZ=              2.4165   YZ=             -0.0367
 Traceless Quadrupole moment (field-independent basis, Debye-Ang):
   XX=              3.5840   YY=             -4.2061   ZZ=              0.6221
   XY=              5.5148   XZ=              2.4165   YZ=             -0.0367
 Octapole moment (field-independent basis, Debye-Ang**2):
  XXX=             -7.4647  YYY=             -8.3678  ZZZ=              2.9919  XYY=             -7.8117
  XXY=             27.0458  XXZ=             17.5931  XZZ=              2.5242  YZZ=             -0.2885
  YYZ=             -8.4417  XYZ=              5.1166
 Hexadecapole moment (field-independent basis, Debye-Ang**3):
 XXXX=          -3351.1373 YYYY=          -2853.0544 ZZZZ=          -1301.1305 XXXY=            115.1011
 XXXZ=             83.3996 YYYX=            -11.2252 YYYZ=             49.3598 ZZZX=              8.8520
 ZZZY=             -9.1929 XXYY=          -1110.2956 XXZZ=           -773.2688 YYZZ=           -700.0720
 XXYZ=             -1.9177 YYXZ=            -19.9049 ZZXY=             -3.5838
 N-N= 2.220621642893D+03 E-N=-6.686429251286D+03  KE= 9.581833871508D+02
 1\1\GINC-LOCALHOST\SP\RmPW1PW91\6-31G(d,p)\C21H28O2\DINGLAB\09-Aug-202
 6\0\\# mPW1PW91/6-31G** nmr scrf(solvent=chloroform,pcm) g09default sc
 f=noincore\\Template file\\0,1\C,0,-1.553815,-1.181925,2.170803\C,0,-2
 .683387,-1.239373,1.128581\C,0,-2.276012,-0.794347,-0.296174\C,0,-1.55
 0577,0.61583,-0.26576\C,0,-0.2734,0.421296,0.632089\C,0,-0.717873,0.10
 7346,2.093196\C,0,-1.124721,1.061468,-1.684973\C,0,-0.203377,2.285725,
 -1.655074\C,0,1.106838,2.013397,-0.900125\C,0,0.88769,1.520169,0.57694
 3\C,0,0.481537,-0.776809,0.113805\C,0,2.15325,0.662563,0.961163\C,0,1.
 85089,-0.69097,0.350105\C,0,2.681372,-1.732794,-0.061277\C,0,2.108258,
 -2.829005,-0.725881\C,0,0.738294,-2.882537,-0.988923\C,0,-0.092236,-1.
 836415,-0.564152\O,0,-1.426176,-1.837619,-0.873656\O,0,4.044341,-1.737
 695,0.127251\C,0,-3.506154,-0.831969,-1.209073\C,0,-2.52132,1.68698,0.
 290998\C,0,2.046825,3.224769,-1.017615\C,0,0.706246,2.696242,1.548774\
 H,0,-1.981754,-1.283881,3.176265\H,0,-0.891681,-2.043049,2.032108\H,0,
 -3.525284,-0.618218,1.456269\H,0,-3.069187,-2.262981,1.056608\H,0,0.16
 4489,-0.01066,2.732853\H,0,-1.283567,0.951351,2.503601\H,0,-0.612244,0
 .241312,-2.200208\H,0,-2.01649,1.292718,-2.279483\H,0,0.041502,2.57615
 6,-2.685536\H,0,-0.721534,3.150682,-1.218751\H,0,1.590743,1.180854,-1.
 428628\H,0,2.271317,0.608357,2.053211\H,0,3.072486,1.120888,0.572088\H
 ,0,2.761155,-3.632921,-1.052073\H,0,0.310976,-3.722213,-1.528618\H,0,4
 .28938,-0.933333,0.609217\H,0,-3.93071,-1.840877,-1.193923\H,0,-4.2780
 05,-0.133498,-0.874307\H,0,-3.24236,-0.598509,-2.243537\H,0,-2.972969,
 1.414654,1.246228\H,0,-2.007915,2.639215,0.442717\H,0,-3.335907,1.8713
 9,-0.41709\H,0,2.991304,3.078954,-0.480812\H,0,2.295054,3.401638,-2.07
 0618\H,0,1.583077,4.140552,-0.633197\H,0,1.617726,3.300864,1.600175\H,
 0,-0.108412,3.36369,1.247565\H,0,0.493519,2.351525,2.564546\\Version=E
 S64L-G16RevA.03\State=1-A\HF=-967.403627\RMSD=8.112e-09\Dipole=-0.4366
 343,1.3520799,0.6772911\Quadrupole=2.6646485,-3.1271424,0.4624938,4.10
 00943,1.7966264,-0.0272507\PG=C01 [X(C21H28O2)]\\@


 ALMOST ALL THE CHEMICAL PROCESSES WHICH OCCUR IN NATURE,
 WHETHER IN ANIMAL OR VEGETABLE ORGANISMS,
 OR IN THE NON-LIVING SURFACE OF THE EARTH ... 
 TAKE PLACE BETWEEN SUBSTANCES IN SOLUTION

                                    -- W. OSTWALD, 1890
 Job cpu time:       0 days  0 hours 37 minutes 17.7 seconds.
 Elapsed time:       0 days  0 hours  2 minutes 30.9 seconds.
 File lengths (MBytes):  RWF=    262 Int=      0 D2E=      0 Chk=     20 Scr=      1
 Normal termination of Gaussian 16 at Sun Aug  9 13:37:33 2026.
