      -----------------------------------------------------------      
     |                   =====================                   |     
     |                           x T B                           |     
     |                   =====================                   |     
     |                         S. Grimme                         |     
     |          Mulliken Center for Theoretical Chemistry        |     
     |                    University of Bonn                     |     
      -----------------------------------------------------------      

   * xtb version 6.7.1 (edcfbbe) compiled by 'albert@albert-system' on 2024-07-22

   xtb is free software: you can redistribute it and/or modify it under
   the terms of the GNU Lesser General Public License as published by
   the Free Software Foundation, either version 3 of the License, or
   (at your option) any later version.
   
   xtb is distributed in the hope that it will be useful,
   but WITHOUT ANY WARRANTY; without even the implied warranty of
   MERCHANTABILITY or FITNESS FOR A PARTICULAR PURPOSE.  See the
   GNU Lesser General Public License for more details.
   
   Cite this work as:
   * C. Bannwarth, E. Caldeweyher, S. Ehlert, A. Hansen, P. Pracht,
     J. Seibert, S. Spicher, S. Grimme, WIREs Comput. Mol. Sci., 2020, 11,
     e01493. DOI: 10.1002/wcms.1493
   
   for GFN2-xTB:
   * C. Bannwarth, S. Ehlert and S. Grimme., J. Chem. Theory Comput., 2019,
     15, 1652-1671. DOI: 10.1021/acs.jctc.8b01176
   for GFN1-xTB:
   * S. Grimme, C. Bannwarth, P. Shushkov, J. Chem. Theory Comput., 2017,
     13, 1989-2009. DOI: 10.1021/acs.jctc.7b00118
   for GFN0-xTB:
   * P. Pracht, E. Caldeweyher, S. Ehlert, S. Grimme, ChemRxiv, 2019, preprint.
     DOI: 10.26434/chemrxiv.8326202.v1
   for GFN-FF:
   * S. Spicher and S. Grimme, Angew. Chem. Int. Ed., 2020, 59, 15665-15673.
     DOI: 10.1002/anie.202004239
   
   for ALPB and GBSA implicit solvation:
   * S. Ehlert, M. Stahn, S. Spicher, S. Grimme, J. Chem. Theory Comput.,
     2021, 17, 4250-4261. DOI: 10.1021/acs.jctc.1c00471
   
   for ddCOSMO and CPCM-X implicit solvation:
   * M. Stahn, S. Ehlert, S. Grimme, J. Phys. Chem. A,
     2023, XX, XXXX-XXXX. DOI: 10.1021/acs.jpca.3c04382
   
   for DFT-D4:
   * E. Caldeweyher, C. Bannwarth and S. Grimme, J. Chem. Phys., 2017,
     147, 034112. DOI: 10.1063/1.4993215
   * E. Caldeweyher, S. Ehlert, A. Hansen, H. Neugebauer, S. Spicher,
     C. Bannwarth and S. Grimme, J. Chem. Phys., 2019, 150, 154122.
     DOI: 10.1063/1.5090222
   * E. Caldeweyher, J.-M. Mewes, S. Ehlert and S. Grimme, Phys. Chem. Chem. Phys.
     2020, 22, 8499-8512. DOI: 10.1039/D0CP00502A
   
   for sTDA-xTB:
   * S. Grimme and C. Bannwarth, J. Chem. Phys., 2016, 145, 054103.
     DOI: 10.1063/1.4959605
   
   in the mass-spec context:
   * V. Asgeirsson, C. Bauer and S. Grimme, Chem. Sci., 2017, 8, 4879.
     DOI: 10.1039/c7sc00601b
   * J. Koopman and S. Grimme, ACS Omega 2019, 4, 12, 15120-15133.
     DOI: 10.1021/acsomega.9b02011
   
   for metadynamics refer to:
   * S. Grimme, J. Chem. Theory Comput., 2019, 155, 2847-2862
     DOI: 10.1021/acs.jctc.9b00143
   
   for SPH calculations refer to:
   * S. Spicher and S. Grimme, J. Chem. Theory Comput., 2021, 17, 1701-1714
     DOI: 10.1021/acs.jctc.0c01306
   
   for ONIOM refer to:
   * C. Plett, A. Katbashev, S. Ehlert, S. Grimme, M. Bursch,
     Phys. Chem. Chem. Phys., 2023, 25, 17860-17868. DOI: 10.1039/D3CP02178E
   
   for DIPRO refer to:
   * J. Kohn, N. Gildemeister, S. Grimme, D. Fazzi, A. Hansen,
     J. Chem. Phys., 2023, just accepted.
   
   for PTB refer to:
   * S. Grimme, M. Mueller, A. Hansen, J. Chem. Phys., 2023, 158, 124111.
     DOI: 10.1063/5.0137838
   
   with help from (in alphabetical order)
   P. Atkinson, C. Bannwarth, F. Bohle, G. Brandenburg, E. Caldeweyher
   M. Checinski, S. Dohm, S. Ehlert, S. Ehrlich, I. Gerasimov, C. Hölzer
   A. Katbashev, J. Kohn, J. Koopman, C. Lavigne, S. Lehtola, F. März, M. Müller,
   F. Musil, H. Neugebauer, J. Pisarek, C. Plett, P. Pracht, F. Pultar,
   J. Seibert, P. Shushkov, S. Spicher, M. Stahn, M. Steiner, T. Strunk,
   J. Stückrath, T. Rose, and J. Unsleber
   
 * started run on 2026/08/09 at 18:42:13.411     
   ID    Z sym.   atoms
    1    6 c      1-8, 10-13, 16
    2    8 o      9, 15
    3    1 h      14, 17-35

           -------------------------------------------------
          |                Calculation Setup                |
           -------------------------------------------------

          program call               : /home/dinglab/software/xtb_6.7.1/xtb_dist/bin/xtb coord --gfn2 --ohess vtight --alpb chcl3 --chrg 0 --enso --norestart -I xcontrol-inp --parallel 12
          hostname                   : localhost
          coordinate file            : coord
          omp threads                :                    12


           -------------------------------------------------
          |                 G F N 2 - x T B                 |
           -------------------------------------------------

        Reference                      10.1021/acs.jctc.8b01176
      * Hamiltonian:
        H0-scaling (s, p, d)           1.850000    2.230000    2.230000
        zeta-weighting                 0.500000
      * Dispersion:
        s8                             2.700000
        a1                             0.520000
        a2                             5.000000
        s9                             5.000000
      * Repulsion:
        kExp                           1.500000    1.000000
        rExp                           1.000000
      * Coulomb:
        alpha                          2.000000
        third order                    shell-resolved
        anisotropic                    true
        a3                             3.000000
        a5                             4.000000
        cn-shift                       1.200000
        cn-exp                         4.000000
        max-rad                        5.000000

      * Solvation model:               ALPB
        Solvent                        chcl3
        Parameter file                 internal GFN2-xTB/ALPB
        Dielectric constant                4.8100E+00
        Reference state                gsolv [1 M gas/solution]
        Free energy shift                  3.8910E-03 Eh       2.4417E+00 kcal/mol
        Temperature                        2.9815E+02 K
        Density                            1.4900E+00 kg/L
        Solvent mass                       1.1938E+02 g/mol
        Interaction kernel             P16
        Born radius scaling (c1)           1.3274E+00
        Born radii integrator          GBOBC
        Born offset                        0.0000E+00 a0       0.0000E+00 AA
        H-bond correction              false
        Ion screening                  false
        Surface tension                    1.0000E-05 Eh       1.5569E+01 dyn/cm
        Grid points                               974 per atom

          ...................................................
          :                      SETUP                      :
          :.................................................:
          :  # basis functions                  80          :
          :  # atomic orbitals                  80          :
          :  # shells                           50          :
          :  # electrons                        84          :
          :  max. iterations                   250          :
          :  Hamiltonian                  GFN2-xTB          :
          :  restarted?                      false          :
          :  GBSA solvation                   true          :
          :  PC potential                    false          :
          :  electronic temp.          300.0000000     K    :
          :  accuracy                    1.0000000          :
          :  -> integral cutoff          0.2500000E+02      :
          :  -> integral neglect         0.1000000E-07      :
          :  -> SCF convergence          0.1000000E-05 Eh   :
          :  -> wf. convergence          0.1000000E-03 e    :
          :  Broyden damping             0.4000000          :
          :  net charge                          0          :
          :  unpaired electrons                  0          :
          ...................................................

 iter      E             dE          RMSdq      gap      omega  full diag
   1    -46.6619827 -0.466620E+02  0.351E+00    4.99       0.0  T
   2    -46.7046929 -0.427102E-01  0.199E+00    4.85       1.0  T
   3    -46.6981090  0.658389E-02  0.839E-01    4.77       1.0  T
   4    -46.7063787 -0.826966E-02  0.381E-01    4.71       1.0  T
   5    -46.7090986 -0.271991E-02  0.748E-02    4.73       1.0  T
   6    -46.7091299 -0.313214E-04  0.418E-02    4.73       1.0  T
   7    -46.7091345 -0.456077E-05  0.149E-02    4.73       1.1  T
   8    -46.7091369 -0.237764E-05  0.574E-03    4.73       2.9  T
   9    -46.7091375 -0.637730E-06  0.226E-03    4.73       7.5  T
  10    -46.7091375 -0.284265E-07  0.843E-04    4.73      20.0  T
  11    -46.7091375 -0.276502E-08  0.355E-04    4.73      47.6  T

   *** convergence criteria satisfied after 11 iterations ***

         #    Occupation            Energy/Eh            Energy/eV
      -------------------------------------------------------------
         1        2.0000           -0.6939999             -18.8847
       ...           ...                  ...                  ...
        36        2.0000           -0.4294497             -11.6859
        37        2.0000           -0.4210248             -11.4567
        38        2.0000           -0.4191905             -11.4068
        39        2.0000           -0.4152976             -11.3008
        40        2.0000           -0.4017590             -10.9324
        41        2.0000           -0.3925133             -10.6808
        42        2.0000           -0.3885488             -10.5730 (HOMO)
        43                         -0.2146300              -5.8404 (LUMO)
        44                         -0.2044178              -5.5625
        45                         -0.0134870              -0.3670
        46                          0.0026899               0.0732
        47                          0.0247925               0.6746
       ...                                ...                  ...
        80                          0.5975908              16.2613
      -------------------------------------------------------------
                  HL-Gap            0.1739189 Eh            4.7326 eV
             Fermi-level           -0.3015894 Eh           -8.2067 eV

 SCC (total)                   0 d,  0 h,  0 min,  0.048 sec
 SCC setup                      ...        0 min,  0.001 sec (  1.708%)
 Dispersion                     ...        0 min,  0.000 sec (  0.827%)
 classical contributions        ...        0 min,  0.000 sec (  0.065%)
 integral evaluation            ...        0 min,  0.002 sec (  3.688%)
 iterations                     ...        0 min,  0.041 sec ( 85.126%)
 molecular gradient             ...        0 min,  0.004 sec (  7.970%)
 printout                       ...        0 min,  0.000 sec (  0.508%)

         :::::::::::::::::::::::::::::::::::::::::::::::::::::
         ::                     SUMMARY                     ::
         :::::::::::::::::::::::::::::::::::::::::::::::::::::
         :: total energy             -46.152222547101 Eh    ::
         :: total w/o Gsasa/hb       -46.139993407930 Eh    ::
         :: gradient norm              0.049452025812 Eh/a0 ::
         :: HOMO-LUMO gap              4.732572883861 eV    ::
         ::.................................................::
         :: SCC energy               -46.708490021241 Eh    ::
         :: -> isotropic ES            0.062656531853 Eh    ::
         :: -> anisotropic ES          0.006807557388 Eh    ::
         :: -> anisotropic XC          0.019757612288 Eh    ::
         :: -> dispersion             -0.035509791479 Eh    ::
         :: -> Gsolv                  -0.020191566833 Eh    ::
         ::    -> Gelec               -0.007962427662 Eh    ::
         ::    -> Gsasa               -0.016120158414 Eh    ::
         ::    -> Ghb                  0.000000000000 Eh    ::
         ::    -> Gshift               0.003891019244 Eh    ::
         :: repulsion energy           0.556267474140 Eh    ::
         :: add. restraining           0.000000000000 Eh    ::
         :: total charge               0.000000000000 e     ::
         :::::::::::::::::::::::::::::::::::::::::::::::::::::

      ----------------------------------------------------------- 
     |                   =====================                   |
     |                        A N C O P T                        |
     |                   =====================                   |
     |               Approximate Normal Coordinate               |
     |                Rational Function Optimizer                |
      ----------------------------------------------------------- 
      ----------------------------------------------------------- 
     |                   =====================                   |
     |                        A N C O P T                        |
     |                   =====================                   |
     |               Approximate Normal Coordinate               |
     |                Rational Function Optimizer                |
      ----------------------------------------------------------- 

          ...................................................
          :                      SETUP                      :
          :.................................................:
          :   optimization level         verytight          :
          :   max. optcycles                   700          :
          :   ANC micro-cycles                  20          :
          :   degrees of freedom                99          :
          :.................................................:
          :   RF solver                   davidson          :
          :   write xtbopt.log                true          :
          :   linear?                        false          :
          :   energy convergence         0.1000000E-06 Eh   :
          :   grad. convergence          0.2000000E-03 Eh/α :
          :   maxmium RF displ.          1.0000000          :
          :   Hlow (freq-cutoff)         0.1000000E-01      :
          :   Hmax (freq-cutoff)         5.0000000          :
          :   S6 in model hess.         20.0000000          :
          ...................................................

generating ANC from exact Hessian ...
Using Lindh-Hessian (1995)
 Shifting diagonal of input Hessian by   9.273145673627812E-003
 Lowest  eigenvalues of input Hessian
    0.000000    0.000000    0.000000    0.000000    0.000000    0.000000
    0.010000    0.010524    0.011368    0.012031    0.013306    0.013948
    0.015331    0.016279    0.016445    0.017655    0.018188    0.018654
 Highest eigenvalues
    1.395549    1.397680    1.412831    1.471672    1.792646    1.859297
 

........................................................................
.............................. CYCLE    1 ..............................
........................................................................

 iter      E             dE          RMSdq      gap      omega  full diag
   1    -46.7091375 -0.467091E+02  0.816E-05    4.73       0.0  T
   2    -46.7091375 -0.369766E-10  0.491E-05    4.73     344.0  T
   3    -46.7091375 -0.348166E-11  0.323E-05    4.73     523.8  T
     SCC iter.                  ...        0 min,  0.007 sec
     gradient                   ...        0 min,  0.004 sec
 * total energy  :   -46.1522225 Eh     change       -0.7799272E-09 Eh
   gradient norm :     0.0494543 Eh/α   predicted     0.0000000E+00 (-100.00%)
   displ. norm   :     0.3170408 α      lambda       -0.9781527E-02
   maximum displ.:     0.1026973 α      in ANC's #23, #42, #29, ...

........................................................................
.............................. CYCLE    2 ..............................
........................................................................

 iter      E             dE          RMSdq      gap      omega  full diag
   1    -46.7598868 -0.467599E+02  0.154E-01    4.87       0.0  T
   2    -46.7599195 -0.327582E-04  0.943E-02    4.86       1.0  T
   3    -46.7598884  0.311854E-04  0.601E-02    4.87       1.0  T
   4    -46.7599504 -0.620316E-04  0.716E-03    4.87       2.4  T
   5    -46.7599509 -0.507314E-06  0.337E-03    4.87       5.0  T
   6    -46.7599509 -0.712380E-08  0.138E-03    4.87      12.3  T
   7    -46.7599509 -0.127359E-07  0.548E-04    4.87      30.9  T
   8    -46.7599509 -0.512513E-08  0.248E-04    4.87      68.3  T
     SCC iter.                  ...        0 min,  0.016 sec
     gradient                   ...        0 min,  0.004 sec
 * total energy  :   -46.1585679 Eh     change       -0.6345338E-02 Eh
   gradient norm :     0.0146750 Eh/α   predicted    -0.5382688E-02 ( -15.17%)
   displ. norm   :     0.2400484 α      lambda       -0.1766442E-02
   maximum displ.:     0.0891830 α      in ANC's #6, #5, #2, ...

........................................................................
.............................. CYCLE    3 ..............................
........................................................................

 iter      E             dE          RMSdq      gap      omega  full diag
   1    -46.7788472 -0.467788E+02  0.887E-02    4.89       0.0  T
   2    -46.7788560 -0.886857E-05  0.549E-02    4.89       1.0  T
   3    -46.7788451  0.109729E-04  0.344E-02    4.89       1.0  T
   4    -46.7788661 -0.210143E-04  0.368E-03    4.89       4.6  T
   5    -46.7788662 -0.939972E-07  0.192E-03    4.89       8.8  T
   6    -46.7788662 -0.500947E-08  0.762E-04    4.89      22.2  T
   7    -46.7788662 -0.367273E-08  0.368E-04    4.89      45.9  T
     SCC iter.                  ...        0 min,  0.013 sec
     gradient                   ...        0 min,  0.004 sec
 * total energy  :   -46.1595278 Eh     change       -0.9599177E-03 Eh
   gradient norm :     0.0057227 Eh/α   predicted    -0.9344953E-03 (  -2.65%)
   displ. norm   :     0.1084871 α      lambda       -0.2269490E-03
   maximum displ.:     0.0509435 α      in ANC's #5, #2, #6, ...

........................................................................
.............................. CYCLE    4 ..............................
........................................................................

 iter      E             dE          RMSdq      gap      omega  full diag
   1    -46.7789187 -0.467789E+02  0.429E-02    4.87       0.0  T
   2    -46.7789196 -0.863992E-06  0.258E-02    4.87       1.0  T
   3    -46.7789162  0.342969E-05  0.135E-02    4.87       1.3  T
   4    -46.7789204 -0.422837E-05  0.146E-03    4.87      11.6  T
   5    -46.7789204 -0.119633E-07  0.833E-04    4.87      20.3  T
   6    -46.7789204 -0.200262E-08  0.262E-04    4.87      64.5  T
     SCC iter.                  ...        0 min,  0.011 sec
     gradient                   ...        0 min,  0.004 sec
 * total energy  :   -46.1596666 Eh     change       -0.1387874E-03 Eh
   gradient norm :     0.0041673 Eh/α   predicted    -0.1148168E-03 ( -17.27%)
   displ. norm   :     0.1270111 α      lambda       -0.1671504E-03
   maximum displ.:     0.0666999 α      in ANC's #5, #2, #16, ...

........................................................................
.............................. CYCLE    5 ..............................
........................................................................

 iter      E             dE          RMSdq      gap      omega  full diag
   1    -46.7771567 -0.467772E+02  0.459E-02    4.87       0.0  T
   2    -46.7771575 -0.760794E-06  0.275E-02    4.87       1.0  T
   3    -46.7771562  0.121948E-05  0.770E-03    4.87       2.2  T
   4    -46.7771578 -0.152805E-05  0.157E-03    4.87      10.8  T
   5    -46.7771578 -0.216427E-07  0.841E-04    4.87      20.1  T
   6    -46.7771578 -0.227732E-08  0.262E-04    4.87      64.6  T
     SCC iter.                  ...        0 min,  0.011 sec
     gradient                   ...        0 min,  0.004 sec
 * total energy  :   -46.1597652 Eh     change       -0.9858443E-04 Eh
   gradient norm :     0.0049685 Eh/α   predicted    -0.8493432E-04 ( -13.85%)
   displ. norm   :     0.0895980 α      lambda       -0.8529643E-04
   maximum displ.:     0.0438801 α      in ANC's #5, #1, #9, ...

........................................................................
.............................. CYCLE    6 ..............................
........................................................................

 iter      E             dE          RMSdq      gap      omega  full diag
   1    -46.7761972 -0.467762E+02  0.289E-02    4.87       0.0  T
   2    -46.7761976 -0.325807E-06  0.174E-02    4.88       1.0  T
   3    -46.7761975  0.957969E-07  0.276E-03    4.88       6.1  T
   4    -46.7761976 -0.173623E-06  0.109E-03    4.88      15.5  T
   5    -46.7761976 -0.152541E-07  0.542E-04    4.88      31.2  T
   6    -46.7761977 -0.169253E-08  0.158E-04    4.88     106.9  T
     SCC iter.                  ...        0 min,  0.011 sec
     gradient                   ...        0 min,  0.004 sec
 * total energy  :   -46.1598202 Eh     change       -0.5505529E-04 Eh
   gradient norm :     0.0038874 Eh/α   predicted    -0.4299153E-04 ( -21.91%)
   displ. norm   :     0.0837093 α      lambda       -0.5364489E-04
   maximum displ.:     0.0487503 α      in ANC's #1, #5, #9, ...

........................................................................
.............................. CYCLE    7 ..............................
........................................................................

 iter      E             dE          RMSdq      gap      omega  full diag
   1    -46.7765125 -0.467765E+02  0.245E-02    4.89       0.0  T
   2    -46.7765127 -0.177762E-06  0.146E-02    4.89       1.2  T
   3    -46.7765125  0.250081E-06  0.366E-03    4.89       4.6  T
   4    -46.7765128 -0.345657E-06  0.899E-04    4.89      18.8  T
   5    -46.7765128 -0.443886E-08  0.406E-04    4.89      41.6  T
     SCC iter.                  ...        0 min,  0.009 sec
     gradient                   ...        0 min,  0.004 sec
 * total energy  :   -46.1598563 Eh     change       -0.3603485E-04 Eh
   gradient norm :     0.0020186 Eh/α   predicted    -0.2701363E-04 ( -25.03%)
   displ. norm   :     0.0673774 α      lambda       -0.2487607E-04
   maximum displ.:     0.0380556 α      in ANC's #1, #5, #9, ...

........................................................................
.............................. CYCLE    8 ..............................
........................................................................

 iter      E             dE          RMSdq      gap      omega  full diag
   1    -46.7773061 -0.467773E+02  0.212E-02    4.90       0.0  T
   2    -46.7773062 -0.103763E-06  0.127E-02    4.90       1.3  T
   3    -46.7773062 -0.230435E-07  0.115E-03    4.90      14.7  T
   4    -46.7773062 -0.154333E-07  0.630E-04    4.90      26.8  T
   5    -46.7773062 -0.243864E-08  0.361E-04    4.90      46.8  T
     SCC iter.                  ...        0 min,  0.009 sec
     gradient                   ...        0 min,  0.004 sec
 * total energy  :   -46.1598709 Eh     change       -0.1464325E-04 Eh
   gradient norm :     0.0009259 Eh/α   predicted    -0.1249494E-04 ( -14.67%)
   displ. norm   :     0.0995438 α      lambda        0.1228074E-04
   maximum displ.:     0.0561674 α      in ANC's #1, #5, #9, ...

........................................................................
.............................. CYCLE    9 ..............................
........................................................................

 iter      E             dE          RMSdq      gap      omega  full diag
   1    -46.7782375 -0.467782E+02  0.314E-02    4.92       0.0  T
   2    -46.7782377 -0.216969E-06  0.187E-02    4.92       1.0  T
   3    -46.7782378 -0.554549E-07  0.157E-03    4.92      10.8  T
   4    -46.7782378 -0.269848E-07  0.868E-04    4.92      19.5  T
   5    -46.7782378 -0.259308E-08  0.493E-04    4.92      34.3  T
     SCC iter.                  ...        0 min,  0.010 sec
     gradient                   ...        0 min,  0.004 sec
 * total energy  :   -46.1598547 Eh     change        0.1616765E-04 Eh
   gradient norm :     0.0032672 Eh/α   predicted     0.6165375E-05 ( -61.87%)
   displ. norm   :     0.0404623 α      lambda       -0.2943640E-04
   maximum displ.:     0.0194045 α      in ANC's #5, #1, #9, ...

........................................................................
.............................. CYCLE   10 ..............................
........................................................................

 iter      E             dE          RMSdq      gap      omega  full diag
   1    -46.7780928 -0.467781E+02  0.154E-02    4.91       0.0  T
   2    -46.7780929 -0.529114E-07  0.924E-03    4.91       1.8  T
   3    -46.7780929 -0.707870E-08  0.896E-04    4.91      18.9  T
   4    -46.7780929 -0.130496E-07  0.505E-04    4.91      33.5  T
     SCC iter.                  ...        0 min,  0.008 sec
     gradient                   ...        0 min,  0.004 sec
 * total energy  :   -46.1598733 Eh     change       -0.1853646E-04 Eh
   gradient norm :     0.0015203 Eh/α   predicted    -0.1474330E-04 ( -20.46%)
   displ. norm   :     0.0533753 α      lambda       -0.1011479E-04
   maximum displ.:     0.0261986 α      in ANC's #1, #5, #6, ...

........................................................................
.............................. CYCLE   11 ..............................
........................................................................

 iter      E             dE          RMSdq      gap      omega  full diag
   1    -46.7771301 -0.467771E+02  0.184E-02    4.90       0.0  T
   2    -46.7771302 -0.945142E-07  0.110E-02    4.90       1.5  T
   3    -46.7771302  0.472976E-07  0.191E-03    4.90       8.8  T
   4    -46.7771302 -0.859224E-07  0.678E-04    4.90      24.9  T
   5    -46.7771302 -0.427740E-08  0.343E-04    4.90      49.3  T
     SCC iter.                  ...        0 min,  0.010 sec
     gradient                   ...        0 min,  0.004 sec
 * total energy  :   -46.1598765 Eh     change       -0.3270958E-05 Eh
   gradient norm :     0.0010773 Eh/α   predicted    -0.5067689E-05 (  54.93%)
   displ. norm   :     0.0289121 α      lambda       -0.4832377E-05
   maximum displ.:     0.0166395 α      in ANC's #1, #9, #4, ...

........................................................................
.............................. CYCLE   12 ..............................
........................................................................

 iter      E             dE          RMSdq      gap      omega  full diag
   1    -46.7775231 -0.467775E+02  0.877E-03    4.91       0.0  T
   2    -46.7775231 -0.155839E-07  0.520E-03    4.91       3.3  T
   3    -46.7775231  0.152666E-07  0.907E-04    4.91      18.6  T
   4    -46.7775231 -0.207061E-07  0.224E-04    4.91      75.5  T
     SCC iter.                  ...        0 min,  0.008 sec
     gradient                   ...        0 min,  0.004 sec
 * total energy  :   -46.1598811 Eh     change       -0.4588199E-05 Eh
   gradient norm :     0.0004869 Eh/α   predicted    -0.2419874E-05 ( -47.26%)
   displ. norm   :     0.0453056 α      lambda       -0.3668109E-05
   maximum displ.:     0.0261846 α      in ANC's #9, #1, #4, ...

........................................................................
.............................. CYCLE   13 ..............................
........................................................................

 iter      E             dE          RMSdq      gap      omega  full diag
   1    -46.7778523 -0.467779E+02  0.113E-02    4.91       0.0  T
   2    -46.7778524 -0.136558E-07  0.667E-03    4.91       2.5  T
   3    -46.7778523  0.793897E-08  0.745E-04    4.91      22.7  T
   4    -46.7778524 -0.134932E-07  0.221E-04    4.91      76.5  T
     SCC iter.                  ...        0 min,  0.008 sec
     gradient                   ...        0 min,  0.004 sec
 * total energy  :   -46.1598852 Eh     change       -0.4076137E-05 Eh
   gradient norm :     0.0009712 Eh/α   predicted    -0.1840445E-05 ( -54.85%)
   displ. norm   :     0.1120597 α      lambda       -0.7637599E-05
   maximum displ.:     0.0667320 α      in ANC's #9, #4, #1, ...

........................................................................
.............................. CYCLE   14 ..............................
........................................................................

 iter      E             dE          RMSdq      gap      omega  full diag
   1    -46.7777371 -0.467777E+02  0.259E-02    4.91       0.0  T
   2    -46.7777372 -0.599392E-07  0.154E-02    4.91       1.1  T
   3    -46.7777371  0.134939E-06  0.250E-03    4.91       6.8  T
   4    -46.7777372 -0.169174E-06  0.483E-04    4.91      35.0  T
   5    -46.7777372 -0.893337E-09  0.250E-04    4.91      67.7  T
     SCC iter.                  ...        0 min,  0.009 sec
     gradient                   ...        0 min,  0.004 sec
 * total energy  :   -46.1598924 Eh     change       -0.7191512E-05 Eh
   gradient norm :     0.0011405 Eh/α   predicted    -0.3841165E-05 ( -46.59%)
   displ. norm   :     0.1051866 α      lambda       -0.7206123E-05
   maximum displ.:     0.0608957 α      in ANC's #9, #4, #2, ...

........................................................................
.............................. CYCLE   15 ..............................
........................................................................

 iter      E             dE          RMSdq      gap      omega  full diag
   1    -46.7778406 -0.467778E+02  0.238E-02    4.91       0.0  T
   2    -46.7778407 -0.763507E-07  0.142E-02    4.91       1.2  T
   3    -46.7778406  0.223468E-07  0.158E-03    4.91      10.7  T
   4    -46.7778407 -0.563046E-07  0.639E-04    4.91      26.5  T
   5    -46.7778407 -0.277279E-08  0.318E-04    4.91      53.2  T
     SCC iter.                  ...        0 min,  0.010 sec
     gradient                   ...        0 min,  0.004 sec
 * total energy  :   -46.1598984 Eh     change       -0.6016632E-05 Eh
   gradient norm :     0.0012247 Eh/α   predicted    -0.3622674E-05 ( -39.79%)
   displ. norm   :     0.0477549 α      lambda       -0.4388769E-05
   maximum displ.:     0.0272806 α      in ANC's #2, #9, #4, ...

........................................................................
.............................. CYCLE   16 ..............................
........................................................................

 iter      E             dE          RMSdq      gap      omega  full diag
   1    -46.7777287 -0.467777E+02  0.131E-02    4.91       0.0  T
   2    -46.7777288 -0.331445E-07  0.782E-03    4.91       2.2  T
   3    -46.7777287  0.554906E-07  0.166E-03    4.91      10.2  T
   4    -46.7777288 -0.740212E-07  0.422E-04    4.91      40.1  T
   5    -46.7777288 -0.127040E-08  0.218E-04    4.91      77.4  T
     SCC iter.                  ...        0 min,  0.010 sec
     gradient                   ...        0 min,  0.004 sec
 * total energy  :   -46.1599023 Eh     change       -0.3911419E-05 Eh
   gradient norm :     0.0003967 Eh/α   predicted    -0.2198534E-05 ( -43.79%)
   displ. norm   :     0.0353160 α      lambda       -0.2136759E-05
   maximum displ.:     0.0225118 α      in ANC's #2, #9, #5, ...

........................................................................
.............................. CYCLE   17 ..............................
........................................................................

 iter      E             dE          RMSdq      gap      omega  full diag
   1    -46.7774986 -0.467775E+02  0.940E-03    4.91       0.0  T
   2    -46.7774987 -0.146510E-07  0.563E-03    4.91       3.0  T
   3    -46.7774986  0.164833E-07  0.949E-04    4.91      17.8  T
   4    -46.7774987 -0.225698E-07  0.259E-04    4.91      65.4  T
     SCC iter.                  ...        0 min,  0.008 sec
     gradient                   ...        0 min,  0.004 sec
 * total energy  :   -46.1599048 Eh     change       -0.2430057E-05 Eh
   gradient norm :     0.0005937 Eh/α   predicted    -0.1072759E-05 ( -55.85%)
   displ. norm   :     0.0503250 α      lambda       -0.2906957E-05
   maximum displ.:     0.0313861 α      in ANC's #2, #9, #5, ...

........................................................................
.............................. CYCLE   18 ..............................
........................................................................

 iter      E             dE          RMSdq      gap      omega  full diag
   1    -46.7774746 -0.467775E+02  0.136E-02    4.91       0.0  T
   2    -46.7774746 -0.209192E-07  0.811E-03    4.91       2.1  T
   3    -46.7774746  0.143547E-07  0.101E-03    4.91      16.8  T
   4    -46.7774746 -0.244693E-07  0.344E-04    4.91      49.1  T
   5    -46.7774746 -0.764175E-09  0.152E-04    4.91     111.1  T
     SCC iter.                  ...        0 min,  0.010 sec
     gradient                   ...        0 min,  0.004 sec
 * total energy  :   -46.1599078 Eh     change       -0.3040125E-05 Eh
   gradient norm :     0.0004937 Eh/α   predicted    -0.1459234E-05 ( -52.00%)
   displ. norm   :     0.0446197 α      lambda       -0.1753196E-05
   maximum displ.:     0.0268345 α      in ANC's #2, #9, #5, ...

........................................................................
.............................. CYCLE   19 ..............................
........................................................................

 iter      E             dE          RMSdq      gap      omega  full diag
   1    -46.7775438 -0.467775E+02  0.122E-02    4.91       0.0  T
   2    -46.7775438 -0.167196E-07  0.727E-03    4.91       2.3  T
   3    -46.7775438  0.476529E-07  0.145E-03    4.91      11.6  T
   4    -46.7775438 -0.574882E-07  0.260E-04    4.91      65.0  T
   5    -46.7775438 -0.324164E-09  0.119E-04    4.91     142.6  T
     SCC iter.                  ...        0 min,  0.009 sec
     gradient                   ...        0 min,  0.003 sec
 * total energy  :   -46.1599094 Eh     change       -0.1603536E-05 Eh
   gradient norm :     0.0003383 Eh/α   predicted    -0.8811453E-06 ( -45.05%)
   displ. norm   :     0.0221404 α      lambda       -0.7782976E-06
   maximum displ.:     0.0124531 α      in ANC's #9, #2, #7, ...

........................................................................
.............................. CYCLE   20 ..............................
........................................................................

 iter      E             dE          RMSdq      gap      omega  full diag
   1    -46.7776484 -0.467776E+02  0.573E-03    4.91       0.0  T
   2    -46.7776484 -0.311172E-08  0.341E-03    4.91       5.0  T
   3    -46.7776484  0.664264E-08  0.546E-04    4.91      31.0  T
   4    -46.7776484 -0.818960E-08  0.110E-04    4.91     153.0  T
     SCC iter.                  ...        0 min,  0.007 sec
     gradient                   ...        0 min,  0.004 sec
 * total energy  :   -46.1599102 Eh     change       -0.7894543E-06 Eh
   gradient norm :     0.0002188 Eh/α   predicted    -0.3902145E-06 ( -50.57%)
   displ. norm   :     0.0206032 α      lambda       -0.6491198E-06
   maximum displ.:     0.0120223 α      in ANC's #9, #7, #2, ...
 * RMSD in coord.:     0.1697381 α      energy gain  -0.7687648E-02 Eh

generating ANC from exact Hessian ...
Using Lindh-Hessian (1995)
 Shifting diagonal of input Hessian by   1.019604456584114E-002
 Lowest  eigenvalues of input Hessian
    0.010000    0.000000    0.000000    0.000000    0.000000    0.000000
    0.000000    0.011452    0.012558    0.013373    0.014701    0.015714
    0.016965    0.018287    0.018370    0.019670    0.020603    0.021059
 Highest eigenvalues
    1.485074    1.502267    1.509233    1.550998    1.908222    1.969148
 

........................................................................
.............................. CYCLE   21 ..............................
........................................................................

 iter      E             dE          RMSdq      gap      omega  full diag
   1    -46.7777040 -0.467777E+02  0.455E-03    4.91       0.0  T
   2    -46.7777040 -0.257961E-08  0.271E-03    4.91       6.2  T
   3    -46.7777040  0.123429E-07  0.710E-04    4.91      23.8  T
   4    -46.7777040 -0.142595E-07  0.903E-05    4.91     187.1  T
     SCC iter.                  ...        0 min,  0.008 sec
     gradient                   ...        0 min,  0.004 sec
 * total energy  :   -46.1599108 Eh     change       -0.6504306E-06 Eh
   gradient norm :     0.0002614 Eh/α   predicted     0.0000000E+00 (-100.00%)
   displ. norm   :     0.0045042 α      lambda       -0.6745535E-07
   maximum displ.:     0.0019281 α      in ANC's #5, #3, #4, ...

........................................................................
.............................. CYCLE   22 ..............................
........................................................................

 iter      E             dE          RMSdq      gap      omega  full diag
   1    -46.7776688 -0.467777E+02  0.181E-03    4.91       0.0  T
   2    -46.7776688 -0.988571E-09  0.107E-03    4.91      15.8  T
   3    -46.7776688  0.150024E-09  0.127E-04    4.91     133.2  T
   4    -46.7776688 -0.272593E-09  0.551E-05    4.91     306.5  T
     SCC iter.                  ...        0 min,  0.008 sec
     gradient                   ...        0 min,  0.004 sec
 * total energy  :   -46.1599111 Eh     change       -0.2447937E-06 Eh
   gradient norm :     0.0000915 Eh/α   predicted    -0.1269591E-06 ( -48.14%)
   displ. norm   :     0.0091812 α      lambda       -0.5847649E-08
   maximum displ.:     0.0038597 α      in ANC's #5, #3, #10, ...

........................................................................
.............................. CYCLE   23 ..............................
........................................................................

 iter      E             dE          RMSdq      gap      omega  full diag
   1    -46.7776419 -0.467776E+02  0.274E-03    4.91       0.0  T
   2    -46.7776419 -0.146058E-08  0.163E-03    4.91      10.4  T
   3    -46.7776419 -0.245912E-09  0.115E-04    4.91     147.0  T
   4    -46.7776419 -0.128495E-09  0.702E-05    4.91     240.8  T
     SCC iter.                  ...        0 min,  0.008 sec
     gradient                   ...        0 min,  0.004 sec
 * total energy  :   -46.1599113 Eh     change       -0.2520590E-06 Eh
   gradient norm :     0.0002248 Eh/α   predicted    -0.1371264E-06 ( -45.60%)
   displ. norm   :     0.0115412 α      lambda       -0.2299385E-06
   maximum displ.:     0.0044985 α      in ANC's #10, #3, #5, ...

........................................................................
.............................. CYCLE   24 ..............................
........................................................................

 iter      E             dE          RMSdq      gap      omega  full diag
   1    -46.7776584 -0.467777E+02  0.351E-03    4.91       0.0  T
   2    -46.7776584 -0.144400E-08  0.209E-03    4.91       8.1  T
   3    -46.7776584  0.202277E-09  0.206E-04    4.91      81.9  T
   4    -46.7776584 -0.868695E-09  0.887E-05    4.91     190.6  T
     SCC iter.                  ...        0 min,  0.008 sec
     gradient                   ...        0 min,  0.004 sec
 * total energy  :   -46.1599116 Eh     change       -0.2097809E-06 Eh
   gradient norm :     0.0001752 Eh/α   predicted    -0.1164041E-06 ( -44.51%)
   displ. norm   :     0.0103734 α      lambda       -0.1448191E-06
   maximum displ.:     0.0042996 α      in ANC's #10, #2, #1, ...

........................................................................
.............................. CYCLE   25 ..............................
........................................................................

 iter      E             dE          RMSdq      gap      omega  full diag
   1    -46.7776810 -0.467777E+02  0.313E-03    4.91       0.0  T
   2    -46.7776810 -0.105201E-08  0.185E-03    4.91       9.1  T
   3    -46.7776810 -0.818403E-10  0.147E-04    4.91     114.7  T
   4    -46.7776810 -0.362981E-09  0.745E-05    4.91     227.0  T
     SCC iter.                  ...        0 min,  0.008 sec
     gradient                   ...        0 min,  0.004 sec
 * total energy  :   -46.1599117 Eh     change       -0.1490315E-06 Eh
   gradient norm :     0.0000905 Eh/α   predicted    -0.8251830E-07 ( -44.63%)
   displ. norm   :     0.0079373 α      lambda       -0.1054713E-06
   maximum displ.:     0.0044527 α      in ANC's #2, #10, #9, ...

........................................................................
.............................. CYCLE   26 ..............................
........................................................................

 iter      E             dE          RMSdq      gap      omega  full diag
   1    -46.7776822 -0.467777E+02  0.224E-03    4.91       0.0  T
   2    -46.7776822 -0.555787E-09  0.133E-03    4.91      12.8  T
   3    -46.7776822  0.125585E-08  0.236E-04    4.91      71.6  T
   4    -46.7776822 -0.154760E-08  0.470E-05    4.91     359.9  T
     SCC iter.                  ...        0 min,  0.008 sec
     gradient                   ...        0 min,  0.004 sec
 * total energy  :   -46.1599118 Eh     change       -0.1120843E-06 Eh
   gradient norm :     0.0000725 Eh/α   predicted    -0.5473587E-07 ( -51.17%)
   displ. norm   :     0.0079373 α      lambda        0.0000000E+00
   maximum displ.:     0.0044527 α      in ANC's #2, #10, #9, ...

........................................................................
.............................. CYCLE   27 ..............................
........................................................................

 iter      E             dE          RMSdq      gap      omega  full diag
   1    -46.7776820 -0.467777E+02  0.224E-03    4.91       0.0  T
   2    -46.7776820 -0.525027E-09  0.133E-03    4.91      12.7  T
   3    -46.7776820  0.999989E-09  0.213E-04    4.91      79.2  T
   4    -46.7776820 -0.125845E-08  0.461E-05    4.91     366.9  T
     SCC iter.                  ...        0 min,  0.008 sec
     gradient                   ...        0 min,  0.004 sec
 * total energy  :   -46.1599118 Eh     change       -0.7230071E-08 Eh
   gradient norm :     0.0001739 Eh/α   predicted    -0.4321367E-09 ( -94.02%)
   displ. norm   :     0.0028171 α      lambda       -0.7676539E-07
   maximum displ.:     0.0015817 α      in ANC's #5, #4, #3, ...

   *** GEOMETRY OPTIMIZATION CONVERGED AFTER 27 ITERATIONS ***

------------------------------------------------------------------------
 total energy gain   :        -0.0076893 Eh       -4.8251 kcal/mol
 total RMSD          :         0.1699999 a0        0.0900 Å
 total power (kW/mol):        -0.7477106 (step)  -32.8605 (real)
------------------------------------------------------------------------

 ANCopt (total)                0 d,  0 h,  0 min,  0.614 sec
 optimizer setup                ...        0 min,  0.000 sec (  0.033%)
 model hessian                  ...        0 min,  0.190 sec ( 30.921%)
 ANC generation                 ...        0 min,  0.004 sec (  0.652%)
 coordinate transformation      ...        0 min,  0.001 sec (  0.089%)
 single point calculation       ...        0 min,  0.409 sec ( 66.576%)
 optimization log               ...        0 min,  0.005 sec (  0.882%)
 hessian update                 ...        0 min,  0.001 sec (  0.082%)
 rational function              ...        0 min,  0.003 sec (  0.447%)

================
 final structure:
================
$coord
        0.20329455787584       -1.29323276441355       -0.45331539142566      c
        1.16814352684915        1.19361712572414       -1.69150488127554      c
       -0.91848737305144        3.23373189976441       -1.62111641731098      c
       -2.43480795576665        3.35697821706554        0.83645441650825      c
       -3.20589241121895        0.70345899853800        1.69285984942204      c
       -0.82540567815368       -0.87234351209972        2.24274510551076      c
       -2.23200278975232       -2.13416319880964       -1.80853468306930      c
       -4.33340318144164       -0.73372898399463       -0.49136243872281      c
        0.87487940340750        0.07339025101554        4.04205132908333      o
        2.23248987575762       -3.37260964148720       -0.52188156758667      c
       -6.74308674800428       -0.75220773132357       -1.14031315141325      c
        3.71182600182089        2.18117170832641       -0.79786606771147      c
        4.03041426029402        3.94425967564443        0.95839376977235      c
        1.45952353353017        0.71695086875793       -3.68867326922333      h
        1.35156581375825       -5.75171010434383        0.30915341004308      o
        5.95966315038431        1.27671864938751       -2.28129446444522      c
       -0.06777898470835        5.07270425994599       -2.00885142345058      h
       -2.24835293660598        2.84177540249807       -3.14812881534210      h
       -1.37482244855706        4.26225629997936        2.35573755465293      h
       -4.13021280848185        4.48847382546818        0.51345182816248      h
       -4.46655544014371        0.81880440998470        3.32238529278379      h
       -1.44464293896321       -2.69241737214207        3.02649366217796      h
       -2.18661758434561       -1.75803396570864       -3.83287027570050      h
       -2.47477873369188       -4.17139719651415       -1.56143284242797      h
        1.75932445388834        1.49475912902998        3.30127333650773      h
        3.85594871158822       -2.78833412431762        0.62701087722833      h
        2.83971175075604       -3.69059910007700       -2.47005595818577      h
       -7.41098915379847       -1.80681819330724       -2.74842194339885      h
       -8.14413698182171        0.28315720920549       -0.08833620585990      h
        5.89237761574482        4.62357907289655        1.42740643127570      h
        2.51253091582932        4.85415303873948        1.95975626978986      h
        1.00655599699199       -5.64650682133832        2.09708879001067      h
        7.71207532866499        1.85615499218209       -1.37930363637612      h
        5.97497341506368       -0.76107934147192       -2.51361906876622      h
        5.89720750092128        2.11603769188396       -4.16361607305224      h
$end
 
 Bond Distances (Angstroems)
 ---------------------------
C1-C2=1.5562         C1-C6=1.5432         C1-C7=1.5405         C1-C10=1.5379        C2-C1=1.5562         C2-C3=1.5447         
C2-C12=1.5194        C2-H14=1.0974        C3-C2=1.5447         C3-C4=1.5295         C3-H17=1.0917        C3-H18=1.0914        
C4-C3=1.5295         C4-C5=1.5309         C4-H19=1.0911        C4-H20=1.0921        C5-C4=1.5309         C5-C6=1.5385         
C5-C8=1.5068         C5-H21=1.0919        C6-C1=1.5432         C6-C5=1.5385         C6-O9=1.4024         C6-H22=1.0986        
C7-C1=1.5405         C7-C8=1.5072         C7-H23=1.0898        C7-H24=1.0935        C8-C5=1.5068         C8-C7=1.5072         
C8-C11=1.3206        O9-C6=1.4024         O9-H25=0.9687        C10-C1=1.5379        C10-O15=1.4127       C10-H26=1.0969       
C10-H27=1.0929       C11-C8=1.3206        C11-H28=1.0773       C11-H29=1.0769       C12-C2=1.5194        C12-C13=1.3276       
C12-C16=1.5034       C13-C12=1.3276       C13-H30=1.0778       C13-H31=1.0760       H14-C2=1.0974        O15-C10=1.4127       
O15-H32=0.9652       C16-C12=1.5034       C16-H33=1.0871       C16-H34=1.0854       C16-H35=1.0911       H17-C3=1.0917        
H18-C3=1.0914        H19-C4=1.0911        H20-C4=1.0921        H21-C5=1.0919        H22-C6=1.0986        H23-C7=1.0898        
H24-C7=1.0935        H25-O9=0.9687        H26-C10=1.0969       H27-C10=1.0929       H28-C11=1.0773       H29-C11=1.0769       
H30-C13=1.0778       H31-C13=1.0760       H32-O15=0.9652       H33-C16=1.0871       H34-C16=1.0854       H35-C16=1.0911       
 C  H  Rav=1.0888 sigma=0.0071  Rmin=1.0760  Rmax=1.0986    18
 C  C  Rav=1.5005 sigma=0.0736  Rmin=1.3206  Rmax=1.5562    14
 O  H  Rav=0.9670 sigma=0.0018  Rmin=0.9652  Rmax=0.9687     2
 O  C  Rav=1.4075 sigma=0.0052  Rmin=1.4024  Rmax=1.4127     2
 
 selected bond angles (degree)
 --------------------
C6-C1-C2=112.52                C7-C1-C2=108.83                C7-C1-C6=100.19                C10-C1-C2=111.47               
C10-C1-C6=111.80               C10-C1-C7=111.50               C3-C2-C1=110.26                C12-C2-C1=116.77               
C12-C2-C3=112.67               H14-C2-C1=104.90               H14-C2-C3=106.52               H14-C2-C12=104.73              
C4-C3-C2=115.17                H17-C3-C2=108.89               H17-C3-C4=109.76               H18-C3-C2=108.07               
H18-C3-C4=107.42               H18-C3-H17=107.23              C5-C4-C3=110.64                H19-C4-C3=112.06               
H19-C4-C5=108.76               H20-C4-C3=108.74               H20-C4-C5=109.28               H20-C4-H19=107.27              
C6-C5-C4=109.57                C8-C5-C4=109.96                C8-C5-C6=101.29                H21-C5-C4=110.20               
H21-C5-C6=112.41               H21-C5-C8=113.08               C5-C6-C1=101.08                O9-C6-C1=116.93                
O9-C6-C5=117.41                H22-C6-C1=109.13               H22-C6-C5=107.60               H22-C6-O9=104.35               
C8-C7-C1=105.06                H23-C7-C1=112.73               H23-C7-C8=112.40               H24-C7-C1=109.11               
H24-C7-C8=110.05               H24-C7-H23=107.47              C7-C8-C5=108.11                C11-C8-C5=125.84               
C11-C8-C7=126.05               H25-O9-C6=108.20               O15-C10-C1=113.57              H26-C10-C1=109.40              
H26-C10-O15=109.70             H27-C10-C1=109.74              H27-C10-O15=104.68             H27-C10-H26=109.63             
 
 selected dihedral angles (degree)
 ---------------------------------
C3-C2-C1-C6=305.88            C3-C2-C1-C7= 55.99            C3-C2-C1-C10=179.37           C12-C2-C1-C6= 76.15           
C12-C2-C1-C7=186.26           C12-C2-C1-C10=309.64          H14-C2-C1-C6=191.56           H14-C2-C1-C7=301.67           
H14-C2-C1-C10= 65.04          C4-C3-C2-C1= 40.94            C4-C3-C2-C12=268.52           C4-C3-C2-H14=154.23           
H17-C3-C2-C1=164.70           H17-C3-C2-C12= 32.28          H17-C3-C2-H14=277.99          H18-C3-C2-C1=280.86           
H18-C3-C2-C12=148.44          H18-C3-C2-H14= 34.15          C5-C4-C3-C2=314.46            C5-C4-C3-H17=191.17           
C5-C4-C3-H18= 74.91           H19-C4-C3-C2= 76.02           H19-C4-C3-H17=312.73          H19-C4-C3-H18=196.47          
H20-C4-C3-C2=194.44           H20-C4-C3-H17= 71.14          H20-C4-C3-H18=314.88          C6-C5-C4-C3= 62.30            
C6-C5-C4-H19=298.82           C6-C5-C4-H20=182.00           C8-C5-C4-C3=311.81            C8-C5-C4-H19=188.32           
C8-C5-C4-H20= 71.51           H21-C5-C4-C3=186.49           H21-C5-C4-H19= 63.00          H21-C5-C4-H20=306.19          
C5-C6-C1-C2= 67.77            C5-C6-C1-C7=312.33            C5-C6-C1-C10=194.11           O9-C6-C1-C2=299.04            
O9-C6-C1-C7=183.61            O9-C6-C1-C10= 65.38           H22-C6-C1-C2=180.98           H22-C6-C1-C7= 65.54           
H22-C6-C1-C10=307.32          C1-C6-C5-C4=288.91            C1-C6-C5-C8= 45.04            C1-C6-C5-H21=166.02           
O9-C6-C5-C4= 57.33            O9-C6-C5-C8=173.46            O9-C6-C5-H21=294.44           H22-C6-C5-C4=174.55           
H22-C6-C5-C8=290.69           H22-C6-C5-H21= 51.67          C8-C7-C1-C2=273.95            C8-C7-C1-C6= 32.14            
C8-C7-C1-C10=150.58           H23-C7-C1-C2= 36.67           H23-C7-C1-C6=154.86           H23-C7-C1-C10=273.31          
H24-C7-C1-C2=155.98           H24-C7-C1-C6=274.17           H24-C7-C1-C10= 32.62          C7-C8-C5-C4= 90.73            
C7-C8-C5-C6=334.89            C7-C8-C5-H21=214.38           C11-C8-C5-C4=270.96           C11-C8-C5-C6=155.12           
C11-C8-C5-H21= 34.62          C5-C8-C7-C1=355.46            C5-C8-C7-H23=232.52           C5-C8-C7-H24=112.79           
C11-C8-C7-C1=175.23           C11-C8-C7-H23= 52.29          C11-C8-C7-H24=292.56          H25-O9-C6-C1= 47.34           
H25-O9-C6-C5=286.93           H25-O9-C6-H22=167.96          O15-C10-C1-C2=187.02          O15-C10-C1-C6= 60.11          
O15-C10-C1-C7=308.86          H26-C10-C1-C2= 64.09          H26-C10-C1-C6=297.19          H26-C10-C1-C7=185.94          
H27-C10-C1-C2=303.78          H27-C10-C1-C6=176.87          H27-C10-C1-C7= 65.63          
           -------------------------------------------------
          |                Final Singlepoint                |
           -------------------------------------------------

          ...................................................
          :                      SETUP                      :
          :.................................................:
          :  # basis functions                  80          :
          :  # atomic orbitals                  80          :
          :  # shells                           50          :
          :  # electrons                        84          :
          :  max. iterations                   250          :
          :  Hamiltonian                  GFN2-xTB          :
          :  restarted?                      false          :
          :  GBSA solvation                   true          :
          :  PC potential                    false          :
          :  electronic temp.          300.0000000     K    :
          :  accuracy                    1.0000000          :
          :  -> integral cutoff          0.2500000E+02      :
          :  -> integral neglect         0.1000000E-07      :
          :  -> SCF convergence          0.1000000E-05 Eh   :
          :  -> wf. convergence          0.1000000E-03 e    :
          :  Broyden damping             0.4000000          :
          :  net charge                          0          :
          :  unpaired electrons                  0          :
          ...................................................

 iter      E             dE          RMSdq      gap      omega  full diag
   1    -46.7776820 -0.467777E+02  0.230E-05    4.91       0.0  T
   2    -46.7776820 -0.866862E-12  0.142E-05    4.91    1188.2  T
   3    -46.7776820  0.277112E-12  0.701E-06    4.91    2410.9  T

   *** convergence criteria satisfied after 3 iterations ***

         #    Occupation            Energy/Eh            Energy/eV
      -------------------------------------------------------------
         1        2.0000           -0.6969569             -18.9652
       ...           ...                  ...                  ...
        36        2.0000           -0.4302131             -11.7067
        37        2.0000           -0.4218934             -11.4803
        38        2.0000           -0.4187476             -11.3947
        39        2.0000           -0.4143096             -11.2739
        40        2.0000           -0.3998592             -10.8807
        41        2.0000           -0.3931980             -10.6995
        42        2.0000           -0.3894594             -10.5977 (HOMO)
        43                         -0.2091277              -5.6907 (LUMO)
        44                         -0.1995840              -5.4310
        45                          0.0148352               0.4037
        46                          0.0216248               0.5884
        47                          0.0424673               1.1556
       ...                                ...                  ...
        80                          0.6486452              17.6505
      -------------------------------------------------------------
                  HL-Gap            0.1803317 Eh            4.9071 eV
             Fermi-level           -0.2992935 Eh           -8.1442 eV

 SCC (total)                   0 d,  0 h,  0 min,  0.012 sec
 SCC setup                      ...        0 min,  0.001 sec (  6.353%)
 Dispersion                     ...        0 min,  0.000 sec (  1.830%)
 classical contributions        ...        0 min,  0.000 sec (  0.227%)
 integral evaluation            ...        0 min,  0.001 sec (  9.826%)
 iterations                     ...        0 min,  0.006 sec ( 50.199%)
 molecular gradient             ...        0 min,  0.004 sec ( 29.835%)
 printout                       ...        0 min,  0.000 sec (  1.357%)

         :::::::::::::::::::::::::::::::::::::::::::::::::::::
         ::                     SUMMARY                     ::
         :::::::::::::::::::::::::::::::::::::::::::::::::::::
         :: total energy             -46.159911820909 Eh    ::
         :: total w/o Gsasa/hb       -46.148013904068 Eh    ::
         :: gradient norm              0.000173595879 Eh/a0 ::
         :: HOMO-LUMO gap              4.907075647169 eV    ::
         ::.................................................::
         :: SCC energy               -46.777039115902 Eh    ::
         :: -> isotropic ES            0.062755281500 Eh    ::
         :: -> anisotropic ES          0.004863684908 Eh    ::
         :: -> anisotropic XC          0.017598893396 Eh    ::
         :: -> dispersion             -0.036231124591 Eh    ::
         :: -> Gsolv                  -0.019667245780 Eh    ::
         ::    -> Gelec               -0.007769328939 Eh    ::
         ::    -> Gsasa               -0.015788936085 Eh    ::
         ::    -> Ghb                  0.000000000000 Eh    ::
         ::    -> Gshift               0.003891019244 Eh    ::
         :: repulsion energy           0.617127294994 Eh    ::
         :: add. restraining           0.000000000000 Eh    ::
         :: total charge              -0.000000000000 e     ::
         :::::::::::::::::::::::::::::::::::::::::::::::::::::

           ------------------------------------------------- 
          |                Numerical Hessian                |
           ------------------------------------------------- 
step length          :   0.00500
SCC accuracy         :   0.30000
Hessian scale factor :   1.00000
frozen atoms in %    :   0.00000    0
RMS gradient         :   0.00017
estimated CPU  time      2.08 min
estimated wall time      0.20 min

writing file <hessian>.

 projected vibrational frequencies (cm⁻¹)
eigval :       -0.00    -0.00     0.00     0.00     0.00     0.00
eigval :       58.47    85.16   102.06   130.35   141.12   166.49
eigval :      196.43   221.22   243.84   266.74   287.10   299.21
eigval :      314.15   331.89   361.04   379.37   387.38   423.62
eigval :      468.73   486.68   517.70   531.40   576.09   593.42
eigval :      612.23   701.91   709.28   724.06   787.26   826.13
eigval :      877.58   884.47   892.77   905.09   919.04   936.49
eigval :      943.34   956.82   962.82   980.17  1022.04  1029.18
eigval :     1040.65  1053.41  1077.20  1091.31  1102.54  1113.00
eigval :     1140.09  1141.76  1150.82  1169.33  1185.95  1199.02
eigval :     1222.08  1233.48  1257.14  1259.91  1262.51  1277.95
eigval :     1294.69  1313.49  1320.30  1334.08  1341.43  1349.24
eigval :     1360.86  1364.38  1398.79  1410.85  1424.05  1462.65
eigval :     1466.39  1481.48  1485.11  1487.77  1496.91  1706.52
eigval :     1738.98  2895.86  2904.30  2905.84  2954.22  2961.72
eigval :     2964.14  2966.52  2973.81  2987.31  2989.52  2990.31
eigval :     2992.84  3041.79  3063.09  3098.83  3102.65  3119.71
eigval :     3123.92  3436.84  3522.57
           -------------------------------------------------
          |                Property Printout                |
           -------------------------------------------------

    * Orbital Energies and Occupations

         #    Occupation            Energy/Eh            Energy/eV
      -------------------------------------------------------------
         1        2.0000           -0.6969569             -18.9652
       ...           ...                  ...                  ...
        30        2.0000           -0.4642316             -12.6324
        31        2.0000           -0.4622645             -12.5789
        32        2.0000           -0.4530829             -12.3290
        33        2.0000           -0.4500717             -12.2471
        34        2.0000           -0.4433687             -12.0647
        35        2.0000           -0.4424022             -12.0384
        36        2.0000           -0.4302131             -11.7067
        37        2.0000           -0.4218934             -11.4803
        38        2.0000           -0.4187476             -11.3947
        39        2.0000           -0.4143096             -11.2739
        40        2.0000           -0.3998592             -10.8807
        41        2.0000           -0.3931980             -10.6995
        42        2.0000           -0.3894594             -10.5977 (HOMO)
        43                         -0.2091277              -5.6907 (LUMO)
        44                         -0.1995840              -5.4310
        45                          0.0148352               0.4037
        46                          0.0216248               0.5884
        47                          0.0424673               1.1556
        48                          0.0487798               1.3274
        49                          0.0635275               1.7287
        50                          0.0670801               1.8253
        51                          0.0864518               2.3525
        52                          0.0923314               2.5125
        53                          0.0954514               2.5974
       ...                                ...                  ...
        80                          0.6486452              17.6505
      -------------------------------------------------------------
                  HL-Gap            0.1803317 Eh            4.9071 eV
             Fermi-level           -0.2992935 Eh           -8.1442 eV

     #   Z          covCN         q      C6AA      α(0)
     1   6 c        3.930    -0.009    20.681     6.463
     2   6 c        3.855    -0.034    21.146     6.540
     3   6 c        3.803    -0.063    21.699     6.632
     4   6 c        3.807    -0.055    21.562     6.610
     5   6 c        3.886    -0.038    21.192     6.545
     6   6 c        3.783     0.117    18.696     6.159
     7   6 c        3.842    -0.075    21.894     6.656
     8   6 c        2.981     0.009    27.808     8.650
     9   8 o        1.655    -0.496    22.811     6.447
    10   6 c        3.677     0.079    19.472     6.322
    11   6 c        2.838    -0.113    30.854     9.103
    12   6 c        2.935     0.012    27.742     8.638
    13   6 c        2.844    -0.117    30.973     9.121
    14   1 h        0.924     0.048     2.345     2.395
    15   8 o        1.655    -0.478    22.417     6.391
    16   6 c        3.762    -0.119    22.827     6.811
    17   1 h        0.924     0.041     2.440     2.443
    18   1 h        0.924     0.042     2.422     2.434
    19   1 h        0.924     0.039     2.468     2.457
    20   1 h        0.924     0.037     2.489     2.467
    21   1 h        0.924     0.035     2.512     2.478
    22   1 h        0.923     0.027     2.635     2.538
    23   1 h        0.925     0.053     2.289     2.366
    24   1 h        0.924     0.060     2.194     2.316
    25   1 h        0.804     0.320     0.664     1.280
    26   1 h        0.924     0.030     2.580     2.512
    27   1 h        0.924     0.049     2.333     2.389
    28   1 h        0.926     0.035     2.510     2.477
    29   1 h        0.926     0.035     2.515     2.480
    30   1 h        0.926     0.035     2.518     2.481
    31   1 h        0.926     0.039     2.455     2.450
    32   1 h        0.805     0.306     0.703     1.317
    33   1 h        0.925     0.047     2.364     2.404
    34   1 h        0.925     0.049     2.329     2.387
    35   1 h        0.924     0.052     2.292     2.368

 Mol. C6AA /au·bohr⁶  :      10379.852440
 Mol. C8AA /au·bohr⁸  :     233530.130531
 Mol. α(0) /au        :        153.527324


Wiberg/Mayer (AO) data.
largest (>0.10) Wiberg bond orders for each atom

 ---------------------------------------------------------------------------
     #   Z sym  total        # sym  WBO       # sym  WBO       # sym  WBO
 ---------------------------------------------------------------------------
     1   6 c    3.989 --     7 c    0.983    10 c    0.976     6 c    0.961
                             2 c    0.958
     2   6 c    3.992 --    12 c    0.997     3 c    0.987    14 h    0.959
                             1 c    0.958
     3   6 c    3.996 --     4 c    1.009     2 c    0.987    18 h    0.976
                            17 h    0.975
     4   6 c    3.997 --     3 c    1.009     5 c    0.981    20 h    0.976
                            19 h    0.967
     5   6 c    3.995 --     8 c    0.995     4 c    0.981    21 h    0.965
                             6 c    0.963
     6   6 c    3.952 --     9 o    0.998     5 c    0.963     1 c    0.961
                            22 h    0.956
     7   6 c    3.995 --     8 c    1.007     1 c    0.983    23 h    0.964
                            24 h    0.955
     8   6 c    3.986 --    11 c    1.935     7 c    1.007     5 c    0.995
     9   8 o    1.946 --     6 c    0.998    25 h    0.851
    10   6 c    3.949 --    15 o    0.992     1 c    0.976    27 h    0.969
                            26 h    0.969
    11   6 c    3.988 --     8 c    1.935    29 h    0.975    28 h    0.975
    12   6 c    3.985 --    13 c    1.914    16 c    1.025     2 c    0.997
    13   6 c    3.987 --    12 c    1.914    30 h    0.974    31 h    0.961
    14   1 h    0.998 --     2 c    0.959
    15   8 o    1.946 --    10 c    0.992    32 h    0.887
    16   6 c    3.995 --    12 c    1.025    33 h    0.984    34 h    0.971
                            35 h    0.965
    17   1 h    0.998 --     3 c    0.975
    18   1 h    0.998 --     3 c    0.976
    19   1 h    0.999 --     4 c    0.967
    20   1 h    0.998 --     4 c    0.976
    21   1 h    0.998 --     5 c    0.965
    22   1 h    0.999 --     6 c    0.956
    23   1 h    0.997 --     7 c    0.964
    24   1 h    0.996 --     7 c    0.955
    25   1 h    0.898 --     9 o    0.851
    26   1 h    0.999 --    10 c    0.969
    27   1 h    0.997 --    10 c    0.969
    28   1 h    0.998 --    11 c    0.975
    29   1 h    0.998 --    11 c    0.975
    30   1 h    0.998 --    13 c    0.974
    31   1 h    0.998 --    13 c    0.961
    32   1 h    0.906 --    15 o    0.887
    33   1 h    0.997 --    16 c    0.984
    34   1 h    0.998 --    16 c    0.971
    35   1 h    0.997 --    16 c    0.965
 ---------------------------------------------------------------------------

Topologies differ in total number of bonds
Writing topology from bond orders to xtbtopo.mol

molecular dipole:
                 x           y           z       tot (Debye)
 q only:        0.174       0.793      -0.632
   full:        0.223       0.957      -0.607       2.935
molecular quadrupole (traceless):
                xx          xy          yy          xz          yz          zz
 q only:        3.612       1.661      -2.959      -1.747      -1.304      -0.652
  q+dip:        5.239       2.040      -5.021      -1.810      -0.243      -0.218
   full:        4.563       2.317      -4.210      -2.049      -1.615      -0.353

           -------------------------------------------------
          |                Geometry Summary                 |
           -------------------------------------------------

      molecular mass/u    :      208.2971915
   center of mass at/Å    :       -0.0001547       0.0004986      -0.0010228
  moments of inertia/u·Å² :        0.6096918E+03   0.8665286E+03   0.1081209E+04
rotational constants/cm⁻¹ :        0.2764943E-01   0.1945421E-01   0.1559147E-01

 * 30 selected distances

     #   Z          #   Z                                           value/Å
     3   6 c        4   6 c                                       1.5295028
     4   6 c        5   6 c                                       1.5308839
     1   6 c        6   6 c                                       1.5431769 (max)
     5   6 c        6   6 c                                       1.5384635
     1   6 c        7   6 c                                       1.5404837
     6   6 c        9   8 o                                       1.4023581
     1   6 c       10   6 c                                       1.5379081
     8   6 c       11   6 c                                       1.3206184
    12   6 c       13   6 c                                       1.3276367
     2   6 c       14   1 h                                       1.0974267
    10   6 c       15   8 o                                       1.4126917
     3   6 c       17   1 h                                       1.0916790
     3   6 c       18   1 h                                       1.0914323
     4   6 c       19   1 h                                       1.0910961
     4   6 c       20   1 h                                       1.0920827
     5   6 c       21   1 h                                       1.0919440
     6   6 c       22   1 h                                       1.0986497
     7   6 c       23   1 h                                       1.0898312
     7   6 c       24   1 h                                       1.0935320
     9   8 o       25   1 h                                       0.9687391
    10   6 c       26   1 h                                       1.0969361
    10   6 c       27   1 h                                       1.0928784
    11   6 c       28   1 h                                       1.0772769
    11   6 c       29   1 h                                       1.0769216
    13   6 c       30   1 h                                       1.0778024
    13   6 c       31   1 h                                       1.0760143
    15   8 o       32   1 h                                       0.9651956 (min)
    16   6 c       33   1 h                                       1.0871061
    16   6 c       34   1 h                                       1.0853721
    16   6 c       35   1 h                                       1.0911183

 * 4 distinct bonds (by element types)

   Z      Z             #   av. dist./Å        max./Å        min./Å
   1 H    6 C          18     1.0888389     1.0986497     1.0760143
   6 C    6 C           8     1.4835843     1.5431769     1.3206184
   1 H    8 O           2     0.9669673     0.9687391     0.9651956
   6 C    8 O           2     1.4075249     1.4126917     1.4023581

           -------------------------------------------------
          |               Frequency Printout                |
           -------------------------------------------------
 projected vibrational frequencies (cm⁻¹)
eigval :       -0.00    -0.00     0.00     0.00     0.00     0.00
eigval :       58.47    85.16   102.06   130.35   141.12   166.49
eigval :      196.43   221.22   243.84   266.74   287.10   299.21
eigval :      314.15   331.89   361.04   379.37   387.38   423.62
eigval :      468.73   486.68   517.70   531.40   576.09   593.42
eigval :      612.23   701.91   709.28   724.06   787.26   826.13
eigval :      877.58   884.47   892.77   905.09   919.04   936.49
eigval :      943.34   956.82   962.82   980.17  1022.04  1029.18
eigval :     1040.65  1053.41  1077.20  1091.31  1102.54  1113.00
eigval :     1140.09  1141.76  1150.82  1169.33  1185.95  1199.02
eigval :     1222.08  1233.48  1257.14  1259.91  1262.51  1277.95
eigval :     1294.69  1313.49  1320.30  1334.08  1341.43  1349.24
eigval :     1360.86  1364.38  1398.79  1410.85  1424.05  1462.65
eigval :     1466.39  1481.48  1485.11  1487.77  1496.91  1706.52
eigval :     1738.98  2895.86  2904.30  2905.84  2954.22  2961.72
eigval :     2964.14  2966.52  2973.81  2987.31  2989.52  2990.31
eigval :     2992.84  3041.79  3063.09  3098.83  3102.65  3119.71
eigval :     3123.92  3436.84  3522.57
 reduced masses (amu)
   1: 10.66   2: 12.20   3: 11.11   4: 11.88   5: 11.22   6: 10.82   7: 10.35   8:  4.13
   9:  9.18  10:  9.84  11: 10.06  12: 11.71  13: 11.71  14: 10.55  15:  9.54  16:  7.99
  17: 10.22  18:  9.69  19:  8.26  20:  8.30  21:  3.40  22:  3.41  23:  9.30  24:  9.71
  25:  8.27  26:  9.47  27: 10.63  28:  8.85  29:  9.49  30:  9.83  31:  9.95  32:  3.73
  33:  5.76  34:  4.50  35:  7.74  36:  8.72  37:  6.89  38:  7.57  39:  5.30  40:  4.06
  41:  7.39  42:  6.50  43:  6.51  44:  5.80  45:  6.42  46:  6.55  47:  8.16  48:  5.41
  49:  4.83  50:  7.85  51:  7.84  52:  6.74  53:  8.73  54:  7.78  55:  6.99  56:  5.12
  57:  2.68  58:  6.59  59:  5.34  60:  5.69  61:  7.60  62:  6.67  63:  6.17  64:  8.60
  65:  5.58  66:  4.21  67:  5.38  68:  3.22  69:  5.27  70:  4.61  71:  3.49  72:  4.62
  73:  4.44  74:  3.71  75:  2.89  76:  2.36  77:  2.47  78:  1.90  79:  1.69  80:  1.69
  81:  1.81  82:  1.66  83:  1.96  84: 11.16  85: 11.58  86:  1.73  87:  1.75  88:  1.74
  89:  1.86  90:  1.80  91:  1.92  92:  1.71  93:  1.95  94:  1.56  95:  1.77  96:  1.62
  97:  1.51  98:  1.74  99:  1.62 100:  1.52 101:  1.63 102:  2.09 103:  1.97 104:  1.87
 105:  1.87
 IR intensities (km·mol⁻¹)
   1:  0.14   2:  0.18   3:  0.33   4:  0.17   5:  0.07   6:  0.19   7:  0.80   8:  2.40
   9:  0.25  10:  1.87  11:  0.88  12:  2.02  13:  9.56  14:  3.70  15:  7.06  16: 10.77
  17:  4.87  18:  1.92  19:  3.32  20:  2.61  21: 70.15  22:240.83  23: 34.38  24:  1.61
  25:  3.55  26: 28.16  27:  2.92  28:  2.81  29:  4.70  30:  1.07  31:  1.44  32:  2.94
  33:  1.08  34:  8.06  35: 12.92  36:  0.56  37:  2.50  38:  5.83  39: 19.40  40: 14.49
  41: 27.79  42:  6.56  43:  2.70  44:  2.13  45:  5.13  46:  1.28  47: 63.42  48: 10.62
  49: 16.76  50: 44.62  51: 49.03  52: 20.64  53: 12.71  54:121.06  55: 26.55  56: 37.17
  57:  9.85  58:  7.86  59: 10.15  60: 17.74  61: 33.31  62:  7.92  63: 18.03  64: 10.91
  65:  5.31  66:  4.29  67:  7.08  68: 46.33  69:  8.32  70: 10.07  71: 34.59  72:  9.63
  73:  1.40  74: 84.39  75:  4.03  76:  6.44  77:  9.80  78:  4.62  79:  4.24  80:  2.05
  81:  1.67  82:  3.38  83:  0.58  84: 30.81  85: 31.56  86: 98.56  87: 71.63  88: 52.92
  89: 22.47  90: 60.04  91: 42.23  92: 43.92  93: 68.75  94: 66.72  95: 15.21  96: 96.56
  97: 90.24  98: 43.23  99: 30.63 100: 42.03 101: 47.40 102: 61.28 103: 49.87 104:281.95
 105: 31.87
 Raman intensities (Ä⁴*amu⁻¹)
   1:  0.00   2:  0.00   3:  0.00   4:  0.00   5:  0.00   6:  0.00   7:  0.00   8:  0.00
   9:  0.00  10:  0.00  11:  0.00  12:  0.00  13:  0.00  14:  0.00  15:  0.00  16:  0.00
  17:  0.00  18:  0.00  19:  0.00  20:  0.00  21:  0.00  22:  0.00  23:  0.00  24:  0.00
  25:  0.00  26:  0.00  27:  0.00  28:  0.00  29:  0.00  30:  0.00  31:  0.00  32:  0.00
  33:  0.00  34:  0.00  35:  0.00  36:  0.00  37:  0.00  38:  0.00  39:  0.00  40:  0.00
  41:  0.00  42:  0.00  43:  0.00  44:  0.00  45:  0.00  46:  0.00  47:  0.00  48:  0.00
  49:  0.00  50:  0.00  51:  0.00  52:  0.00  53:  0.00  54:  0.00  55:  0.00  56:  0.00
  57:  0.00  58:  0.00  59:  0.00  60:  0.00  61:  0.00  62:  0.00  63:  0.00  64:  0.00
  65:  0.00  66:  0.00  67:  0.00  68:  0.00  69:  0.00  70:  0.00  71:  0.00  72:  0.00
  73:  0.00  74:  0.00  75:  0.00  76:  0.00  77:  0.00  78:  0.00  79:  0.00  80:  0.00
  81:  0.00  82:  0.00  83:  0.00  84:  0.00  85:  0.00  86:  0.00  87:  0.00  88:  0.00
  89:  0.00  90:  0.00  91:  0.00  92:  0.00  93:  0.00  94:  0.00  95:  0.00  96:  0.00
  97:  0.00  98:  0.00  99:  0.00 100:  0.00 101:  0.00 102:  0.00 103:  0.00 104:  0.00
 105:  0.00
 output can be read by thermo (or use thermo option).
 writing <g98.out> molden fake output.
 recommended (thermochemical) frequency scaling factor: 1.0
           -------------------------------------------------
          |             Thermodynamic Functions             |
           -------------------------------------------------

Molecule has no symmetry elements
It seems to be the C1 point group
c1  symmetry found (for desy threshold:  0.10E+00) used in thermo

          ...................................................
          :                      SETUP                      :
          :.................................................:
          :  # frequencies                          99      :
          :  # imaginary freq.                       0      :
          :  linear?                             false      :
          :  only rotor calc.                    false      :
          :  symmetry                               c1      :
          :  rotational number                       1      :
          :  scaling factor                  1.0000000      :
          :  rotor cutoff                   50.0000000 cm⁻¹ :
          :  imag. cutoff                  -50.0000000 cm⁻¹ :
          :.................................................:

    mode    ω/cm⁻¹     T·S(HO)/kcal·mol⁻¹    T·S(FR)/kcal·mol⁻¹   T·S(vib)
   ------------------------------------------------------------------------
       1     58.47    -1.34409 ( 65.16%)    -1.01008 ( 34.84%)    -1.22772
       2     85.16    -1.12351 ( 89.38%)    -0.89873 ( 10.62%)    -1.09964
       3    102.06    -1.01806 ( 94.55%)    -0.84512 (  5.45%)    -1.00864
       4    130.35    -0.87682 ( 97.88%)    -0.77264 (  2.12%)    -0.87461
       5    141.12    -0.83144 ( 98.45%)    -0.74914 (  1.55%)    -0.83016
       6    166.49    -0.73784 ( 99.19%)    -0.70016 (  0.81%)    -0.73754
       7    196.43    -0.64588 ( 99.58%)    -0.65118 (  0.42%)    -0.64590
       8    221.22    -0.58112 ( 99.74%)    -0.61598 (  0.26%)    -0.58122
       9    243.84    -0.52912 ( 99.82%)    -0.58713 (  0.18%)    -0.52922
      10    266.74    -0.48218 ( 99.88%)    -0.56055 (  0.12%)    -0.48228
      11    287.10    -0.44454 ( 99.91%)    -0.53876 (  0.09%)    -0.44463
      12    299.21    -0.42376 ( 99.92%)    -0.52652 (  0.08%)    -0.42384
   ------------------------------------------------------------------------

   temp. (K)  partition function   enthalpy   heat capacity  entropy
                                   cal/mol     cal/K/mol   cal/K/mol   J/K/mol
 298.15  VIB  0.166E+05             7635.220     54.155     44.408
         ROT  0.183E+07              888.752      2.981     31.632
         INT  0.303E+11             8523.973     57.136     76.040
         TR   0.291E+28             1481.254      4.968     41.886
         TOT                       10005.2267    62.1041   117.9263   493.4036

       T/K    H(0)-H(T)+PV         H(T)/Eh          T*S/Eh         G(T)/Eh
   ------------------------------------------------------------------------
    298.15    0.159443E-01    0.317693E+00    0.560306E-01    0.261662E+00
   ------------------------------------------------------------------------

         :::::::::::::::::::::::::::::::::::::::::::::::::::::
         ::                  THERMODYNAMIC                  ::
         :::::::::::::::::::::::::::::::::::::::::::::::::::::
         :: total free energy         -45.898249602583 Eh   ::
         ::.................................................::
         :: total energy              -46.159911820949 Eh   ::
         :: zero point energy           0.301748456661 Eh   ::
         :: G(RRHO) w/o ZPVE           -0.040086238296 Eh   ::
         :: G(RRHO) contrib.            0.261662218365 Eh   ::
         :::::::::::::::::::::::::::::::::::::::::::::::::::::

optimized geometry written to: xtbopt.coord


           -------------------------------------------------
          | TOTAL ENERGY              -46.159911820949 Eh   |
          | TOTAL ENTHALPY            -45.842219020714 Eh   |
          | TOTAL FREE ENERGY         -45.898249602583 Eh   |
          | GRADIENT NORM               0.000173562533 Eh/α |
          | HOMO-LUMO GAP               4.907075221148 eV   |
           -------------------------------------------------

------------------------------------------------------------------------
 * finished run on 2026/08/09 at 18:42:15.175     
------------------------------------------------------------------------
 total:
 * wall-time:     0 d,  0 h,  0 min,  1.762 sec
 *  cpu-time:     0 d,  0 h,  0 min, 19.257 sec
 * ratio c/w:    10.927 speedup
 SCF:
 * wall-time:     0 d,  0 h,  0 min,  0.048 sec
 *  cpu-time:     0 d,  0 h,  0 min,  0.558 sec
 * ratio c/w:    11.591 speedup
 ANC optimizer:
 * wall-time:     0 d,  0 h,  0 min,  0.628 sec
 *  cpu-time:     0 d,  0 h,  0 min,  7.517 sec
 * ratio c/w:    11.969 speedup
 analytical hessian:
 * wall-time:     0 d,  0 h,  0 min,  1.061 sec
 *  cpu-time:     0 d,  0 h,  0 min, 10.933 sec
 * ratio c/w:    10.304 speedup

normal termination of xtb
