      -----------------------------------------------------------      
     |                   =====================                   |     
     |                           x T B                           |     
     |                   =====================                   |     
     |                         S. Grimme                         |     
     |          Mulliken Center for Theoretical Chemistry        |     
     |                    University of Bonn                     |     
      -----------------------------------------------------------      

   * xtb version 6.7.1 (edcfbbe) compiled by 'albert@albert-system' on 2024-07-22

   xtb is free software: you can redistribute it and/or modify it under
   the terms of the GNU Lesser General Public License as published by
   the Free Software Foundation, either version 3 of the License, or
   (at your option) any later version.
   
   xtb is distributed in the hope that it will be useful,
   but WITHOUT ANY WARRANTY; without even the implied warranty of
   MERCHANTABILITY or FITNESS FOR A PARTICULAR PURPOSE.  See the
   GNU Lesser General Public License for more details.
   
   Cite this work as:
   * C. Bannwarth, E. Caldeweyher, S. Ehlert, A. Hansen, P. Pracht,
     J. Seibert, S. Spicher, S. Grimme, WIREs Comput. Mol. Sci., 2020, 11,
     e01493. DOI: 10.1002/wcms.1493
   
   for GFN2-xTB:
   * C. Bannwarth, S. Ehlert and S. Grimme., J. Chem. Theory Comput., 2019,
     15, 1652-1671. DOI: 10.1021/acs.jctc.8b01176
   for GFN1-xTB:
   * S. Grimme, C. Bannwarth, P. Shushkov, J. Chem. Theory Comput., 2017,
     13, 1989-2009. DOI: 10.1021/acs.jctc.7b00118
   for GFN0-xTB:
   * P. Pracht, E. Caldeweyher, S. Ehlert, S. Grimme, ChemRxiv, 2019, preprint.
     DOI: 10.26434/chemrxiv.8326202.v1
   for GFN-FF:
   * S. Spicher and S. Grimme, Angew. Chem. Int. Ed., 2020, 59, 15665-15673.
     DOI: 10.1002/anie.202004239
   
   for ALPB and GBSA implicit solvation:
   * S. Ehlert, M. Stahn, S. Spicher, S. Grimme, J. Chem. Theory Comput.,
     2021, 17, 4250-4261. DOI: 10.1021/acs.jctc.1c00471
   
   for ddCOSMO and CPCM-X implicit solvation:
   * M. Stahn, S. Ehlert, S. Grimme, J. Phys. Chem. A,
     2023, XX, XXXX-XXXX. DOI: 10.1021/acs.jpca.3c04382
   
   for DFT-D4:
   * E. Caldeweyher, C. Bannwarth and S. Grimme, J. Chem. Phys., 2017,
     147, 034112. DOI: 10.1063/1.4993215
   * E. Caldeweyher, S. Ehlert, A. Hansen, H. Neugebauer, S. Spicher,
     C. Bannwarth and S. Grimme, J. Chem. Phys., 2019, 150, 154122.
     DOI: 10.1063/1.5090222
   * E. Caldeweyher, J.-M. Mewes, S. Ehlert and S. Grimme, Phys. Chem. Chem. Phys.
     2020, 22, 8499-8512. DOI: 10.1039/D0CP00502A
   
   for sTDA-xTB:
   * S. Grimme and C. Bannwarth, J. Chem. Phys., 2016, 145, 054103.
     DOI: 10.1063/1.4959605
   
   in the mass-spec context:
   * V. Asgeirsson, C. Bauer and S. Grimme, Chem. Sci., 2017, 8, 4879.
     DOI: 10.1039/c7sc00601b
   * J. Koopman and S. Grimme, ACS Omega 2019, 4, 12, 15120-15133.
     DOI: 10.1021/acsomega.9b02011
   
   for metadynamics refer to:
   * S. Grimme, J. Chem. Theory Comput., 2019, 155, 2847-2862
     DOI: 10.1021/acs.jctc.9b00143
   
   for SPH calculations refer to:
   * S. Spicher and S. Grimme, J. Chem. Theory Comput., 2021, 17, 1701-1714
     DOI: 10.1021/acs.jctc.0c01306
   
   for ONIOM refer to:
   * C. Plett, A. Katbashev, S. Ehlert, S. Grimme, M. Bursch,
     Phys. Chem. Chem. Phys., 2023, 25, 17860-17868. DOI: 10.1039/D3CP02178E
   
   for DIPRO refer to:
   * J. Kohn, N. Gildemeister, S. Grimme, D. Fazzi, A. Hansen,
     J. Chem. Phys., 2023, just accepted.
   
   for PTB refer to:
   * S. Grimme, M. Mueller, A. Hansen, J. Chem. Phys., 2023, 158, 124111.
     DOI: 10.1063/5.0137838
   
   with help from (in alphabetical order)
   P. Atkinson, C. Bannwarth, F. Bohle, G. Brandenburg, E. Caldeweyher
   M. Checinski, S. Dohm, S. Ehlert, S. Ehrlich, I. Gerasimov, C. Hölzer
   A. Katbashev, J. Kohn, J. Koopman, C. Lavigne, S. Lehtola, F. März, M. Müller,
   F. Musil, H. Neugebauer, J. Pisarek, C. Plett, P. Pracht, F. Pultar,
   J. Seibert, P. Shushkov, S. Spicher, M. Stahn, M. Steiner, T. Strunk,
   J. Stückrath, T. Rose, and J. Unsleber
   
 * started run on 2026/08/09 at 17:05:39.440     
   ID    Z sym.   atoms
    1    6 c      1-8, 10-13, 16
    2    8 o      9, 15
    3    1 h      14, 17-35

           -------------------------------------------------
          |                Calculation Setup                |
           -------------------------------------------------

          program call               : /home/dinglab/software/xtb_6.7.1/xtb_dist/bin/xtb coord --gfn2 --ohess vtight --alpb chcl3 --chrg 0 --enso --norestart -I xcontrol-inp --parallel 12
          hostname                   : localhost
          coordinate file            : coord
          omp threads                :                    12


           -------------------------------------------------
          |                 G F N 2 - x T B                 |
           -------------------------------------------------

        Reference                      10.1021/acs.jctc.8b01176
      * Hamiltonian:
        H0-scaling (s, p, d)           1.850000    2.230000    2.230000
        zeta-weighting                 0.500000
      * Dispersion:
        s8                             2.700000
        a1                             0.520000
        a2                             5.000000
        s9                             5.000000
      * Repulsion:
        kExp                           1.500000    1.000000
        rExp                           1.000000
      * Coulomb:
        alpha                          2.000000
        third order                    shell-resolved
        anisotropic                    true
        a3                             3.000000
        a5                             4.000000
        cn-shift                       1.200000
        cn-exp                         4.000000
        max-rad                        5.000000

      * Solvation model:               ALPB
        Solvent                        chcl3
        Parameter file                 internal GFN2-xTB/ALPB
        Dielectric constant                4.8100E+00
        Reference state                gsolv [1 M gas/solution]
        Free energy shift                  3.8910E-03 Eh       2.4417E+00 kcal/mol
        Temperature                        2.9815E+02 K
        Density                            1.4900E+00 kg/L
        Solvent mass                       1.1938E+02 g/mol
        Interaction kernel             P16
        Born radius scaling (c1)           1.3274E+00
        Born radii integrator          GBOBC
        Born offset                        0.0000E+00 a0       0.0000E+00 AA
        H-bond correction              false
        Ion screening                  false
        Surface tension                    1.0000E-05 Eh       1.5569E+01 dyn/cm
        Grid points                               974 per atom

          ...................................................
          :                      SETUP                      :
          :.................................................:
          :  # basis functions                  80          :
          :  # atomic orbitals                  80          :
          :  # shells                           50          :
          :  # electrons                        84          :
          :  max. iterations                   250          :
          :  Hamiltonian                  GFN2-xTB          :
          :  restarted?                      false          :
          :  GBSA solvation                   true          :
          :  PC potential                    false          :
          :  electronic temp.          300.0000000     K    :
          :  accuracy                    1.0000000          :
          :  -> integral cutoff          0.2500000E+02      :
          :  -> integral neglect         0.1000000E-07      :
          :  -> SCF convergence          0.1000000E-05 Eh   :
          :  -> wf. convergence          0.1000000E-03 e    :
          :  Broyden damping             0.4000000          :
          :  net charge                          0          :
          :  unpaired electrons                  0          :
          ...................................................

 iter      E             dE          RMSdq      gap      omega  full diag
   1    -46.6680827 -0.466681E+02  0.344E+00    5.04       0.0  T
   2    -46.7085311 -0.404484E-01  0.193E+00    4.92       1.0  T
   3    -46.7058165  0.271463E-02  0.712E-01    4.86       1.0  T
   4    -46.7091884 -0.337190E-02  0.364E-01    4.80       1.0  T
   5    -46.7119033 -0.271495E-02  0.792E-02    4.83       1.0  T
   6    -46.7119505 -0.471792E-04  0.441E-02    4.82       1.0  T
   7    -46.7119595 -0.898543E-05  0.151E-02    4.82       1.1  T
   8    -46.7119610 -0.147174E-05  0.517E-03    4.83       3.3  T
   9    -46.7119613 -0.390117E-06  0.259E-03    4.83       6.5  T
  10    -46.7119614 -0.677640E-07  0.101E-03    4.83      16.7  T
  11    -46.7119614 -0.476145E-08  0.443E-04    4.83      38.2  T
  12    -46.7119614 -0.107178E-08  0.107E-04    4.83     157.6  T

   *** convergence criteria satisfied after 12 iterations ***

         #    Occupation            Energy/Eh            Energy/eV
      -------------------------------------------------------------
         1        2.0000           -0.6963830             -18.9495
       ...           ...                  ...                  ...
        36        2.0000           -0.4284754             -11.6594
        37        2.0000           -0.4207411             -11.4489
        38        2.0000           -0.4176465             -11.3647
        39        2.0000           -0.4112487             -11.1906
        40        2.0000           -0.4055384             -11.0353
        41        2.0000           -0.3896641             -10.6033
        42        2.0000           -0.3822608             -10.4018 (HOMO)
        43                         -0.2049420              -5.5768 (LUMO)
        44                         -0.2001347              -5.4459
        45                         -0.0039270              -0.1069
        46                         -0.0035756              -0.0973
        47                          0.0167567               0.4560
       ...                                ...                  ...
        80                          0.5993235              16.3084
      -------------------------------------------------------------
                  HL-Gap            0.1773188 Eh            4.8251 eV
             Fermi-level           -0.2936014 Eh           -7.9893 eV

 SCC (total)                   0 d,  0 h,  0 min,  0.055 sec
 SCC setup                      ...        0 min,  0.001 sec (  1.628%)
 Dispersion                     ...        0 min,  0.000 sec (  0.830%)
 classical contributions        ...        0 min,  0.000 sec (  0.053%)
 integral evaluation            ...        0 min,  0.002 sec (  3.294%)
 iterations                     ...        0 min,  0.048 sec ( 86.331%)
 molecular gradient             ...        0 min,  0.004 sec (  7.413%)
 printout                       ...        0 min,  0.000 sec (  0.373%)

         :::::::::::::::::::::::::::::::::::::::::::::::::::::
         ::                     SUMMARY                     ::
         :::::::::::::::::::::::::::::::::::::::::::::::::::::
         :: total energy             -46.153552237680 Eh    ::
         :: total w/o Gsasa/hb       -46.140878600752 Eh    ::
         :: gradient norm              0.051634579048 Eh/a0 ::
         :: HOMO-LUMO gap              4.825090192563 eV    ::
         ::.................................................::
         :: SCC energy               -46.711300840004 Eh    ::
         :: -> isotropic ES            0.062125757879 Eh    ::
         :: -> anisotropic ES          0.008247132152 Eh    ::
         :: -> anisotropic XC          0.019387660556 Eh    ::
         :: -> dispersion             -0.035619023216 Eh    ::
         :: -> Gsolv                  -0.020482878248 Eh    ::
         ::    -> Gelec               -0.007809241320 Eh    ::
         ::    -> Gsasa               -0.016564656171 Eh    ::
         ::    -> Ghb                  0.000000000000 Eh    ::
         ::    -> Gshift               0.003891019244 Eh    ::
         :: repulsion energy           0.557748602324 Eh    ::
         :: add. restraining           0.000000000000 Eh    ::
         :: total charge              -0.000000000000 e     ::
         :::::::::::::::::::::::::::::::::::::::::::::::::::::

      ----------------------------------------------------------- 
     |                   =====================                   |
     |                        A N C O P T                        |
     |                   =====================                   |
     |               Approximate Normal Coordinate               |
     |                Rational Function Optimizer                |
      ----------------------------------------------------------- 
      ----------------------------------------------------------- 
     |                   =====================                   |
     |                        A N C O P T                        |
     |                   =====================                   |
     |               Approximate Normal Coordinate               |
     |                Rational Function Optimizer                |
      ----------------------------------------------------------- 

          ...................................................
          :                      SETUP                      :
          :.................................................:
          :   optimization level         verytight          :
          :   max. optcycles                   700          :
          :   ANC micro-cycles                  20          :
          :   degrees of freedom                99          :
          :.................................................:
          :   RF solver                   davidson          :
          :   write xtbopt.log                true          :
          :   linear?                        false          :
          :   energy convergence         0.1000000E-06 Eh   :
          :   grad. convergence          0.2000000E-03 Eh/α :
          :   maxmium RF displ.          1.0000000          :
          :   Hlow (freq-cutoff)         0.1000000E-01      :
          :   Hmax (freq-cutoff)         5.0000000          :
          :   S6 in model hess.         20.0000000          :
          ...................................................

generating ANC from exact Hessian ...
Using Lindh-Hessian (1995)
 Shifting diagonal of input Hessian by   8.978435282557569E-003
 Lowest  eigenvalues of input Hessian
    0.000000    0.000000    0.000000    0.000000    0.000000    0.000000
    0.010000    0.010592    0.011087    0.011843    0.013140    0.013877
    0.014835    0.015967    0.016257    0.017340    0.018187    0.018724
 Highest eigenvalues
    1.391857    1.402520    1.408393    1.412901    1.806885    1.862975
 

........................................................................
.............................. CYCLE    1 ..............................
........................................................................

 iter      E             dE          RMSdq      gap      omega  full diag
   1    -46.7119614 -0.467120E+02  0.579E-05    4.83       0.0  T
   2    -46.7119614 -0.663647E-11  0.378E-05    4.83     447.2  T
   3    -46.7119614  0.440536E-11  0.241E-05    4.83     702.1  T
     SCC iter.                  ...        0 min,  0.007 sec
     gradient                   ...        0 min,  0.004 sec
 * total energy  :   -46.1535522 Eh     change       -0.5374545E-10 Eh
   gradient norm :     0.0516348 Eh/α   predicted     0.0000000E+00 (-100.00%)
   displ. norm   :     0.2954018 α      lambda       -0.9606593E-02
   maximum displ.:     0.1097894 α      in ANC's #30, #23, #62, ...

........................................................................
.............................. CYCLE    2 ..............................
........................................................................

 iter      E             dE          RMSdq      gap      omega  full diag
   1    -46.7635691 -0.467636E+02  0.148E-01    4.98       0.0  T
   2    -46.7635998 -0.306983E-04  0.914E-02    4.97       1.0  T
   3    -46.7635750  0.248176E-04  0.588E-02    4.98       1.0  T
   4    -46.7636323 -0.572743E-04  0.658E-03    4.98       2.6  T
   5    -46.7636327 -0.404202E-06  0.296E-03    4.98       5.7  T
   6    -46.7636327  0.301382E-08  0.120E-03    4.98      14.1  T
   7    -46.7636327 -0.114150E-07  0.483E-04    4.98      35.0  T
   8    -46.7636327 -0.454264E-08  0.177E-04    4.98      95.6  T
     SCC iter.                  ...        0 min,  0.014 sec
     gradient                   ...        0 min,  0.004 sec
 * total energy  :   -46.1597223 Eh     change       -0.6170038E-02 Eh
   gradient norm :     0.0148586 Eh/α   predicted    -0.5222723E-02 ( -15.35%)
   displ. norm   :     0.2175900 α      lambda       -0.1551502E-02
   maximum displ.:     0.1061403 α      in ANC's #4, #10, #17, ...

........................................................................
.............................. CYCLE    3 ..............................
........................................................................

 iter      E             dE          RMSdq      gap      omega  full diag
   1    -46.7827424 -0.467827E+02  0.760E-02    5.01       0.0  T
   2    -46.7827490 -0.661921E-05  0.478E-02    5.00       1.0  T
   3    -46.7827420  0.695656E-05  0.293E-02    5.01       1.0  T
   4    -46.7827569 -0.148942E-04  0.298E-03    5.01       5.7  T
   5    -46.7827570 -0.801012E-07  0.135E-03    5.01      12.5  T
   6    -46.7827570 -0.772886E-09  0.555E-04    5.01      30.4  T
   7    -46.7827570 -0.149046E-08  0.260E-04    5.01      65.0  T
     SCC iter.                  ...        0 min,  0.013 sec
     gradient                   ...        0 min,  0.004 sec
 * total energy  :   -46.1605679 Eh     change       -0.8456052E-03 Eh
   gradient norm :     0.0048104 Eh/α   predicted    -0.8131226E-03 (  -3.84%)
   displ. norm   :     0.1209581 α      lambda       -0.2335570E-03
   maximum displ.:     0.0789617 α      in ANC's #4, #2, #9, ...

........................................................................
.............................. CYCLE    4 ..............................
........................................................................

 iter      E             dE          RMSdq      gap      omega  full diag
   1    -46.7836028 -0.467836E+02  0.427E-02    4.99       0.0  T
   2    -46.7836033 -0.469777E-06  0.256E-02    4.99       1.0  T
   3    -46.7836005  0.279794E-05  0.112E-02    4.99       1.5  T
   4    -46.7836037 -0.327774E-05  0.103E-03    4.99      16.5  T
   5    -46.7836037 -0.737105E-08  0.541E-04    4.99      31.2  T
   6    -46.7836037 -0.650807E-09  0.150E-04    4.99     112.9  T
     SCC iter.                  ...        0 min,  0.011 sec
     gradient                   ...        0 min,  0.004 sec
 * total energy  :   -46.1607185 Eh     change       -0.1506524E-03 Eh
   gradient norm :     0.0027004 Eh/α   predicted    -0.1184924E-03 ( -21.35%)
   displ. norm   :     0.1707770 α      lambda       -0.2001817E-03
   maximum displ.:     0.1182052 α      in ANC's #4, #2, #9, ...

........................................................................
.............................. CYCLE    5 ..............................
........................................................................

 iter      E             dE          RMSdq      gap      omega  full diag
   1    -46.7818529 -0.467819E+02  0.605E-02    4.97       0.0  T
   2    -46.7818535 -0.675312E-06  0.359E-02    4.97       1.0  T
   3    -46.7818519  0.161165E-05  0.850E-03    4.97       2.0  T
   4    -46.7818539 -0.196799E-05  0.155E-03    4.97      10.9  T
   5    -46.7818539 -0.176180E-07  0.802E-04    4.97      21.1  T
   6    -46.7818539 -0.172723E-08  0.200E-04    4.97      84.6  T
     SCC iter.                  ...        0 min,  0.011 sec
     gradient                   ...        0 min,  0.004 sec
 * total energy  :   -46.1608435 Eh     change       -0.1249345E-03 Eh
   gradient norm :     0.0034277 Eh/α   predicted    -0.1030305E-03 ( -17.53%)
   displ. norm   :     0.1080931 α      lambda       -0.7985692E-04
   maximum displ.:     0.0658285 α      in ANC's #4, #2, #9, ...

........................................................................
.............................. CYCLE    6 ..............................
........................................................................

 iter      E             dE          RMSdq      gap      omega  full diag
   1    -46.7805872 -0.467806E+02  0.402E-02    4.97       0.0  T
   2    -46.7805875 -0.300349E-06  0.239E-02    4.97       1.0  T
   3    -46.7805871  0.403424E-06  0.442E-03    4.97       3.8  T
   4    -46.7805876 -0.523844E-06  0.110E-03    4.97      15.3  T
   5    -46.7805877 -0.112013E-07  0.550E-04    4.97      30.7  T
   6    -46.7805877 -0.979291E-09  0.148E-04    4.97     114.3  T
     SCC iter.                  ...        0 min,  0.011 sec
     gradient                   ...        0 min,  0.004 sec
 * total energy  :   -46.1608979 Eh     change       -0.5441754E-04 Eh
   gradient norm :     0.0032408 Eh/α   predicted    -0.4039523E-04 ( -25.77%)
   displ. norm   :     0.1130981 α      lambda       -0.6032070E-04
   maximum displ.:     0.0550315 α      in ANC's #4, #6, #1, ...

........................................................................
.............................. CYCLE    7 ..............................
........................................................................

 iter      E             dE          RMSdq      gap      omega  full diag
   1    -46.7803470 -0.467803E+02  0.398E-02    4.97       0.0  T
   2    -46.7803472 -0.234170E-06  0.236E-02    4.97       1.0  T
   3    -46.7803469  0.346134E-06  0.415E-03    4.97       4.1  T
   4    -46.7803474 -0.466273E-06  0.107E-03    4.97      15.8  T
   5    -46.7803474 -0.692219E-08  0.489E-04    4.97      34.6  T
   6    -46.7803474 -0.854754E-09  0.160E-04    4.97     105.6  T
     SCC iter.                  ...        0 min,  0.011 sec
     gradient                   ...        0 min,  0.004 sec
 * total energy  :   -46.1609390 Eh     change       -0.4113474E-04 Eh
   gradient norm :     0.0019144 Eh/α   predicted    -0.3054642E-04 ( -25.74%)
   displ. norm   :     0.1490226 α      lambda       -0.3788572E-04
   maximum displ.:     0.0704663 α      in ANC's #1, #6, #3, ...

........................................................................
.............................. CYCLE    8 ..............................
........................................................................

 iter      E             dE          RMSdq      gap      omega  full diag
   1    -46.7813155 -0.467813E+02  0.482E-02    4.97       0.0  T
   2    -46.7813158 -0.262659E-06  0.286E-02    4.97       1.0  T
   3    -46.7813158 -0.544800E-07  0.211E-03    4.97       8.0  T
   4    -46.7813159 -0.593398E-07  0.121E-03    4.97      14.0  T
   5    -46.7813159 -0.123910E-07  0.559E-04    4.97      30.2  T
   6    -46.7813159 -0.212648E-08  0.179E-04    4.97      94.7  T
     SCC iter.                  ...        0 min,  0.011 sec
     gradient                   ...        0 min,  0.004 sec
 * total energy  :   -46.1609722 Eh     change       -0.3322797E-04 Eh
   gradient norm :     0.0015870 Eh/α   predicted    -0.1913220E-04 ( -42.42%)
   displ. norm   :     0.0957336 α      lambda       -0.2123909E-04
   maximum displ.:     0.0557254 α      in ANC's #1, #3, #5, ...

........................................................................
.............................. CYCLE    9 ..............................
........................................................................

 iter      E             dE          RMSdq      gap      omega  full diag
   1    -46.7818175 -0.467818E+02  0.284E-02    4.97       0.0  T
   2    -46.7818176 -0.569647E-07  0.169E-02    4.97       1.0  T
   3    -46.7818174  0.159974E-06  0.267E-03    4.97       6.3  T
   4    -46.7818176 -0.202869E-06  0.523E-04    4.97      32.3  T
   5    -46.7818176 -0.614094E-09  0.234E-04    4.97      72.3  T
     SCC iter.                  ...        0 min,  0.009 sec
     gradient                   ...        0 min,  0.004 sec
 * total energy  :   -46.1609926 Eh     change       -0.2030464E-04 Eh
   gradient norm :     0.0013969 Eh/α   predicted    -0.1066397E-04 ( -47.48%)
   displ. norm   :     0.1059479 α      lambda       -0.2237877E-04
   maximum displ.:     0.0663231 α      in ANC's #1, #3, #5, ...

........................................................................
.............................. CYCLE   10 ..............................
........................................................................

 iter      E             dE          RMSdq      gap      omega  full diag
   1    -46.7821495 -0.467821E+02  0.295E-02    4.96       0.0  T
   2    -46.7821496 -0.669562E-07  0.176E-02    4.96       1.0  T
   3    -46.7821493  0.295539E-06  0.354E-03    4.96       4.8  T
   4    -46.7821496 -0.350384E-06  0.485E-04    4.96      34.8  T
   5    -46.7821496 -0.320732E-09  0.172E-04    4.96      98.5  T
     SCC iter.                  ...        0 min,  0.009 sec
     gradient                   ...        0 min,  0.004 sec
 * total energy  :   -46.1610072 Eh     change       -0.1460607E-04 Eh
   gradient norm :     0.0013702 Eh/α   predicted    -0.1124561E-04 ( -23.01%)
   displ. norm   :     0.0430801 α      lambda       -0.8367081E-05
   maximum displ.:     0.0328610 α      in ANC's #1, #3, #5, ...

........................................................................
.............................. CYCLE   11 ..............................
........................................................................

 iter      E             dE          RMSdq      gap      omega  full diag
   1    -46.7817047 -0.467817E+02  0.132E-02    4.96       0.0  T
   2    -46.7817047 -0.345878E-07  0.782E-03    4.96       2.2  T
   3    -46.7817047  0.606374E-07  0.161E-03    4.96      10.5  T
   4    -46.7817047 -0.718156E-07  0.337E-04    4.96      50.2  T
   5    -46.7817047 -0.173895E-08  0.139E-04    4.96     121.5  T
     SCC iter.                  ...        0 min,  0.009 sec
     gradient                   ...        0 min,  0.004 sec
 * total energy  :   -46.1610147 Eh     change       -0.7554809E-05 Eh
   gradient norm :     0.0006557 Eh/α   predicted    -0.4189668E-05 ( -44.54%)
   displ. norm   :     0.0302631 α      lambda       -0.3898693E-05
   maximum displ.:     0.0254953 α      in ANC's #1, #4, #13, ...

........................................................................
.............................. CYCLE   12 ..............................
........................................................................

 iter      E             dE          RMSdq      gap      omega  full diag
   1    -46.7815496 -0.467815E+02  0.972E-03    4.96       0.0  T
   2    -46.7815496 -0.165082E-07  0.575E-03    4.96       2.9  T
   3    -46.7815495  0.482228E-07  0.142E-03    4.96      11.9  T
   4    -46.7815496 -0.572065E-07  0.217E-04    4.96      77.9  T
   5    -46.7815496 -0.381753E-09  0.110E-04    4.96     154.3  T
     SCC iter.                  ...        0 min,  0.010 sec
     gradient                   ...        0 min,  0.004 sec
 * total energy  :   -46.1610187 Eh     change       -0.3943409E-05 Eh
   gradient norm :     0.0004793 Eh/α   predicted    -0.1950556E-05 ( -50.54%)
   displ. norm   :     0.0258996 α      lambda       -0.2418983E-05
   maximum displ.:     0.0206376 α      in ANC's #1, #5, #6, ...

........................................................................
.............................. CYCLE   13 ..............................
........................................................................

 iter      E             dE          RMSdq      gap      omega  full diag
   1    -46.7818383 -0.467818E+02  0.604E-03    4.96       0.0  T
   2    -46.7818383 -0.653620E-08  0.359E-03    4.96       4.7  T
   3    -46.7818383  0.661728E-10  0.353E-04    4.96      47.9  T
   4    -46.7818383 -0.232065E-08  0.175E-04    4.96      96.5  T
     SCC iter.                  ...        0 min,  0.007 sec
     gradient                   ...        0 min,  0.004 sec
 * total energy  :   -46.1610213 Eh     change       -0.2620278E-05 Eh
   gradient norm :     0.0005208 Eh/α   predicted    -0.1210936E-05 ( -53.79%)
   displ. norm   :     0.0253886 α      lambda       -0.2007524E-05
   maximum displ.:     0.0205491 α      in ANC's #1, #5, #4, ...

........................................................................
.............................. CYCLE   14 ..............................
........................................................................

 iter      E             dE          RMSdq      gap      omega  full diag
   1    -46.7817476 -0.467817E+02  0.720E-03    4.96       0.0  T
   2    -46.7817476 -0.592588E-08  0.426E-03    4.96       4.0  T
   3    -46.7817476 -0.130392E-09  0.334E-04    4.96      50.6  T
   4    -46.7817476 -0.201497E-08  0.164E-04    4.96     103.1  T
     SCC iter.                  ...        0 min,  0.007 sec
     gradient                   ...        0 min,  0.004 sec
 * total energy  :   -46.1610233 Eh     change       -0.1999813E-05 Eh
   gradient norm :     0.0004077 Eh/α   predicted    -0.1006576E-05 ( -49.67%)
   displ. norm   :     0.0215619 α      lambda       -0.1316967E-05
   maximum displ.:     0.0175977 α      in ANC's #1, #3, #9, ...

........................................................................
.............................. CYCLE   15 ..............................
........................................................................

 iter      E             dE          RMSdq      gap      omega  full diag
   1    -46.7817020 -0.467817E+02  0.583E-03    4.96       0.0  T
   2    -46.7817020 -0.439202E-08  0.343E-03    4.96       4.9  T
   3    -46.7817020  0.301579E-08  0.429E-04    4.96      39.4  T
   4    -46.7817020 -0.456625E-08  0.124E-04    4.96     136.5  T
     SCC iter.                  ...        0 min,  0.007 sec
     gradient                   ...        0 min,  0.004 sec
 * total energy  :   -46.1610248 Eh     change       -0.1531316E-05 Eh
   gradient norm :     0.0002844 Eh/α   predicted    -0.6602082E-06 ( -56.89%)
   displ. norm   :     0.0254387 α      lambda       -0.1212266E-05
   maximum displ.:     0.0197851 α      in ANC's #1, #3, #4, ...

........................................................................
.............................. CYCLE   16 ..............................
........................................................................

 iter      E             dE          RMSdq      gap      omega  full diag
   1    -46.7817810 -0.467818E+02  0.736E-03    4.96       0.0  T
   2    -46.7817810 -0.292680E-08  0.433E-03    4.96       3.9  T
   3    -46.7817810  0.364628E-08  0.419E-04    4.96      40.4  T
   4    -46.7817810 -0.492908E-08  0.861E-05    4.96     196.4  T
     SCC iter.                  ...        0 min,  0.008 sec
     gradient                   ...        0 min,  0.004 sec
 * total energy  :   -46.1610263 Eh     change       -0.1467363E-05 Eh
   gradient norm :     0.0002658 Eh/α   predicted    -0.6106751E-06 ( -58.38%)
   displ. norm   :     0.0346802 α      lambda       -0.1304196E-05
   maximum displ.:     0.0257782 α      in ANC's #1, #3, #4, ...

........................................................................
.............................. CYCLE   17 ..............................
........................................................................

 iter      E             dE          RMSdq      gap      omega  full diag
   1    -46.7817828 -0.467818E+02  0.109E-02    4.96       0.0  T
   2    -46.7817828 -0.529715E-08  0.639E-03    4.96       2.6  T
   3    -46.7817828  0.744026E-08  0.599E-04    4.96      28.2  T
   4    -46.7817828 -0.100368E-07  0.116E-04    4.96     146.3  T
     SCC iter.                  ...        0 min,  0.007 sec
     gradient                   ...        0 min,  0.004 sec
 * total energy  :   -46.1610278 Eh     change       -0.1537773E-05 Eh
   gradient norm :     0.0002890 Eh/α   predicted    -0.6561115E-06 ( -57.33%)
   displ. norm   :     0.0402772 α      lambda       -0.1151579E-05
   maximum displ.:     0.0288835 α      in ANC's #1, #4, #3, ...

........................................................................
.............................. CYCLE   18 ..............................
........................................................................

 iter      E             dE          RMSdq      gap      omega  full diag
   1    -46.7817110 -0.467817E+02  0.124E-02    4.96       0.0  T
   2    -46.7817110 -0.101935E-07  0.730E-03    4.96       2.3  T
   3    -46.7817110  0.467878E-09  0.416E-04    4.96      40.6  T
   4    -46.7817110 -0.328723E-08  0.178E-04    4.96      95.1  T
     SCC iter.                  ...        0 min,  0.007 sec
     gradient                   ...        0 min,  0.004 sec
 * total energy  :   -46.1610292 Eh     change       -0.1352033E-05 Eh
   gradient norm :     0.0002221 Eh/α   predicted    -0.5793926E-06 ( -57.15%)
   displ. norm   :     0.0422572 α      lambda       -0.1000391E-05
   maximum displ.:     0.0297191 α      in ANC's #1, #4, #3, ...

........................................................................
.............................. CYCLE   19 ..............................
........................................................................

 iter      E             dE          RMSdq      gap      omega  full diag
   1    -46.7817773 -0.467818E+02  0.128E-02    4.96       0.0  T
   2    -46.7817774 -0.100360E-07  0.757E-03    4.96       2.2  T
   3    -46.7817773  0.165545E-07  0.909E-04    4.96      18.6  T
   4    -46.7817774 -0.217357E-07  0.185E-04    4.96      91.4  T
     SCC iter.                  ...        0 min,  0.007 sec
     gradient                   ...        0 min,  0.004 sec
 * total energy  :   -46.1610303 Eh     change       -0.1170090E-05 Eh
   gradient norm :     0.0001559 Eh/α   predicted    -0.5020764E-06 ( -57.09%)
   displ. norm   :     0.0494684 α      lambda       -0.9998706E-06
   maximum displ.:     0.0340046 α      in ANC's #1, #4, #9, ...

........................................................................
.............................. CYCLE   20 ..............................
........................................................................

 iter      E             dE          RMSdq      gap      omega  full diag
   1    -46.7817941 -0.467818E+02  0.146E-02    4.96       0.0  T
   2    -46.7817941 -0.159576E-07  0.864E-03    4.96       2.0  T
   3    -46.7817940  0.227854E-07  0.109E-03    4.96      15.5  T
   4    -46.7817941 -0.304171E-07  0.244E-04    4.96      69.3  T
   5    -46.7817941 -0.344571E-09  0.134E-04    4.96     126.1  T
     SCC iter.                  ...        0 min,  0.009 sec
     gradient                   ...        0 min,  0.004 sec
 * total energy  :   -46.1610314 Eh     change       -0.1094633E-05 Eh
   gradient norm :     0.0001772 Eh/α   predicted    -0.5019487E-06 ( -54.14%)
   displ. norm   :     0.0447813 α      lambda       -0.7495029E-06
   maximum displ.:     0.0294730 α      in ANC's #1, #9, #2, ...
 * RMSD in coord.:     0.1966997 α      energy gain  -0.7479193E-02 Eh

generating ANC from exact Hessian ...
Using Lindh-Hessian (1995)
 Shifting diagonal of input Hessian by   8.819425996469484E-003
 Lowest  eigenvalues of input Hessian
    0.000000    0.000000    0.000000    0.000000    0.000000    0.000000
    0.010000    0.010780    0.011197    0.012216    0.013679    0.014397
    0.015764    0.016799    0.017301    0.018706    0.019787    0.020578
 Highest eigenvalues
    1.480617    1.485759    1.511427    1.512766    1.920390    1.970904
 

........................................................................
.............................. CYCLE   21 ..............................
........................................................................

 iter      E             dE          RMSdq      gap      omega  full diag
   1    -46.7818121 -0.467818E+02  0.127E-02    4.96       0.0  T
   2    -46.7818121 -0.128299E-07  0.753E-03    4.96       2.2  T
   3    -46.7818121  0.191624E-07  0.100E-03    4.96      16.8  T
   4    -46.7818121 -0.258942E-07  0.228E-04    4.96      74.1  T
   5    -46.7818121 -0.223835E-09  0.117E-04    4.96     143.9  T
     SCC iter.                  ...        0 min,  0.009 sec
     gradient                   ...        0 min,  0.004 sec
 * total energy  :   -46.1610322 Eh     change       -0.7949455E-06 Eh
   gradient norm :     0.0001316 Eh/α   predicted     0.0000000E+00 (-100.00%)
   displ. norm   :     0.0056146 α      lambda       -0.1884852E-07
   maximum displ.:     0.0033328 α      in ANC's #2, #3, #4, ...

........................................................................
.............................. CYCLE   22 ..............................
........................................................................

 iter      E             dE          RMSdq      gap      omega  full diag
   1    -46.7818321 -0.467818E+02  0.230E-03    4.96       0.0  T
   2    -46.7818321 -0.404604E-09  0.135E-03    4.96      12.5  T
   3    -46.7818321  0.146308E-09  0.109E-04    4.96     154.7  T
   4    -46.7818321 -0.285858E-09  0.374E-05    4.96     451.9  T
     SCC iter.                  ...        0 min,  0.007 sec
     gradient                   ...        0 min,  0.004 sec
 * total energy  :   -46.1610325 Eh     change       -0.2601447E-06 Eh
   gradient norm :     0.0000857 Eh/α   predicted    -0.1078178E-06 ( -58.55%)
   displ. norm   :     0.0179186 α      lambda       -0.5192259E-06
   maximum displ.:     0.0102640 α      in ANC's #2, #3, #4, ...

........................................................................
.............................. CYCLE   23 ..............................
........................................................................

 iter      E             dE          RMSdq      gap      omega  full diag
   1    -46.7818704 -0.467819E+02  0.668E-03    4.96       0.0  T
   2    -46.7818704 -0.247131E-08  0.393E-03    4.96       4.3  T
   3    -46.7818704  0.241242E-08  0.365E-04    4.96      46.4  T
   4    -46.7818704 -0.353801E-08  0.883E-05    4.96     191.5  T
     SCC iter.                  ...        0 min,  0.008 sec
     gradient                   ...        0 min,  0.004 sec
 * total energy  :   -46.1610330 Eh     change       -0.5423993E-06 Eh
   gradient norm :     0.0002066 Eh/α   predicted    -0.2599013E-06 ( -52.08%)
   displ. norm   :     0.0194556 α      lambda       -0.3839250E-06
   maximum displ.:     0.0112578 α      in ANC's #2, #3, #4, ...

........................................................................
.............................. CYCLE   24 ..............................
........................................................................

 iter      E             dE          RMSdq      gap      omega  full diag
   1    -46.7818548 -0.467819E+02  0.712E-03    4.96       0.0  T
   2    -46.7818548 -0.295618E-08  0.419E-03    4.96       4.0  T
   3    -46.7818548  0.155237E-08  0.337E-04    4.96      50.1  T
   4    -46.7818548 -0.286412E-08  0.100E-04    4.96     168.6  T
     SCC iter.                  ...        0 min,  0.007 sec
     gradient                   ...        0 min,  0.004 sec
 * total energy  :   -46.1610333 Eh     change       -0.3146772E-06 Eh
   gradient norm :     0.0001745 Eh/α   predicted    -0.1921052E-06 ( -38.95%)
   displ. norm   :     0.0135117 α      lambda       -0.2243950E-06
   maximum displ.:     0.0081086 α      in ANC's #2, #3, #9, ...

........................................................................
.............................. CYCLE   25 ..............................
........................................................................

 iter      E             dE          RMSdq      gap      omega  full diag
   1    -46.7818313 -0.467818E+02  0.445E-03    4.96       0.0  T
   2    -46.7818313 -0.154072E-08  0.263E-03    4.96       6.4  T
   3    -46.7818313  0.486421E-08  0.449E-04    4.96      37.7  T
   4    -46.7818313 -0.576215E-08  0.624E-05    4.96     270.7  T
     SCC iter.                  ...        0 min,  0.007 sec
     gradient                   ...        0 min,  0.004 sec
 * total energy  :   -46.1610335 Eh     change       -0.1801514E-06 Eh
   gradient norm :     0.0001052 Eh/α   predicted    -0.1206742E-06 ( -33.02%)
   displ. norm   :     0.0040204 α      lambda       -0.7769820E-07
   maximum displ.:     0.0022261 α      in ANC's #9, #2, #5, ...

........................................................................
.............................. CYCLE   26 ..............................
........................................................................

 iter      E             dE          RMSdq      gap      omega  full diag
   1    -46.7818414 -0.467818E+02  0.976E-04    4.96       0.0  T
   2    -46.7818414 -0.207415E-09  0.581E-04    4.96      29.1  T
   3    -46.7818414  0.686548E-09  0.172E-04    4.96      98.3  T
     SCC iter.                  ...        0 min,  0.006 sec
     gradient                   ...        0 min,  0.004 sec
 * total energy  :   -46.1610336 Eh     change       -0.8849763E-07 Eh
   gradient norm :     0.0000511 Eh/α   predicted    -0.4142029E-07 ( -53.20%)
   displ. norm   :     0.0061930 α      lambda       -0.8094131E-07
   maximum displ.:     0.0040492 α      in ANC's #9, #2, #14, ...

   *** GEOMETRY OPTIMIZATION CONVERGED AFTER 26 ITERATIONS ***

------------------------------------------------------------------------
 total energy gain   :        -0.0074814 Eh       -4.6946 kcal/mol
 total RMSD          :         0.1950920 a0        0.1032 Å
 total power (kW/mol):        -0.7554747 (step)  -33.9209 (real)
------------------------------------------------------------------------

 ANCopt (total)                0 d,  0 h,  0 min,  0.579 sec
 optimizer setup                ...        0 min,  0.000 sec (  0.036%)
 model hessian                  ...        0 min,  0.168 sec ( 29.020%)
 ANC generation                 ...        0 min,  0.004 sec (  0.645%)
 coordinate transformation      ...        0 min,  0.001 sec (  0.090%)
 single point calculation       ...        0 min,  0.396 sec ( 68.434%)
 optimization log               ...        0 min,  0.005 sec (  0.922%)
 hessian update                 ...        0 min,  0.000 sec (  0.077%)
 rational function              ...        0 min,  0.003 sec (  0.459%)

================
 final structure:
================
$coord
        0.25833928885829       -1.07671150636955        0.78142986476206      c
       -1.76150034226214        0.95972541860360        1.38386861819964      c
       -0.64090139662240        3.63559710855075        1.05982750280873      c
        1.10036500426508        3.98846507736752       -1.22197909840069      c
        2.88723380296895        1.72918202016409       -1.51506025107696      c
        1.28152359863232       -0.64405388267709       -1.90425906486543      c
        2.61973941802552       -0.62040653296742        2.42848413315117      c
        4.20309016479809        1.22639294771819        0.95798024738789      c
        2.71081207305166       -2.78162723345668       -2.68036855720644      o
       -0.73016885868952       -3.77984629575855        1.16384151200287      c
        6.37163937953670        2.22445858895704        1.68520256286054      c
       -4.25784507554725        0.61266974394344        0.01829336386934      c
       -4.75572213585338        1.44854963880322       -2.28854319586034      c
       -2.18782130092002        0.73889441295284        3.39914643443324      h
       -2.46759034245816       -4.58211442300620       -0.69175953759924      o
       -6.28994714670281       -0.66490736502876        1.53173705186741      c
       -2.19079377328252        4.99238724980663        0.95328557845591      h
        0.45070063678203        4.07779065160470        2.75328140889302      h
        0.01627149280614        4.21731751643033       -2.95956137338713      h
        2.20988496213582        5.70738956381334       -0.95251789873988      h
        4.20963444419750        2.05971717006712       -3.06886250902805      h
       -0.24678812704907       -0.32828032112004       -3.26911641282692      h
        3.66628303156769       -2.38498392292852        2.65636588563939      h
        2.14469606518959        0.07124594631614        4.30874871608041      h
        3.77355656322107       -2.28429665303222       -4.07587608679910      h
       -1.71333942629887       -3.92050612493910        2.97398871923579      h
        0.88747365415272       -5.07749677212472        1.19382269717410      h
        7.19290156725480        1.79717420571128        3.49781827352430      h
        7.41125226307337        3.51203601150123        0.50009824219363      h
       -6.59274283053182        1.17512838126398       -3.12481297684287      h
       -3.41151026435701        2.42877896239991       -3.45262130056219      h
       -1.57230151412012       -4.63231558690238       -2.27983330034339      h
       -8.09055678741189       -0.58727141302511        0.54657292805779      h
       -5.81118716079061       -2.64058173431176        1.83458607629066      h
       -6.49914644418602        0.24112002699292        3.36868084211959      h
$end
 
 Bond Distances (Angstroems)
 ---------------------------
C1-C2=1.5509         C1-C6=1.5380         C1-C7=1.5426         C1-C10=1.5365        C2-C1=1.5509         C2-C3=1.5447         
C2-C12=1.5169        C2-H14=1.0963        C3-C2=1.5447         C3-C4=1.5303         C3-H17=1.0915        C3-H18=1.0916        
C4-C3=1.5303         C4-C5=1.5322         C4-H19=1.0905        C4-H20=1.0920        C5-C4=1.5322         C5-C6=1.5302         
C5-C8=1.5061         C5-H21=1.0938        C6-C1=1.5380         C6-C5=1.5302         C6-O9=1.4214         C6-H22=1.0971        
C7-C1=1.5426         C7-C8=1.5042         C7-H23=1.0923        C7-H24=1.0896        C8-C5=1.5061         C8-C7=1.5042         
C8-C11=1.3206        O9-C6=1.4214         O9-H25=0.9648        C10-C1=1.5365        C10-O15=1.4106       C10-H26=1.0926       
C10-H27=1.0975       C11-C8=1.3206        C11-H28=1.0771       C11-H29=1.0771       C12-C2=1.5169        C12-C13=1.3249       
C12-C16=1.5016       C13-C12=1.3249       C13-H30=1.0779       C13-H31=1.0745       H14-C2=1.0963        O15-C10=1.4106       
O15-H32=0.9651       C16-C12=1.5016       C16-H33=1.0869       C16-H34=1.0876       C16-H35=1.0895       H17-C3=1.0915        
H18-C3=1.0916        H19-C4=1.0905        H20-C4=1.0920        H21-C5=1.0938        H22-C6=1.0971        H23-C7=1.0923        
H24-C7=1.0896        H25-O9=0.9648        H26-C10=1.0926       H27-C10=1.0975       H28-C11=1.0771       H29-C11=1.0771       
H30-C13=1.0779       H31-C13=1.0745       H32-O15=0.9651       H33-C16=1.0869       H34-C16=1.0876       H35-C16=1.0895       
 C  H  Rav=1.0886 sigma=0.0070  Rmin=1.0745  Rmax=1.0975    18
 C  C  Rav=1.4985 sigma=0.0733  Rmin=1.3206  Rmax=1.5509    14
 O  H  Rav=0.9650 sigma=0.0001  Rmin=0.9648  Rmax=0.9651     2
 O  C  Rav=1.4160 sigma=0.0054  Rmin=1.4106  Rmax=1.4214     2
 
 selected bond angles (degree)
 --------------------
C6-C1-C2=109.22                C7-C1-C2=109.47                C7-C1-C6=102.34                C10-C1-C2=112.65               
C10-C1-C6=112.34               C10-C1-C7=110.31               C3-C2-C1=110.46                C12-C2-C1=114.72               
C12-C2-C3=113.10               H14-C2-C1=105.53               H14-C2-C3=106.54               H14-C2-C12=105.74              
C4-C3-C2=115.50                H17-C3-C2=108.68               H17-C3-C4=109.36               H18-C3-C2=107.97               
H18-C3-C4=107.64               H18-C3-H17=107.40              C5-C4-C3=110.87                H19-C4-C3=111.23               
H19-C4-C5=109.02               H20-C4-C3=108.80               H20-C4-C5=109.35               H20-C4-H19=107.48              
C6-C5-C4=108.14                C8-C5-C4=109.59                C8-C5-C6=103.22                H21-C5-C4=110.25               
H21-C5-C6=112.66               H21-C5-C8=112.68               C5-C6-C1=101.14                O9-C6-C1=109.63                
O9-C6-C5=113.36                H22-C6-C1=111.81               H22-C6-C5=111.90               H22-C6-O9=108.86               
C8-C7-C1=105.11                H23-C7-C1=109.83               H23-C7-C8=109.27               H24-C7-C1=112.44               
H24-C7-C8=112.50               H24-C7-H23=107.66              C7-C8-C5=107.86                C11-C8-C5=125.76               
C11-C8-C7=126.38               H25-O9-C6=108.32               O15-C10-C1=114.23              H26-C10-C1=109.94              
H26-C10-O15=106.23             H27-C10-C1=108.59              H27-C10-O15=109.28             H27-C10-H26=108.43             
 
 selected dihedral angles (degree)
 ---------------------------------
C3-C2-C1-C6=303.57            C3-C2-C1-C7= 54.87            C3-C2-C1-C10=178.00           C12-C2-C1-C6= 72.83           
C12-C2-C1-C7=184.13           C12-C2-C1-C10=307.26          H14-C2-C1-C6=188.80           H14-C2-C1-C7=300.10           
H14-C2-C1-C10= 63.23          C4-C3-C2-C1= 40.51            C4-C3-C2-C12=270.39           C4-C3-C2-H14=154.65           
H17-C3-C2-C1=163.81           H17-C3-C2-C12= 33.69          H17-C3-C2-H14=277.94          H18-C3-C2-C1=280.01           
H18-C3-C2-C12=149.89          H18-C3-C2-H14= 34.14          C5-C4-C3-C2=317.38            C5-C4-C3-H17=194.44           
C5-C4-C3-H18= 78.07           H19-C4-C3-C2= 78.87           H19-C4-C3-H17=315.93          H19-C4-C3-H18=199.55          
H20-C4-C3-C2=197.08           H20-C4-C3-H17= 74.14          H20-C4-C3-H18=317.77          C6-C5-C4-C3= 60.36            
C6-C5-C4-H19=297.58           C6-C5-C4-H20=180.33           C8-C5-C4-C3=308.52            C8-C5-C4-H19=185.74           
C8-C5-C4-H20= 68.49           H21-C5-C4-C3=183.93           H21-C5-C4-H19= 61.16          H21-C5-C4-H20=303.90          
C5-C6-C1-C2= 72.48            C5-C6-C1-C7=316.53            C5-C6-C1-C10=198.24           O9-C6-C1-C2=192.44            
O9-C6-C1-C7= 76.49            O9-C6-C1-C10=318.19           H22-C6-C1-C2=313.26           H22-C6-C1-C7=197.31           
H22-C6-C1-C10= 79.01          C1-C6-C5-C4=285.86            C1-C6-C5-C8= 41.92            C1-C6-C5-H21=163.75           
O9-C6-C5-C4=168.60            O9-C6-C5-C8=284.66            O9-C6-C5-H21= 46.49           H22-C6-C5-C4= 45.02           
H22-C6-C5-C8=161.08           H22-C6-C5-H21=282.91          C8-C7-C1-C2=273.03            C8-C7-C1-C6= 28.79            
C8-C7-C1-C10=148.52           H23-C7-C1-C2=155.59           H23-C7-C1-C6=271.35           H23-C7-C1-C10= 31.08          
H24-C7-C1-C2= 35.74           H24-C7-C1-C6=151.50           H24-C7-C1-C10=271.23          C7-C8-C5-C4= 90.51            
C7-C8-C5-C6=335.48            C7-C8-C5-H21=213.67           C11-C8-C5-C4=270.09           C11-C8-C5-C6=155.06           
C11-C8-C5-H21= 33.25          C5-C8-C7-C1=357.21            C5-C8-C7-H23=115.03           C5-C8-C7-H24=234.54           
C11-C8-C7-C1=177.63           C11-C8-C7-H23=295.45          C11-C8-C7-H24= 54.97          H25-O9-C6-C1=198.59           
H25-O9-C6-C5=310.77           H25-O9-C6-H22= 76.00          O15-C10-C1-C2= 72.36          O15-C10-C1-C6=308.50          
O15-C10-C1-C7=195.02          H26-C10-C1-C2=313.07          H26-C10-C1-C6=189.21          H26-C10-C1-C7= 75.73          
H27-C10-C1-C2=194.59          H27-C10-C1-C6= 70.73          H27-C10-C1-C7=317.25          
           -------------------------------------------------
          |                Final Singlepoint                |
           -------------------------------------------------

          ...................................................
          :                      SETUP                      :
          :.................................................:
          :  # basis functions                  80          :
          :  # atomic orbitals                  80          :
          :  # shells                           50          :
          :  # electrons                        84          :
          :  max. iterations                   250          :
          :  Hamiltonian                  GFN2-xTB          :
          :  restarted?                      false          :
          :  GBSA solvation                   true          :
          :  PC potential                    false          :
          :  electronic temp.          300.0000000     K    :
          :  accuracy                    1.0000000          :
          :  -> integral cutoff          0.2500000E+02      :
          :  -> integral neglect         0.1000000E-07      :
          :  -> SCF convergence          0.1000000E-05 Eh   :
          :  -> wf. convergence          0.1000000E-03 e    :
          :  Broyden damping             0.4000000          :
          :  net charge                          0          :
          :  unpaired electrons                  0          :
          ...................................................

 iter      E             dE          RMSdq      gap      omega  full diag
   1    -46.7818414 -0.467818E+02  0.233E-05    4.96       0.0  T
   2    -46.7818414 -0.341061E-11  0.154E-05    4.96    1099.0  T
   3    -46.7818414 -0.252953E-11  0.917E-06    4.96    1844.1  T

   *** convergence criteria satisfied after 3 iterations ***

         #    Occupation            Energy/Eh            Energy/eV
      -------------------------------------------------------------
         1        2.0000           -0.6995143             -19.0348
       ...           ...                  ...                  ...
        36        2.0000           -0.4273490             -11.6288
        37        2.0000           -0.4194307             -11.4133
        38        2.0000           -0.4175511             -11.3621
        39        2.0000           -0.4092020             -11.1350
        40        2.0000           -0.4051894             -11.0258
        41        2.0000           -0.3913427             -10.6490
        42        2.0000           -0.3825479             -10.4097 (HOMO)
        43                         -0.2002885              -5.4501 (LUMO)
        44                         -0.1937792              -5.2730
        45                          0.0135800               0.3695
        46                          0.0200095               0.5445
        47                          0.0338557               0.9213
       ...                                ...                  ...
        80                          0.6496086              17.6767
      -------------------------------------------------------------
                  HL-Gap            0.1822593 Eh            4.9595 eV
             Fermi-level           -0.2914182 Eh           -7.9299 eV

 SCC (total)                   0 d,  0 h,  0 min,  0.013 sec
 SCC setup                      ...        0 min,  0.001 sec ( 11.503%)
 Dispersion                     ...        0 min,  0.000 sec (  1.813%)
 classical contributions        ...        0 min,  0.000 sec (  0.187%)
 integral evaluation            ...        0 min,  0.001 sec ( 11.627%)
 iterations                     ...        0 min,  0.006 sec ( 43.978%)
 molecular gradient             ...        0 min,  0.004 sec ( 29.163%)
 printout                       ...        0 min,  0.000 sec (  1.388%)

         :::::::::::::::::::::::::::::::::::::::::::::::::::::
         ::                     SUMMARY                     ::
         :::::::::::::::::::::::::::::::::::::::::::::::::::::
         :: total energy             -46.161033611951 Eh    ::
         :: total w/o Gsasa/hb       -46.148736363428 Eh    ::
         :: gradient norm              0.000050651544 Eh/a0 ::
         :: HOMO-LUMO gap              4.959529107235 eV    ::
         ::.................................................::
         :: SCC energy               -46.781189994394 Eh    ::
         :: -> isotropic ES            0.061841737665 Eh    ::
         :: -> anisotropic ES          0.006267811465 Eh    ::
         :: -> anisotropic XC          0.017126332322 Eh    ::
         :: -> dispersion             -0.036444623061 Eh    ::
         :: -> Gsolv                  -0.019760205422 Eh    ::
         ::    -> Gelec               -0.007462956900 Eh    ::
         ::    -> Gsasa               -0.016188267767 Eh    ::
         ::    -> Ghb                  0.000000000000 Eh    ::
         ::    -> Gshift               0.003891019244 Eh    ::
         :: repulsion energy           0.620156382443 Eh    ::
         :: add. restraining           0.000000000000 Eh    ::
         :: total charge              -0.000000000000 e     ::
         :::::::::::::::::::::::::::::::::::::::::::::::::::::

           ------------------------------------------------- 
          |                Numerical Hessian                |
           ------------------------------------------------- 
step length          :   0.00500
SCC accuracy         :   0.30000
Hessian scale factor :   1.00000
frozen atoms in %    :   0.00000    0
RMS gradient         :   0.00005
estimated CPU  time      1.95 min
estimated wall time      0.17 min

writing file <hessian>.

 projected vibrational frequencies (cm⁻¹)
eigval :       -0.00    -0.00    -0.00     0.00     0.00     0.00
eigval :       47.74    78.23   104.23   122.10   138.73   147.16
eigval :      164.28   216.57   245.63   262.95   274.23   284.77
eigval :      294.30   322.18   342.61   360.92   412.57   435.22
eigval :      442.20   460.91   491.58   545.69   556.72   639.11
eigval :      672.65   684.23   710.59   717.77   804.71   825.91
eigval :      876.59   883.35   889.43   891.51   918.02   930.36
eigval :      938.18   949.49   957.55  1004.10  1021.49  1039.35
eigval :     1046.52  1054.82  1069.48  1079.20  1093.12  1105.50
eigval :     1124.13  1139.61  1146.08  1156.66  1184.30  1198.54
eigval :     1231.32  1235.43  1253.87  1254.21  1264.06  1281.47
eigval :     1292.02  1320.73  1322.93  1333.40  1344.68  1350.37
eigval :     1357.60  1363.45  1396.39  1413.11  1421.66  1453.54
eigval :     1463.84  1479.65  1482.66  1485.53  1494.76  1719.84
eigval :     1739.57  2896.54  2901.39  2915.31  2937.82  2960.64
eigval :     2964.91  2971.44  2974.81  2987.76  2992.29  2992.55
eigval :     3002.92  3035.92  3043.90  3098.80  3099.10  3119.42
eigval :     3139.63  3526.67  3531.24
           -------------------------------------------------
          |                Property Printout                |
           -------------------------------------------------

    * Orbital Energies and Occupations

         #    Occupation            Energy/Eh            Energy/eV
      -------------------------------------------------------------
         1        2.0000           -0.6995144             -19.0348
       ...           ...                  ...                  ...
        30        2.0000           -0.4651024             -12.6561
        31        2.0000           -0.4591046             -12.4929
        32        2.0000           -0.4490396             -12.2190
        33        2.0000           -0.4416258             -12.0173
        34        2.0000           -0.4387420             -11.9388
        35        2.0000           -0.4330878             -11.7849
        36        2.0000           -0.4273490             -11.6288
        37        2.0000           -0.4194307             -11.4133
        38        2.0000           -0.4175511             -11.3621
        39        2.0000           -0.4092020             -11.1350
        40        2.0000           -0.4051894             -11.0258
        41        2.0000           -0.3913427             -10.6490
        42        2.0000           -0.3825479             -10.4097 (HOMO)
        43                         -0.2002885              -5.4501 (LUMO)
        44                         -0.1937792              -5.2730
        45                          0.0135800               0.3695
        46                          0.0200095               0.5445
        47                          0.0338556               0.9213
        48                          0.0556800               1.5151
        49                          0.0660625               1.7977
        50                          0.0789546               2.1485
        51                          0.0831618               2.2629
        52                          0.0924563               2.5159
        53                          0.1023876               2.7861
       ...                                ...                  ...
        80                          0.6496086              17.6767
      -------------------------------------------------------------
                  HL-Gap            0.1822594 Eh            4.9595 eV
             Fermi-level           -0.2914182 Eh           -7.9299 eV

     #   Z          covCN         q      C6AA      α(0)
     1   6 c        3.934     0.002    20.489     6.433
     2   6 c        3.857    -0.034    21.137     6.539
     3   6 c        3.803    -0.064    21.718     6.635
     4   6 c        3.809    -0.058    21.606     6.617
     5   6 c        3.891    -0.034    21.128     6.534
     6   6 c        3.769     0.115    18.729     6.168
     7   6 c        3.834    -0.073    21.874     6.654
     8   6 c        2.973     0.017    27.634     8.623
     9   8 o        1.654    -0.489    22.650     6.425
    10   6 c        3.677     0.082    19.424     6.314
    11   6 c        2.838    -0.114    30.866     9.105
    12   6 c        2.936     0.019    27.593     8.615
    13   6 c        2.844    -0.112    30.829     9.100
    14   1 h        0.924     0.046     2.370     2.407
    15   8 o        1.655    -0.475    22.369     6.385
    16   6 c        3.761    -0.115    22.748     6.799
    17   1 h        0.924     0.042     2.419     2.432
    18   1 h        0.924     0.042     2.425     2.435
    19   1 h        0.924     0.037     2.492     2.469
    20   1 h        0.924     0.042     2.428     2.437
    21   1 h        0.924     0.033     2.539     2.492
    22   1 h        0.924     0.022     2.701     2.570
    23   1 h        0.924     0.054     2.270     2.356
    24   1 h        0.925     0.052     2.291     2.367
    25   1 h        0.805     0.305     0.706     1.320
    26   1 h        0.924     0.046     2.367     2.406
    27   1 h        0.924     0.031     2.573     2.508
    28   1 h        0.926     0.035     2.520     2.483
    29   1 h        0.926     0.034     2.525     2.485
    30   1 h        0.926     0.028     2.619     2.531
    31   1 h        0.926     0.028     2.611     2.527
    32   1 h        0.805     0.310     0.692     1.307
    33   1 h        0.925     0.041     2.433     2.439
    34   1 h        0.925     0.061     2.187     2.313
    35   1 h        0.925     0.043     2.410     2.428

 Mol. C6AA /au·bohr⁶  :      10395.213431
 Mol. C8AA /au·bohr⁸  :     233620.666808
 Mol. α(0) /au        :        153.653838


Wiberg/Mayer (AO) data.
largest (>0.10) Wiberg bond orders for each atom

 ---------------------------------------------------------------------------
     #   Z sym  total        # sym  WBO       # sym  WBO       # sym  WBO
 ---------------------------------------------------------------------------
     1   6 c    3.989 --     7 c    0.981    10 c    0.977     6 c    0.969
                             2 c    0.959
     2   6 c    3.993 --    12 c    0.998     3 c    0.986    14 h    0.962
                             1 c    0.959
     3   6 c    3.996 --     4 c    1.008     2 c    0.986    18 h    0.977
                            17 h    0.976
     4   6 c    3.996 --     3 c    1.008     5 c    0.978    20 h    0.976
                            19 h    0.969
     5   6 c    3.995 --     8 c    0.995     4 c    0.978     6 c    0.976
                            21 h    0.962
     6   6 c    3.946 --     5 c    0.976     9 o    0.973     1 c    0.969
                            22 h    0.955
     7   6 c    3.995 --     8 c    1.008     1 c    0.981    24 h    0.964
                            23 h    0.957
     8   6 c    3.986 --    11 c    1.935     7 c    1.008     5 c    0.995
     9   8 o    1.932 --     6 c    0.973    25 h    0.889
    10   6 c    3.951 --    15 o    0.995     1 c    0.977    26 h    0.970
                            27 h    0.967
    11   6 c    3.987 --     8 c    1.935    28 h    0.975    29 h    0.975
    12   6 c    3.986 --    13 c    1.927    16 c    1.025     2 c    0.998
    13   6 c    3.987 --    12 c    1.927    30 h    0.975    31 h    0.967
    14   1 h    0.998 --     2 c    0.962
    15   8 o    1.944 --    10 c    0.995    32 h    0.887
    16   6 c    3.996 --    12 c    1.025    33 h    0.984    35 h    0.973
                            34 h    0.964
    17   1 h    0.998 --     3 c    0.976
    18   1 h    0.998 --     3 c    0.977
    19   1 h    0.999 --     4 c    0.969
    20   1 h    0.998 --     4 c    0.976
    21   1 h    0.999 --     5 c    0.962
    22   1 h    0.999 --     6 c    0.955
    23   1 h    0.996 --     7 c    0.957
    24   1 h    0.997 --     7 c    0.964
    25   1 h    0.907 --     9 o    0.889
    26   1 h    0.998 --    10 c    0.970
    27   1 h    0.999 --    10 c    0.967
    28   1 h    0.998 --    11 c    0.975
    29   1 h    0.998 --    11 c    0.975
    30   1 h    0.999 --    13 c    0.975
    31   1 h    0.999 --    13 c    0.967
    32   1 h    0.904 --    15 o    0.887
    33   1 h    0.998 --    16 c    0.984
    34   1 h    0.996 --    16 c    0.964
    35   1 h    0.998 --    16 c    0.973
 ---------------------------------------------------------------------------

Topologies differ in total number of bonds
Writing topology from bond orders to xtbtopo.mol

molecular dipole:
                 x           y           z       tot (Debye)
 q only:        0.442       0.721       0.068
   full:        0.678       0.812      -0.190       2.732
molecular quadrupole (traceless):
                xx          xy          yy          xz          yz          zz
 q only:       -2.461      -1.933      -4.044      -3.772      -0.688       6.505
  q+dip:       -2.692      -2.099      -7.518      -4.100      -1.939      10.211
   full:       -3.010      -2.677      -6.489      -4.800      -0.948       9.499

           -------------------------------------------------
          |                Geometry Summary                 |
           -------------------------------------------------

      molecular mass/u    :      208.2971915
   center of mass at/Å    :        0.0023389      -0.0000332      -0.0002465
  moments of inertia/u·Å² :        0.5348072E+03   0.9091665E+03   0.1090715E+04
rotational constants/cm⁻¹ :        0.3152095E-01   0.1854185E-01   0.1545558E-01

 * 30 selected distances

     #   Z          #   Z                                           value/Å
     3   6 c        4   6 c                                       1.5303351
     4   6 c        5   6 c                                       1.5321630
     1   6 c        6   6 c                                       1.5379883
     5   6 c        6   6 c                                       1.5302311
     1   6 c        7   6 c                                       1.5425506 (max)
     6   6 c        9   8 o                                       1.4213539
     1   6 c       10   6 c                                       1.5364673
     8   6 c       11   6 c                                       1.3205696
    12   6 c       13   6 c                                       1.3248544
     2   6 c       14   1 h                                       1.0962863
    10   6 c       15   8 o                                       1.4105848
     3   6 c       17   1 h                                       1.0914911
     3   6 c       18   1 h                                       1.0915577
     4   6 c       19   1 h                                       1.0905192
     4   6 c       20   1 h                                       1.0919974
     5   6 c       21   1 h                                       1.0937850
     6   6 c       22   1 h                                       1.0971065
     7   6 c       23   1 h                                       1.0923271
     7   6 c       24   1 h                                       1.0895713
     9   8 o       25   1 h                                       0.9648173 (min)
    10   6 c       26   1 h                                       1.0925995
    10   6 c       27   1 h                                       1.0975247
    11   6 c       28   1 h                                       1.0770570
    11   6 c       29   1 h                                       1.0771224
    13   6 c       30   1 h                                       1.0778538
    13   6 c       31   1 h                                       1.0744817
    15   8 o       32   1 h                                       0.9650836
    16   6 c       33   1 h                                       1.0869114
    16   6 c       34   1 h                                       1.0876128
    16   6 c       35   1 h                                       1.0895158

 * 4 distinct bonds (by element types)

   Z      Z             #   av. dist./Å        max./Å        min./Å
   1 H    6 C          18     1.0886289     1.0975247     1.0744817
   6 C    6 C           8     1.4818949     1.5425506     1.3205696
   1 H    8 O           2     0.9649504     0.9650836     0.9648173
   6 C    8 O           2     1.4159693     1.4213539     1.4105848

           -------------------------------------------------
          |               Frequency Printout                |
           -------------------------------------------------
 projected vibrational frequencies (cm⁻¹)
eigval :       -0.00    -0.00    -0.00     0.00     0.00     0.00
eigval :       47.74    78.23   104.23   122.10   138.73   147.16
eigval :      164.28   216.57   245.63   262.95   274.23   284.77
eigval :      294.30   322.18   342.61   360.92   412.57   435.22
eigval :      442.20   460.91   491.58   545.69   556.72   639.11
eigval :      672.65   684.23   710.59   717.77   804.71   825.91
eigval :      876.59   883.35   889.43   891.51   918.02   930.36
eigval :      938.18   949.49   957.55  1004.10  1021.49  1039.35
eigval :     1046.52  1054.82  1069.48  1079.20  1093.12  1105.50
eigval :     1124.13  1139.61  1146.08  1156.66  1184.30  1198.54
eigval :     1231.32  1235.43  1253.87  1254.21  1264.06  1281.47
eigval :     1292.02  1320.73  1322.93  1333.40  1344.68  1350.37
eigval :     1357.60  1363.45  1396.39  1413.11  1421.66  1453.54
eigval :     1463.84  1479.65  1482.66  1485.53  1494.76  1719.84
eigval :     1739.57  2896.54  2901.39  2915.31  2937.82  2960.64
eigval :     2964.91  2971.44  2974.81  2987.76  2992.29  2992.55
eigval :     3002.92  3035.92  3043.90  3098.80  3099.10  3119.42
eigval :     3139.63  3526.67  3531.24
 reduced masses (amu)
   1: 10.58   2: 11.58   3: 10.95   4: 10.99   5: 11.61   6: 11.77   7:  9.31   8:  9.29
   9: 11.11  10: 10.50  11:  7.89  12:  8.48  13: 10.79  14:  9.74  15:  3.02  16:  9.32
  17:  9.45  18:  8.09  19:  9.06  20:  8.95  21:  8.93  22: 10.33  23: 10.15  24:  6.51
  25:  6.13  26:  9.81  27:  8.81  28:  9.12  29:  8.33  30:  9.83  31:  8.87  32:  6.08
  33:  5.75  34:  3.48  35:  9.75  36:  7.69  37:  7.65  38:  7.87  39:  3.83  40:  4.93
  41:  6.84  42:  6.86  43:  6.90  44:  5.86  45:  5.55  46:  6.78  47:  5.68  48:  5.17
  49:  5.64  50:  9.85  51:  5.55  52: 10.81  53:  7.29  54:  6.18  55:  6.86  56:  7.76
  57:  3.90  58:  2.72  59:  5.35  60:  5.69  61:  7.78  62:  6.55  63:  8.04  64:  6.47
  65:  5.34  66:  5.94  67:  4.52  68:  4.71  69:  3.67  70:  5.41  71:  4.11  72:  3.80
  73:  3.83  74:  4.60  75:  2.97  76:  2.40  77:  2.36  78:  1.90  79:  1.77  80:  1.73
  81:  1.83  82:  1.62  83:  1.97  84: 11.22  85: 11.58  86:  1.76  87:  1.73  88:  1.76
  89:  1.77  90:  1.89  91:  1.94  92:  1.68  93:  1.95  94:  1.56  95:  1.52  96:  1.58
  97:  1.78  98:  1.89  99:  1.46 100:  1.68 101:  1.53 102:  2.09 103:  1.89 104:  1.87
 105:  1.87
 IR intensities (km·mol⁻¹)
   1:  0.05   2:  0.07   3:  0.13   4:  0.15   5:  0.14   6:  0.17   7:  0.29   8:  1.24
   9:  1.97  10:  1.40  11:  0.62  12:  1.15  13:  2.12  14:  1.80  15:177.26  16:  3.07
  17:  1.86  18:  2.58  19:  5.71  20:  0.73  21:  1.26  22:  8.18  23: 11.57  24: 48.45
  25:124.90  26:  5.29  27:  2.21  28: 11.39  29:  2.58  30:  8.87  31:  2.63  32:  5.03
  33:  2.51  34:  1.33  35:  0.11  36: 18.41  37:  0.42  38:  1.82  39: 34.65  40: 14.91
  41: 18.24  42:  2.44  43: 13.00  44:  6.33  45:  1.94  46: 10.27  47: 29.64  48:  9.48
  49: 24.99  50: 76.79  51: 13.32  52: 84.97  53: 46.10  54:  8.04  55:  3.61  56:  2.55
  57: 14.16  58: 26.27  59:  5.45  60: 26.93  61: 21.19  62:  2.51  63: 38.51  64: 21.10
  65:  4.65  66:  6.18  67:  9.06  68:100.15  69: 15.30  70:  8.58  71: 18.37  72:  3.86
  73:  8.06  74:  1.03  75:  6.36  76:  4.32  77: 15.67  78:  3.63  79:  0.34  80:  2.18
  81:  0.12  82:  6.49  83:  0.96  84: 28.25  85: 31.61  86: 57.96  87: 82.48  88: 57.24
  89: 92.07  90: 41.95  91: 18.19  92: 43.54  93: 75.31  94: 69.57  95: 61.39  96:100.30
  97: 57.37  98: 28.22  99: 40.74 100: 96.00 101: 15.66 102: 61.96 103: 58.87 104: 52.30
 105: 15.18
 Raman intensities (Ä⁴*amu⁻¹)
   1:  0.00   2:  0.00   3:  0.00   4:  0.00   5:  0.00   6:  0.00   7:  0.00   8:  0.00
   9:  0.00  10:  0.00  11:  0.00  12:  0.00  13:  0.00  14:  0.00  15:  0.00  16:  0.00
  17:  0.00  18:  0.00  19:  0.00  20:  0.00  21:  0.00  22:  0.00  23:  0.00  24:  0.00
  25:  0.00  26:  0.00  27:  0.00  28:  0.00  29:  0.00  30:  0.00  31:  0.00  32:  0.00
  33:  0.00  34:  0.00  35:  0.00  36:  0.00  37:  0.00  38:  0.00  39:  0.00  40:  0.00
  41:  0.00  42:  0.00  43:  0.00  44:  0.00  45:  0.00  46:  0.00  47:  0.00  48:  0.00
  49:  0.00  50:  0.00  51:  0.00  52:  0.00  53:  0.00  54:  0.00  55:  0.00  56:  0.00
  57:  0.00  58:  0.00  59:  0.00  60:  0.00  61:  0.00  62:  0.00  63:  0.00  64:  0.00
  65:  0.00  66:  0.00  67:  0.00  68:  0.00  69:  0.00  70:  0.00  71:  0.00  72:  0.00
  73:  0.00  74:  0.00  75:  0.00  76:  0.00  77:  0.00  78:  0.00  79:  0.00  80:  0.00
  81:  0.00  82:  0.00  83:  0.00  84:  0.00  85:  0.00  86:  0.00  87:  0.00  88:  0.00
  89:  0.00  90:  0.00  91:  0.00  92:  0.00  93:  0.00  94:  0.00  95:  0.00  96:  0.00
  97:  0.00  98:  0.00  99:  0.00 100:  0.00 101:  0.00 102:  0.00 103:  0.00 104:  0.00
 105:  0.00
 output can be read by thermo (or use thermo option).
 writing <g98.out> molden fake output.
 recommended (thermochemical) frequency scaling factor: 1.0
           -------------------------------------------------
          |             Thermodynamic Functions             |
           -------------------------------------------------

Molecule has no symmetry elements
It seems to be the C1 point group
c1  symmetry found (for desy threshold:  0.10E+00) used in thermo

          ...................................................
          :                      SETUP                      :
          :.................................................:
          :  # frequencies                          99      :
          :  # imaginary freq.                       0      :
          :  linear?                             false      :
          :  only rotor calc.                    false      :
          :  symmetry                               c1      :
          :  rotational number                       1      :
          :  scaling factor                  1.0000000      :
          :  rotor cutoff                   50.0000000 cm⁻¹ :
          :  imag. cutoff                  -50.0000000 cm⁻¹ :
          :.................................................:

    mode    ω/cm⁻¹     T·S(HO)/kcal·mol⁻¹    T·S(FR)/kcal·mol⁻¹   T·S(vib)
   ------------------------------------------------------------------------
       1     47.74    -1.46360 ( 45.38%)    -1.07014 ( 54.62%)    -1.24871
       2     78.23    -1.17312 ( 85.70%)    -0.92385 ( 14.30%)    -1.13748
       3    104.23    -1.00584 ( 94.97%)    -0.83888 (  5.03%)    -0.99744
       4    122.10    -0.91436 ( 97.27%)    -0.79200 (  2.73%)    -0.91101
       5    138.73    -0.84119 ( 98.34%)    -0.75420 (  1.66%)    -0.83975
       6    147.16    -0.80756 ( 98.69%)    -0.73671 (  1.31%)    -0.80663
       7    164.28    -0.74536 ( 99.15%)    -0.70412 (  0.85%)    -0.74501
       8    216.57    -0.59260 ( 99.72%)    -0.62226 (  0.28%)    -0.59268
       9    245.63    -0.52525 ( 99.83%)    -0.58496 (  0.17%)    -0.52535
      10    262.95    -0.48959 ( 99.87%)    -0.56478 (  0.13%)    -0.48969
      11    274.23    -0.46792 ( 99.89%)    -0.55234 (  0.11%)    -0.46801
      12    284.77    -0.44866 ( 99.91%)    -0.54116 (  0.09%)    -0.44875
      13    294.30    -0.43206 ( 99.92%)    -0.53142 (  0.08%)    -0.43214
   ------------------------------------------------------------------------

   temp. (K)  partition function   enthalpy   heat capacity  entropy
                                   cal/mol     cal/K/mol   cal/K/mol   J/K/mol
 298.15  VIB  0.308E+05             7790.028     54.157     45.778
         ROT  0.176E+07              888.752      2.981     31.558
         INT  0.541E+11             8678.780     57.138     77.337
         TR   0.291E+28             1481.254      4.968     41.886
         TOT                       10160.0339    62.1058   119.2232   498.8297

       T/K    H(0)-H(T)+PV         H(T)/Eh          T*S/Eh         G(T)/Eh
   ------------------------------------------------------------------------
    298.15    0.161910E-01    0.317713E+00    0.566468E-01    0.261067E+00
   ------------------------------------------------------------------------

         :::::::::::::::::::::::::::::::::::::::::::::::::::::
         ::                  THERMODYNAMIC                  ::
         :::::::::::::::::::::::::::::::::::::::::::::::::::::
         :: total free energy         -45.899967018782 Eh   ::
         ::.................................................::
         :: total energy              -46.161033612038 Eh   ::
         :: zero point energy           0.301522323148 Eh   ::
         :: G(RRHO) w/o ZPVE           -0.040455729892 Eh   ::
         :: G(RRHO) contrib.            0.261066593257 Eh   ::
         :::::::::::::::::::::::::::::::::::::::::::::::::::::

optimized geometry written to: xtbopt.coord


           -------------------------------------------------
          | TOTAL ENERGY              -46.161033612038 Eh   |
          | TOTAL ENTHALPY            -45.843320244311 Eh   |
          | TOTAL FREE ENERGY         -45.899967018782 Eh   |
          | GRADIENT NORM               0.000050663529 Eh/α |
          | HOMO-LUMO GAP               4.959529602181 eV   |
           -------------------------------------------------

------------------------------------------------------------------------
 * finished run on 2026/08/09 at 17:05:41.011     
------------------------------------------------------------------------
 total:
 * wall-time:     0 d,  0 h,  0 min,  1.571 sec
 *  cpu-time:     0 d,  0 h,  0 min, 18.335 sec
 * ratio c/w:    11.674 speedup
 SCF:
 * wall-time:     0 d,  0 h,  0 min,  0.056 sec
 *  cpu-time:     0 d,  0 h,  0 min,  0.643 sec
 * ratio c/w:    11.536 speedup
 ANC optimizer:
 * wall-time:     0 d,  0 h,  0 min,  0.594 sec
 *  cpu-time:     0 d,  0 h,  0 min,  7.111 sec
 * ratio c/w:    11.969 speedup
 analytical hessian:
 * wall-time:     0 d,  0 h,  0 min,  0.891 sec
 *  cpu-time:     0 d,  0 h,  0 min, 10.282 sec
 * ratio c/w:    11.536 speedup

normal termination of xtb
