  42
    -0.301041 !GC
 C          0.0000000000        0.0000000000        0.0000000000
 C          1.5491300980        0.0000000000        0.0000000000
 C          2.2446075157        1.3605318625        0.0000000000
 C          2.2728807901        2.0419655250       -1.3606890462
 C          0.8981695993        2.4319129219       -1.9079056179
 C          0.1206431452        1.2057630055       -2.4272655820
 C         -0.6427078591        0.3269541759       -1.4008980517
 C         -0.4759800250       -1.4689527553        0.2677974412
 C         -0.5956787489       -2.1618524378       -1.0990848740
 C         -0.7940734436       -1.0400787263       -2.1539654121
 O          0.9280935639        0.3265192574       -3.2216426229
 C          0.2326937315       -0.9539657062       -3.3566684769
 H         -1.6324145681        0.7664691291       -1.2123328880
 H         -1.8061536438       -1.1120678279       -2.5762723487
 H         -0.6314476934        1.5884830842       -3.1377859325
 C          1.0535918259        3.4474232899       -3.0407726993
 C          1.2724703532       -2.0778055114       -3.3758168048
 C         -0.5343382330       -0.9522738318       -4.6843715903
 C         -0.5598212004        0.9285228393        1.0864099066
 H          1.8735750010       -0.5599825906        0.8857986201
 H          1.8985788307       -0.5845976634       -0.8549403585
 H          1.7791674844        2.0218192693        0.7390582646
 H          3.2788436030        1.2360280772        0.3527833317
 H          2.7612124441        1.3893317095       -2.0930829059
 H          2.9011009212        2.9407439940       -1.3071353843
 H          0.3131518146        2.8953849485       -1.0983094476
 H         -1.4444643521       -1.4527517374        0.7788437884
 H          0.2156162982       -1.9929097740        0.9360947136
 H          0.3058537134       -2.7427589976       -1.3066701429
 H         -1.4244449202       -2.8805191311       -1.1167735778
 H          0.0861232277        3.7730038068       -3.4260379841
 H          1.5977003888        4.3349858158       -2.7143595132
 H          1.6060648331        3.0061264169       -3.8706307293
 H          0.7978603222       -3.0552075647       -3.4553371444
 H          1.9362895270       -1.9557880595       -4.2304875714
 H          1.8935694191       -2.0552034013       -2.4831164725
 H         -1.2579423037       -0.1392996836       -4.7110514476
 H          0.1518348729       -0.8134251941       -5.5181892891
 H         -1.0670469993       -1.8914719435       -4.8301376588
 H         -1.6367303073        0.8301349388        1.1991259704
 H         -0.1257057753        0.6834238775        2.0571198306
 H         -0.3270662392        1.9688333868        0.8602783905
  42
    -0.300322 !GC
 C          0.0000000000        0.0000000000        0.0000000000
 C          1.5488927803        0.0000000000        0.0000000000
 C          2.2436733932        1.3608735233        0.0000000000
 C          2.2710217897        2.0424991214       -1.3605715887
 C          0.8964372551        2.4362158350       -1.9054127552
 C          0.1141576940        1.2131749256       -2.4246474635
 C         -0.6468386962        0.3311560362       -1.3989228928
 C         -0.4755295472       -1.4704583221        0.2602751271
 C         -0.5963812579       -2.1554015766       -1.1104221348
 C         -0.7996128137       -1.0279323709       -2.1581078112
 O          0.9159325771        0.3359515224       -3.2268775604
 C          0.2157154611       -0.9413603269       -3.3657480406
 H         -1.6355335564        0.7710482245       -1.2061591556
 H         -1.8141089873       -1.0965587034       -2.5749386181
 H         -0.6403651394        1.6003424764       -3.1301241215
 C          1.0538053183        3.4515270798       -3.0381964966
 C          1.2518505319       -2.0681782804       -3.4007252387
 C         -0.5615331095       -0.9282018375       -4.6875263572
 C         -0.5602012201        0.9226761663        1.0911320654
 H          1.8733040486       -0.5600326500        0.8857833535
 H          1.8983509983       -0.5845458122       -0.8551051646
 H          1.7782363691        2.0219949885        0.7392394552
 H          3.2780708226        1.2369842368        0.3525505458
 H          2.7565339426        1.3887380821       -2.0939164984
 H          2.9016777937        2.9396641866       -1.3078431762
 H          0.3140244415        2.9010197179       -1.0947274023
 H         -1.4435760056       -1.4574465193        0.7722009322
 H          0.2168185441       -1.9981370822        0.9248874059
 H          0.3065610629       -2.7323081582       -1.3230556160
 H         -1.4229337024       -2.8764715341       -1.1307960373
 H          0.0870529711        3.7802606455       -3.4223838881
 H          1.6011365521        4.3372818372       -2.7124100886
 H          1.6038482191        3.0086541360       -3.8687215152
 H          0.7733765480       -3.0438421600       -3.4797057212
 H          1.9074182676       -1.9440843806       -4.2615238361
 H          1.8819827805       -2.0512230886       -2.5141404647
 H         -1.2836275674       -0.1134147576       -4.7026121798
 H          0.1186175651       -0.7847983500       -5.5257034466
 H         -1.0973820899       -1.8653052917       -4.8360117335
 H         -0.1322813353        0.7042796820        2.0678979195
 H         -0.3390964850        1.9667508980        0.8697118149
 H         -1.6426197767        0.8168637124        1.1614190148
  42
    -0.300171 !GC
 C          0.0000000000        0.0000000000        0.0000000000
 C          1.5491306026        0.0000000000        0.0000000000
 C          2.2441974339        1.3607323179        0.0000000000
 C          2.2729925653        2.0418987730       -1.3607966481
 C          0.8984854493        2.4326274295       -1.9080087894
 C          0.1199862182        1.2069672708       -2.4270284749
 C         -0.6429093485        0.3276702539       -1.4006618380
 C         -0.4754642516       -1.4693172886        0.2666790245
 C         -0.5942989530       -2.1614603481       -1.1005944284
 C         -0.7947665463       -1.0390379313       -2.1543601328
 O          0.9263153076        0.3281362173       -3.2229400364
 C          0.2299475069       -0.9517130403       -3.3587287099
 H         -1.6324633206        0.7673180868       -1.2115350786
 H         -1.8075058012       -1.1114414384       -2.5749952121
 H         -0.6326686242        1.5905021891       -3.1365224491
 C          1.0549269646        3.4477075380       -3.0411357959
 C          1.2690808828       -2.0760764820       -3.3815597956
 C         -0.5395879303       -0.9473968499       -4.6850385765
 C         -0.5599063389        0.9279940395        1.0867978202
 H          1.8736083272       -0.5599954736        0.8857872034
 H          1.8986090835       -0.5845312240       -0.8550155635
 H          1.7782862869        2.0221217285        0.7386939893
 H          3.2783326952        1.2365540793        0.3532036208
 H          2.7610590724        1.3888938887       -2.0930330824
 H          2.9016510361        2.9403821261       -1.3073676459
 H          0.3139236631        2.8967230510       -1.0984308632
 H         -1.4442321784       -1.4536741743        0.7772049600
 H          0.2159951991       -1.9932085514        0.9351682096
 H          0.3084805663       -2.7403045854       -1.3084252536
 H         -1.4215840537       -2.8817947032       -1.1189536598
 H          1.6070811874        3.0054968782       -3.8708495060
 H          0.0877011565        3.7737173319       -3.4265754663
 H          1.5997551916        4.3349773328       -2.7151772675
 H          0.7935470951       -3.0531183782       -3.4602177680
 H          1.9305625945       -1.9541242601       -4.2380566526
 H          1.8926401772       -2.0542596185       -2.4905517137
 H         -1.2628641658       -0.1340853775       -4.7089475328
 H          0.1450667070       -0.8074193176       -5.5198857768
 H         -1.0730148191       -1.8861778656       -4.8315462012
 H         -0.3499044892        1.9732950319        0.8674652049
 H         -1.6419086830        0.8253366975        1.1686943770
 H         -0.1282104600        0.6905185503        2.0589375341
  42
    -0.300169 !GC
 C          0.0000000000        0.0000000000        0.0000000000
 C          1.5490374924        0.0000000000        0.0000000000
 C          2.2444683620        1.3605032300        0.0000000000
 C          2.2737584817        2.0411195778       -1.3610603235
 C          0.8996446538        2.4326521352       -1.9085662732
 C          0.1199585783        1.2076249579       -2.4270845328
 C         -0.6428756715        0.3283522124       -1.4005361223
 C         -0.4758206141       -1.4693227755        0.2660569545
 C         -0.5947081398       -2.1607937107       -1.1014942306
 C         -0.7959504685       -1.0380272713       -2.1546463328
 O          0.9250904528        0.3285121427       -3.2239197882
 C          0.2274727335       -0.9505667842       -3.3600218872
 H         -1.6321375133        0.7684386788       -1.2110585072
 H         -1.8091718047       -1.1097414383       -2.5741129827
 H         -0.6327700417        1.5919469004       -3.1359728760
 C          1.0571032538        3.4467077552       -3.0424592232
 C          1.2656138781       -2.0757990744       -3.3846273376
 C         -0.5434133794       -0.9446604318       -4.6855118391
 C         -0.5598317993        0.9272892166        1.0874616765
 H          1.8734144434       -0.5599049879        0.8858077186
 H          1.8984991420       -0.5847271984       -0.8548961766
 H          1.7783020802        2.0223307428        0.7380466177
 H          3.2782611152        1.2364174186        0.3540103779
 H          2.7613341075        1.3873328331       -2.0929585070
 H          2.9032298797        2.9390659773       -1.3078911299
 H          0.3153393469        2.8976926605       -1.0994038689
 H         -1.4447033328       -1.4538416579        0.7763750874
 H          0.2154428619       -1.9938738495        0.9342919192
 H          0.3081742279       -2.7390420995       -1.3098923223
 H         -1.4214366702       -2.8814700304       -1.1197361103
 H          1.6028305785        4.3336831624       -2.7169420131
 H          1.6089292833        3.0034240529       -3.8717273772
 H          0.0903470727        3.7735069415       -3.4282659408
 H          0.7892260902       -3.0524448799       -3.4627799876
 H          1.9260223181       -1.9541939025       -4.2418897751
 H          1.8904057835       -2.0544966879       -2.4945283522
 H         -1.2663597617       -0.1309874151       -4.7079095637
 H          0.1403777275       -0.8042344678       -5.5210231176
 H         -1.0773930796       -1.8829655490       -4.8322125345
 H         -0.3505226087        1.9728280186        0.8686944729
 H         -1.6417802188        0.8239561261        1.1695480287
 H         -0.1278727921        0.6894028804        2.0593703114
  42
    -0.300055 !GC
 C          0.0000000000        0.0000000000        0.0000000000
 C          1.5491631534        0.0000000000        0.0000000000
 C          2.2446020220        1.3604876640        0.0000000000
 C          2.2697277866        2.0442292326       -1.3595684552
 C          0.8936886013        2.4333768694       -1.9041984960
 C          0.1185270130        1.2071606906       -2.4268271161
 C         -0.6426278243        0.3236040732       -1.4027709460
 C         -0.4763115382       -1.4680933197        0.2712729952
 C         -0.5756977616       -2.1708893193       -1.0925217684
 C         -0.7879675263       -1.0591566402       -2.1556303412
 O          0.9289260799        0.3324951120       -3.2232356859
 C          0.2378088945       -0.9497606125       -3.3617515526
 H         -1.6348913765        0.7581665896       -1.2162188546
 H         -1.8011739038       -1.1434381191       -2.5727620278
 H         -0.6342025393        1.5901159099       -3.1364094083
 C          1.0464702803        3.4525513066       -3.0341476164
 C          1.2816734523       -2.0697214834       -3.3884998430
 C         -0.5328690701       -0.9452607971       -4.6873136241
 C         -0.5600843422        0.9315997784        1.0836773560
 H          1.8736118824       -0.5595787096        0.8860135191
 H          1.8987043977       -0.5848459947       -0.8547580042
 H          1.7810174853        2.0207800041        0.7411133648
 H          3.2796155724        1.2355961640        0.3503023942
 H          2.7577466955        1.3933598996       -2.0938226154
 H          2.8970244756        2.9436492908       -1.3053782942
 H          0.3083876118        2.8931582073       -1.0927318857
 H         -1.4522028135       -1.4500930223        0.7679461434
 H          0.2064144045       -1.9860653897        0.9533027023
 H          0.3381104163       -2.7356453603       -1.2908089382
 H         -1.3900369775       -2.9058587586       -1.1109717153
 H          0.0781177376        3.7773674147       -3.4178969227
 H          1.5892350105        4.3401832799       -2.7055989066
 H          1.5992036576        3.0145980263       -3.8656189041
 H          1.8921529681       -2.0939949199       -2.4859399266
 H          0.7623892549       -3.0250230257       -3.4752522043
 H          1.9241601783       -1.9927717316       -4.2601441297
 H         -1.2601319126       -0.1351970425       -4.7081917807
 H          0.1502504113       -0.7996649472       -5.5224034674
 H         -1.0621448158       -1.8860033383       -4.8358081032
 H         -0.3500600484        1.9761972383        0.8612158369
 H         -1.6421437335        0.8292372746        1.1654931252
 H         -0.1288504693        0.6970239866        2.0567039523
  42
    -0.298836 !GC
 C          0.0000000000        0.0000000000        0.0000000000
 C          1.5490653750        0.0000000000        0.0000000000
 C          2.2446644145        1.3604440371        0.0000000000
 C          2.2740212451        2.0410740744       -1.3610091496
 C          0.8998497731        2.4320157429       -1.9088450981
 C          0.1207854168        1.2065373912       -2.4272778721
 C         -0.6425839340        0.3277190221       -1.4007808790
 C         -0.4758759388       -1.4691630450        0.2667418459
 C         -0.5948601162       -2.1613116818       -1.1004940828
 C         -0.7952963204       -1.0389666104       -2.1543486941
 O          0.9265464940        0.3271177734       -3.2231211668
 C          0.2291262877       -0.9521127543       -3.3589365441
 H         -1.6318822375        0.7679266638       -1.2118101960
 H         -1.8081014340       -1.1107988789       -2.5747876194
 H         -0.6316046502        1.5903796075       -3.1368023398
 C          1.0570078324        3.4459577158       -3.0429058648
 C          1.2674249777       -2.0772281083       -3.3824531908
 C         -0.5407794581       -0.9470702474       -4.6850068934
 C         -0.5599728114        0.9277441749        1.0870337126
 H          1.8734610268       -0.5600170450        0.8857764382
 H          1.8985268922       -0.5846607354       -0.8549757225
 H          1.7787239654        2.0223014518        0.7381751323
 H          3.2785297342        1.2362327376        0.3538151494
 H          2.7620534129        1.3875506298       -2.0928544476
 H          2.9031177866        2.9392852569       -1.3076287053
 H          0.3151495862        2.8969492389       -1.0998546015
 H         -1.4446743879       -1.4532850598        0.7771354742
 H          0.2153724348       -1.9934579686        0.9351411210
 H          0.3079990084       -2.7401052384       -1.3081526722
 H         -1.4219489640       -2.8818365715       -1.1186114508
 H          0.0901046185        3.7721830102       -3.4291617226
 H          1.6020329685        4.3332922272       -2.7174602720
 H          1.6093046565        3.0028645952       -3.8719128169
 H          1.9387034227       -2.0076999931       -4.2361388815
 H          1.8417086187       -2.0761439940       -2.4552222162
 H          0.7671936826       -3.0417309415       -3.4204752164
 H         -1.2637632697       -0.1335729445       -4.7085865440
 H          0.1435687992       -0.8071770448       -5.5200376432
 H         -1.0745614922       -1.8854094653       -4.8315209718
 H         -0.3504824608        1.9731641000        0.8679561421
 H         -1.6417802907        0.8244945176        1.1692331546
 H         -0.1280918800        0.6903572923        2.0589418517
  42
    -0.298745 !GC
 C          0.0000000000        0.0000000000        0.0000000000
 C          1.5490600760        0.0000000000        0.0000000000
 C          2.2446459793        1.3604439521        0.0000000000
 C          2.2738572563        2.0409681272       -1.3610659223
 C          0.8996339402        2.4333911464       -1.9077732197
 C          0.1192881411        1.2089462190       -2.4266483057
 C         -0.6429432405        0.3287086502       -1.4004507625
 C         -0.4754492118       -1.4695074435        0.2654535936
 C         -0.5905390252       -2.1607159427       -1.1025031820
 C         -0.7953748180       -1.0377326379       -2.1547850340
 O          0.9236605742        0.3306631198       -3.2250756002
 C          0.2256053472       -0.9481000519       -3.3620452804
 H         -1.6324089552        0.7682264777       -1.2107450101
 H         -1.8092304157       -1.1108028474       -2.5724534990
 H         -0.6340499586        1.5940245952       -3.1345032856
 C          1.0569785818        3.4478831508       -3.0412417037
 C          1.2636513793       -2.0732949792       -3.3911185509
 C         -0.5480707333       -0.9397067701       -4.6858994992
 C         -0.5600297110        0.9268213421        1.0877208505
 H          1.8734034194       -0.5599691106        0.8858380836
 H          1.8984373117       -0.5847924644       -0.8549815368
 H          1.7786215828        2.0222874618        0.7381694325
 H          3.2785123434        1.2361755175        0.3538414466
 H          2.7605513894        1.3868305259       -2.0932812575
 H          2.9039479632        2.9385173617       -1.3082356171
 H          0.3158371091        2.8982349227       -1.0980727245
 H         -1.4454990760       -1.4546528607        0.7734889224
 H          0.2147051393       -1.9935144831        0.9352312958
 H          0.3153793625       -2.7347374916       -1.3102326942
 H         -1.4141673396       -2.8851649810       -1.1221170376
 H          0.0901665813        3.7752480192       -3.4266042488
 H          1.6031101615        4.3344574464       -2.7155935441
 H          1.6082385247        3.0048047964       -3.8709127376
 H          0.7867135394       -3.0498727805       -3.4675024230
 H          1.9204673359       -1.9515164795       -4.2511716322
 H          1.8921932560       -2.0523526097       -2.5036072794
 H          0.1340779310       -0.7975367205       -5.5224964981
 H         -1.0822092711       -1.8778074655       -4.8333638575
 H         -1.2712503404       -0.1260987221       -4.7052301717
 H         -0.3505163629        1.9724274334        0.8694851306
 H         -1.6420181084        0.8235469963        1.1694404824
 H         -0.1283760312        0.6884356273        2.0596389613
  42
    -0.297102 !GC
 C          0.0000000000        0.0000000000        0.0000000000
 C          1.5489730217        0.0000000000        0.0000000000
 C          2.2456260688        1.3598544225        0.0000000000
 C          2.2642096457        2.0482462510       -1.3577120721
 C          0.8853827073        2.4273957380       -1.9020014749
 C          0.1204859273        1.1945993360       -2.4232935584
 C         -0.6403612656        0.3105007953       -1.3995975817
 C         -0.4726268328       -1.4677744036        0.2798946410
 C         -0.5685538150       -2.1781552137       -1.0792338410
 C         -0.7810455922       -1.0709304422       -2.1464015360
 O          0.9406706521        0.3219600562       -3.2118471877
 C          0.2596293480       -0.9660047767       -3.3478185781
 H         -1.6352494618        0.7413730406       -1.2185931366
 H         -1.7923166322       -1.1611492750       -2.5670497000
 H         -0.6309915932        1.5700618787       -3.1381702668
 C          1.0306141967        3.4459522111       -3.0334807307
 C          1.3121151106       -2.0780996007       -3.3560712854
 C         -0.4978770621       -0.9764835890       -4.6809559236
 C         -0.5593464429        0.9365748137        1.0796341699
 H          1.8740048138       -0.5610497829        0.8848007305
 H          1.8974869042       -0.5843448052       -0.8556200542
 H          1.7863747727        2.0181709613        0.7454158420
 H          3.2822793976        1.2331553086        0.3445215175
 H          2.7576880380        1.4040634746       -2.0941167747
 H          2.8838997878        2.9527355597       -1.3012261616
 H          0.2964637789        2.8837352516       -1.0913752822
 H         -1.4489794139       -1.4499064151        0.7755296698
 H          0.2112849614       -1.9792836504        0.9655505400
 H          0.3463457750       -2.7426835925       -1.2734428136
 H         -1.3826257808       -2.9134307586       -1.0952183503
 H          0.0598711790        3.7631837742       -3.4173914114
 H          1.5670905799        4.3380360894       -2.7065246515
 H          1.5860227819        3.0108635825       -3.8645644902
 H          0.8489810155       -3.0611018641       -3.4338738852
 H          1.9791457806       -1.9522154865       -4.2075474407
 H          1.9279897302       -2.0443094440       -2.4601366858
 H         -1.0145805382       -1.9254501186       -4.8090725361
 H         -1.2448097511       -0.1832495680       -4.7063465429
 H          0.1797719215       -0.8488113889       -5.5243565854
 H         -0.3509950517        1.9802225265        0.8512203275
 H         -1.6410891227        0.8331719818        1.1636006636
 H         -0.1263740568        0.7078106846        2.0532043141
  42
    -0.117746 !GC
 C          0.0000000000        0.0000000000        0.0000000000
 C          1.5490449361        0.0000000000        0.0000000000
 C          2.2446242580        1.3604206774        0.0000000000
 C          2.2742492098        2.0406145864       -1.3612315146
 C          0.9002741279        2.4326503331       -1.9087640278
 C          0.1199178294        1.2079582287       -2.4270598968
 C         -0.6428016582        0.3285263934       -1.4005169005
 C         -0.4755486694       -1.4694393798        0.2657860830
 C         -0.5922319198       -2.1607569014       -1.1020412788
 C         -0.7960178769       -1.0378875492       -2.1546756876
 O          0.9243755359        0.3290054777       -3.2246832237
 C          0.2258402730       -0.9494973052       -3.3612908328
 H         -1.6320385961        0.7686294038       -1.2109842941
 H         -1.8096585090       -1.1105692667       -2.5729362614
 H         -0.6331894836        1.5927057135       -3.1353498855
 C          1.0583961693        3.4462314547       -3.0429752479
 C          1.2633269961       -2.0752511466       -3.3891726465
 C         -0.5475005594       -0.9413470080       -4.6853796939
 C         -0.5600241996        0.9271759323        1.0874271497
 H          1.8733702339       -0.5598480482        0.8859262056
 H          1.8986061416       -0.5848598881       -0.8548710218
 H          1.7783024281        2.0223990965        0.7378596221
 H          3.2783505971        1.2362879615        0.3542841853
 H          2.7614783241        1.3864043343       -2.0930060037
 H          2.9041452017        2.9382912476       -1.3082916156
 H          0.3162123027        2.8982848877       -1.0997142415
 H         -1.4450080155       -1.4542780722        0.7749635602
 H          0.2151826739       -1.9936000344        0.9348696809
 H          0.3126282246       -2.7362605392       -1.3103241091
 H         -1.4170188554       -2.8839079141       -1.1210858310
 H          1.6270847675        3.0327693048       -3.8772017343
 H          0.1036707393        3.8028283509       -3.4345729931
 H          1.6110527598        4.3080356924       -2.6704416520
 H          1.8906679542       -2.0545086506       -2.5007636875
 H          0.7859184150       -3.0516211337       -3.4662072554
 H          1.9213456619       -1.9539075472       -4.2482975460
 H         -1.0780192594       -1.8824517781       -4.8136918816
 H         -1.2856035781       -0.1398949658       -4.6948152637
 H          0.1210517161       -0.8181717911       -5.5367268169
 H         -0.1260219253        0.7133146510        2.0626141093
 H         -0.3217982400        1.9666489268        0.8561556908
 H         -1.6402248756        0.8275549339        1.1769040458
  42
    -0.117700 !GC
 C          0.0000000000        0.0000000000        0.0000000000
 C          1.5492582823        0.0000000000        0.0000000000
 C          2.2427700109        1.3614573033        0.0000000000
 C          2.2900258799        2.0294068462       -1.3661147271
 C          0.9243646662        2.4422718360       -1.9192639058
 C          0.1189091521        1.2316260237       -2.4337056977
 C         -0.6475349363        0.3601495045       -1.4028968561
 C         -0.4811766102       -1.4717571682        0.2417804415
 C         -0.6360278149       -2.1299533387       -1.1393285991
 C         -0.8207431063       -0.9811837392       -2.1676828696
 O          0.8971954973        0.3418757547       -3.2451241214
 C          0.1704417545       -0.9208753239       -3.3822730455
 H         -1.6266735856        0.8158641909       -1.1985211991
 H         -1.8371834831       -1.0219680783       -2.5833885288
 H         -0.6355184665        1.6318189564       -3.1320427739
 C          1.1037443855        3.4488222254       -3.0566403973
 C          1.1822383212       -2.0686295372       -3.4393976091
 C         -0.6247491865       -0.8829716164       -4.6930242733
 C         -0.5612963956        0.9108094344        1.1005992919
 H          1.8725928546       -0.5584807418        0.8872915235
 H          1.9003235187       -0.5853045804       -0.8538508358
 H          1.7660778912        2.0288174759        0.7262289643
 H          3.2717143817        1.2409610852        0.3691288012
 H          2.7671670699        1.3600806944       -2.0906362490
 H          2.9361993989        2.9156478429       -1.3178820685
 H          0.3484680717        2.9218785965       -1.1123355448
 H         -1.4375411845       -1.4614455707        0.7751600062
 H          0.2210683591       -2.0175420641        0.8807337565
 H          0.2485561149       -2.7272009538       -1.3722379328
 H         -1.4814762178       -2.8287307128       -1.1617068216
 H          1.6689663981        4.3264961781       -2.7383356355
 H          1.6479920372        2.9866411060       -3.8804773482
 H          0.1446333464        3.7867222154       -3.4519139856
 H          1.8198624800       -2.0832341482       -2.5582545325
 H          0.6739738671       -3.0295310447       -3.5119847169
 H          1.8272997904       -1.9572306532       -4.3097020870
 H         -1.1980975891       -1.7979129079       -4.8308243577
 H         -1.3352652701       -0.0593757799       -4.6661495291
 H          0.0308846105       -0.7460317141       -5.5534850696
 H         -0.1299860326        0.6740948451        2.0716533523
 H         -0.3394681537        1.9578488368        0.8947180463
 H         -1.6440749626        0.8099104149        1.1719093598
  42
    -0.117531 !GC
 C          0.0000000000        0.0000000000        0.0000000000
 C          1.5490583097        0.0000000000        0.0000000000
 C          2.2446024941        1.3604159707        0.0000000000
 C          2.2738399184        2.0410055124       -1.3610446684
 C          0.8996935398        2.4325000554       -1.9085176135
 C          0.1198728349        1.2075457433       -2.4270156881
 C         -0.6429162031        0.3281633452       -1.4005285641
 C         -0.4757180767       -1.4693197921        0.2661081519
 C         -0.5927870358       -2.1609596841       -1.1015646739
 C         -0.7957602368       -1.0383026448       -2.1545858516
 O          0.9249329070        0.3285831689       -3.2240342679
 C          0.2268933518       -0.9501995670       -3.3605607813
 H         -1.6322509838        0.7681263978       -1.2111876723
 H         -1.8091451806       -1.1109392226       -2.5734720470
 H         -0.6329806035        1.5919886624       -3.1357345286
 C          1.0573300276        3.4463875501       -3.0425579629
 C          1.2646840213       -2.0756908593       -3.3870003160
 C         -0.5454360810       -0.9430253755       -4.6852355526
 C         -0.5599813516        0.9274111354        1.0872660880
 H          1.8734133514       -0.5598633985        0.8858962415
 H          1.8985692696       -0.5848287474       -0.8548867338
 H          1.7785729534        2.0222040496        0.7382130722
 H          3.2784514347        1.2361289874        0.3538783875
 H          2.7614053243        1.3872568584       -2.0929993613
 H          2.9032873017        2.9389702400       -1.3078434009
 H          0.3154121982        2.8977651448       -1.0994134318
 H         -1.4449913159       -1.4540602013        0.7756206096
 H          0.2152026739       -1.9934471024        0.9350098926
 H          0.3115671905       -2.7373029917       -1.3098288924
 H         -1.4181989462       -2.8834181912       -1.1203366371
 H          1.5888282663        4.3300344507       -2.6884431303
 H          1.6084407353        3.0502409878       -3.8977777344
 H          0.0788699375        3.7732935229       -3.3953081012
 H          1.9237163481       -1.9542024574       -4.2453787824
 H          1.8910080769       -2.0545872293       -2.4978122663
 H          0.7878281802       -3.0522187604       -3.4644155706
 H          0.1378610181       -0.8242455961       -5.5233337911
 H         -1.0577882106       -1.8939659238       -4.8222548200
 H         -1.2777137935       -0.1360674832       -4.7217442459
 H         -1.6367528733        0.8283211365        1.2004396563
 H         -0.1251949691        0.6817023763        2.0575865806
 H         -0.3278504080        1.9680159643        0.8618257217
  42
    -0.117350 !GC
 C          0.0000000000        0.0000000000        0.0000000000
 C          1.5490542724        0.0000000000        0.0000000000
 C          2.2446527512        1.3604253359        0.0000000000
 C          2.2740203878        2.0410245269       -1.3610184163
 C          0.8998793999        2.4323907799       -1.9086248095
 C          0.1202773046        1.2072995634       -2.4271244195
 C         -0.6427594302        0.3281371719       -1.4006232075
 C         -0.4758648625       -1.4692584776        0.2662830107
 C         -0.5946027784       -2.1609526935       -1.1011526546
 C         -0.7956256981       -1.0383481330       -2.1545364979
 O          0.9254764213        0.3281442696       -3.2237980793
 C          0.2279770388       -0.9510033869       -3.3597698058
 H         -1.6320575483        0.7682181148       -1.2113420288
 H         -1.8087587769       -1.1101163673       -2.5742100011
 H         -0.6323890034        1.5915783888       -3.1360954238
 C          1.0572898880        3.4463529389       -3.0426236694
 C          1.2661708792       -2.0761955705       -3.3842052198
 C         -0.5427053209       -0.9453168261       -4.6853752574
 C         -0.5599531317        0.9273806235        1.0873582945
 H          1.8734958711       -0.5600361652        0.8857243945
 H          1.8984106237       -0.5846531155       -0.8550013286
 H          1.7787325342        2.0222918893        0.7381516236
 H          3.2784661635        1.2361396535        0.3538748128
 H          2.7617066810        1.3873010743       -2.0929402043
 H          2.9034249252        2.9390509185       -1.3077704804
 H          0.3155252319        2.8974719950       -1.0995258858
 H         -1.4448239853       -1.4536168898        0.7764378916
 H          0.2152856573       -1.9937418287        0.9346844362
 H          0.3083039542       -2.7392553965       -1.3091459578
 H         -1.4213006762       -2.8816434073       -1.1193947834
 H          1.6028440599        4.3334632606       -2.7171449572
 H          1.6092797836        3.0030678167       -3.8717615928
 H          0.0905424175        3.7729649657       -3.4285942566
 H          1.9367447143       -2.0066456441       -4.2383970742
 H          1.8411644607       -2.0754144881       -2.4574692536
 H          0.7657439951       -3.0405603741       -3.4220503644
 H         -1.0726674531       -1.8866979176       -4.8131463431
 H         -1.2809808969       -0.1442167282       -4.6976572685
 H          0.1273250610       -0.8234070800       -5.5355841798
 H         -1.6368143537        0.8283045253        1.2005402317
 H         -0.1250223854        0.6820172974        2.0575842946
 H         -0.3280490956        1.9679502627        0.8617367155
  42
    -0.117281 !GC
 C          0.0000000000        0.0000000000        0.0000000000
 C          1.5491538171        0.0000000000        0.0000000000
 C          2.2445987289        1.3604658714        0.0000000000
 C          2.2696887795        2.0442240812       -1.3595534010
 C          0.8936594185        2.4335057352       -1.9041110666
 C          0.1184260552        1.2073751116       -2.4268071467
 C         -0.6425864544        0.3236075954       -1.4028168601
 C         -0.4763583885       -1.4680753799        0.2711770177
 C         -0.5753459341       -2.1709221304       -1.0926126222
 C         -0.7878642564       -1.0593957367       -2.1558842760
 O          0.9288337552        0.3328723163       -3.2233720492
 C          0.2378723116       -0.9494512386       -3.3619676381
 H         -1.6348771374        0.7580999195       -1.2162872137
 H         -1.8010800032       -1.1438910858       -2.5729545864
 H         -0.6343220918        1.5904063274       -3.1363263382
 C          1.0465422449        3.4527273096       -3.0340005725
 C          1.2818404942       -2.0693016380       -3.3889062825
 C         -0.5329241115       -0.9448995679       -4.6874583188
 C         -0.5600931635        0.9315932840        1.0836941051
 H          1.8735833014       -0.5595728825        0.8860304945
 H          1.8987175173       -0.5848610017       -0.8547414566
 H          1.7810761548        2.0207283390        0.7411802244
 H          3.2796214106        1.2355227109        0.3502324269
 H          2.7576257778        1.3933305361       -2.0938311200
 H          2.8970481981        2.9435991287       -1.3053935116
 H          0.3084406150        2.8932656732       -1.0925829877
 H         -1.4523832901       -1.4500892534        0.7675579741
 H          0.2061898164       -1.9859654457        0.9534290294
 H          0.3386525012       -2.7353924676       -1.2907307057
 H         -1.3894062761       -2.9061639362       -1.1110769120
 H          1.6158541366        3.0458943729       -3.8709950471
 H          0.0898059918        3.8071632628       -3.4223513691
 H          1.5956594423        4.3152246956       -2.6581413186
 H          1.9645358810       -1.9888134011       -4.2318767977
 H          1.8620054449       -2.0551301802       -2.4648514620
 H          0.7873158096       -3.0369100093       -3.4270925320
 H          0.1520870428       -0.8217757119       -5.5236891637
 H         -1.0390351150       -1.8985847546       -4.8272308752
 H         -1.2693038334       -0.1418308174       -4.7253322113
 H         -1.6420095161        0.8316566071        1.1639719255
 H         -0.1307230266        0.7025452284        2.0587917866
 H         -0.3476935657        1.9750538062        0.8552145374
  42
    -0.117241 !GC
 C          0.0000000000        0.0000000000        0.0000000000
 C          1.5490656273        0.0000000000        0.0000000000
 C          2.2446900191        1.3603743930        0.0000000000
 C          2.2739830458        2.0408739394       -1.3610802885
 C          0.8998030924        2.4328093619       -1.9081717158
 C          0.1197187810        1.2081334229       -2.4269292768
 C         -0.6428099983        0.3283866956       -1.4005548698
 C         -0.4754098402       -1.4695011872        0.2656793113
 C         -0.5911203960       -2.1609084165       -1.1021966796
 C         -0.7956375508       -1.0380714163       -2.1547222933
 O          0.9243826595        0.3294011194       -3.2245916146
 C          0.2259113244       -0.9491028195       -3.3615472727
 H         -1.6321919972        0.7681715260       -1.2110613728
 H         -1.8093638212       -1.1111496669       -2.5726988334
 H         -0.6333462403        1.5929322695       -3.1351978169
 C          1.0573168031        3.4471110613       -3.0418307628
 C          1.2634276682       -2.0748028408       -3.3899136537
 C         -0.5476381066       -0.9406844070       -4.6855166925
 C         -0.5600083515        0.9271089928        1.0875009293
 H          1.8734068332       -0.5598699050        0.8858915707
 H          1.8985716500       -0.5848476547       -0.8548916282
 H          1.7786227464        2.0222278323        0.7381407612
 H          3.2785209431        1.2360823817        0.3539668868
 H          2.7611378155        1.3869084183       -2.0931006884
 H          2.9037633499        2.9386177395       -1.3080595627
 H          0.3157509787        2.8978386436       -1.0987459289
 H         -1.4452083173       -1.4545437250        0.7742416022
 H          0.2150515760       -1.9934756396        0.9352062134
 H          0.3143792349       -2.7354637855       -1.3103527160
 H         -1.4152036096       -2.8848649424       -1.1215067633
 H          1.6260491063        3.0343554472       -3.8764043190
 H          0.1023445259        3.8035100735       -3.4330854017
 H          1.6096872462        4.3089617589       -2.6688558047
 H          1.8912394007       -2.0540040781       -2.5018182316
 H          0.7860295407       -3.0512272633       -3.4666544449
 H          1.9210249411       -1.9534549472       -4.2494040156
 H          0.1348606707       -0.8209799028       -5.5241402371
 H         -1.0600165723       -1.8915914628       -4.8229780098
 H         -1.2800641081       -0.1337636791       -4.7205350576
 H         -0.1261647739        0.7129791043        2.0626223795
 H         -0.3216275852        1.9665852666        0.8564776716
 H         -1.6402974817        0.8276137709        1.1768140680
  42
    -0.116767 !GC
 C          0.0000000000        0.0000000000        0.0000000000
 C          1.5490520014        0.0000000000        0.0000000000
 C          2.2446093490        1.3603809005        0.0000000000
 C          2.2739993161        2.0408569682       -1.3610600279
 C          0.8999216751        2.4324562076       -1.9086150994
 C          0.1199595574        1.2075677176       -2.4270957411
 C         -0.6428523381        0.3282522569       -1.4005262957
 C         -0.4755778563       -1.4693892177        0.2661077000
 C         -0.5934756715       -2.1608848539       -1.1015841689
 C         -0.7959253875       -1.0381288053       -2.1546091151
 O          0.9249653571        0.3285390722       -3.2240517832
 C          0.2270837160       -0.9503235314       -3.3603072778
 H         -1.6321453825        0.7682898281       -1.2111492932
 H         -1.8092066219       -1.1104801337       -2.5737928079
 H         -0.6328600929        1.5920789174       -3.1358102891
 C          1.0577565153        3.4463160099       -3.0426730348
 C          1.2650362809       -2.0756919669       -3.3859602373
 C         -0.5449002974       -0.9437820246       -4.6851884070
 C         -0.5599794003        0.9273972641        1.0872661012
 H          1.8734129390       -0.5598719992        0.8858892722
 H          1.8985779691       -0.5848022848       -0.8548935379
 H          1.7785328424        2.0222321264        0.7381238081
 H          3.2784228055        1.2360923609        0.3539712986
 H          2.7615663785        1.3870277373       -2.0929461754
 H          2.9035376124        2.9387667222       -1.3078660219
 H          0.3156600342        2.8978061447       -1.0995472042
 H         -1.4445264241       -1.4542050423        0.7762525717
 H          0.2157268387       -1.9936346775        0.9345311434
 H          0.3103503370       -2.7379450196       -1.3101997590
 H         -1.4194615046       -2.8827049600       -1.1201111941
 H          1.6265366994        3.0331757379       -3.8770424089
 H          0.1028998158        3.8027133188       -3.4342140214
 H          1.6101728364        4.3082467626       -2.6699193907
 H          1.8907388083       -2.0546434183       -2.4963997562
 H          0.7882066302       -3.0522788362       -3.4637703212
 H          1.9245773760       -1.9541649250       -4.2439159553
 H          0.1385727487       -0.8252497744       -5.5231896808
 H         -1.0571268693       -1.8948250091       -4.8219257523
 H         -1.2772573165       -0.1369056799       -4.7222065517
 H         -1.6367421571        0.8281867769        1.2005459293
 H         -0.1250405122        0.6817790662        2.0575406057
 H         -0.3279962872        1.9680272924        0.8617581807
  42
    -0.116765 !GC
 C          0.0000000000        0.0000000000        0.0000000000
 C          1.5489635593        0.0000000000        0.0000000000
 C          2.2442781670        1.3606095499        0.0000000000
 C          2.2728002567        2.0417270423       -1.3607981193
 C          0.8984191905        2.4341734173       -1.9069912224
 C          0.1178762479        1.2098606922       -2.4259615873
 C         -0.6442201072        0.3293295968       -1.3998331457
 C         -0.4756001851       -1.4697963572        0.2638806147
 C         -0.5941889744       -2.1592509638       -1.1047261780
 C         -0.7965335079       -1.0348388754       -2.1559669241
 O          0.9219432653        0.3318051172       -3.2247767441
 C          0.2236927841       -0.9468001404       -3.3620646314
 H         -1.6334141409        0.7690911134       -1.2093296126
 H         -1.8101168354       -1.1058853241       -2.5746491125
 H         -0.6355938331        1.5952658540       -3.1334987623
 C          1.0554908287        3.4488506239       -3.0402767975
 C          1.2613957699       -2.0723883262       -3.3907504509
 C         -0.5494859480       -0.9380369148       -4.6861302807
 C         -0.5601247898        0.9257703088        1.0885370878
 H          1.8734704047       -0.5599873720        0.8857435305
 H          1.8984504245       -0.5846225886       -0.8550730659
 H          1.7784990351        2.0221005187        0.7386329770
 H          3.2783174543        1.2364645906        0.3533081155
 H          2.7594617137        1.3880399431       -2.0933805716
 H          2.9027375467        2.9393335783       -1.3077154674
 H          0.3148887348        2.8988928617       -1.0970630644
 H         -1.4443988696       -1.4552108206        0.7743277948
 H          0.2158248801       -1.9951597133        0.9312874373
 H          0.3094306875       -2.7363084874       -1.3141331187
 H         -1.4203343479       -2.8808709579       -1.1240595338
 H          1.5860600966        4.3343082516       -2.6893035371
 H          1.6064089759        3.0519926633       -3.8953977603
 H          0.0757414640        3.7753503077       -3.3897230220
 H          1.9262571293       -1.9505192358       -4.2446504292
 H          1.8876747026       -2.0472062686       -2.5015373622
 H          0.7841011579       -3.0487003877       -3.4651571621
 H         -1.0849293509       -1.8755027546       -4.8326102814
 H         -1.2737567699       -0.1255329836       -4.7051967412
 H          0.1328505234       -0.7964574147       -5.5226169615
 H         -0.1321956378        0.7100338728        2.0658791683
 H         -0.3389085180        1.9692899800        0.8643267465
 H         -1.6425223360        0.8201616701        1.1590858635
  42
    -0.115525 !GC
 C          0.0000000000        0.0000000000        0.0000000000
 C          1.5491774101        0.0000000000        0.0000000000
 C          2.2432694791        1.3611792310        0.0000000000
 C          2.2843272478        2.0332091432       -1.3644988593
 C          0.9156315591        2.4391316062       -1.9151588072
 C          0.1191456946        1.2233892162       -2.4310211141
 C         -0.6453264915        0.3485080617       -1.4017450190
 C         -0.4790112947       -1.4710093092        0.2503051043
 C         -0.6203712557       -2.1413932431       -1.1261372756
 C         -0.8113203398       -1.0016544439       -2.1631399922
 O          0.9069929361        0.3379676065       -3.2379941524
 C          0.1916061153       -0.9313475199       -3.3738416046
 H         -1.6284876124        0.7979484302       -1.2028862619
 H         -1.8265944998       -1.0540130778       -2.5804258736
 H         -0.6350968526        1.6181975167       -3.1325984323
 C          1.0867778312        3.4484930309       -3.0512296567
 C          1.2146638172       -2.0697501053       -3.4183694889
 C         -0.5953048618       -0.9072819667       -4.6897922791
 C         -0.5603780530        0.9167571494        1.0960940214
 H          1.8728163788       -0.5587349733        0.8869531908
 H          1.8997890059       -0.5851383549       -0.8541532075
 H          1.7697457614        2.0267114842        0.7299983630
 H          3.2738922029        1.2399291609        0.3642360977
 H          2.7647054789        1.3689915462       -2.0916324003
 H          2.9249922714        2.9233969752       -1.3149657768
 H          0.3369555305        2.9134712328       -1.1071349968
 H         -1.4400589179       -1.4590297414        0.7752425428
 H          0.2194398546       -2.0091132855        0.8998900150
 H          0.2713167493       -2.7314999983       -1.3499049826
 H         -1.4587987162       -2.8486222028       -1.1473804070
 H          1.6561244087        3.0245794429       -3.8795188597
 H          0.1390867630        3.8169861715       -3.4492976972
 H          1.6554920922        4.3009021174       -2.6810554106
 H          1.8758892653       -1.9992788989       -4.2797575193
 H          1.8065862656       -2.0694165266       -2.5021633794
 H          0.7093207940       -3.0314443404       -3.4616869352
 H          0.0794527097       -0.7714481348       -5.5335392608
 H         -1.1430565161       -1.8376383167       -4.8358647380
 H         -1.3095247827       -0.0856589936       -4.6963745897
 H         -0.1307264115        0.6889956634        2.0698527240
 H         -0.3366604676        1.9618750043        0.8825540835
 H         -1.6429043758        0.8129984247        1.1690207545
  42
    -0.115216 !GC
 C          0.0000000000        0.0000000000        0.0000000000
 C          1.5490338336        0.0000000000        0.0000000000
 C          2.2445568524        1.3604642000        0.0000000000
 C          2.2740924212        2.0407966157       -1.3611673414
 C          0.9000905593        2.4330928129       -1.9084065390
 C          0.1194934811        1.2086559340       -2.4268347319
 C         -0.6429782774        0.3289190147       -1.4003668255
 C         -0.4755625891       -1.4695088425        0.2654259885
 C         -0.5920415896       -2.1605207335       -1.1025607318
 C         -0.7963474967       -1.0373651492       -2.1547635869
 O          0.9236266046        0.3299109866       -3.2249882906
 C          0.2249585213       -0.9484791050       -3.3618089539
 H         -1.6321937912        0.7689485504       -1.2105695481
 H         -1.8101787387       -1.1099779210       -2.5725686037
 H         -0.6337750455        1.5936966098       -3.1347946731
 C          1.0581471637        3.4468149867       -3.0425470902
 C          1.2624153952       -2.0742227982       -3.3905333205
 C         -0.5488052162       -0.9398894239       -4.6856356708
 C         -0.5599489961        0.9267730311        1.0877832715
 H          1.8733812007       -0.5598366493        0.8859193926
 H          1.8985811022       -0.5848597266       -0.8548655375
 H          1.7782942419        2.0223834227        0.7379456517
 H          3.2783071953        1.2362995012        0.3541903939
 H          2.7611245560        1.3865922929       -2.0930687999
 H          2.9041289847        2.9383665946       -1.3082274005
 H          0.3162145979        2.8986894546       -1.0991952989
 H         -1.4450956045       -1.4545696689        0.7744485725
 H          0.2151201774       -1.9938399525        0.9344220404
 H          0.3130954808       -2.7355414910       -1.3110109754
 H         -1.4164944403       -2.8840600069       -1.1217884478
 H          1.6267000351        3.0334157585       -3.8769269591
 H          0.1034023759        3.8035725453       -3.4339878561
 H          1.6109813292        4.3085141381       -2.6699335313
 H          1.9200573900       -1.9526061454       -4.2499500354
 H          1.8902274976       -2.0535553001       -2.5023754456
 H          0.7851425633       -3.0505930373       -3.4674654457
 H         -1.0793939720       -1.8809320068       -4.8141227213
 H         -1.2868676680       -0.1384002117       -4.6946097581
 H          0.1195449229       -0.8164529626       -5.5371152818
 H         -0.1259442736        0.7125253163        2.0628302273
 H         -0.3218753072        1.9663614760        0.8568945018
 H         -1.6401859568        0.8269531137        1.1773585750
  42
    -0.115153 !GC
 C          0.0000000000        0.0000000000        0.0000000000
 C          1.5491404436        0.0000000000        0.0000000000
 C          2.2444622597        1.3606020405        0.0000000000
 C          2.2727182750        2.0421091229       -1.3606548916
 C          0.8980196499        2.4316464319       -1.9081872539
 C          0.1208082509        1.2052434437       -2.4274212364
 C         -0.6426194104        0.3265675686       -1.4010075745
 C         -0.4758831561       -1.4689713400        0.2678189229
 C         -0.5958888095       -2.1621062769       -1.0989234401
 C         -0.7938327451       -1.0404790139       -2.1540658905
 O          0.9285486746        0.3259666238       -3.2214617594
 C          0.2332672023       -0.9545668507       -3.3565167515
 H         -1.6323510017        0.7661091182       -1.2126144898
 H         -1.8057832450       -1.1125265711       -2.5766775022
 H         -0.6311605482        1.5877689436       -3.1381715838
 C          1.0535522507        3.4469773175       -3.0412170825
 C          1.2731059537       -2.0783375490       -3.3753968999
 C         -0.5334874185       -0.9530313749       -4.6843843207
 C         -0.5600443376        0.9286593946        1.0861674621
 H          1.8735301252       -0.5599213287        0.8858606937
 H          1.8986918879       -0.5846120207       -0.8548904867
 H          1.7789757556        2.0218353661        0.7390814981
 H          3.2787196220        1.2362067258        0.3527678779
 H          2.7614336728        1.3896794805       -2.0929735582
 H          2.9006270709        2.9410944425       -1.3069170327
 H          0.3127609229        2.8952095236       -1.0988197976
 H         -1.4442528524       -1.4527083218        0.7790777770
 H          0.2158464787       -1.9928517429        0.9360258749
 H          0.3054053864       -2.7434598532       -1.3062492863
 H         -1.4249132144       -2.8804697105       -1.1164849214
 H          1.6062005170        3.0054178791       -3.8709178581
 H          0.0861229932        3.7722177685       -3.4267832364
 H          1.5974481262        4.3347449413       -2.7150730816
 H          1.9373121261       -1.9565957462       -4.2296705379
 H          1.8938658133       -2.0552247343       -2.4823509346
 H          0.7986608042       -3.0558419644       -3.4549661454
 H         -1.0841047566       -1.8820875627       -4.8212498773
 H         -1.2628460863       -0.1457178098       -4.6852165070
 H          0.1386528395       -0.8107563448       -5.5310897417
 H         -1.6369531180        0.8301765222        1.1987086458
 H         -0.1260955101        0.6837572745        2.0570029684
 H         -0.3273327911        1.9689333477        0.8598546049
  42
    -0.115092 !GC
 C          0.0000000000        0.0000000000        0.0000000000
 C          1.5490530107        0.0000000000        0.0000000000
 C          2.2446905582        1.3603617142        0.0000000000
 C          2.2741111600        2.0406957170       -1.3611190977
 C          0.9000167719        2.4331409126       -1.9080853945
 C          0.1193170893        1.2088286395       -2.4267516252
 C         -0.6429745299        0.3287719934       -1.4003927170
 C         -0.4754071380       -1.4695350213        0.2654582135
 C         -0.5906975297       -2.1606066423       -1.1025910836
 C         -0.7958343590       -1.0375755320       -2.1547777897
 O          0.9234437017        0.3303899816       -3.2251989848
 C          0.2250167839       -0.9481101880       -3.3621575363
 H         -1.6323528831        0.7684744318       -1.2106671713
 H         -1.8097523740       -1.1107295990       -2.5722710583
 H         -0.6340506614        1.5940560549       -3.1344949284
 C          1.0579279958        3.4471416711       -3.0419607187
 C          1.2626687650       -2.0736517090       -3.3914818146
 C         -0.5493123774       -0.9393405976       -4.6856492108
 C         -0.5600687587        0.9268730077        1.0876542269
 H          1.8734090603       -0.5599078826        0.8858824445
 H          1.8984673824       -0.5848531739       -0.8549469342
 H          1.7786089309        2.0222746156        0.7380750051
 H          3.2784894345        1.2360150931        0.3540130801
 H          2.7609115300        1.3864612221       -2.0931726932
 H          2.9042465925        2.9382158581       -1.3082650523
 H          0.3162538513        2.8985514511       -1.0986900270
 H         -1.4452626730       -1.4547947834        0.7738625890
 H          0.2150118635       -1.9935460481        0.9349738135
 H          0.3151559788       -2.7345795832       -1.3108592227
 H         -1.4143727043       -2.8850184767       -1.1221191428
 H          1.6262534082        3.0339609316       -3.8765984531
 H          0.1031053017        3.8040667108       -3.4330558140
 H          1.6108672370        4.3087141831       -2.6692028797
 H          1.8912000762       -2.0527739577       -2.5038964406
 H          0.7854141299       -3.0501423161       -3.4679248928
 H          1.9195347807       -1.9520866534       -4.2514787744
 H         -1.0797244576       -1.8804847542       -4.8141473930
 H         -1.2875678533       -0.1380153735       -4.6941114035
 H          0.1186646520       -0.8155251761       -5.5373749421
 H         -1.6368513321        0.8276340561        1.2007933256
 H         -0.1251975642        0.6808052081        2.0578539509
 H         -0.3280299798        1.9676070978        0.8626624473
  42
    -0.114988 !GC
 C          0.0000000000        0.0000000000        0.0000000000
 C          1.5490749636        0.0000000000        0.0000000000
 C          2.2447189735        1.3604343628        0.0000000000
 C          2.2740276844        2.0412484128       -1.3609266138
 C          0.8998047613        2.4317493585       -1.9089957044
 C          0.1212051214        1.2059604813       -2.4274030020
 C         -0.6425159268        0.3275322098       -1.4008608008
 C         -0.4760239587       -1.4690480127        0.2670133004
 C         -0.5959294291       -2.1614871085       -1.1000069668
 C         -0.7951225512       -1.0392473514       -2.1542034212
 O          0.9274380282        0.3263310050       -3.2225389360
 C          0.2303538714       -0.9531574031       -3.3579487919
 H         -1.6318271969        0.7677883717       -1.2121490015
 H         -1.8075742637       -1.1107903161       -2.5755195026
 H         -0.6309579378        1.5894588673       -3.1373657133
 C          1.0568639991        3.4457525771       -3.0429493826
 C          1.2689312756       -2.0780583748       -3.3796030144
 C         -0.5381215391       -0.9492417697       -4.6848468151
 C         -0.5598409382        0.9280056340        1.0868823688
 H          1.8735084081       -0.5600279518        0.8857413250
 H          1.8985586085       -0.5846336429       -0.8549719767
 H          1.7788191893        2.0222322746        0.7382451574
 H          3.2785835634        1.2361078511        0.3538011299
 H          2.7622532176        1.3878965275       -2.0927930962
 H          2.9029255727        2.9395984717       -1.3074490506
 H          0.3147720640        2.8964258080       -1.1001875725
 H         -1.4444096445       -1.4529788921        0.7780485080
 H          0.2154943676       -1.9934060470        0.9349795046
 H          0.3061059123       -2.7415495891       -1.3076318955
 H         -1.4239468547       -2.8809263427       -1.1177803717
 H          1.6015082130        4.3332160248       -2.7175234399
 H          1.6094153830        3.0029102836       -3.8718251516
 H          0.0900745173        3.7716477514       -3.4292807224
 H          1.8805225002       -2.1018630150       -2.4776891626
 H          0.7506753351       -3.0317968950       -3.4805017976
 H          1.9019319457       -2.0095872824       -4.2593650834
 H         -1.0677243681       -1.8910175675       -4.8122856894
 H         -1.2765607449       -0.1481415710       -4.6993130438
 H          0.1334753580       -0.8282933770       -5.5341725859
 H         -1.6367279929        0.8292662393        1.2000400344
 H         -0.1250165760        0.6830466402        2.0572655870
 H         -0.3276845018        1.9683810537        0.8607143269
  42
    -0.114921 !GC
 C          0.0000000000        0.0000000000        0.0000000000
 C          1.5491366586        0.0000000000        0.0000000000
 C          2.2445417014        1.3605535542        0.0000000000
 C          2.2728375167        2.0418697846       -1.3607358094
 C          0.8981423885        2.4322272271       -1.9077250282
 C          0.1203428424        1.2063571773       -2.4273172060
 C         -0.6424171810        0.3269291988       -1.4010223201
 C         -0.4752548573       -1.4693639439        0.2668633619
 C         -0.5929290799       -2.1619735923       -1.1003155960
 C         -0.7935004870       -1.0399555223       -2.1545125191
 O          0.9274507824        0.3276482712       -3.2226130618
 C          0.2318545350       -0.9526331531       -3.3582768309
 H         -1.6323139322        0.7659890131       -1.2123708905
 H         -1.8059732809       -1.1127817574       -2.5757242562
 H         -0.6320595082        1.5895489580       -3.1372524883
 C          1.0537814273        3.4479134575       -3.0403726448
 C          1.2715687788       -2.0764729139       -3.3798358387
 C         -0.5368940960       -0.9494366143       -4.6850029055
 C         -0.5601079017        0.9281369417        1.0864856452
 H          1.8734661950       -0.5599302925        0.8858804874
 H          1.8987213264       -0.5846755784       -0.8548556966
 H          1.7789995336        2.0218828569        0.7389526983
 H          3.2787604511        1.2361754731        0.3528666903
 H          2.7608510519        1.3889979859       -2.0931386653
 H          2.9013803281        2.9404360429       -1.3073402967
 H          0.3132974959        2.8956454912       -1.0979745555
 H         -1.4444364635       -1.4537098505        0.7766178324
 H          0.2157679053       -1.9929459247        0.9360472879
 H          0.3102377345       -2.7403591873       -1.3078996184
 H         -1.4198838563       -2.8827062607       -1.1187684025
 H          1.5983647028        4.3352278441       -2.7139685277
 H          1.6060099537        3.0064055518       -3.8703209283
 H          0.0864727205        3.7738356888       -3.4255911293
 H          1.8944358131       -2.0537709892       -2.4883754864
 H          0.7964511479       -3.0538597454       -3.4583203732
 H          1.9338501956       -1.9546909098       -4.2356313164
 H          0.1344432815       -0.8278018655       -5.5343409941
 H         -1.0655702009       -1.8916787774       -4.8123824113
 H         -1.2761702119       -0.1490795018       -4.6992698199
 H         -1.6369864797        0.8295735946        1.1989601504
 H         -0.1259727980        0.6829838964        2.0572170794
 H         -0.3274710934        1.9685207663        0.8605746391
  42
    -0.114739 !GC
 C          0.0000000000        0.0000000000        0.0000000000
 C          1.5490509921        0.0000000000        0.0000000000
 C          2.2447341135        1.3603612232        0.0000000000
 C          2.2741973252        2.0411324921       -1.3609570950
 C          0.9000581801        2.4328706092       -1.9083554137
 C          0.1201415421        1.2080514282       -2.4270936545
 C         -0.6425288376        0.3286132513       -1.4005625248
 C         -0.4755535918       -1.4694400588        0.2655785357
 C         -0.5927286493       -2.1605884326       -1.1022865914
 C         -0.7951270406       -1.0377635766       -2.1552874731
 O          0.9253414091        0.3293321390       -3.2242247434
 C          0.2278256874       -0.9497613159       -3.3608382695
 H         -1.6319268860        0.7683228284       -1.2111091920
 H         -1.8083708650       -1.1101005490       -2.5745362835
 H         -0.6324844159        1.5928078997       -3.1358819828
 C          1.0578504604        3.4471792653       -3.0419773254
 C          1.2661500250       -2.0747542169       -3.3866595413
 C         -0.5436662491       -0.9430726799       -4.6859816155
 C         -0.5600509684        0.9275054950        1.0871224806
 H          1.8733795127       -0.5599488751        0.8858397402
 H          1.8987266302       -0.5846311181       -0.8549031027
 H          1.7786748403        2.0222122553        0.7381513410
 H          3.2785357708        1.2361218995        0.3539685502
 H          2.7616049884        1.3872894114       -2.0929298572
 H          2.9038619773        2.9389291456       -1.3077038007
 H          0.3157445819        2.8978211813       -1.0990523716
 H         -1.4448817928       -1.4544043716        0.7749979629
 H          0.2152575854       -1.9938848251        0.9343189908
 H          0.3113360273       -2.7374007161       -1.3102631973
 H         -1.4183822182       -2.8827709398       -1.1209477208
 H          1.6036356037        4.3338807160       -2.7158176639
 H          1.6098392199        3.0044459029       -3.8714404434
 H          0.0911695451        3.7745670641       -3.4275830806
 H          1.9245887672       -1.9556494596       -4.2459100601
 H          1.8836062888       -2.0669762738       -2.4918184600
 H          0.7836625086       -3.0499020731       -3.4510945479
 H          0.1393463057       -0.8009696425       -5.5218406567
 H         -1.0784322777       -1.8807061147       -4.8337191497
 H         -1.2660087371       -0.1287209713       -4.7064035373
 H         -0.1245539733        0.7080274953        2.0604870988
 H         -0.3236311048        1.9681528278        0.8617751792
 H         -1.6404051406        0.8259187825        1.1777327673
  42
    -0.114482 !GC
 C          0.0000000000        0.0000000000        0.0000000000
 C          1.5490552817        0.0000000000        0.0000000000
 C          2.2444698918        1.3605394542        0.0000000000
 C          2.2731516902        2.0416518449       -1.3607997150
 C          0.8986489981        2.4322956296       -1.9080563965
 C          0.1200941898        1.2066510628       -2.4268608212
 C         -0.6431189689        0.3274334840       -1.4006204744
 C         -0.4760480669       -1.4691935571        0.2661800750
 C         -0.5946806075       -2.1617019231       -1.1009632555
 C         -0.7949263627       -1.0390862711       -2.1545695593
 O          0.9265477069        0.3277772291       -3.2226224757
 C          0.2301869922       -0.9520209477       -3.3585481673
 H         -1.6325669087        0.7672466562       -1.2116086582
 H         -1.8074841665       -1.1111170184       -2.5756416203
 H         -0.6322839795        1.5903242810       -3.1364893030
 C          1.0551964207        3.4471909803       -3.0413604807
 C          1.2692153566       -2.0765165928       -3.3804757561
 C         -0.5386803345       -0.9479649398       -4.6852251287
 C         -0.5600877171        0.9276980058        1.0870181923
 H          1.8734717392       -0.5601111754        0.8857158617
 H          1.8985156334       -0.5845539428       -0.8550356685
 H          1.7789225018        2.0220982034        0.7386947920
 H          3.2785415292        1.2362179533        0.3531823599
 H          2.7611060739        1.3884982256       -2.0930548776
 H          2.9020128040        2.9400315328       -1.3073615432
 H          0.3140090727        2.8964416812       -1.0985768538
 H         -1.4448434477       -1.4533374879        0.7765845400
 H          0.2151580232       -1.9934982912        0.9346931039
 H          0.3080841418       -2.7406024102       -1.3088706524
 H         -1.4220369920       -2.8819235946       -1.1191353709
 H          1.5999192469        4.3345796143       -2.7153364666
 H          1.6075388605        3.0049623104       -3.8708293615
 H          0.0881807763        3.7732668228       -3.4270868729
 H          1.8809734286       -2.1000514790       -2.4787213590
 H          0.7511252686       -3.0303957224       -3.4810875190
 H          1.9019441347       -2.0080485454       -4.2604062240
 H          0.1466922556       -0.8303300022       -5.5216889739
 H         -1.0498002182       -1.8995458370       -4.8217382957
 H         -1.2714466866       -0.1417723766       -4.7253300785
 H         -0.1267566188        0.7135897304        2.0624636176
 H         -0.3214735715        1.9669824134        0.8558363125
 H         -1.6403365633        0.8284859504        1.1760907457
  42
    -0.033021 !GC
 C          0.0000000000        0.0000000000        0.0000000000
 C          1.5491351446        0.0000000000        0.0000000000
 C          2.2445503380        1.3605477993        0.0000000000
 C          2.2729895541        2.0417994855       -1.3607295733
 C          0.8983410223        2.4322868311       -1.9077544689
 C          0.1202495078        1.2065239128       -2.4271562223
 C         -0.6426774346        0.3271750068       -1.4008665226
 C         -0.4755722247       -1.4691873596        0.2671692592
 C         -0.5937996472       -2.1617558235       -1.0999533305
 C         -0.7939053962       -1.0397382286       -2.1542567134
 O          0.9270583151        0.3277670703       -3.2226280024
 C          0.2313915245       -0.9524867034       -3.3581146678
 H         -1.6324528314        0.7664554066       -1.2120875013
 H         -1.8063948703       -1.1122924181       -2.5754779370
 H         -0.6322377697        1.5898331120       -3.1369325984
 C          1.0541480948        3.4477314317       -3.0406191231
 C          1.2711035552       -2.0763162919       -3.3798795808
 C         -0.5373722357       -0.9493579893       -4.6848117233
 C         -0.5601317423        0.9281217251        1.0865562164
 H          1.8735258345       -0.5599658119        0.8858468938
 H          1.8985900149       -0.5846364399       -0.8549506933
 H          1.7790115404        2.0219059695        0.7389435752
 H          3.2787577612        1.2360927401        0.3529026293
 H          2.7609407337        1.3888827820       -2.0931475364
 H          2.9015870069        2.9403417114       -1.3073394023
 H          0.3136003973        2.8959961241       -1.0980956511
 H         -1.4445264370       -1.4534446708        0.7773216900
 H          0.2156571507       -1.9929501953        0.9359907374
 H          0.3090051564       -2.7407469418       -1.3072911239
 H         -1.4210977669       -2.8820816980       -1.1182696962
 H          0.0868169724        3.7737891978       -3.4258045527
 H          1.5987441199        4.3350079968       -2.7142777005
 H          1.6063255246        3.0061435506       -3.8705204026
 H          1.8940239188       -2.0536253761       -2.4884602147
 H          0.7959106238       -3.0536709142       -3.4582672432
 H          1.9333274378       -1.9546321698       -4.2357132756
 H         -1.2610093709       -0.1363508161       -4.7096040593
 H          0.1476541762       -0.8096147033       -5.5194237631
 H         -1.0702929587       -1.8883997240       -4.8308818689
 H         -1.6370516242        0.8294901784        1.1990632979
 H         -0.1260980595        0.6828602087        2.0572712801
 H         -0.3275123479        1.9685253670        0.8606917703
  42
    -0.032804 !GC
 C          0.0000000000        0.0000000000        0.0000000000
 C          1.5489894232        0.0000000000        0.0000000000
 C          2.2442612383        1.3605730436        0.0000000000
 C          2.2728188682        2.0416027046       -1.3608544555
 C          0.8985609401        2.4341032108       -1.9073844901
 C          0.1176989657        1.2099200067       -2.4261800609
 C         -0.6444625120        0.3295873268       -1.3999980644
 C         -0.4754994410       -1.4698011471        0.2640391889
 C         -0.5949326944       -2.1583457500       -1.1049688148
 C         -0.7974651933       -1.0338834934       -2.1561196989
 O          0.9212666205        0.3315787545       -3.2253595125
 C          0.2222522867       -0.9466099431       -3.3627669186
 H         -1.6334198585        0.7697310078       -1.2091878084
 H         -1.8113303602       -1.1045205073       -2.5741787002
 H         -0.6358083577        1.5955100166       -3.1335978988
 C          1.0562620314        3.4486402497       -3.0408337722
 C          1.2593274331       -2.0727253908       -3.3925668861
 C         -0.5516706317       -0.9373097409       -4.6865086429
 C         -0.5601011944        0.9252660010        1.0890348244
 H          1.8734260474       -0.5601058632        0.8857083963
 H          1.8983493965       -0.5845734806       -0.8551018785
 H          1.7784023140        2.0221848798        0.7384785024
 H          3.2782924167        1.2364687205        0.3534113021
 H          2.7596172845        1.3878606163       -2.0933543993
 H          2.9027884925        2.9392257319       -1.3077898617
 H          0.3151098351        2.8991536383       -1.0975625651
 H         -1.4441413766       -1.4555286046        0.7748540061
 H          0.2162329808       -1.9956714456        0.9307749414
 H          0.3084802753       -2.7356226311       -1.3147869575
 H         -1.4212570871       -2.8797851582       -1.1241998630
 H          0.0895259785        3.7764642962       -3.4260636378
 H          1.6028088599        4.3350550266       -2.7152738839
 H          1.6072643394        3.0053514326       -3.8706411030
 H          1.9236350368       -1.9997962730       -4.2516742461
 H          1.8395387360       -2.0711347261       -2.4690400936
 H          0.7622396413       -3.0388867838       -3.4367860584
 H         -1.2741558314       -0.1229310393       -4.7055483009
 H          0.1305238950       -0.7957351143       -5.5233115586
 H         -1.0866495522       -1.8750998335       -4.8338511514
 H         -0.1317806405        0.7094444647        2.0661964823
 H         -0.3393532047        1.9688601509        0.8649064963
 H         -1.6424615345        0.8193337711        1.1599334773
  42
    -0.032766 !GC
 C          0.0000000000        0.0000000000        0.0000000000
 C          1.5491222757        0.0000000000        0.0000000000
 C          2.2445050778        1.3606028942        0.0000000000
 C          2.2728007870        2.0420262281       -1.3606979862
 C          0.8980894995        2.4319454415       -1.9079365142
 C          0.1206556715        1.2057495495       -2.4273063665
 C         -0.6426056819        0.3268632209       -1.4009507323
 C         -0.4757755157       -1.4690493958        0.2675863516
 C         -0.5954761580       -2.1619690151       -1.0992907968
 C         -0.7938057157       -1.0401458628       -2.1541276629
 O          0.9282576709        0.3266230409       -3.2216554293
 C          0.2330272406       -0.9539327423       -3.3567589166
 H         -1.6323666286        0.7662688171       -1.2124139188
 H         -1.8058232325       -1.1122434249       -2.5765781118
 H         -0.6314192482        1.5884641307       -3.1378414350
 C          1.0535949468        3.4474370988       -3.0407711368
 C          1.2729315157       -2.0776129184       -3.3759219882
 C         -0.5339670724       -0.9522685215       -4.6844622516
 C         -0.5599818399        0.9284871261        1.0863437353
 H          1.8735401425       -0.5599676354        0.8858198513
 H          1.8986420797       -0.5845775860       -0.8549337448
 H          1.7789852815        2.0218898297        0.7390114388
 H          3.2787402852        1.2361948197        0.3528251806
 H          2.7611477557        1.3893629808       -2.0930546511
 H          2.9010281938        2.9408010807       -1.3071586366
 H          0.3130275230        2.8954026813       -1.0983689619
 H         -1.4442851908       -1.4528857812        0.7786015261
 H          0.2158229878       -1.9929450060        0.9359125553
 H          0.3060510800       -2.7429524031       -1.3068444144
 H         -1.4242569400       -2.8806608333       -1.1170425394
 H          0.0861439029        3.7729951094       -3.4261080909
 H          1.5976684837        4.3350005055       -2.7143542534
 H          1.6060972796        3.0061176724       -3.8705850509
 H          0.7983730319       -3.0550382222       -3.4556402465
 H          1.9368445855       -1.9554716585       -4.2305137078
 H          1.8938773846       -2.0551247725       -2.4831297336
 H         -1.0843657747       -1.8814047653       -4.8213767611
 H         -1.2634961828       -0.1451257080       -4.6849659979
 H          0.1379915650       -0.8096463800       -5.5312430298
 H         -1.6368946267        0.8300281942        1.1989601383
 H         -0.1259278769        0.6834417056        2.0570926751
 H         -0.3272638287        1.9687908239        0.8601742979
  42
    -0.032759 !GC
 C          0.0000000000        0.0000000000        0.0000000000
 C          1.5491195001        0.0000000000        0.0000000000
 C          2.2445020717        1.3605704236        0.0000000000
 C          2.2730432668        2.0418417293       -1.3607475328
 C          0.8984735835        2.4321187992       -1.9080937120
 C          0.1205211598        1.2061441907       -2.4272048588
 C         -0.6427527021        0.3272814534       -1.4008108551
 C         -0.4759461109       -1.4690205573        0.2675181351
 C         -0.5957006727       -2.1616828864       -1.0994699357
 C         -0.7943174928       -1.0396634003       -2.1540613591
 O          0.9275929438        0.3269936845       -3.2220428666
 C          0.2319158561       -0.9533057010       -3.3572142579
 H         -1.6324087717        0.7668622037       -1.2120862835
 H         -1.8065328941       -1.1115638910       -2.5760743548
 H         -0.6317269609        1.5891421952       -3.1373932009
 C          1.0542966647        3.4475728266       -3.0409807561
 C          1.2715510803       -2.0772457157       -3.3773654311
 C         -0.5356175603       -0.9509684847       -4.6846259870
 C         -0.5599479427        0.9282660823        1.0865547235
 H          1.8735383210       -0.5599773284        0.8858089994
 H          1.8985963020       -0.5846031740       -0.8549247941
 H          1.7789073801        2.0219377153        0.7388975757
 H          3.2786711380        1.2362025654        0.3530347424
 H          2.7613018598        1.3890764239       -2.0930328943
 H          2.9014193827        2.9404789758       -1.3071557665
 H          0.3136716667        2.8959572785       -1.0985545415
 H         -1.4444613588       -1.4528755581        0.7785292850
 H          0.2156533049       -1.9931046671        0.9357712722
 H          0.3059555436       -2.7423887468       -1.3070473819
 H         -1.4242906282       -2.8805618582       -1.1173195118
 H          1.6065134336        3.0054366873       -3.8706945442
 H          0.0872385045        3.7735351511       -3.4266932933
 H          1.5988597863        4.3347908027       -2.7148191243
 H          0.7966579468       -3.0545323719       -3.4567174143
 H          1.9348179430       -1.9552561810       -4.2324746571
 H          1.8932332181       -2.0549566962       -2.4850785601
 H         -1.2591197065       -0.1378791865       -4.7106771395
 H          0.1502293776       -0.8118785909       -5.5186688302
 H         -1.0685689964       -1.8899887879       -4.8305335451
 H         -1.6368487387        0.8296745584        1.1992647588
 H         -0.1257537668        0.6831565812        2.0572264802
 H         -0.3273578342        1.9686427469        0.8605565890
  42
    -0.032727 !GC
 C          0.0000000000        0.0000000000        0.0000000000
 C          1.5490525061        0.0000000000        0.0000000000
 C          2.2443384505        1.3605734743        0.0000000000
 C          2.2739446727        2.0408741653       -1.3611695303
 C          0.8999199016        2.4327139594       -1.9087105676
 C          0.1196961756        1.2079841358       -2.4271071257
 C         -0.6427712032        0.3283076426       -1.4005826548
 C         -0.4747170951       -1.4698289151        0.2651074757
 C         -0.5909649166       -2.1612536245       -1.1027328391
 C         -0.7958237617       -1.0380761448       -2.1547995919
 O          0.9242381369        0.3291695458       -3.2247791088
 C          0.2257511149       -0.9493219224       -3.3616120607
 H         -1.6321232631        0.7681256101       -1.2110009903
 H         -1.8095359188       -1.1110421004       -2.5728240059
 H         -0.6334612207        1.5927027381       -3.1353540457
 C          1.0579245743        3.4462177438       -3.0430297036
 C          1.2631892871       -2.0751101807       -3.3894950712
 C         -0.5477639128       -0.9409772471       -4.6855985404
 C         -0.5601766580        0.9269445256        1.0875149146
 H          1.8734233963       -0.5598297932        0.8859048014
 H          1.8986842405       -0.5847567162       -0.8548995280
 H          1.7779388490        2.0224506250        0.7378923220
 H          3.2780945334        1.2365796893        0.3542632808
 H          2.7612743393        1.3867705621       -2.0929610636
 H          2.9037152733        2.9386217070       -1.3081700543
 H          0.3157867391        2.8983344763       -1.0997011147
 H         -1.4441785034       -1.4553282696        0.7743545374
 H          0.2162717361       -1.9936691462        0.9341831702
 H          0.3144243053       -2.7357180051       -1.3118010155
 H         -1.4151801796       -2.8850662389       -1.1218004337
 H          1.5896572098        4.3297806974       -2.6890992914
 H          1.6090105865        3.0496923761       -3.8980711358
 H          0.0796009692        3.7733146313       -3.3959408284
 H          0.7860705850       -3.0515495245       -3.4666327571
 H          1.9211090290       -1.9534469445       -4.2487840480
 H          1.8907053249       -2.0543450106       -2.5012299202
 H         -1.2706739144       -0.1271898325       -4.7052368352
 H          0.1344169106       -0.7992313979       -5.5222151899
 H         -1.0821556499       -1.8789831354       -4.8328370273
 H         -0.1261505832        0.7129603450        2.0626119260
 H         -0.3221808429        1.9665077765        0.8564205908
 H         -1.6404004573        0.8269905477        1.1769060745
  42
    -0.032619 !GC
 C          0.0000000000        0.0000000000        0.0000000000
 C          1.5491130656        0.0000000000        0.0000000000
 C          2.2441756538        1.3606527399        0.0000000000
 C          2.2755227157        2.0395767739       -1.3617066304
 C          0.9023573111        2.4341050394       -1.9094436626
 C          0.1192570944        1.2109776160       -2.4274853136
 C         -0.6433503972        0.3321250243       -1.4003222150
 C         -0.4763678520       -1.4697375970        0.2626035547
 C         -0.5984843763       -2.1568298290       -1.1069582303
 C         -0.7984565161       -1.0304782550       -2.1566435297
 O          0.9207731860        0.3309779240       -3.2269419005
 C          0.2201131512       -0.9464928051       -3.3626716744
 H         -1.6315493351        0.7736506349       -1.2088159124
 H         -1.8121163083       -1.0987544011       -2.5756004443
 H         -0.6341510614        1.5974380466       -3.1345098856
 C          1.0624828609        3.4474049390       -3.0435966681
 C          1.2559619637       -2.0737417819       -3.3919717519
 C         -0.5549557575       -0.9374678184       -4.6857785613
 C         -0.5599878139        0.9250593881        1.0892241840
 H          1.8733518829       -0.5597062613        0.8860797761
 H          1.8988642188       -0.5847975286       -0.8548179198
 H          1.7766458953        2.0230912813        0.7366034804
 H          3.2774148408        1.2372248739        0.3558786100
 H          2.7613463765        1.3837580605       -2.0928160506
 H          2.9073987667        2.9358688058       -1.3094514046
 H          0.3193627715        2.9008389965       -1.1002847223
 H         -1.4440140644       -1.4551324331        0.7751277600
 H          0.2159776969       -1.9969060073        0.9275194651
 H          0.3031589700       -2.7363800343       -1.3182391531
 H         -1.4267812674       -2.8759517684       -1.1263748337
 H          0.0965304078        3.7765367870       -3.4296796757
 H          1.6101561792        4.3331193771       -2.7181502252
 H          1.6133179270        3.0026963111       -3.8726631827
 H          0.7772847175       -3.0493319824       -3.4687374929
 H          1.9130758165       -1.9529229893       -4.2518826210
 H          1.8845126794       -2.0542835401       -2.5044127053
 H          0.1260058216       -0.7986810321       -5.5240232536
 H         -1.0913289529       -1.8744359223       -4.8320328695
 H         -1.2777776297       -0.1236060048       -4.7029223487
 H         -0.1292339958        0.7053221797        2.0643410695
 H         -0.3370836550        1.9684936408        0.8671209792
 H         -1.6422831900        0.8212775495        1.1640797854
  42
    -0.032560 !GC
 C          0.0000000000        0.0000000000        0.0000000000
 C          1.5490651226        0.0000000000        0.0000000000
 C          2.2446697401        1.3603917312        0.0000000000
 C          2.2737362140        2.0411481360       -1.3609180341
 C          0.8994610856        2.4331119864       -1.9078068010
 C          0.1195852573        1.2083516430       -2.4267730198
 C         -0.6428891613        0.3282874172       -1.4005581221
 C         -0.4755572006       -1.4694243937        0.2658499441
 C         -0.5920801866       -2.1608278753       -1.1019208356
 C         -0.7953082145       -1.0380973078       -2.1548142768
 O          0.9244017187        0.3299278299       -3.2245821837
 C          0.2270337360       -0.9492431616       -3.3609927244
 H         -1.6323314504        0.7679612618       -1.2110662535
 H         -1.8087618823       -1.1106018709       -2.5735726155
 H         -0.6335539792        1.5930454810       -3.1350768706
 C          1.0564706261        3.4477175637       -3.0412667376
 C          1.2653759842       -2.0742402659       -3.3877563101
 C         -0.5450696453       -0.9423344844       -4.6857758513
 C         -0.5600221233        0.9272620059        1.0873487689
 H          1.8734866702       -0.5600472975        0.8857840784
 H          1.8983516510       -0.5846989932       -0.8550723583
 H          1.7788707111        2.0221738281        0.7383779432
 H          3.2786232775        1.2359700466        0.3535535418
 H          2.7607957967        1.3873953119       -2.0932525100
 H          2.9034571014        2.9389504256       -1.3077927980
 H          0.3153719316        2.8978261565       -1.0982336449
 H         -1.4450765582       -1.4543723036        0.7748884293
 H          0.2151671083       -1.9934376989        0.9350225527
 H          0.3126317292       -2.7367156571       -1.3097462539
 H         -1.4170702939       -2.8837498902       -1.1208882268
 H          1.6250102156        3.0351954368       -3.8761565865
 H          0.1012962990        3.8040480290       -3.4320984654
 H          1.6089294845        4.3095635798       -2.6684358973
 H          1.9341764096       -2.0041529675       -4.2434341081
 H          1.8423523310       -2.0731240669       -2.4621060565
 H          0.7653001400       -3.0389206596       -3.4246771410
 H         -1.2682780681       -0.1288281239       -4.7069484547
 H          0.1381094672       -0.8010761469       -5.5217494266
 H         -1.0788861511       -1.8807323750       -4.8328102646
 H         -0.3504006319        1.9728047804        0.8687904432
 H         -1.6420478449        0.8240709266        1.1690092084
 H         -0.1284083174        0.6891022064        2.0593686871
  42
    -0.032518 !GC
 C          0.0000000000        0.0000000000        0.0000000000
 C          1.5490383755        0.0000000000        0.0000000000
 C          2.2445497165        1.3604837731        0.0000000000
 C          2.2738707928        2.0409579237       -1.3611193278
 C          0.8997403610        2.4333372634       -1.9080363189
 C          0.1193157781        1.2088864088       -2.4267399081
 C         -0.6429986688        0.3288740551       -1.4004009970
 C         -0.4756500779       -1.4694685281        0.2654074917
 C         -0.5919301929       -2.1605161944       -1.1025026623
 C         -0.7958582543       -1.0374692939       -2.1548140261
 O          0.9235676687        0.3303626887       -3.2250665000
 C          0.2254040502       -0.9483537867       -3.3618710580
 H         -1.6323453715        0.7686261199       -1.2105750136
 H         -1.8097173242       -1.1099836932       -2.5725908341
 H         -0.6339613595        1.5939248348       -3.1346567206
 C          1.0572759641        3.4475336995       -3.0417465022
 C          1.2632460649       -2.0737616474       -3.3901480658
 C         -0.5478292282       -0.9402194002       -4.6859738836
 C         -0.5599213341        0.9267648388        1.0878497048
 H          1.8734105269       -0.5599407844        0.8858007548
 H          1.8983883090       -0.5847783071       -0.8549494652
 H          1.7783787845        2.0223729099        0.7379981541
 H          3.2783277516        1.2363396496        0.3540521166
 H          2.7606796258        1.3867658101       -2.0931851507
 H          2.9039396694        2.9385145412       -1.3082904387
 H          0.3159339714        2.8984383318       -1.0985464265
 H         -1.4454401999       -1.4544309748        0.7739852550
 H          0.2147280298       -1.9937849581        0.9347345963
 H          0.3129832735       -2.7356806804       -1.3105549436
 H         -1.4163523528       -2.8837861936       -1.1217467074
 H          1.6034800258        4.3342052600       -2.7162565020
 H          1.6085765784        3.0041430779       -3.8712841916
 H          0.0905430662        3.7748448920       -3.4271298428
 H          0.7862458521       -3.0502297364       -3.4669715525
 H          1.9208450068       -1.9520990347       -4.2495634031
 H          1.8909569856       -2.0529402907       -2.5020967290
 H          0.1346049641       -0.7983952320       -5.5223684596
 H         -1.0820518645       -1.8782517330       -4.8333820340
 H         -1.2708805702       -0.1265420546       -4.7057871214
 H         -0.3505816300        1.9724183854        0.8696218630
 H         -1.6418823225        0.8233811992        1.1698105125
 H         -0.1280570263        0.6883803894        2.0596833257
  42
    -0.032487 !GC
 C          0.0000000000        0.0000000000        0.0000000000
 C          1.5491341353        0.0000000000        0.0000000000
 C          2.2445202903        1.3605966466        0.0000000000
 C          2.2730103357        2.0420131407       -1.3606911467
 C          0.8983735627        2.4315918368       -1.9083888171
 C          0.1212064841        1.2051261963       -2.4275269067
 C         -0.6424898269        0.3267360665       -1.4010570761
 C         -0.4759321932       -1.4689376089        0.2678533020
 C         -0.5965171480       -2.1620888865       -1.0988042423
 C         -0.7938869527       -1.0403843508       -2.1539539051
 O          0.9289275824        0.3256566389       -3.2213590293
 C          0.2335662553       -0.9548894037       -3.3561185387
 H         -1.6321593264        0.7664264731       -1.2127278644
 H         -1.8056950134       -1.1121646137       -2.5769243374
 H         -0.6307144646        1.5876153891       -3.1383560293
 C          1.0540203950        3.4467817158       -3.0414502937
 C          1.2734499050       -2.0786341029       -3.3743061762
 C         -0.5325420038       -0.9537893380       -4.6843479090
 C         -0.5599111818        0.9286900539        1.0862088268
 H          1.8735454775       -0.5599292694        0.8858264932
 H          1.8986889849       -0.5846028086       -0.8548892638
 H          1.7788553223        2.0219318508        0.7388659220
 H          3.2786906992        1.2362250148        0.3530396996
 H          2.7616151808        1.3894139282       -2.0929041659
 H          2.9010790942        2.9408858257       -1.3070726464
 H          0.3129449948        2.8951532667       -1.0992314910
 H         -1.4440514251       -1.4525839381        0.7794273031
 H          0.2158875585       -1.9928853789        0.9357883624
 H          0.3044024850       -2.7439761187       -1.3060907962
 H         -1.4259197720       -2.8799775461       -1.1162819770
 H          1.5979122774        4.3344536688       -2.7154089441
 H          1.6067692332        3.0051757101       -3.8708652729
 H          0.0867611549        3.7720027351       -3.4272408453
 H          0.7989207242       -3.0561000661       -3.4541519857
 H          1.9381118501       -1.9567788382       -4.2283467866
 H          1.8936384335       -2.0559859276       -2.4809649727
 H         -1.2562013626       -0.1407432326       -4.7117332715
 H          0.1542401241       -0.8153107545       -5.5178739649
 H         -1.0652281291       -1.8931940658       -4.8300120914
 H         -1.6368344051        0.8303155539        1.1989380189
 H         -0.1257692593        0.6839013038        2.0570036121
 H         -0.3271564938        1.9689237423        0.8597528720
  42
    -0.032441 !GC
 C          0.0000000000        0.0000000000        0.0000000000
 C          1.5490748374        0.0000000000        0.0000000000
 C          2.2446126220        1.3604410643        0.0000000000
 C          2.2736911600        2.0410878089       -1.3609889913
 C          0.8994057813        2.4328747999       -1.9079642497
 C          0.1196591940        1.2080654127       -2.4269444477
 C         -0.6427458894        0.3280812373       -1.4006425958
 C         -0.4752458466       -1.4695282056        0.2657533033
 C         -0.5914158759       -2.1610649937       -1.1019792562
 C         -0.7950541401       -1.0383664392       -2.1548134296
 O          0.9246478370        0.3295876620       -3.2245132176
 C          0.2271478456       -0.9494916175       -3.3610951747
 H         -1.6322459018        0.7676337284       -1.2112306350
 H         -1.8085440711       -1.1112920954       -2.5733800483
 H         -0.6333689239        1.5927386205       -3.1353581852
 C          1.0566571117        3.4472161348       -3.0415936231
 C          1.2655667961       -2.0743986926       -3.3881100636
 C         -0.5454089695       -0.9425346531       -4.6856179127
 C         -0.5601240719        0.9272015933        1.0873342389
 H          1.8733950988       -0.5599217518        0.8858828754
 H          1.8985417349       -0.5847750548       -0.8549538965
 H          1.7786489896        2.0222136791        0.7382642317
 H          3.2785319905        1.2361440062        0.3536678493
 H          2.7608449392        1.3872043037       -2.0931692367
 H          2.9034054625        2.9389317170       -1.3080199499
 H          0.3151712754        2.8975290505       -1.0984715390
 H         -1.4448269689       -1.4546317066        0.7746697524
 H          0.2154238174       -1.9934497330        0.9350066802
 H          0.3136179397       -2.7364545719       -1.3098135601
 H         -1.4160575401       -2.8843642649       -1.1210594560
 H          1.5810140272        4.3546582843       -2.7356668748
 H          1.5905913396        3.0204409678       -3.8920355679
 H          0.0674030204        3.7441790984       -3.3884892532
 H          1.8925121682       -2.0527839415       -2.4994519509
 H          0.7890974007       -3.0512050577       -3.4649649294
 H          1.9238981554       -1.9527844513       -4.2469652539
 H         -1.2686333381       -0.1290356399       -4.7062886427
 H          0.1373087494       -0.8011206027       -5.5218769769
 H         -1.0792828690       -1.8809221951       -4.8325482851
 H         -0.3506086152        1.9727170083        0.8686979475
 H         -1.6421243823        0.8239558642        1.1689456899
 H         -0.1285123317        0.6891941635        2.0593633957
  42
    -0.032358 !GC
 C          0.0000000000        0.0000000000        0.0000000000
 C          1.5491462472        0.0000000000        0.0000000000
 C          2.2445426876        1.3604846969        0.0000000000
 C          2.2696119352        2.0442853035       -1.3595177719
 C          0.8935587368        2.4334242065       -1.9041512603
 C          0.1183496566        1.2072327449       -2.4267532847
 C         -0.6426604902        0.3234001442       -1.4028074735
 C         -0.4764237704       -1.4680246230        0.2714767561
 C         -0.5748992472       -2.1714201546       -1.0921000042
 C         -0.7879114914       -1.0602592595       -2.1556820697
 O          0.9287205949        0.3328078511       -3.2234356473
 C          0.2376498684       -0.9494250277       -3.3621866860
 H         -1.6350313767        0.7577571679       -1.2163522355
 H         -1.8012476100       -1.1451343561       -2.5723300902
 H         -0.6345038781        1.5902440812       -3.1361635372
 C          1.0464042894        3.4524394146       -3.0342483184
 C          1.2815578165       -2.0693149525       -3.3897517943
 C         -0.5335521164       -0.9444339189       -4.6874386924
 C         -0.5601840411        0.9315563470        1.0836388553
 H          1.8736071372       -0.5595668281        0.8859984493
 H          1.8986523395       -0.5848244312       -0.8547719660
 H          1.7809975107        2.0207008770        0.7411193020
 H          3.2794971759        1.2356370680        0.3502952785
 H          2.7576666136        1.3934491651       -2.0937549851
 H          2.8968403001        2.9437524859       -1.3053598167
 H          0.3082608969        2.8932969574       -1.0927283588
 H         -1.4529756665       -1.4496569627        0.7672355552
 H          0.2057375662       -1.9857758499        0.9545386032
 H          0.3392767532       -2.7356549917       -1.2899623731
 H         -1.3886789672       -2.9069603006       -1.1104218649
 H          1.6159008644        3.0453316936       -3.8712585280
 H          0.0894558806        3.8066000523       -3.4226992639
 H          1.5954786902        4.3151892123       -2.6583865545
 H          0.8100491313       -3.0481263915       -3.4708205420
 H          1.9417105852       -1.9419215719       -4.2464172902
 H          1.9059015905       -2.0474496972       -2.4993249367
 H         -1.0576865527       -1.8891570309       -4.8166535803
 H         -1.2768597482       -0.1480390141       -4.6986353804
 H          0.1361674983       -0.8180746586       -5.5374534416
 H         -0.3504736288        1.9761343600        0.8611454729
 H         -1.6421575772        0.8289555061        1.1654444238
 H         -0.1288927095        0.6971337271        2.0566562677
  42
    -0.032154 !GC
 C          0.0000000000        0.0000000000        0.0000000000
 C          1.5491674430        0.0000000000        0.0000000000
 C          2.2439463099        1.3608388586        0.0000000000
 C          2.2789354442        2.0375712615       -1.3626066217
 C          0.9074824854        2.4357505633       -1.9121796788
 C          0.1199344792        1.2152807833       -2.4298807074
 C         -0.6441400087        0.3384565976       -1.4020819207
 C         -0.4773736889       -1.4700578072        0.2591112892
 C         -0.6068251705       -2.1518497666       -1.1125239218
 C         -0.8037402069       -1.0212259258       -2.1583082232
 O          0.9169124865        0.3326503296       -3.2308872467
 C          0.2103593753       -0.9415228654       -3.3675625594
 H         -1.6303093579        0.7834650274       -1.2080982020
 H         -1.8180915492       -1.0835979872       -2.5765139159
 H         -0.6331337374        1.6043684866       -3.1358323651
 C          1.0724626505        3.4478990493       -3.0467353917
 C          1.2406444994       -2.0736633737       -3.4027999274
 C         -0.5681039524       -0.9253207384       -4.6886556905
 C         -0.5603442655        0.9223600920        1.0913650421
 H          1.8733359549       -0.5597957190        0.8860894460
 H          1.8991028964       -0.5847750921       -0.8547641327
 H          1.7747832245        2.0242905390        0.7346355135
 H          3.2762845778        1.2376183146        0.3584964938
 H          2.7631883403        1.3788105763       -2.0920968554
 H          2.9138396398        2.9317380134       -1.3110534153
 H          0.3255240216        2.9051566504       -1.1038583377
 H         -1.4425413048       -1.4558788010        0.7762557564
 H          0.2171744953       -2.0008522892        0.9188385508
 H          0.2911344397       -2.7355247657       -1.3281881832
 H         -1.4389774261       -2.8665125794       -1.1320567019
 H          1.6269096312        4.3316726653       -2.7263961593
 H          1.6214458836        2.9952931873       -3.8727399357
 H          0.1086454199        3.7750454258       -3.4396063595
 H          1.9049647263       -1.9572585707       -4.2577807547
 H          1.8670939321       -2.0594014766       -2.5137521395
 H          0.7516322197       -3.0449162194       -3.4694843180
 H         -1.2855499605       -0.1066448400       -4.7040959830
 H          0.1121490617       -0.7863397259       -5.5273452346
 H         -1.1092822479       -1.8593047515       -4.8363292899
 H         -0.3498912664        1.9687448106        0.8777456035
 H         -1.6423401577        0.8194697926        1.1720293999
 H         -0.1292238211        0.6796505443        2.0623510643
  42
    -0.032150 !GC
 C          0.0000000000        0.0000000000        0.0000000000
 C          1.5491245467        0.0000000000        0.0000000000
 C          2.2444657287        1.3606063123        0.0000000000
 C          2.2730038576        2.0418388159       -1.3607737967
 C          0.8984181246        2.4318580695       -1.9082380333
 C          0.1207859623        1.2057023847       -2.4274013541
 C         -0.6425576491        0.3269225134       -1.4009756801
 C         -0.4757841680       -1.4690527876        0.2675819032
 C         -0.5954478681       -2.1619137993       -1.0992918674
 C         -0.7940605847       -1.0401009362       -2.1540990259
 O          0.9280357426        0.3264417742       -3.2219413110
 C          0.2323389558       -0.9538475670       -3.3571064516
 H         -1.6322143300        0.7665641410       -1.2123873518
 H         -1.8062235377       -1.1121683306       -2.5761929125
 H         -0.6313630021        1.5885350158       -3.1377924770
 C          1.0541639112        3.4469869409       -3.0414066378
 C          1.2719476022       -2.0778095058       -3.3771564638
 C         -0.5352028420       -0.9516219211       -4.6845120688
 C         -0.5600430486        0.9284287028        1.0863603317
 H          1.8734980951       -0.5599183575        0.8858616047
 H          1.8986572716       -0.5846299007       -0.8548930112
 H          1.7787600380        2.0220010558        0.7387959374
 H          3.2786368700        1.2363498996        0.3530537568
 H          2.7614154611        1.3890678847       -2.0929656932
 H          2.9012713184        2.9405728807       -1.3072526010
 H          0.3133218305        2.8956767744       -1.0988982066
 H         -1.4443165315       -1.4528905601        0.7785146374
 H          0.2157658284       -1.9929371630        0.9359501536
 H          0.3062977674       -2.7425337004       -1.3066136238
 H         -1.4239240191       -2.8808899767       -1.1171129540
 H          0.0868161115        3.7726174889       -3.4269885754
 H          1.5983961008        4.3345499279       -2.7152287236
 H          1.6067195707        3.0052535220       -3.8709978905
 H          1.8934571987       -2.0552322048       -2.4847552658
 H          0.7966944401       -3.0550823121       -3.4562380541
 H          1.9355216079       -1.9563060207       -4.2319659199
 H          0.1369013226       -0.8310688868       -5.5333929710
 H         -1.0642029362       -1.8937326893       -4.8114572707
 H         -1.2741018101       -0.1509458379       -4.7001598691
 H         -0.3500714727        1.9736065694        0.8667965293
 H         -1.6420076219        0.8258504002        1.1680756512
 H         -0.1287456857        0.6912465369        2.0586359469
  42
    -0.031910 !GC
 C          0.0000000000        0.0000000000        0.0000000000
 C          1.5491203832        0.0000000000        0.0000000000
 C          2.2444998197        1.3605058569        0.0000000000
 C          2.2740645965        2.0412540067       -1.3610044112
 C          0.8999622923        2.4324882392       -1.9087760989
 C          0.1207624979        1.2072512457       -2.4275314196
 C         -0.6422683560        0.3276903140       -1.4014860002
 C         -0.4754612568       -1.4692743974        0.2668109131
 C         -0.5934215351       -2.1614372417       -1.1005122157
 C         -0.7955471525       -1.0390757182       -2.1540061289
 O          0.9266259224        0.3284631126       -3.2239945349
 C          0.2295481577       -0.9508650360       -3.3604092173
 H         -1.6317477870        0.7672787462       -1.2121004508
 H         -1.8085610043       -1.1114267823       -2.5738343002
 H         -0.6317898302        1.5911884047       -3.1368408377
 C          1.0575211924        3.4469576244       -3.0423072389
 C          1.2682788245       -2.0755176960       -3.3853219717
 C         -0.5411919030       -0.9450726367       -4.6859958407
 C         -0.5600364001        0.9279462119        1.0867778804
 H          1.8735563714       -0.5600357867        0.8857518467
 H          1.8986322148       -0.5845919048       -0.8549901231
 H          1.7781986031        2.0221874248        0.7381879175
 H          3.2782503378        1.2361007465        0.3541396012
 H          2.7619122856        1.3877495607       -2.0929382812
 H          2.9032448533        2.9393412537       -1.3074882291
 H          0.3155656221        2.8971262402       -1.0994062279
 H         -1.4445075602       -1.4537054632        0.7767389963
 H          0.2157736751       -1.9930828664        0.9356092978
 H          0.3102562045       -2.7389710113       -1.3081599910
 H         -1.4195408591       -2.8830755119       -1.1185199948
 H          0.0905280108        3.7736686727       -3.4284120159
 H          1.6029148130        4.3340658059       -2.7161039603
 H          1.6097762662        3.0039493647       -3.8714953568
 H          1.9416996550       -2.0020571221       -4.2373040935
 H          1.8494678081       -2.0717022738       -2.4624442346
 H          0.7667009512       -3.0396677105       -3.4195271575
 H         -1.2647783740       -0.1318626564       -4.7080144494
 H          0.1426262380       -0.8039626363       -5.5216426745
 H         -1.0745102627       -1.8837247568       -4.8329730484
 H         -1.6396022407        0.8265858540        1.1828081952
 H         -0.1276923010        0.6967417104        2.0602384522
 H         -0.3315876197        1.9692224262        0.8598824869
  42
    -0.031906 !GC
 C          0.0000000000        0.0000000000        0.0000000000
 C          1.5490531369        0.0000000000        0.0000000000
 C          2.2445163593        1.3604808826        0.0000000000
 C          2.2737046816        2.0410776052       -1.3610424137
 C          0.8995122329        2.4328209330       -1.9082273266
 C          0.1196868211        1.2080055765       -2.4270359884
 C         -0.6428013963        0.3282466874       -1.4005928423
 C         -0.4754467202       -1.4694893265        0.2657071969
 C         -0.5928069419       -2.1608651515       -1.1019779066
 C         -0.7955381236       -1.0381052040       -2.1548427844
 O          0.9245549412        0.3292872295       -3.2245039883
 C          0.2269465060       -0.9497453345       -3.3609208177
 H         -1.6321824224        0.7680334639       -1.2110607313
 H         -1.8090313647       -1.1104762134       -2.5735175161
 H         -0.6332803185        1.5926387493       -3.1355115232
 C          1.0569546767        3.4468666865       -3.0420983321
 C          1.2651607984       -2.0748645992       -3.3871394616
 C         -0.5451673283       -0.9430474627       -4.6856914874
 C         -0.5600157000        0.9271451465        1.0874631173
 H          1.8734022075       -0.5598934282        0.8858455454
 H          1.8984927292       -0.5847608987       -0.8549218270
 H          1.7784061733        2.0222991357        0.7380929706
 H          3.2783474326        1.2363081195        0.3538785417
 H          2.7609731551        1.3871396118       -2.0930731111
 H          2.9033971402        2.9389288973       -1.3080748388
 H          0.3152681252        2.8977324728       -1.0989452473
 H         -1.4447676043       -1.4544100018        0.7751658359
 H          0.2154463901       -1.9937202773        0.9345097838
 H          0.3112203176       -2.7373962782       -1.3101339758
 H         -1.4182405129       -2.8829843522       -1.1206877124
 H          1.6078565962        3.0511950067       -3.8976772182
 H          0.0781582614        3.7737428317       -3.3941263726
 H          1.5883393306        4.3305873284       -2.6878669408
 H          1.8913873544       -2.0534741564       -2.4980183194
 H          0.7886417408       -3.0515578707       -3.4644996573
 H          1.9241759612       -1.9532343812       -4.2454153030
 H         -1.2682450916       -0.1294591979       -4.7068301863
 H          0.1378022898       -0.8019667181       -5.5217682890
 H         -1.0791171618       -1.8813734957       -4.8325553643
 H         -0.3506738851        1.9727080166        0.8688346694
 H         -1.6419886346        0.8237902190        1.1693157856
 H         -0.1281933321        0.6891389573        2.0594077963
  42
    -0.031883 !GC
 C          0.0000000000        0.0000000000        0.0000000000
 C          1.5490463240        0.0000000000        0.0000000000
 C          2.2445193711        1.3605185103        0.0000000000
 C          2.2735561971        2.0413565701       -1.3609754589
 C          0.8992860382        2.4323645168       -1.9084850958
 C          0.1203360207        1.2069093927       -2.4271426577
 C         -0.6427481127        0.3278743785       -1.4006679316
 C         -0.4758230384       -1.4692240255        0.2665202626
 C         -0.5949937655       -2.1612080199       -1.1008346653
 C         -0.7953662811       -1.0386901477       -2.1544873983
 O          0.9263826187        0.3276659377       -3.2229569321
 C          0.2293108002       -0.9517634543       -3.3588412170
 H         -1.6321147023        0.7678514100       -1.2115522333
 H         -1.8081150820       -1.1104978021       -2.5750763736
 H         -0.6320429820        1.5906761646       -3.1367284924
 C          1.0562519441        3.4467631748       -3.0421064776
 C          1.2678549602       -2.0766384812       -3.3816409529
 C         -0.5402533135       -0.9470639575       -4.6850955082
 C         -0.5597902669        0.9277112385        1.0871205662
 H          1.8734216446       -0.5599351374        0.8858180071
 H          1.8986002156       -0.5846824959       -0.8549113017
 H          1.7785185553        2.0222291742        0.7382858073
 H          3.2784282886        1.2363553343        0.3537222780
 H          2.7614131734        1.3878774041       -2.0929619744
 H          2.9026795636        2.9395286730       -1.3076558413
 H          0.3146686988        2.8968960390       -1.0992031728
 H         -1.4445223952       -1.4535051738        0.7771596280
 H          0.2155867941       -1.9935979021        0.9347110379
 H          0.3076232293       -2.7403112073       -1.3091302934
 H         -1.4224183985       -2.8814347599       -1.1188819523
 H          0.0892697568        3.7731151585       -3.4279775913
 H          1.6013169096        4.3339835732       -2.7163890992
 H          1.6083368192        3.0040494228       -3.8714316740
 H          1.9687476555       -1.9549123036       -4.2090849877
 H          1.8524960389       -2.0293010417       -2.4647291398
 H          0.8115373101       -3.0625411907       -3.3994341722
 H         -1.0916260938       -1.8755283882       -4.8227125889
 H         -1.2691796457       -0.1393447347       -4.6827162837
 H          0.1301923746       -0.8033822731       -5.5328871940
 H         -0.3502274510        1.9731199220        0.8680837360
 H         -1.6417628586        0.8246255049        1.1690450356
 H         -0.1280115687        0.6900392886        2.0591405440
  42
    -0.031875 !GC
 C          0.0000000000        0.0000000000        0.0000000000
 C          1.5490565434        0.0000000000        0.0000000000
 C          2.2444363576        1.3605330100        0.0000000000
 C          2.2730331628        2.0416234371       -1.3607938701
 C          0.8986428262        2.4332594723       -1.9076385590
 C          0.1193967077        1.2082882395       -2.4269246507
 C         -0.6426403356        0.3275703132       -1.4009995395
 C         -0.4754676724       -1.4692484123        0.2666980033
 C         -0.5890011191       -2.1629078647       -1.1003188438
 C         -0.7942631005       -1.0423707321       -2.1552355841
 O          0.9251948411        0.3305359536       -3.2245209876
 C          0.2288438221       -0.9490978756       -3.3613668670
 H         -1.6325859138        0.7662494823       -1.2119009118
 H         -1.8077240929       -1.1172814560       -2.5735719987
 H         -0.6337365923        1.5926633597       -3.1353687282
 C          1.0554688711        3.4480783652       -3.0409242366
 C          1.2683200685       -2.0730229747       -3.3885057135
 C         -0.5433176312       -0.9424920321       -4.6861404731
 C         -0.5600905446        0.9278383998        1.0868735623
 H          1.8734264290       -0.5598232047        0.8859140196
 H          1.8986434362       -0.5847785282       -0.8548579346
 H          1.7786880874        2.0221226424        0.7385773553
 H          3.2784828582        1.2364115018        0.3533584689
 H          2.7603619221        1.3881575641       -2.0931668624
 H          2.9024468684        2.9396124612       -1.3075469966
 H          0.3143549931        2.8975216891       -1.0979791561
 H         -1.4460982184       -1.4537237483        0.7735765060
 H          0.2138313798       -1.9921977283        0.9381478620
 H          0.3173636119       -2.7367437817       -1.3065597974
 H         -1.4119470513       -2.8881591704       -1.1188250825
 H          0.0885981853        3.7749773243       -3.4263335928
 H          1.6009019432        4.3348594547       -2.7149708029
 H          1.6072108355        3.0057131618       -3.8705619049
 H          1.8887830566       -2.0646643138       -2.4956770681
 H          0.7918234174       -3.0493272126       -3.4695188833
 H          1.9149728294       -1.9551747856       -4.2573600766
 H         -1.2673145539       -0.1297713242       -4.7068738776
 H          0.1394125138       -0.8001772065       -5.5221425890
 H         -1.0762598470       -1.8812194521       -4.8335124302
 H         -0.1246113512        0.7087573666        2.0603378264
 H         -0.3238924891        1.9685110164        0.8612030310
 H         -1.6404238638        0.8260478154        1.1775218667
  42
    -0.031817 !GC
 C          0.0000000000        0.0000000000        0.0000000000
 C          1.5490671413        0.0000000000        0.0000000000
 C          2.2446131054        1.3604466597        0.0000000000
 C          2.2738294188        2.0410061277       -1.3610621349
 C          0.8996003541        2.4326088099       -1.9083069172
 C          0.1203484264        1.2074909411       -2.4272787272
 C         -0.6423346196        0.3277713637       -1.4009996819
 C         -0.4750777165       -1.4695160837        0.2659497540
 C         -0.5917124814       -2.1615976321       -1.1015483651
 C         -0.7946115702       -1.0392406709       -2.1549371238
 O          0.9256166560        0.3289398137       -3.2245460737
 C          0.2286761104       -0.9505040203       -3.3605858618
 H         -1.6319086214        0.7671826099       -1.2116428851
 H         -1.8079614988       -1.1119846386       -2.5738900490
 H         -0.6325739942        1.5919511822       -3.1359282402
 C          1.0568370214        3.4469631269       -3.0419641525
 C          1.2676427282       -2.0749183630       -3.3864305443
 C         -0.5429482661       -0.9441465518       -4.6856683231
 C         -0.5601309686        0.9272174909        1.0873148143
 H          1.8733886893       -0.5597382666        0.8859985058
 H          1.8988838558       -0.5847770789       -0.8547281181
 H          1.7785301149        2.0223241691        0.7381051336
 H          3.2785026946        1.2363825513        0.3538805763
 H          2.7613047160        1.3872385100       -2.0930504620
 H          2.9033641051        2.9389245960       -1.3078787602
 H          0.3151843468        2.8972826251       -1.0989346651
 H         -1.4445482441       -1.4540737558        0.7750958675
 H          0.2156137651       -1.9931015520        0.9354677162
 H          0.3127799920       -2.7378630861       -1.3092070668
 H         -1.4168320339       -2.8843487955       -1.1200326556
 H          0.0899958034        3.7739465393       -3.4276728290
 H          1.6023993523        4.3338148152       -2.7161742372
 H          1.6087033815        3.0041307769       -3.8713978315
 H          0.7917482918       -3.0518460213       -3.4642536848
 H          1.9270444489       -1.9527693299       -4.2443847268
 H          1.8933280428       -2.0533615555       -2.4969697937
 H          0.1399589934       -0.8019077865       -5.5216001696
 H         -1.0773066020       -1.8820569737       -4.8332809474
 H         -1.2656521382       -0.1301411417       -4.7062224582
 H         -1.6373421321        0.8228687958        1.1962624509
 H         -0.1280237000        0.6800876364        2.0580637732
 H         -0.3323985936        1.9695487727        0.8659943607
  42
    -0.031784 !GC
 C          0.0000000000        0.0000000000        0.0000000000
 C          1.5490567957        0.0000000000        0.0000000000
 C          2.2446153030        1.3604879992        0.0000000000
 C          2.2739880808        2.0411356203       -1.3610132743
 C          0.8998468266        2.4323966059       -1.9086829374
 C          0.1204262082        1.2071867887       -2.4271158568
 C         -0.6427077558        0.3281187291       -1.4006473403
 C         -0.4758194468       -1.4692712079        0.2662968957
 C         -0.5945556788       -2.1610666020       -1.1011229024
 C         -0.7956551027       -1.0384011587       -2.1544934556
 O          0.9257523453        0.3279661086       -3.2235962112
 C          0.2281201230       -0.9511183050       -3.3595954285
 H         -1.6319621090        0.7682924709       -1.2114147557
 H         -1.8086973420       -1.1101841302       -2.5743704596
 H         -0.6322015396        1.5913187290       -3.1362415368
 C          1.0572117391        3.4463758238       -3.0427055381
 C          1.2663231830       -2.0763001064       -3.3842270879
 C         -0.5424392735       -0.9453530395       -4.6852869061
 C         -0.5599417446        0.9273371389        1.0873585023
 H          1.8734609063       -0.5599932717        0.8857986828
 H          1.8985733421       -0.5846738381       -0.8549520105
 H          1.7786606355        2.0223152620        0.7381935656
 H          3.2784685266        1.2362599177        0.3538414640
 H          2.7617913960        1.3874969198       -2.0929323945
 H          2.9033155274        2.9392043798       -1.3076780425
 H          0.3153891263        2.8974066633       -1.0995574566
 H         -1.4447158612       -1.4536135233        0.7765275854
 H          0.2153711287       -1.9937652681        0.9346294749
 H          0.3086400678       -2.7392750267       -1.3089755127
 H         -1.4212384131       -2.8820640140       -1.1194345407
 H          0.0903488000        3.7727971172       -3.4288310269
 H          1.6024355823        4.3335936266       -2.7172796698
 H          1.6092891381        3.0032382841       -3.8718123316
 H          0.7900832548       -3.0529872054       -3.4623409906
 H          1.9266780422       -1.9546597318       -4.2415105810
 H          1.8912410835       -2.0549272274       -2.4942109993
 H         -1.0724872361       -1.8866955673       -4.8131450294
 H         -1.2806444512       -0.1441621853       -4.6975815335
 H          0.1276988218       -0.8234919009       -5.5354411798
 H         -0.1261031207        0.7132915818        2.0625872859
 H         -0.3219668642        1.9667593367        0.8561526530
 H         -1.6401094506        0.8274951392        1.1769747031
  42
    -0.031729 !GC
 C          0.0000000000        0.0000000000        0.0000000000
 C          1.5490619685        0.0000000000        0.0000000000
 C          2.2445673688        1.3604961620        0.0000000000
 C          2.2735024065        2.0413146026       -1.3609575287
 C          0.8991535207        2.4325332615       -1.9081460858
 C          0.1200640876        1.2072899268       -2.4270941512
 C         -0.6426737938        0.3277689035       -1.4007242239
 C         -0.4754491481       -1.4693906874        0.2661705615
 C         -0.5930925208       -2.1612797312       -1.1013185772
 C         -0.7949538921       -1.0387665557       -2.1546835362
 O          0.9258471225        0.3284404477       -3.2235416107
 C          0.2287846889       -0.9509426983       -3.3597406265
 H         -1.6321595022        0.7674462712       -1.2115538815
 H         -1.8079755415       -1.1112297770       -2.5744808135
 H         -0.6325538233        1.5913681122       -3.1362674336
 C          1.0561033178        3.4469221002       -3.0417454655
 C          1.2674033675       -2.0757059607       -3.3841535980
 C         -0.5420081768       -0.9454514597       -4.6852773952
 C         -0.5599741700        0.9275671715        1.0871220665
 H          1.8734094078       -0.5599235778        0.8858558345
 H          1.8985938057       -0.5847161961       -0.8549369553
 H          1.7786226589        2.0221975540        0.7383321486
 H          3.2785145682        1.2362460473        0.3535904189
 H          2.7610522946        1.3876841083       -2.0930766098
 H          2.9028468741        2.9393917116       -1.3078395083
 H          0.3145974354        2.8969357721       -1.0987445084
 H         -1.4445869933       -1.4540738090        0.7759507111
 H          0.2155905026       -1.9934442050        0.9349289888
 H          0.3106708106       -2.7386660827       -1.3093731138
 H         -1.4192230129       -2.8829506890       -1.1198335802
 H          1.5799703856        4.3546197232       -2.7356996085
 H          1.5904183145        3.0204229512       -3.8920805774
 H          0.0667811368        3.7434296244       -3.3888031745
 H          0.7914069099       -3.0525989321       -3.4622328983
 H          1.9276792541       -1.9538372853       -4.2415422548
 H          1.8922944140       -2.0540831948       -2.4940835226
 H         -1.0933564683       -1.8739151061       -4.8229878701
 H         -1.2710537124       -0.1378399349       -4.6817141446
 H          0.1276480365       -0.8010429552       -5.5336019981
 H         -0.3503787478        1.9729999631        0.8682240177
 H         -1.6419712387        0.8244595439        1.1688128790
 H         -0.1283321154        0.6897753771        2.0591780892
  42
    -0.031672 !GC
 C          0.0000000000        0.0000000000        0.0000000000
 C          1.5492620673        0.0000000000        0.0000000000
 C          2.2427512173        1.3615333691        0.0000000000
 C          2.2888996627        2.0301654005       -1.3658518531
 C          0.9225871492        2.4414717104       -1.9185997760
 C          0.1195943109        1.2295965500       -2.4338789927
 C         -0.6466408943        0.3572909373       -1.4036284440
 C         -0.4806708434       -1.4715238998        0.2441553712
 C         -0.6333628606       -2.1326917947       -1.1357111472
 C         -0.8191533497       -0.9862224273       -2.1663630094
 O          0.9005309404        0.3408101778       -3.2438350616
 C          0.1765392837       -0.9234999014       -3.3811407434
 H         -1.6267590853        0.8115800329       -1.2008770084
 H         -1.8353760779       -1.0296217877       -2.5823952408
 H         -0.6345050937        1.6285465899       -3.1332661827
 C          1.1002673580        3.4490824742       -3.0553018983
 C          1.1912109960       -2.0689228521       -3.4346205836
 C         -0.6156101340       -0.8888359093       -4.6937838693
 C         -0.5608143053        0.9123843744        1.0995604880
 H          1.8728096471       -0.5583760991        0.8872547735
 H          1.9002352699       -0.5852651831       -0.8539295635
 H          1.7665386535        2.0285690609        0.7269136855
 H          3.2720952860        1.2410814711        0.3682699808
 H          2.7666890564        1.3617972480       -2.0907972640
 H          2.9339076410        2.9172246041       -1.3174731766
 H          0.3455033358        2.9195547344       -1.1116212394
 H         -1.4378205550       -1.4606044315        0.7761520674
 H          0.2209148496       -2.0157306837        0.8852170192
 H          0.2523315759       -2.7290636241       -1.3663921838
 H         -1.4777031742       -2.8328550337       -1.1572605418
 H          1.6405684724        2.9906207668       -3.8840692184
 H          0.1381365649        3.7842734134       -3.4449823897
 H          1.6579241055        4.3308375924       -2.7352724325
 H          0.6936681191       -3.0349638750       -3.5135265614
 H          1.8385632306       -1.9522804916       -4.3025554377
 H          1.8321810841       -2.0690602167       -2.5558205069
 H         -1.3225200584       -0.0608978398       -4.6967164697
 H          0.0575491215       -0.7535616350       -5.5387459566
 H         -1.1704834923       -1.8148263142       -4.8415015376
 H         -0.1290685220        0.6768577834        2.0706810691
 H         -0.3391602475        1.9591588571        0.8922536495
 H         -1.6435195332        0.8114381633        1.1714789683
  42
    -0.031662 !GC
 C          0.0000000000        0.0000000000        0.0000000000
 C          1.5490567957        0.0000000000        0.0000000000
 C          2.2444918510        1.3604770026        0.0000000000
 C          2.2737847615        2.0412208596       -1.3609414664
 C          0.8996417856        2.4320814621       -1.9088619770
 C          0.1204799973        1.2065922538       -2.4271755603
 C         -0.6429599729        0.3279149270       -1.4005645696
 C         -0.4761079693       -1.4690389155        0.2670579597
 C         -0.5969652135       -2.1610513625       -1.1001234680
 C         -0.7959630333       -1.0386333927       -2.1541940116
 O          0.9263107081        0.3270837523       -3.2227950870
 C          0.2292747333       -0.9523747686       -3.3581818259
 H         -1.6321338924        0.7683230755       -1.2114290922
 H         -1.8085569725       -1.1098343312       -2.5752511594
 H         -0.6318448041        1.5903557883       -3.1368131589
 C          1.0570005593        3.4460492558       -3.0429128289
 C          1.2679116298       -2.0772064104       -3.3801183252
 C         -0.5397202938       -0.9485043842       -4.6847758466
 C         -0.5598748662        0.9278546410        1.0870149978
 H          1.8734709789       -0.5599337926        0.8858177500
 H          1.8985275347       -0.5846513264       -0.8549698379
 H          1.7784805352        2.0222258948        0.7382574580
 H          3.2783761767        1.2362482685        0.3537938834
 H          2.7619498512        1.3878495995       -2.0928368272
 H          2.9027349550        2.9395251021       -1.3074363352
 H          0.3149523447        2.8970947391       -1.0999080236
 H         -1.4441137678       -1.4532080058        0.7789707077
 H          0.2160220299       -1.9936973883        0.9342873329
 H          0.3045259759       -2.7418454692       -1.3082954228
 H         -1.4255485756       -2.8799020990       -1.1175977176
 H          1.6262527935        3.0332988164       -3.8771977543
 H          0.1019762349        3.8018152728       -3.4345754666
 H          1.6088461600        4.3083126927       -2.6701750682
 H          0.7921279580       -3.0540976727       -3.4591927063
 H          1.9301318859       -1.9554778008       -4.2360128716
 H          1.8908225792       -2.0554691635       -2.4886781604
 H          0.1457443405       -0.8317838742       -5.5214308287
 H         -1.0516684153       -1.8998326247       -4.8206887441
 H         -1.2719244777       -0.1416522303       -4.7252127482
 H         -0.3504660052        1.9732899807        0.8676881154
 H         -1.6418219847        0.8247621195        1.1688946980
 H         -0.1280306883        0.6904439420        2.0590833099
  42
    -0.031624 !GC
 C          0.0000000000        0.0000000000        0.0000000000
 C          1.5490565434        0.0000000000        0.0000000000
 C          2.2445828823        1.3604066736        0.0000000000
 C          2.2741770884        2.0406483307       -1.3611863162
 C          0.9001652104        2.4326005793       -1.9087102463
 C          0.1197798340        1.2079348151       -2.4270576005
 C         -0.6428995356        0.3284815367       -1.4004909597
 C         -0.4755577344       -1.4694019668        0.2659037750
 C         -0.5919542471       -2.1608205714       -1.1019057145
 C         -0.7960700472       -1.0380086385       -2.1545129011
 O          0.9241789317        0.3289254811       -3.2246817640
 C          0.2255035619       -0.9494911598       -3.3613492995
 H         -1.6321624101        0.7685237026       -1.2109670869
 H         -1.8097946742       -1.1108094772       -2.5725504572
 H         -0.6332874071        1.5927573018       -3.1353411972
 C          1.0582346627        3.4462247986       -3.0429106956
 C          1.2628467047       -2.0753674357       -3.3894349687
 C         -0.5480180579       -0.9412543004       -4.6853247125
 C         -0.5599438008        0.9272094762        1.0874360332
 H          1.8734332740       -0.5598837482        0.8858741894
 H          1.8985438781       -0.5848236451       -0.8549160156
 H          1.7783046600        2.0223519688        0.7379176442
 H          3.2783247140        1.2362268826        0.3542271790
 H          2.7614627239        1.3865025036       -2.0929690497
 H          2.9039970584        2.9383655664       -1.3081974350
 H          0.3160803138        2.8981973552       -1.0996546870
 H         -1.4450578103       -1.4543585100        0.7749957935
 H          0.2151688977       -1.9934839645        0.9350571524
 H          0.3130987726       -2.7360217891       -1.3102759012
 H         -1.4165466527       -2.8842064237       -1.1209204844
 H          0.0916402187        3.7733974597       -3.4289341505
 H          1.6042040083        4.3330811797       -2.7176717789
 H          1.6099828566        3.0024552794       -3.8719342776
 H          1.8904323255       -2.0546724494       -2.5011804131
 H          0.7853544522       -3.0517047790       -3.4663432112
 H          1.9206607624       -1.9540938440       -4.2487526466
 H         -1.0785750302       -1.8823320038       -4.8136814423
 H         -1.2860755982       -0.1397606429       -4.6946363711
 H          0.1204898084       -0.8180136147       -5.5367082117
 H         -0.3510608704        1.9727890775        0.8685675400
 H         -1.6418548937        0.8234630969        1.1696136299
 H         -0.1277912348        0.6895591684        2.0593098564
  42
    -0.031528 !GC
 C          0.0000000000        0.0000000000        0.0000000000
 C          1.5491184907        0.0000000000        0.0000000000
 C          2.2443657940        1.3606259488        0.0000000000
 C          2.2727273128        2.0418948475       -1.3607714046
 C          0.8981056832        2.4325488425       -1.9076955002
 C          0.1199296618        1.2068500019       -2.4271158745
 C         -0.6427951818        0.3273914715       -1.4007782882
 C         -0.4755281117       -1.4692516749        0.2669428440
 C         -0.5939050410       -2.1615966456       -1.1002956079
 C         -0.7942300445       -1.0394165257       -2.1543672593
 O          0.9266705701        0.3281353358       -3.2227494863
 C          0.2308850114       -0.9520495786       -3.3583668034
 H         -1.6325341114        0.7666779158       -1.2118031386
 H         -1.8068081527       -1.1119163904       -2.5753820938
 H         -0.6326205685        1.5902024350       -3.1368092117
 C          1.0539608900        3.4480869150       -3.0404540716
 C          1.2705440117       -2.0759200995       -3.3803021552
 C         -0.5380837022       -0.9487004241       -4.6849483295
 C         -0.5600104166        0.9280304160        1.0866596713
 H          1.8734446180       -0.5598349521        0.8859298033
 H          1.8986786129       -0.5847104432       -0.8548454367
 H          1.7785804149        2.0219451921        0.7388383555
 H          3.2785525515        1.2363711724        0.3530384587
 H          2.7605680587        1.3889150222       -2.0931658863
 H          2.9013915948        2.9403570719       -1.3074600293
 H          0.3134143124        2.8962174990       -1.0979730379
 H         -1.4444059094       -1.4536694788        0.7772588500
 H          0.2158143884       -1.9930825548        0.9355973929
 H          0.3088756878       -2.7405334000       -1.3080385335
 H         -1.4212342676       -2.8819075482       -1.1186118885
 H          0.0866541678        3.7743440759       -3.4254990359
 H          1.5987558783        4.3352483966       -2.7140795605
 H          1.6059794023        3.0064647289       -3.8704504367
 H          1.9326429611       -1.9538531238       -4.2362442844
 H          1.8935439985       -2.0530263288       -2.4887339339
 H          0.7957954664       -3.0533924059       -3.4590357334
 H          0.1332912604       -0.8273194003       -5.5344205253
 H         -1.0671460931       -1.8908693358       -4.8121644449
 H         -1.2771356928       -0.1479772232       -4.6990534817
 H         -0.3500467521        1.9732801457        0.8673980858
 H         -1.6421431708        0.8254781069        1.1680208888
 H         -0.1288458493        0.6903478089        2.0590201807
  42
    -0.028961 !GC
 C          0.0000000000        0.0000000000        0.0000000000
 C          1.5490585620        0.0000000000        0.0000000000
 C          2.2462775430        1.3595393912        0.0000000000
 C          2.2910887240        2.0290747549       -1.3660038705
 C          0.9236279212        2.4279806661       -1.9235800005
 C          0.1287992483        1.2065870652       -2.4275873075
 C         -0.6453326730        0.3489388290       -1.3915558366
 C         -0.4696040554       -1.4761224985        0.2448493015
 C         -0.6871818761       -2.1143659180       -1.1348404266
 C         -0.8272721748       -0.9461053551       -2.1452836075
 O          0.9148551801        0.3062525970       -3.2197016422
 C          0.1897762099       -0.9596190605       -3.3442725740
 H         -1.6206277350        0.8145160816       -1.1912062663
 H         -1.8360392232       -0.9587301034       -2.5811432885
 H         -0.6208358237        1.5946311173       -3.1380204633
 C          1.0958506786        3.4261073941       -3.0693848042
 C          1.2023346181       -2.1080001114       -3.3469159333
 C         -0.5730748626       -0.9538517429       -4.6742318070
 C         -0.5590752804        0.9100572970        1.1018879943
 H          1.8722927747       -0.5612845352        0.8854715357
 H          1.8985065120       -0.5843792526       -0.8554650851
 H          1.7726241621        2.0271135964        0.7280612006
 H          3.2760979533        1.2363569088        0.3658799501
 H          2.7774573369        1.3655430013       -2.0899046325
 H          2.9278010910        2.9220972586       -1.3157430981
 H          0.3427238026        2.9100423900       -1.1217407476
 H         -1.3986530588       -1.4771042984        0.8247193025
 H          0.2652528129       -2.0281796056        0.8403172279
 H          0.1565481962       -2.7597903473       -1.3910212515
 H         -1.5743919541       -2.7595207246       -1.1450879457
 H          0.1338976871        3.7601428038       -3.4613407580
 H          1.6516734701        4.3101253612       -2.7534554557
 H          1.6436951932        2.9659970697       -3.8920835608
 H          0.7041721601       -3.0741358287       -3.4182587302
 H          1.8719043395       -2.0119500907       -4.2002932756
 H          1.8203617188       -2.0905488103       -2.4519804879
 H          0.1198567479       -0.8632832274       -5.5080089738
 H         -1.1052151180       -1.8951466718       -4.8021497925
 H         -1.2863686777       -0.1310900577       -4.7288296516
 H         -1.6355897994        0.8016452230        1.2134601795
 H         -0.1229881054        0.6500629914        2.0676044807
 H         -0.3344307591        1.9557769585        0.8935602083
  42
    -0.012143 !GC
 C          0.0000000000        0.0000000000        0.0000000000
 C          1.5490911128        0.0000000000        0.0000000000
 C          2.2462492151        1.3595643716        0.0000000000
 C          2.2898509691        2.0299196862       -1.3656647261
 C          0.9217991628        2.4278610003       -1.9225768898
 C          0.1284810497        1.2059361331       -2.4277660893
 C         -0.6450772418        0.3471899488       -1.3922913821
 C         -0.4699844047       -1.4755821004        0.2469652606
 C         -0.6813783821       -2.1178581631       -1.1319546325
 C         -0.8250568171       -0.9525697722       -2.1454325908
 O          0.9161044645        0.3066724115       -3.2196003895
 C          0.1930300052       -0.9603098344       -3.3443954574
 H         -1.6213647814        0.8111191142       -1.1929439629
 H         -1.8339992856       -0.9691175167       -2.5807756433
 H         -0.6211535702        1.5934265400       -3.1384920547
 C          1.0925614118        3.4274829557       -3.0672447063
 C          1.2074070840       -2.1071894781       -3.3471981165
 C         -0.5697306270       -0.9555600868       -4.6744088400
 C         -0.5590271568        0.9117594586        1.1005001769
 H          1.8723625477       -0.5610856998        0.8855817678
 H          1.8985769248       -0.5844836397       -0.8553805569
 H          1.7732219983        2.0267374437        0.7288511285
 H          3.2763958547        1.2363003032        0.3649359251
 H          2.7766614572        1.3672865913       -2.0900704430
 H          2.9256916101        2.9235387054       -1.3150599995
 H          0.3404465817        2.9082539742       -1.1200493158
 H         -1.4016772434       -1.4750988425        0.8225601281
 H          0.2622656639       -2.0257164520        0.8473967826
 H          0.1662049127       -2.7595016579       -1.3848343455
 H         -1.5651513479       -2.7676989032       -1.1428048023
 H          1.6405119730        3.0151147449       -3.9169670508
 H          0.1182539536        3.7610229412       -3.4255776328
 H          1.6335319507        4.3091144527       -2.7224669529
 H          1.9059845308       -2.0100378385       -4.1800703003
 H          1.7892425162       -2.0615581772       -2.4285699790
 H          0.7358241032       -3.0849726464       -3.3745956031
 H          0.1232663518       -0.8637032973       -5.5080216777
 H         -1.1003224263       -1.8977501412       -4.8026155004
 H         -1.2844237444       -0.1339343163       -4.7290429047
 H         -0.3527817357        1.9606828383        0.8950779358
 H         -1.6406764858        0.8046728493        1.1833572156
 H         -0.1237371766        0.6618122319        2.0679371430
  42
    -0.011192 !GC
 C          0.0000000000        0.0000000000        0.0000000000
 C          1.5490749636        0.0000000000        0.0000000000
 C          2.2446678000        1.3604046985        0.0000000000
 C          2.2738950253        2.0411959547       -1.3609059054
 C          0.8996787873        2.4317601661       -1.9088917221
 C          0.1208934821        1.2060994429       -2.4273771742
 C         -0.6425819030        0.3274524807       -1.4008088766
 C         -0.4758347148       -1.4691511765        0.2669784987
 C         -0.5959895648       -2.1614294821       -1.1001441463
 C         -0.7952339972       -1.0391728485       -2.1543396949
 O          0.9270913065        0.3265966861       -3.2226588092
 C          0.2302445750       -0.9529585137       -3.3580923987
 H         -1.6319135827        0.7676344106       -1.2119971321
 H         -1.8077229977       -1.1107004847       -2.5755937776
 H         -0.6312837591        1.5897021098       -3.1372567569
 C          1.0568220978        3.4458768237       -3.0428316783
 C          1.2689366679       -2.0777595166       -3.3796525183
 C         -0.5385301318       -0.9492407405       -4.6848310232
 C         -0.5599721491        0.9279611353        1.0868410087
 H          1.8734926443       -0.5600286149        0.8857685556
 H          1.8985702098       -0.5846163922       -0.8549799981
 H          1.7788992859        2.0221639209        0.7383716465
 H          3.2785840639        1.2360528065        0.3536223369
 H          2.7622329858        1.3879328298       -2.0928094819
 H          2.9027239121        2.9396039951       -1.3073165203
 H          0.3148355716        2.8965232169       -1.0999097653
 H         -1.4441452203       -1.4532479559        0.7783305032
 H          0.2159767742       -1.9935603162        0.9347379269
 H          0.3058888928       -2.7416731524       -1.3081576962
 H         -1.4241994858       -2.8807026759       -1.1177552568
 H          0.0898869062        3.7720174582       -3.4290483270
 H          1.6016667533        4.3332824156       -2.7172286692
 H          1.6092403727        3.0030260224       -3.8718898434
 H          1.9416585038       -2.0083003231       -4.2321943071
 H          1.8416518018       -2.0764072317       -2.4514593851
 H          0.7689377128       -3.0423636339       -3.4183074265
 H          0.1468963315       -0.8322620103       -5.5213522662
 H         -1.0500897681       -1.9006345315       -4.8209038100
 H         -1.2709554531       -0.1427525873       -4.7254253039
 H         -1.6368360956        0.8289930174        1.1999169114
 H         -0.1251883253        0.6829792331        2.0572190158
 H         -0.3280066018        1.9684018865        0.8607484738
  42
    -0.011124 !GC
 C          0.0000000000        0.0000000000        0.0000000000
 C          1.5491475088        0.0000000000        0.0000000000
 C          2.2444669913        1.3605822637        0.0000000000
 C          2.2764969592        2.0394364949       -1.3617617773
 C          0.9036244441        2.4338929679       -1.9105251767
 C          0.1207559304        1.2109340519       -2.4291961851
 C         -0.6430424401        0.3329719848       -1.4023003425
 C         -0.4763053443       -1.4695452907        0.2639845460
 C         -0.5994394001       -2.1577411473       -1.1049365367
 C         -0.7992242625       -1.0321816671       -2.1555675540
 O          0.9228967384        0.3300686214       -3.2270229146
 C          0.2214773442       -0.9469476046       -3.3637797328
 H         -1.6309372444        0.7754813750       -1.2112876625
 H         -1.8128925509       -1.1001595016       -2.5745643326
 H         -0.6316230137        1.5971431410       -3.1374125245
 C          1.0648009459        3.4476515495       -3.0441904250
 C          1.2560491380       -2.0753208144       -3.3927872182
 C         -0.5519311280       -0.9361371271       -4.6878642478
 C         -0.5601550906        0.9256893657        1.0886790935
 H          1.8734656388       -0.5600731070        0.8857837548
 H          1.8987577373       -0.5846621829       -0.8549279683
 H          1.7773344628        2.0232348436        0.7367458999
 H          3.2776478458        1.2364853184        0.3557657487
 H          2.7626110860        1.3831735373       -2.0924554273
 H          2.9085410402        2.9355922620       -1.3093344150
 H          0.3200999628        2.9005174691       -1.1017248408
 H         -1.4435365537       -1.4545354645        0.7773113304
 H          0.2165780058       -1.9961536913        0.9288960198
 H          0.3016152381       -2.7381641124       -1.3161883226
 H         -1.4283770816       -2.8761622542       -1.1234126170
 H          0.0990293137        3.7770845364       -3.4306801814
 H          1.6126077148        4.3330323536       -2.7177585529
 H          1.6162802992        3.0030210804       -3.8730462196
 H          1.8793773548       -2.0681050831       -2.5013464038
 H          0.7677882135       -3.0466930399       -3.4632508361
 H          1.9129493943       -1.9602252687       -4.2537155830
 H         -1.1055367258       -1.8630881839       -4.8262728928
 H         -1.2781522125       -0.1258931030       -4.6804964090
 H          0.1154960034       -0.7944687204       -5.5384520423
 H         -0.1265935805        0.7035715110        2.0621854463
 H         -0.3402829384        1.9699906428        0.8673333304
 H         -1.6426690002        0.8242141894        1.1635702563
  42
    -0.011023 !GC
 C          0.0000000000        0.0000000000        0.0000000000
 C          1.5490795055        0.0000000000        0.0000000000
 C          2.2446413328        1.3604304724        0.0000000000
 C          2.2740727425        2.0409873430       -1.3610322754
 C          0.8999218262        2.4319043665       -1.9089866927
 C          0.1207130516        1.2064658666       -2.4273386466
 C         -0.6426289837        0.3276813419       -1.4007721477
 C         -0.4758145887       -1.4691640499        0.2667745925
 C         -0.5944683922       -2.1613660325       -1.1004678628
 C         -0.7953777050       -1.0390450422       -2.1542424155
 O          0.9263047989        0.3269814809       -3.2232890579
 C          0.2286649518       -0.9521291800       -3.3591352506
 H         -1.6319305935        0.7678676920       -1.2118132084
 H         -1.8083128970       -1.1110170824       -2.5743518539
 H         -0.6317128276        1.5903795434       -3.1367876478
 C          1.0572996548        3.4457855729       -3.0430692691
 C          1.2667530106       -2.0774425558       -3.3831281626
 C         -0.5416516334       -0.9467168168       -4.6849742814
 C         -0.5599365487        0.9277734254        1.0870110380
 H          1.8735129789       -0.5600403603        0.8857534700
 H          1.8985361199       -0.5846377473       -0.8550024790
 H          1.7786710434        2.0222838068        0.7381655718
 H          3.2784860557        1.2361872908        0.3538782514
 H          2.7621294651        1.3874073160       -2.0928325825
 H          2.9031834313        2.9392032049       -1.3076481861
 H          0.3152552486        2.8969144330       -1.1000169455
 H         -1.4446780048       -1.4534016856        0.7770744639
 H          0.2154198485       -1.9934092375        0.9352644968
 H          0.3086428673       -2.7397545772       -1.3082394739
 H         -1.4212902634       -2.8822092347       -1.1185675497
 H          1.6024291201        4.3331196676       -2.7175549221
 H          1.6097058132        3.0026379311       -3.8720040944
 H          0.0906075463        3.7721131715       -3.4293875606
 H          1.9376061381       -2.0080775912       -4.2371626745
 H          1.8414912733       -2.0764959353       -2.4561829197
 H          0.7662887476       -3.0418419501       -3.4208877268
 H         -1.0716681024       -1.8880941741       -4.8127021668
 H         -1.2798510938       -0.1455221717       -4.6976064947
 H          0.1286441757       -0.8250511446       -5.5350315653
 H         -0.3507231667        1.9732567525        0.8677157007
 H         -1.6417395148        0.8242358930        1.1693793256
 H         -0.1277268205        0.6905956283        2.0589038475
  42
    -0.010951 !GC
 C          0.0000000000        0.0000000000        0.0000000000
 C          1.5490773607        0.0000000000        0.0000000000
 C          2.2446440323        1.3604543517        0.0000000000
 C          2.2743690306        2.0407750600       -1.3611876910
 C          0.9003796599        2.4326957174       -1.9087268985
 C          0.1202860751        1.2078058519       -2.4270004601
 C         -0.6428693095        0.3291352025       -1.4002135666
 C         -0.4753492640       -1.4696254841        0.2652650665
 C         -0.5966600601       -2.1589976808       -1.1030709665
 C         -0.7965311329       -1.0341627911       -2.1542642004
 O          0.9248415271        0.3281245660       -3.2237669460
 C          0.2264680636       -0.9506432810       -3.3594066492
 H         -1.6317155998        0.7699437340       -1.2103656743
 H         -1.8095863329       -1.1041025071       -2.5744295010
 H         -0.6323787680        1.5923167754       -3.1358960550
 C          1.0579519024        3.4467232799       -3.0426208157
 C          1.2640172857       -2.0764257836       -3.3836355498
 C         -0.5442489645       -0.9448750818       -4.6850042888
 C         -0.5597548885        0.9268003467        1.0879229104
 H          1.8734107066       -0.5600136522        0.8858271799
 H          1.8985732549       -0.5847364651       -0.8549644042
 H          1.7783675538        2.0224865069        0.7379174323
 H          3.2784533880        1.2362434726        0.3541719836
 H          2.7617426155        1.3867028550       -2.0930103468
 H          2.9041753849        2.9385041836       -1.3080790541
 H          0.3162344979        2.8978864108       -1.0994644563
 H         -1.4427864035       -1.4551952912        0.7778999375
 H          0.2175045038       -1.9949469704        0.9309080600
 H          0.3053248122       -2.7384351077       -1.3130914217
 H         -1.4247907930       -2.8783488140       -1.1216368128
 H          1.6099990595        3.0035228649       -3.8717152994
 H          0.0915737092        3.7743775776       -3.4287265439
 H          1.6041660799        4.3330557491       -2.7168016574
 H          1.8754990161       -2.1012250499       -2.4817931832
 H          0.7391850193       -3.0290280541       -3.4664605051
 H          1.9057494973       -2.0061824925       -4.2563715335
 H          0.1252021705       -0.8244279979       -5.5359986943
 H         -1.0747882153       -1.8863790470       -4.8107796297
 H         -1.2829099323       -0.1439340102       -4.6974564660
 H         -0.3500465280        1.9724450154        0.8696981149
 H         -1.6418065361        0.8236923372        1.1698126001
 H         -0.1279990904        0.6882943948        2.0597743673
  42
    -0.010934 !GC
 C          0.0000000000        0.0000000000        0.0000000000
 C          1.5491290887        0.0000000000        0.0000000000
 C          2.2444450827        1.3606194678        0.0000000000
 C          2.2729981767        2.0417812565       -1.3608184775
 C          0.8984180306        2.4318804705       -1.9082510546
 C          0.1205961159        1.2058562267       -2.4273760843
 C         -0.6426080019        0.3270727627       -1.4008951574
 C         -0.4756350918       -1.4691242648        0.2674219439
 C         -0.5950367573       -2.1619208021       -1.0995284179
 C         -0.7940632896       -1.0399310657       -2.1540601317
 O          0.9278403355        0.3266530102       -3.2219733609
 C          0.2320325518       -0.9535554599       -3.3573166364
 H         -1.6323224457        0.7665308480       -1.2122513046
 H         -1.8063157925       -1.1122516412       -2.5758814266
 H         -0.6315405769        1.5888328522       -3.1376743679
 C          1.0544827462        3.4470712734       -3.0413073515
 C          1.2717457938       -2.0774053568       -3.3777194104
 C         -0.5359559760       -0.9511703268       -4.6844691040
 C         -0.5600500656        0.9282055510        1.0865402570
 H          1.8734465374       -0.5598527078        0.8859073868
 H          1.8987865179       -0.5846790149       -0.8548064863
 H          1.7786858947        2.0219774106        0.7387839324
 H          3.2785799473        1.2363759435        0.3531488190
 H          2.7613506964        1.3888856339       -2.0929499336
 H          2.9013676736        2.9404601797       -1.3073829624
 H          0.3134703919        2.8956579022       -1.0987921465
 H         -1.4442125313       -1.4531346980        0.7783114389
 H          0.2159095678       -1.9931161453        0.9357565099
 H          0.3069439509       -2.7421295700       -1.3071153656
 H         -1.4232803412       -2.8811790577       -1.1174912578
 H          1.5989528359        4.3345484100       -2.7152278919
 H          1.6068366766        3.0051554129       -3.8709092486
 H          0.0872823563        3.7727808578       -3.4268953066
 H          1.9348987379       -1.9557316564       -4.2328112774
 H          1.8935927607       -2.0545901194       -2.4854439557
 H          0.7969328427       -3.0547648192       -3.4568395177
 H         -1.2594764270       -0.1380874708       -4.7100183005
 H          0.1494298368       -0.8119255409       -5.5187998983
 H         -1.0689643876       -1.8901803868       -4.8302721071
 H         -1.6369072565        0.8294268250        1.1992060378
 H         -0.1259034881        0.6831128752        2.0572108873
 H         -0.3276586930        1.9686104162        0.8605928270
  42
    -0.010894 !GC
 C          0.0000000000        0.0000000000        0.0000000000
 C          1.5491144534        0.0000000000        0.0000000000
 C          2.2442711838        1.3607016945        0.0000000000
 C          2.2721342530        2.0424162441       -1.3605638611
 C          0.8972178066        2.4321375113       -1.9074490309
 C          0.1200951606        1.2058169010       -2.4269848549
 C         -0.6430929627        0.3266375623       -1.4008165766
 C         -0.4759563020       -1.4690836312        0.2670201362
 C         -0.5952682113       -2.1623042839       -1.0997610592
 C         -0.7936900604       -1.0402205165       -2.1543196762
 O          0.9280367242        0.3271026622       -3.2214429488
 C          0.2333993661       -0.9537524538       -3.3567184179
 H         -1.6328988975        0.7658850439       -1.2121872488
 H         -1.8056043429       -1.1124866203       -2.5770469553
 H         -0.6320409760        1.5884815579       -3.1374800541
 C          1.0523524602        3.4482186598       -3.0398596513
 C          1.2737332255       -2.0770924265       -3.3751792361
 C         -0.5331000765       -0.9525104040       -4.6847283654
 C         -0.5601579490        0.9283825204        1.0863448374
 H          1.8735088078       -0.5600124972        0.8858010390
 H          1.8986460117       -0.5845231177       -0.8549529538
 H          1.7789590622        2.0217976963        0.7393152384
 H          3.2786482443        1.2363353788        0.3524206824
 H          2.7604676801        1.3900153176       -2.0931655087
 H          2.9001662689        2.9413184735       -1.3069844608
 H          0.3121826137        2.8951684193       -1.0976206154
 H         -1.4444855906       -1.4529435533        0.7779637261
 H          0.2155515074       -1.9929776833        0.9355021742
 H          0.3063831097       -2.7430307073       -1.3073314559
 H         -1.4240111247       -2.8809769612       -1.1176380051
 H          1.5963233791        4.3358151523       -2.7132200879
 H          1.6048915625        3.0072266750       -3.8698672318
 H          0.0848671552        3.7736199081       -3.4250450653
 H          0.7995381313       -3.0546786030       -3.4549355421
 H          1.9379408330       -1.9548983323       -4.2295473655
 H          1.8943382338       -2.0542617748       -2.4821590042
 H         -1.0832111717       -1.8818463247       -4.8217424498
 H         -1.2628993827       -0.1455856446       -4.6855830842
 H          0.1391641750       -0.8097881480       -5.5312633127
 H         -0.1272297746        0.7145230000        2.0619771200
 H         -0.3208787642        1.9675290554        0.8549656633
 H         -1.6405487489        0.8297425237        1.1749666451
  42
    -0.010876 !GC
 C          0.0000000000        0.0000000000        0.0000000000
 C          1.5491350184        0.0000000000        0.0000000000
 C          2.2447723565        1.3603621047        0.0000000000
 C          2.2742515588        2.0407288216       -1.3611921892
 C          0.9000712088        2.4318613696       -1.9088519738
 C          0.1211322144        1.2064359949       -2.4275944977
 C         -0.6419545784        0.3275027906       -1.4010307562
 C         -0.4757405736       -1.4691214738        0.2673649843
 C         -0.5926849287       -2.1626079136       -1.0993703627
 C         -0.7948802467       -1.0412929195       -2.1539071682
 O          0.9272429739        0.3271710277       -3.2232965927
 C          0.2305604357       -0.9525380330       -3.3585531740
 H         -1.6314885747        0.7672942962       -1.2123327212
 H         -1.8077909996       -1.1145311416       -2.5738210154
 H         -0.6312322325        1.5902052420       -3.1371928581
 C          1.0570851908        3.4461756063       -3.0425791666
 C          1.2694893368       -2.0770973672       -3.3808234131
 C         -0.5390481920       -0.9487419812       -4.6847919678
 C         -0.5598229169        0.9284326625        1.0864623819
 H          1.8736073481       -0.5600787492        0.8856982423
 H          1.8985883178       -0.5845717967       -0.8550613460
 H          1.7785137972        2.0222457405        0.7380396860
 H          3.2785602073        1.2359831176        0.3541432382
 H          2.7619491009        1.3869403617       -2.0930412354
 H          2.9034551676        2.9389076669       -1.3081648239
 H          0.3153296323        2.8963469947       -1.0996211059
 H         -1.4451036990       -1.4532666656        0.7767045061
 H          0.2150338045       -1.9925025857        0.9369951707
 H          0.3113951566       -2.7397476464       -1.3065409771
 H         -1.4185458273       -2.8845691646       -1.1172847761
 H          1.6078397784        3.0454657009       -3.8960224783
 H          0.0791929870        3.7732539936       -3.3968862471
 H          1.5871167205        4.3318047045       -2.6909773400
 H          1.9449270349       -2.0037877484       -4.2309249702
 H          1.8483468264       -2.0733241573       -2.4565364142
 H          0.7679153131       -3.0412207239       -3.4165179340
 H          0.1310660681       -0.8279455322       -5.5352402795
 H         -1.0681122069       -1.8911174255       -4.8102588472
 H         -1.2781466063       -0.1482651432       -4.6990049273
 H         -0.3506532071        1.9737340799        0.8663636403
 H         -1.6417790223        0.8250825660        1.1688109171
 H         -0.1276351999        0.6916828092        2.0585461215
  42
    -0.010855 !GC
 C          0.0000000000        0.0000000000        0.0000000000
 C          1.5490401418        0.0000000000        0.0000000000
 C          2.2446453103        1.3604168141        0.0000000000
 C          2.2739224204        2.0409225414       -1.3610876986
 C          0.8997641481        2.4327993057       -1.9082671276
 C          0.1197213245        1.2080525485       -2.4269011185
 C         -0.6429023038        0.3284593498       -1.4004732313
 C         -0.4756104336       -1.4693975653        0.2658754815
 C         -0.5923743040       -2.1608216417       -1.1019314063
 C         -0.7957335870       -1.0379717984       -2.1546475528
 O          0.9246428370        0.3292412245       -3.2242277326
 C          0.2266539984       -0.9495636637       -3.3608033383
 H         -1.6322664277        0.7682865109       -1.2109890453
 H         -1.8091848500       -1.1106606308       -2.5733721496
 H         -0.6332372948        1.5926846331       -3.1354043716
 C          1.0573737756        3.4468477549       -3.0421124954
 C          1.2645091688       -2.0749637373       -3.3875256735
 C         -0.5459139154       -0.9422606390       -4.6853126277
 C         -0.5599188529        0.9272386569        1.0874421614
 H          1.8734233687       -0.5599097083        0.8858554029
 H          1.8985194572       -0.5847943146       -0.8549300004
 H          1.7785825798        2.0222584932        0.7381429391
 H          3.2784720449        1.2361171179        0.3539356547
 H          2.7611190010        1.3869408513       -2.0930801809
 H          2.9036881050        2.9386761063       -1.3080847878
 H          0.3156794176        2.8979583540       -1.0989627916
 H         -1.4450231980       -1.4542370896        0.7751438342
 H          0.2151788250       -1.9935404543        0.9348962675
 H          0.3122112779       -2.7367932023       -1.3104216883
 H         -1.4175408255       -2.8836071359       -1.1208942417
 H          1.6260569378        3.0338964354       -3.8766339389
 H          0.1024564399        3.8032844177       -3.4334084873
 H          1.6098490865        4.3086803752       -2.6692990332
 H          0.7877155260       -3.0515306186       -3.4651675709
 H          1.9233633561       -1.9531183252       -4.2460507796
 H          1.8910000876       -2.0540755957       -2.4985502816
 H          0.1372226741       -0.8231415360       -5.5234467180
 H         -1.0580694737       -1.8932764988       -4.8224437862
 H         -1.2783713840       -0.1354614339       -4.7214798063
 H         -1.6366943386        0.8281723966        1.2006908873
 H         -0.1250273629        0.6813867599        2.0576758851
 H         -0.3277814647        1.9678731246        0.8621452873
  42
    -0.010846 !GC
 C          0.0000000000        0.0000000000        0.0000000000
 C          1.5490754682        0.0000000000        0.0000000000
 C          2.2443968969        1.3605972796        0.0000000000
 C          2.2738402622        2.0412131459       -1.3610154957
 C          0.8996765532        2.4320177067       -1.9089870483
 C          0.1206294926        1.2065152701       -2.4273881286
 C         -0.6425005588        0.3275075588       -1.4008634980
 C         -0.4749739956       -1.4695916119        0.2659786208
 C         -0.5934789475       -2.1618010194       -1.1012942605
 C         -0.7951311770       -1.0391124369       -2.1545292552
 O          0.9263641295        0.3272256453       -3.2233863541
 C          0.2289128103       -0.9519598655       -3.3593978550
 H         -1.6318913849        0.7674697602       -1.2118467191
 H         -1.8080539104       -1.1112489521       -2.5746260013
 H         -0.6318864504        1.5903251429       -3.1368005150
 C          1.0569897497        3.4457783893       -3.0431883704
 C          1.2670952287       -2.0771849993       -3.3831880212
 C         -0.5413968886       -0.9464392079       -4.6852483196
 C         -0.5601694133        0.9275085087        1.0870900558
 H          1.8735031011       -0.5599864122        0.8857840918
 H          1.8986764777       -0.5845708253       -0.8549859811
 H          1.7783052380        2.0223825307        0.7381402517
 H          3.2782558946        1.2365401180        0.3539143542
 H          2.7619409726        1.3876753550       -2.0928245630
 H          2.9029015605        2.9394592706       -1.3076208541
 H          0.3149617127        2.8970515195       -1.1000634308
 H         -1.4437986169       -1.4543723225        0.7764341347
 H          0.2165232894       -1.9935943162        0.9343905157
 H          0.3099714192       -2.7394539124       -1.3097643839
 H         -1.4199244596       -2.8830728462       -1.1194458514
 H          1.6094471917        3.0024710668       -3.8720947413
 H          0.0902143350        3.7718502353       -3.4296252949
 H          1.6019789759        4.3331548332       -2.7179298337
 H          1.8803227667       -2.1014613485       -2.4824479818
 H          0.7481438227       -3.0306617905       -3.4832495578
 H          1.8983799740       -2.0088797988       -4.2641782664
 H         -1.2643670856       -0.1328984464       -4.7082635151
 H          0.1427288595       -0.8061368116       -5.5204012886
 H         -1.0752441952       -1.8846877087       -4.8320714468
 H         -0.1263094001        0.7137264904        2.0623688192
 H         -0.3222724249        1.9669054451        0.8556786653
 H         -1.6403239470        0.8275323660        1.1765222062
  42
    -0.010732 !GC
 C          0.0000000000        0.0000000000        0.0000000000
 C          1.5490361045        0.0000000000        0.0000000000
 C          2.2445885664        1.3604233580        0.0000000000
 C          2.2740105904        2.0408045201       -1.3611303400
 C          0.8999689765        2.4325533223       -1.9086938673
 C          0.1198581746        1.2076965927       -2.4269882963
 C         -0.6430055070        0.3283982587       -1.4004504842
 C         -0.4758368749       -1.4692487757        0.2662580971
 C         -0.5933117913       -2.1607524401       -1.1014075427
 C         -0.7960432200       -1.0380842827       -2.1544217744
 O          0.9246541147        0.3285976770       -3.2240923857
 C          0.2264843142       -0.9501299592       -3.3605054592
 H         -1.6322697909        0.7684607943       -1.2110003034
 H         -1.8095008099       -1.1103140445       -2.5731909605
 H         -0.6329766902        1.5922112708       -3.1356912759
 C          1.0577404922        3.4462413427       -3.0428525809
 C          1.2642426089       -2.0756723991       -3.3867242930
 C         -0.5455590263       -0.9430722516       -4.6853390005
 C         -0.5598627285        0.9273686944        1.0873717428
 H          1.8734231161       -0.5599543252        0.8858034718
 H          1.8983804160       -0.5847778884       -0.8549567270
 H          1.7783969974        2.0223187276        0.7380046234
 H          3.2783798525        1.2362045748        0.3540519022
 H          2.7614480660        1.3868991382       -2.0930045460
 H          2.9036379183        2.9386279289       -1.3080248753
 H          0.3157811020        2.8979406776       -1.0996012688
 H         -1.4449419736       -1.4540392783        0.7760381248
 H          0.2152215685       -1.9935212131        0.9348620719
 H          0.3107120781       -2.7375009886       -1.3098365354
 H         -1.4190311505       -2.8828282302       -1.1199443930
 H          1.5823116779        4.3536124620       -2.7368159423
 H          1.5919531794        3.0193605256       -3.8930795522
 H          0.0686955339        3.7433307430       -3.3900309009
 H          1.8793075355       -2.1003258839       -2.4871880779
 H          0.7445669629       -3.0288906338       -3.4859225114
 H          1.8938010185       -2.0073920479       -4.2689925539
 H         -1.0759868003       -1.8842852178       -4.8133647463
 H         -1.2836717476       -0.1416278703       -4.6960256971
 H          0.1237736309       -0.8205604248       -5.5361523519
 H         -0.3505464912        1.9728582502        0.8684594661
 H         -1.6417947237        0.8240691519        1.1694487592
 H         -0.1279378581        0.6896632072        2.0593143310
  42
    -0.010714 !GC
 C          0.0000000000        0.0000000000        0.0000000000
 C          1.5490522537        0.0000000000        0.0000000000
 C          2.2446244902        1.3604468304        0.0000000000
 C          2.2735474780        2.0413749323       -1.3608865534
 C          0.8992087804        2.4327704850       -1.9079886569
 C          0.1199900717        1.2075761501       -2.4269227910
 C         -0.6428170493        0.3279750428       -1.4006397575
 C         -0.4757604913       -1.4692868065        0.2662671599
 C         -0.5937568106       -2.1610421705       -1.1012600496
 C         -0.7952080320       -1.0384979102       -2.1546845327
 O          0.9256010875        0.3287803986       -3.2236107841
 C          0.2286706125       -0.9506943363       -3.3596381733
 H         -1.6322450534        0.7677737256       -1.2113895006
 H         -1.8081930032       -1.1105404096       -2.5746734015
 H         -0.6327390538        1.5916749631       -3.1359862854
 C          1.0559167083        3.4474234608       -3.0414186247
 C          1.2672124009       -2.0755472447       -3.3837998601
 C         -0.5416684328       -0.9452516040       -4.6854347008
 C         -0.5598722149        0.9276275830        1.0871365695
 H          1.8735009776       -0.5600491178        0.8857570351
 H          1.8984037295       -0.5846401412       -0.8550554203
 H          1.7788443892        2.0221577034        0.7384458507
 H          3.2786058565        1.2360720935        0.3534761078
 H          2.7610031490        1.3878750742       -2.0931598578
 H          2.9028985485        2.9394103967       -1.3076123136
 H          0.3147979947        2.8972329850       -1.0985066267
 H         -1.4448364358       -1.4538143953        0.7761692174
 H          0.2153336514       -1.9934322625        0.9349447427
 H          0.3096835194       -2.7389261019       -1.3093054772
 H         -1.4202350065       -2.8823350648       -1.1196620734
 H          1.6248139252        3.0351309213       -3.8761921118
 H          0.1006481115        3.8032655600       -3.4324514551
 H          1.6079115027        4.3095292626       -2.6685320172
 H          1.8804016002       -2.0996070046       -2.4829332611
 H          0.7483839196       -3.0291675165       -3.4838325741
 H          1.8985809087       -2.0070331747       -4.2647594291
 H         -1.0931206559       -1.8736164250       -4.8234308941
 H         -1.2706038350       -0.1374726029       -4.6820510527
 H          0.1283084096       -0.8008848760       -5.5335065668
 H         -0.3501707489        1.9730877422        0.8683164711
 H         -1.6418946871        0.8245746233        1.1688763529
 H         -0.1282281159        0.6896834189        2.0591833969
  42
    -0.010700 !GC
 C          0.0000000000        0.0000000000        0.0000000000
 C          1.5490093574        0.0000000000        0.0000000000
 C          2.2445421755        1.3604393525        0.0000000000
 C          2.2746620950        2.0406230296       -1.3612459377
 C          0.9007549833        2.4328073747       -1.9089539821
 C          0.1197148451        1.2078125845       -2.4256246750
 C         -0.6409390800        0.3291780783       -1.3969569990
 C         -0.4755152756       -1.4695856281        0.2647390953
 C         -0.5957345828       -2.1590796009       -1.1036956818
 C         -0.7979546149       -1.0346087564       -2.1549420702
 O          0.9229346262        0.3281921766       -3.2237541829
 C          0.2243129220       -0.9505473583       -3.3580546116
 H         -1.6299137095        0.7693156915       -1.2061322030
 H         -1.8118217438       -1.1050057632       -2.5730590135
 H         -0.6344775559        1.5921111674       -3.1330179588
 C          1.0588788709        3.4455171219       -3.0439569818
 C          1.2618765837       -2.0762482967       -3.3859922601
 C         -0.5507387962       -0.9442272362       -4.6811401708
 C         -0.5597356844        0.9267666375        1.0879063283
 H          1.8732840949       -0.5599348881        0.8858690519
 H          1.8984732823       -0.5848377425       -0.8548657679
 H          1.7780858895        2.0224460584        0.7377054085
 H          3.2781777258        1.2363350449        0.3544755568
 H          2.7620975803        1.3864198900       -2.0928978426
 H          2.9046096053        2.9382815822       -1.3080136076
 H          0.3170437178        2.8994254778       -1.1002653342
 H         -1.4437182087       -1.4547626059        0.7762701999
 H          0.2166100486       -1.9950359103        0.9313194713
 H          0.3071149910       -2.7370949196       -1.3137546796
 H         -1.4226718035       -2.8797897028       -1.1222112891
 H          1.6319884291        3.0201454197       -3.8687641067
 H          0.0967053110        3.7863826972       -3.4356919184
 H          1.6209212025        4.3119565558       -2.7011123989
 H          0.7847401523       -3.0527609732       -3.4617154852
 H          1.9189834873       -1.9553451628       -4.2459424397
 H          1.8902081498       -2.0546858146       -2.4983548144
 H         -1.0824637325       -1.8850072264       -4.8072065331
 H         -1.2879614799       -0.1418995855       -4.6896773951
 H          0.1159040927       -0.8225901322       -5.5341767573
 H         -0.1201563485        0.7110369020        2.0601912613
 H         -0.3165851907        1.9628246518        0.8417905213
 H         -1.6399751655        0.8487406381        1.1859416051
  42
    -0.010660 !GC
 C          0.0000000000        0.0000000000        0.0000000000
 C          1.5491346399        0.0000000000        0.0000000000
 C          2.2441981757        1.3607595022        0.0000000000
 C          2.2728227091        2.0419777115       -1.3607802667
 C          0.8982447721        2.4318598074       -1.9083800929
 C          0.1206299238        1.2056799163       -2.4275114263
 C         -0.6424740299        0.3267109477       -1.4010576363
 C         -0.4748821997       -1.4694817365        0.2668188884
 C         -0.5940665755       -2.1624039732       -1.1000918304
 C         -0.7938950967       -1.0402452144       -2.1542797122
 O          0.9278533848        0.3265491859       -3.2222063436
 C          0.2321258218       -0.9536955118       -3.3575674957
 H         -1.6322231462        0.7661069525       -1.2124231490
 H         -1.8061760019       -1.1126154023       -2.5760322232
 H         -0.6316450981        1.5884799401       -3.1377905517
 C          1.0541456480        3.4468075234       -3.0416896324
 C          1.2716188449       -2.0777677246       -3.3778909075
 C         -0.5358209054       -0.9509921351       -4.6847546193
 C         -0.5602396389        0.9281930759        1.0864168190
 H          1.8735401700       -0.5598877236        0.8858692554
 H          1.8988068460       -0.5845399908       -0.8549032600
 H          1.7783413394        2.0220821441        0.7387610738
 H          3.2783630772        1.2366572460        0.3531529675
 H          2.7613028199        1.3891923815       -2.0929359046
 H          2.9010548900        2.9407466993       -1.3072450499
 H          0.3131337988        2.8957789465       -1.0991070712
 H         -1.4434406875       -1.4539782984        0.7778139181
 H          0.2169167796       -1.9930735581        0.9351996545
 H          0.3082725861       -2.7418846416       -1.3082257176
 H         -1.4219006254       -2.8821285420       -1.1179466259
 H          1.6067129536        3.0048069566       -3.8711915189
 H          0.0868552091        3.7721809431       -3.4274504234
 H          1.5982758284        4.3345047056       -2.7157887040
 H          0.7967300181       -3.0550648683       -3.4571047378
 H          1.9346025426       -1.9558142791       -4.2332524719
 H          1.8935945000       -2.0554005300       -2.4858025673
 H          0.1360887061       -0.8301426115       -5.5337619430
 H         -1.0647607532       -1.8931186776       -4.8118898768
 H         -1.2747790171       -0.1503691439       -4.7000047319
 H         -0.1267823281        0.7146595133        2.0618824432
 H         -0.3216774084        1.9674524347        0.8548077368
 H         -1.6405366680        0.8287891117        1.1753986690
  42
    -0.010656 !GC
 C          0.0000000000        0.0000000000        0.0000000000
 C          1.5492534880        0.0000000000        0.0000000000
 C          2.2428838235        1.3614461555        0.0000000000
 C          2.2885392526        2.0304578116       -1.3656920767
 C          0.9220144835        2.4411587864       -1.9184450340
 C          0.1198981296        1.2289017033       -2.4339439849
 C         -0.6463219313        0.3564554434       -1.4038510824
 C         -0.4803635499       -1.4714406307        0.2453110917
 C         -0.6315645261       -2.1341238593       -1.1339768379
 C         -0.8180739860       -0.9887890010       -2.1657835206
 O          0.9018604305        0.3404887849       -3.2432739455
 C          0.1788957992       -0.9244144519       -3.3805630177
 H         -1.6267613581        0.8103541513       -1.2016355229
 H         -1.8341191631       -1.0333546295       -2.5820813715
 H         -0.6340835725        1.6271763390       -3.1338579448
 C          1.0992083302        3.4490722933       -3.0549329268
 C          1.1944055766       -2.0691413521       -3.4329336556
 C         -0.6125614157       -0.8908396547       -4.6936118464
 C         -0.5609379906        0.9130344900        1.0989420849
 H          1.8727381007       -0.5586774621        0.8871310756
 H          1.9001635515       -0.5851704668       -0.8540708022
 H          1.7670402887        2.0282960832        0.7273332714
 H          3.2723266451        1.2407670304        0.3677277469
 H          2.7666324329        1.3623760102       -2.0908197440
 H          2.9331952718        2.9178326699       -1.3171571978
 H          0.3447323275        2.9188202443       -1.1114076187
 H         -1.4380118566       -1.4604037032        0.7764260443
 H          0.2209929812       -2.0145410824        0.8875933229
 H          0.2549024087       -2.7297923348       -1.3637450597
 H         -1.4752058776       -2.8351349514       -1.1553232197
 H          1.6628075419        4.3275653902       -2.7359367096
 H          1.6442765950        2.9887256139       -3.8791518524
 H          0.1393227448        3.7855445719       -3.4496957664
 H          1.8510153568       -1.9562124236       -4.2943927119
 H          1.8305327739       -2.0681475808       -2.5505942350
 H          0.6923330139       -3.0337016273       -3.5000262089
 H          0.0458952268       -0.7739248854       -5.5534340577
 H         -1.1602086432       -1.8218434690       -4.8217782369
 H         -1.3348983860       -0.0750574235       -4.6882493490
 H         -0.3493560247        1.9611252256        0.8949865186
 H         -1.6431633991        0.8103682121        1.1775014225
 H         -0.1310428769        0.6612193060        2.0682185247
  42
    -0.010654 !GC
 C          0.0000000000        0.0000000000        0.0000000000
 C          1.5488929065        0.0000000000        0.0000000000
 C          2.2439671927        1.3607028670        0.0000000000
 C          2.2718480403        2.0422901818       -1.3606046594
 C          0.8974289628        2.4361835775       -1.9057513888
 C          0.1153060400        1.2130691019       -2.4251585226
 C         -0.6462775443        0.3314816822       -1.3994698174
 C         -0.4756519623       -1.4703218455        0.2608453749
 C         -0.5960079840       -2.1564489552       -1.1093062751
 C         -0.7987531088       -1.0295266858       -2.1577424240
 O          0.9174526838        0.3356593803       -3.2265902699
 C          0.2174619005       -0.9418449299       -3.3653698067
 H         -1.6349640498        0.7716474875       -1.2072973649
 H         -1.8129702179       -1.0986191581       -2.5752084399
 H         -0.6388333187        1.6001680420       -3.1310710871
 C          1.0549194901        3.4514870010       -3.0385247801
 C          1.2537860396       -2.0685518110       -3.3988784235
 C         -0.5586831137       -0.9292772989       -4.6876710958
 C         -0.5601427548        0.9233288819        1.0906123010
 H          1.8733301134       -0.5601100897        0.8856739439
 H          1.8982589401       -0.5845094350       -0.8551333444
 H          1.7784366809        2.0219131980        0.7390461128
 H          3.2782023633        1.2366535457        0.3528277228
 H          2.7574208017        1.3885021843       -2.0938395861
 H          2.9025645026        2.9393742399       -1.3077440684
 H          0.3147908617        2.9009729768       -1.0952040317
 H         -1.4438712095       -1.4568835815        0.7724762217
 H          0.2165192072       -1.9974650180        0.9261316921
 H          0.3071448860       -2.7334685405       -1.3209290428
 H         -1.4225415248       -2.8776211515       -1.1295386045
 H          0.0880644474        3.7803853475       -3.4226634804
 H          1.6024142347        4.3372074474       -2.7125201950
 H          1.6050601204        3.0085128342       -3.8691197220
 H          1.8807122376       -2.0538438338       -2.5098423811
 H          0.7706193742       -3.0423207035       -3.4717083795
 H          1.9140426757       -1.9476593641       -4.2562662798
 H          0.1224912498       -0.7881505320       -5.5252017931
 H         -1.0942160662       -1.8663731066       -4.8362126053
 H         -1.2818692173       -0.1157279647       -4.7035412531
 H         -0.1322413822        0.7053530087        2.0675133926
 H         -0.3388996320        1.9673450206        0.8687470192
 H         -1.6425818877        0.8175939404        1.1608946490
  42
    -0.010649 !GC
 C          0.0000000000        0.0000000000        0.0000000000
 C          1.5490678983        0.0000000000        0.0000000000
 C          2.2446827096        1.3604444750        0.0000000000
 C          2.2741448627        2.0409536130       -1.3610774859
 C          0.9000306495        2.4319541227       -1.9090404217
 C          0.1208509575        1.2064892914       -2.4273408129
 C         -0.6425311112        0.3277261341       -1.4007979998
 C         -0.4758055264       -1.4692015342        0.2666569297
 C         -0.5947459847       -2.1613023596       -1.1006030345
 C         -0.7953257919       -1.0389255745       -2.1544054689
 O          0.9265013305        0.3270615513       -3.2232903837
 C          0.2290016787       -0.9521351280       -3.3590763981
 H         -1.6318068066        0.7679732670       -1.2118303141
 H         -1.8081764748       -1.1107794148       -2.5747375145
 H         -0.6316149938        1.5903279011       -3.1367961707
 C          1.0574610421        3.4457922734       -3.0431337775
 C          1.2672329611       -2.0773255011       -3.3828654353
 C         -0.5411336977       -0.9468093433       -4.6850283410
 C         -0.5600169498        0.9277398769        1.0870021718
 H          1.8734499402       -0.5600046725        0.8858054947
 H          1.8985983810       -0.5846739989       -0.8549574951
 H          1.7786687926        2.0223309354        0.7381075770
 H          3.2785119570        1.2362483562        0.3539352729
 H          2.7621451077        1.3873091106       -2.0928695842
 H          2.9033316030        2.9391289851       -1.3077423975
 H          0.3153871308        2.8970019834       -1.1000764220
 H         -1.4446280085       -1.4533214103        0.7770422312
 H          0.2154335839       -1.9935253248        0.9350770441
 H          0.3081714148       -2.7399925928       -1.3082869156
 H         -1.4217615492       -2.8819103006       -1.1187320737
 H          0.0906318240        3.7720686592       -3.4294019793
 H          1.6025478116        4.3330779344       -2.7177072836
 H          1.6096993794        3.0026823182       -3.8721029989
 H          1.9382726870       -2.0078200702       -4.2367239083
 H          1.8417389928       -2.0762861176       -2.4557745597
 H          0.7669472726       -3.0417879923       -3.4207837423
 H         -1.0711118728       -1.8882137057       -4.8127117834
 H         -1.2793784279       -0.1456566575       -4.6977844004
 H          0.1292065204       -0.8252088090       -5.5350489311
 H         -0.1261807722        0.7140808332        2.0623708719
 H         -0.3218898287        1.9670465242        0.8554136973
 H         -1.6401483810        0.8280967405        1.1765198945
  42
    -0.010640 !GC
 C          0.0000000000        0.0000000000        0.0000000000
 C          1.5490759729        0.0000000000        0.0000000000
 C          2.2447490107        1.3603855101        0.0000000000
 C          2.2740068687        2.0410347260       -1.3609650062
 C          0.8997728900        2.4324446504       -1.9083617865
 C          0.1202497082        1.2073593118       -2.4270329224
 C         -0.6427038222        0.3279715348       -1.4006728535
 C         -0.4756640009       -1.4692973938        0.2663291398
 C         -0.5932118760       -2.1611532349       -1.1011548042
 C         -0.7951415106       -1.0386074742       -2.1545067281
 O          0.9255694041        0.3284445868       -3.2238074468
 C          0.2281785575       -0.9507498844       -3.3599442544
 H         -1.6321209754        0.7678181462       -1.2115117161
 H         -1.8082717300       -1.1109292980       -2.5740722633
 H         -0.6324776120        1.5916782028       -3.1359421655
 C          1.0569921379        3.4467024003       -3.0421190669
 C          1.2665776927       -2.0757305695       -3.3851759443
 C         -0.5429470261       -0.9448038388       -4.6853024634
 C         -0.5600615104        0.9274370559        1.0872294058
 H          1.8734887663       -0.5600644967        0.8857617217
 H          1.8984596265       -0.5846672686       -0.8550334016
 H          1.7789753569        2.0222063998        0.7383228650
 H          3.2786507044        1.2359755248        0.3536641199
 H          2.7615784962        1.3873657435       -2.0930363784
 H          2.9034332711        2.9390537242       -1.3077155615
 H          0.3154283063        2.8972686042       -1.0990521572
 H         -1.4448838398       -1.4538385389        0.7759420455
 H          0.2152635375       -1.9934711046        0.9351815175
 H          0.3107035217       -2.7383160803       -1.3088273628
 H         -1.4191200980       -2.8830254170       -1.1197678448
 H          0.0901057708        3.7733551383       -3.4279786640
 H          1.6023807419        4.3337504019       -2.7165098296
 H          1.6089108390        3.0037548589       -3.8714363364
 H          1.9364285658       -2.0060351010       -4.2399740804
 H          1.8423639769       -2.0746874654       -2.4588808413
 H          0.7663863499       -3.0402839455       -3.4225146515
 H         -1.0728184014       -1.8862478256       -4.8131712643
 H         -1.2813462571       -0.1437758966       -4.6970852798
 H          0.1268185232       -0.8225643155       -5.5357043651
 H         -1.6369452470        0.8284405290        1.2001646738
 H         -0.1253453818        0.6820055227        2.0575329169
 H         -0.3280402924        1.9679821575        0.8616529200
  42
    -0.010623 !GC
 C          0.0000000000        0.0000000000        0.0000000000
 C          1.5491506630        0.0000000000        0.0000000000
 C          2.2449381952        1.3602685686        0.0000000000
 C          2.2750094876        2.0404743781       -1.3612373642
 C          0.9011091905        2.4315516920       -1.9096147870
 C          0.1225380320        1.2059419537       -2.4284739517
 C         -0.6411061000        0.3273633471       -1.4020699544
 C         -0.4755651027       -1.4689530753        0.2685936799
 C         -0.5921472414       -2.1635718533       -1.0976096895
 C         -0.7941711979       -1.0432087473       -2.1531682901
 O          0.9292974186        0.3263737312       -3.2231888090
 C          0.2331477235       -0.9536639526       -3.3581937297
 H         -1.6307750565        0.7672309553       -1.2142857548
 H         -1.8068954344       -1.1170437336       -2.5734398960
 H         -0.6293577855        1.5893192094       -3.1387746893
 C          1.0586531293        3.4459234837       -3.0431944916
 C          1.2724052232       -2.0779780765       -3.3784640383
 C         -0.5348974286       -0.9512076933       -4.6853306457
 C         -0.5597860753        0.9291790095        1.0858231698
 H          1.8735011111       -0.5599336306        0.8858390042
 H          1.8986371078       -0.5847729279       -0.8548996093
 H          1.7786485729        2.0223632695        0.7377782618
 H          3.2785779303        1.2358160734        0.3543913731
 H          2.7630819052        1.3866332262       -2.0927235953
 H          2.9041890671        2.9385892518       -1.3079547667
 H          0.3161239620        2.8961764291       -1.1006715156
 H         -1.4450562904       -1.4528066373        0.7776878354
 H          0.2151666248       -1.9916360865        0.9388091620
 H          0.3120513539       -2.7407894387       -1.3039994921
 H         -1.4178940041       -2.8856727706       -1.1151524127
 H          1.5830599684        4.3525230268       -2.7347435236
 H          1.5932367728        3.0169178964       -3.8919766036
 H          0.0717970634        3.7445682766       -3.3950851419
 H          0.7969990563       -3.0551807998       -3.4559639513
 H          1.9346515678       -1.9573304808       -4.2344723523
 H          1.8952967897       -2.0545954492       -2.4870612072
 H          0.1362291084       -0.8310041327       -5.5350256111
 H         -1.0635233529       -1.8938143197       -4.8106272861
 H         -1.2741825705       -0.1509801827       -4.7012199333
 H         -1.6391914434        0.8276393935        1.1823113898
 H         -0.1270148911        0.6996458715        2.0594821273
 H         -0.3318741706        1.9701997938        0.8572125622
  42
    -0.010539 !GC
 C          0.0000000000        0.0000000000        0.0000000000
 C          1.5490373662        0.0000000000        0.0000000000
 C          2.2446422976        1.3603843438        0.0000000000
 C          2.2741649240        2.0407379586       -1.3611369937
 C          0.9001489702        2.4329726283       -1.9084244209
 C          0.1195880784        1.2084485943       -2.4268003051
 C         -0.6430495255        0.3288785060       -1.4003355266
 C         -0.4757810316       -1.4693686660        0.2658073006
 C         -0.5925987752       -2.1605356524       -1.1021101721
 C         -0.7962456596       -1.0374913049       -2.1545807031
 O          0.9239781796        0.3296148152       -3.2246151734
 C          0.2255416594       -0.9489316991       -3.3612589077
 H         -1.6323083628        0.7688812094       -1.2106638949
 H         -1.8098932576       -1.1099852516       -2.5728669263
 H         -0.6335417959        1.5933651871       -3.1349563337
 C          1.0580763930        3.4469830090       -3.0423218963
 C          1.2631223762       -2.0745890611       -3.3889696552
 C         -0.5475614100       -0.9409527006       -4.6854730405
 C         -0.5598849550        0.9270173628        1.0876528945
 H          1.8734215473       -0.5599194021        0.8858445517
 H          1.8984736753       -0.5848199026       -0.8549210421
 H          1.7785048154        2.0223063342        0.7380289573
 H          3.2784026880        1.2361249879        0.3541451074
 H          2.7612729802        1.3866545257       -2.0930581937
 H          2.9040791914        2.9383536016       -1.3080812644
 H          0.3163249533        2.8985122906       -1.0991487601
 H         -1.4451993362       -1.4542266169        0.7750716246
 H          0.2150092996       -1.9936999412        0.9347549528
 H          0.3121146757       -2.7362287106       -1.3106231086
 H         -1.4175733867       -2.8835073326       -1.1211718617
 H          1.5902307512        4.3300838770       -2.6877536994
 H          1.6088589165        3.0512031275       -3.8978438862
 H          0.0797812477        3.7745472209       -3.3945816537
 H          0.7859977141       -3.0510173911       -3.4662454088
 H          1.9213273734       -1.9528912634       -4.2480077438
 H          1.8903455733       -2.0539020640       -2.5005039075
 H         -1.0780098349       -1.8820943444       -4.8138480861
 H         -1.2856866594       -0.1395254139       -4.6951240945
 H          0.1212037348       -0.8178672151       -5.5366536646
 H         -1.6366483221        0.8278182859        1.2009950208
 H         -0.1248533208        0.6811015943        2.0578093038
 H         -0.3278755086        1.9677246038        0.8625274893
  42
    -0.010509 !GC
 C          0.0000000000        0.0000000000        0.0000000000
 C          1.5490752159        0.0000000000        0.0000000000
 C          2.2447101699        1.3603902476        0.0000000000
 C          2.2739788266        2.0411885682       -1.3609494541
 C          0.8996743370        2.4327167226       -1.9079963820
 C          0.1199566314        1.2078066980       -2.4267741697
 C         -0.6429867853        0.3283541048       -1.4004871149
 C         -0.4758111437       -1.4693149251        0.2660681959
 C         -0.5936355157       -2.1609234276       -1.1015530802
 C         -0.7958104896       -1.0380795755       -2.1545602558
 O          0.9252442318        0.3289173154       -3.2236712884
 C          0.2276011037       -0.9501520546       -3.3599119454
 H         -1.6322513364        0.7684208439       -1.2110100311
 H         -1.8089621093       -1.1103245920       -2.5740780917
 H         -0.6328265586        1.5921554019       -3.1356163631
 C          1.0569043607        3.4471519783       -3.0415868785
 C          1.2658258482       -2.0752551237       -3.3854373217
 C         -0.5439239030       -0.9437499968       -4.6850482565
 C         -0.5595537621        0.9273711383        1.0874953850
 H          1.8735284436       -0.5600155615        0.8857703513
 H          1.8985107383       -0.5846809878       -0.8550092760
 H          1.7786848127        2.0220516955        0.7383198545
 H          3.2785176887        1.2359040967        0.3539152741
 H          2.7612959246        1.3876091830       -2.0930925846
 H          2.9033822730        2.9390826101       -1.3077953490
 H          0.3155230782        2.8976091358       -1.0985920106
 H         -1.4448814389       -1.4538762422        0.7759963735
 H          0.2152381670       -1.9936960515        0.9346567217
 H          0.3102108558       -2.7381240810       -1.3095587644
 H         -1.4196284538       -2.8827164906       -1.1201295385
 H          1.6256594281        3.0345844235       -3.8762428528
 H          0.1018493142        3.8033147800       -3.4327672617
 H          1.6090781267        4.3091103524       -2.6686469201
 H          1.9256620272       -1.9535067568       -4.2431480251
 H          1.8913066947       -2.0540151655       -2.4956696651
 H          0.7893902832       -3.0519361264       -3.4633439061
 H         -1.2669685338       -0.1301047199       -4.7067936369
 H          0.1394607644       -0.8030577257       -5.5208957021
 H         -1.0779566433       -1.8820892910       -4.8316933431
 H         -1.6362456507        0.8284734455        1.2011212041
 H         -0.1244480777        0.6815779655        2.0576025366
 H         -0.3274020714        1.9679356064        0.8621377026
  42
    -0.010433 !GC
 C          0.0000000000        0.0000000000        0.0000000000
 C          1.5490950239        0.0000000000        0.0000000000
 C          2.2447158515        1.3603786245        0.0000000000
 C          2.2734268385        2.0414256670       -1.3608384379
 C          0.8991939406        2.4332169273       -1.9079138973
 C          0.1199726408        1.2090312450       -2.4291191339
 C         -0.6452849682        0.3293080338       -1.4048345515
 C         -0.4757846404       -1.4691754732        0.2670947259
 C         -0.5916932287       -2.1621461763       -1.0999720994
 C         -0.7930539809       -1.0405146575       -2.1544155588
 O          0.9264780325        0.3302415485       -3.2249445487
 C          0.2289996784       -0.9486356423       -3.3631213428
 H         -1.6346480086        0.7697402541       -1.2167568098
 H         -1.8055696046       -1.1139045658       -2.5752891050
 H         -0.6309973234        1.5942791936       -3.1393809182
 C          1.0563088468        3.4495228159       -3.0399201251
 C          1.2672062011       -2.0737941652       -3.3854836815
 C         -0.5384844259       -0.9424732010       -4.6905098424
 C         -0.5599969084        0.9281954476        1.0866046220
 H          1.8734555417       -0.5599224726        0.8858531506
 H          1.8986771642       -0.5846582923       -0.8549542134
 H          1.7788317779        2.0219878643        0.7384829305
 H          3.2786686453        1.2360569908        0.3535493113
 H          2.7607089049        1.3878670807       -2.0931962036
 H          2.9030502245        2.9392836308       -1.3075066887
 H          0.3145166767        2.8964199051       -1.0978766944
 H         -1.4456185909       -1.4535565001        0.7755985514
 H          0.2143704806       -1.9926989623        0.9372880150
 H          0.3127439209       -2.7389829890       -1.3064479821
 H         -1.4172233117       -2.8844626384       -1.1188878983
 H          1.5710492093        4.3531112229       -2.7031218225
 H          1.5864117348        3.0364464906       -3.8998295311
 H          0.0736473310        3.7622752262       -3.3864317354
 H          1.8422004607       -2.0757741636       -2.4581340940
 H          0.7574496328       -3.0332252661       -3.4243279192
 H          1.9434286382       -2.0094357220       -4.2351470391
 H         -1.2613693754       -0.1287602043       -4.7145148023
 H          0.1474636621       -0.8019077805       -5.5242482605
 H         -1.0720554892       -1.8807931682       -4.8387331733
 H         -0.1488379703        0.7319545232        2.0724518820
 H         -0.3453596079        1.9715838190        0.8550726664
 H         -1.6448785410        0.8112192799        1.1349200194
  42
    -0.010423 !GC
 C          0.0000000000        0.0000000000        0.0000000000
 C          1.5490631040        0.0000000000        0.0000000000
 C          2.2447037623        1.3604406111        0.0000000000
 C          2.2738181400        2.0412615382       -1.3609335530
 C          0.8995209103        2.4321031831       -1.9085436875
 C          0.1206549146        1.2065840660       -2.4271826045
 C         -0.6426317837        0.3276593026       -1.4007553031
 C         -0.4758672864       -1.4691596563        0.2667462961
 C         -0.5948884009       -2.1613668953       -1.1004930603
 C         -0.7950414709       -1.0390110677       -2.1543773889
 O          0.9267686857        0.3272982593       -3.2228352010
 C          0.2298151286       -0.9521997341       -3.3585890699
 H         -1.6320346006        0.7676307684       -1.2118360851
 H         -1.8077017652       -1.1108730718       -2.5751731060
 H         -0.6316616665        1.5903077322       -3.1368510646
 C          1.0564387597        3.4464083761       -3.0422710075
 C          1.2684118208       -2.0770345012       -3.3812187437
 C         -0.5395449525       -0.9477199754       -4.6849585531
 C         -0.5599115997        0.9278026094        1.0870171514
 H          1.8735030735       -0.5600663163        0.8857346786
 H          1.8985116993       -0.5846084149       -0.8550164573
 H          1.7789490284        2.0221902791        0.7383907735
 H          3.2786332920        1.2360775663        0.3535866895
 H          2.7617857722        1.3878457118       -2.0929436512
 H          2.9028746140        2.9395135947       -1.3075351686
 H          0.3148546871        2.8966753874       -1.0993252410
 H         -1.4446430945       -1.4532803195        0.7772223751
 H          0.2154296105       -1.9934657970        0.9351035392
 H          0.3077529687       -2.7405242866       -1.3083837437
 H         -1.4222824006       -2.8816080610       -1.1185407465
 H          0.0894321043        3.7725613704       -3.4282818440
 H          1.6013051165        4.3337437892       -2.7165866225
 H          1.6086827436        3.0037290278       -3.8715009993
 H          1.8806060306       -2.1009798666       -2.4797577664
 H          0.7499758993       -3.0307116019       -3.4818549028
 H          1.9007361698       -2.0085082575       -4.2614356648
 H          0.1455450389       -0.8301551670       -5.5216148484
 H         -1.0510329260       -1.8990872968       -4.8214246656
 H         -1.2720726335       -0.1413069745       -4.7247020333
 H         -1.6367882427        0.8289787659        1.2000619232
 H         -0.1251751586        0.6825870071        2.0573545209
 H         -0.3277917849        1.9682479198        0.8611356433
  42
    -0.010423 !GC
 C          0.0000000000        0.0000000000        0.0000000000
 C          1.5492503339        0.0000000000        0.0000000000
 C          2.2454013078        1.3600655963        0.0000000000
 C          2.2763528242        2.0396451017       -1.3615518586
 C          0.9027500667        2.4307327535       -1.9106027977
 C          0.1248433319        1.2049443243       -2.4300345972
 C         -0.6400402338        0.3273805335       -1.4037830100
 C         -0.4752574339       -1.4686758439        0.2706727592
 C         -0.5907837224       -2.1658652819       -1.0943418769
 C         -0.7928369035       -1.0474620581       -2.1519812401
 O          0.9326490509        0.3246584176       -3.2229737276
 C          0.2375574765       -0.9561611730       -3.3566372382
 H         -1.6299857779        0.7674317125       -1.2178053797
 H         -1.8050919671       -1.1228904441       -2.5731039467
 H         -0.6261867540        1.5878013292       -3.1415261446
 C          1.0603873874        3.4454518529       -3.0438477396
 C          1.2776126822       -2.0798647464       -3.3727845934
 C         -0.5279038776       -0.9568547448       -4.6852332484
 C         -0.5596311185        0.9303892063        1.0848481325
 H          1.8735719906       -0.5600256427        0.8857545039
 H          1.8985811533       -0.5848164105       -0.8549421816
 H          1.7788775188        2.0226094175        0.7372294606
 H          3.2787591541        1.2354299264        0.3550849572
 H          2.7645159041        1.3853014351       -2.0925371448
 H          2.9057617484        2.9376263768       -1.3083779708
 H          0.3171561150        2.8949500492       -1.1018495721
 H         -1.4450808120       -1.4519617158        0.7790926354
 H          0.2151947805       -1.9898886622        0.9423155604
 H          0.3138562535       -2.7429502882       -1.2992053486
 H         -1.4160593980       -2.8885332201       -1.1109467134
 H          1.5843778262        4.3521253888       -2.7349952908
 H          1.5956476900        3.0167949329       -3.8923227499
 H          0.0736539657        3.7438629358       -3.3961842151
 H          1.9564151742       -2.0073958264       -4.2202909545
 H          1.8528492621       -2.0739888675       -2.4462040791
 H          0.7771848681       -3.0445019511       -3.4088147016
 H         -1.2515362781       -0.1439754294       -4.7139608267
 H          0.1591145331       -0.8191252267       -5.5185416614
 H         -1.0603786230       -1.8962543480       -4.8302105875
 H         -0.1279180674        0.7156430423        2.0606161898
 H         -0.3369018987        1.9728485800        0.8574111484
 H         -1.6418203324        0.8273273064        1.1606694653
  42
    -0.010311 !GC
 C          0.0000000000        0.0000000000        0.0000000000
 C          1.5490678983        0.0000000000        0.0000000000
 C          2.2446151854        1.3604788573        0.0000000000
 C          2.2735422643        2.0413672279       -1.3609218666
 C          0.8991789923        2.4324187030       -1.9082220078
 C          0.1203081324        1.2069691871       -2.4270514280
 C         -0.6426937314        0.3277092405       -1.4007181232
 C         -0.4756225321       -1.4692628808        0.2665660267
 C         -0.5936032623       -2.1614081414       -1.1008378466
 C         -0.7948820586       -1.0389477042       -2.1544576680
 O          0.9264752920        0.3279665911       -3.2229664561
 C          0.2295122120       -0.9515096772       -3.3590159504
 H         -1.6321791597        0.7674521952       -1.2117230405
 H         -1.8076281047       -1.1113082303       -2.5749387276
 H         -0.6321320417        1.5907760369       -3.1365754337
 C          1.0559535369        3.4471130812       -3.0416014419
 C          1.2682624338       -2.0761737117       -3.3826115762
 C         -0.5404946861       -0.9465507987       -4.6850239425
 C         -0.5598989125        0.9277678186        1.0869917416
 H          1.8734144478       -0.5599635276        0.8858554383
 H          1.8986490158       -0.5846969435       -0.8549433629
 H          1.7787611968        2.0221436786        0.7384573518
 H          3.2786121621        1.2361916731        0.3535114839
 H          2.7612848730        1.3879427182       -2.0930581174
 H          2.9026873292        2.9395320449       -1.3076004555
 H          0.3145712762        2.8966930932       -1.0987294708
 H         -1.4445829002       -1.4537265893        0.7766635261
 H          0.2155645680       -1.9933275281        0.9352073526
 H          0.3100235462       -2.7393716964       -1.3088135708
 H         -1.4202394520       -2.8828166376       -1.1192567473
 H          1.6251342109        3.0351199573       -3.8762751087
 H          0.1007541846        3.8028746336       -3.4328005905
 H          1.6076925113        4.3092651627       -2.6685232646
 H          1.9684449366       -1.9542924373       -4.2106867193
 H          1.8536782456       -2.0285706642       -2.4661556684
 H          0.8122049369       -3.0622507842       -3.3999333518
 H         -1.0917822294       -1.8750783730       -4.8227281067
 H         -1.2695401399       -0.1389068889       -4.6821471373
 H          0.1296844961       -0.8025399593       -5.5330024407
 H         -0.3501633617        1.9731290784        0.8679465709
 H         -1.6418989901        0.8247911868        1.1686749488
 H         -0.1283310407        0.6900949112        2.0590961976
  42
    -0.010306 !GC
 C          0.0000000000        0.0000000000        0.0000000000
 C          1.5490313102        0.0000000000        0.0000000000
 C          2.2445943001        1.3604015380        0.0000000000
 C          2.2741247167        2.0406855142       -1.3611724772
 C          0.9001232479        2.4330870095       -1.9083484521
 C          0.1193447576        1.2087689164       -2.4268432813
 C         -0.6430299696        0.3289375041       -1.4003430873
 C         -0.4756080072       -1.4694961116        0.2654121119
 C         -0.5920887184       -2.1604068768       -1.1025903856
 C         -0.7963178349       -1.0373119860       -2.1548066614
 O          0.9233507900        0.3300896632       -3.2251899217
 C          0.2248154562       -0.9483637434       -3.3619834541
 H         -1.6322892497        0.7688742116       -1.2104973610
 H         -1.8102394172       -1.1099101827       -2.5724082092
 H         -0.6339619852        1.5939564525       -3.1346484479
 C          1.0582254668        3.4467920615       -3.0424652845
 C          1.2622634050       -2.0741182531       -3.3905114330
 C         -0.5490709851       -0.9398529180       -4.6857240467
 C         -0.5599603837        0.9268165149        1.0877830857
 H          1.8734161676       -0.5598795589        0.8858451134
 H          1.8984183784       -0.5848390150       -0.8549148642
 H          1.7783661576        2.0223600593        0.7379037084
 H          3.2783048236        1.2361792475        0.3542237344
 H          2.7610397630        1.3863965257       -2.0930765360
 H          2.9042383205        2.9382130383       -1.3083198410
 H          0.3163508581        2.8987547387       -1.0991638237
 H         -1.4452036208       -1.4545730182        0.7743588154
 H          0.2150346223       -1.9938165261        0.9344769824
 H          0.3127597233       -2.7355226944       -1.3111811930
 H         -1.4165576466       -2.8836396246       -1.1217484129
 H          0.0916147591        3.7743612983       -3.4281671894
 H          1.6046295991        4.3333861313       -2.7172430554
 H          1.6096428926        3.0028494959       -3.8716308803
 H          1.8900765161       -2.0534651421       -2.5024618016
 H          0.7849577412       -3.0504952203       -3.4674600111
 H          1.9198144112       -1.9525380552       -4.2499301899
 H         -1.0795737944       -1.8809342145       -4.8141243075
 H         -1.2872037603       -0.1384544027       -4.6946856222
 H          0.1191713775       -0.8163678179       -5.5372579479
 H         -1.6367203719        0.8274978812        1.2011687886
 H         -0.1248745501        0.6808169820        2.0579053065
 H         -0.3280387781        1.9675751656        0.8627462202
  42
    -0.010257 !GC
 C          0.0000000000        0.0000000000        0.0000000000
 C          1.5487951281        0.0000000000        0.0000000000
 C          2.2434486064        1.3609642034        0.0000000000
 C          2.2704272906        2.0429668365       -1.3604320809
 C          0.8958714835        2.4377903582       -1.9045641712
 C          0.1123850249        1.2156477247       -2.4241495778
 C         -0.6482547789        0.3328367718       -1.3987602545
 C         -0.4754809611       -1.4708251430        0.2583586235
 C         -0.5975603205       -2.1534953987       -1.1133504024
 C         -0.8010361414       -1.0243628055       -2.1591982943
 O          0.9127057278        0.3389156224       -3.2282758990
 C          0.2113575246       -0.9376736271       -3.3680772854
 H         -1.6366419606        0.7729443481       -1.2049047651
 H         -1.8159958233       -1.0917078584       -2.5751327061
 H         -0.6426515857        1.6040616643       -3.1284164341
 C          1.0535977753        3.4533875203       -3.0370274341
 C          1.2466752084       -2.0651499866       -3.4063499469
 C         -0.5678548850       -0.9220266357       -4.6886658360
 C         -0.5602307256        0.9210916966        1.0925133071
 H          1.8733425817       -0.5601993984        0.8855851891
 H          1.8981246193       -0.5843542491       -0.8552686767
 H          1.7780891429        2.0218820981        0.7394082217
 H          3.2778971275        1.2371524694        0.3522923944
 H          2.7552376734        1.3891845904       -2.0942339038
 H          2.9016440911        2.9397550379       -1.3077561929
 H          0.3141315853        2.9027205289       -1.0934534521
 H         -1.4431034979       -1.4585577278        0.7710723486
 H          0.2173798917       -1.9996904955        0.9214821412
 H          0.3050352161       -2.7304633888       -1.3274015374
 H         -1.4244052127       -2.8742513397       -1.1343058936
 H          0.0868271940        3.7834238214       -3.4203944100
 H          1.6022201565        4.3384527139       -2.7111685574
 H          1.6026234196        3.0101910430       -3.8682494192
 H          1.9074340115       -1.9899860036       -4.2679782762
 H          1.8307595939       -2.0677952271       -2.4853159391
 H          0.7480035722       -3.0303823689       -3.4520203494
 H          0.0971471478       -0.7948741276       -5.5422399363
 H         -1.0988465354       -1.8623820807       -4.8205741447
 H         -1.3037096462       -0.1183291088       -4.6910249158
 H         -0.1321756003        0.7013549841        2.0688964680
 H         -0.3392419171        1.9655046434        0.8725823647
 H         -1.6426118243        0.8150709498        1.1627267023
  42
    -0.010192 !GC
 C          0.0000000000        0.0000000000        0.0000000000
 C          1.5490760991        0.0000000000        0.0000000000
 C          2.2446242281        1.3604660991        0.0000000000
 C          2.2738615192        2.0410734754       -1.3610571982
 C          0.8996689368        2.4326593003       -1.9083506215
 C          0.1201086113        1.2076134042       -2.4270673420
 C         -0.6427877777        0.3283933225       -1.4005499506
 C         -0.4755076726       -1.4694295286        0.2658989937
 C         -0.5941168775       -2.1604608998       -1.1019009317
 C         -0.7955171362       -1.0372077206       -2.1545578237
 O          0.9253885535        0.3285006930       -3.2237290048
 C          0.2278328823       -0.9506468815       -3.3597616787
 H         -1.6320597620        0.7684514184       -1.2110974586
 H         -1.8086011952       -1.1088808129       -2.5743910005
 H         -0.6325572089        1.5919191286       -3.1360660960
 C          1.0568738147        3.4471707383       -3.0418544680
 C          1.2661354719       -2.0757368519       -3.3843456443
 C         -0.5429740034       -0.9449753934       -4.6853139090
 C         -0.5598406447        0.9273890244        1.0873712951
 H          1.8734122042       -0.5599456013        0.8858598129
 H          1.8986002490       -0.5847631928       -0.8549142456
 H          1.7785651350        2.0223245689        0.7382112565
 H          3.2785643896        1.2362117411        0.3538068317
 H          2.7612864916        1.3873082283       -2.0931221383
 H          2.9034231118        2.9389652601       -1.3078538181
 H          0.3153696511        2.8973514105       -1.0989336110
 H         -1.4439781339       -1.4545082426        0.7765768157
 H          0.2160835284       -1.9938823852        0.9335427242
 H          0.3093939486       -2.7380839601       -1.3104045779
 H         -1.4206072482       -2.8817374068       -1.1206213724
 H          1.6022921585        4.3338828068       -2.7154794443
 H          1.6088823104        3.0050008844       -3.8716049882
 H          0.0900949094        3.7743963951       -3.4271192985
 H          1.8774893214       -2.1004184603       -2.4823813400
 H          0.7418990017       -3.0286532613       -3.4675618686
 H          1.9079970649       -2.0047163853       -4.2569772501
 H          0.1263611471       -0.8238084069       -5.5363186709
 H         -1.0729290454       -1.8868015407       -4.8113493105
 H         -1.2821619851       -0.1445108754       -4.6974409023
 H         -0.3500439518        1.9728997361        0.8686279534
 H         -1.6419024119        0.8244035041        1.1692276571
 H         -0.1281499597        0.6893485405        2.0593731437
  42
    -0.010189 !GC
 C          0.0000000000        0.0000000000        0.0000000000
 C          1.5491227804        0.0000000000        0.0000000000
 C          2.2444779427        1.3605776311        0.0000000000
 C          2.2726679495        2.0420852793       -1.3606568241
 C          0.8979575259        2.4325210292       -1.9074606247
 C          0.1200872879        1.2067036760       -2.4270712999
 C         -0.6427418574        0.3272890513       -1.4007987943
 C         -0.4757345504       -1.4691783490        0.2670807745
 C         -0.5944814307       -2.1616397377       -1.1000720270
 C         -0.7940647095       -1.0394958532       -2.1543404075
 O          0.9270824684        0.3279774805       -3.2224761200
 C          0.2316469662       -0.9524495209       -3.3578483365
 H         -1.6325103473        0.7665484459       -1.2119097376
 H         -1.8064394507       -1.1117924406       -2.5758920956
 H         -0.6323756105        1.5899453784       -3.1369146726
 C          1.0534106899        3.4484098740       -3.0399997504
 C          1.2715661703       -2.0761433366       -3.3788607153
 C         -0.5365779681       -0.9498126298       -4.6848885719
 C         -0.5599467112        0.9280240686        1.0867335586
 H          1.8734471694       -0.5598690256        0.8858995331
 H          1.8986995914       -0.5846790572       -0.8548310407
 H          1.7789558331        2.0218324419        0.7390346120
 H          3.2787103313        1.2362341252        0.3528137302
 H          2.7606339186        1.3893461167       -2.0932020293
 H          2.9011960111        2.9406642315       -1.3071716775
 H          0.3131500709        2.8957951531       -1.0975992703
 H         -1.4445846335       -1.4532518047        0.7774279363
 H          0.2155206798       -1.9931546354        0.9357066598
 H          0.3079525895       -2.7411547689       -1.3075775051
 H         -1.4222073547       -2.8814849335       -1.1183357637
 H          1.6055089849        3.0071557484       -3.8701010127
 H          0.0859618977        3.7742277788       -3.4249696268
 H          1.5976127931        4.3357970200       -2.7135532646
 H          1.8937463599       -2.0534995887       -2.4869295313
 H          0.7965736987       -3.0535539954       -3.4577455164
 H          1.9344733445       -1.9542551740       -4.2341304223
 H         -1.2603627811       -0.1369598928       -4.7102067667
 H          0.1487755134       -0.8101644909       -5.5192440341
 H         -1.0692684574       -1.8889861399       -4.8309174280
 H         -1.6368284458        0.8297026151        1.1991627126
 H         -0.1261316099        0.6824321016        2.0574233545
 H         -0.3270076197        1.9683387665        0.8611287177
  42
    -0.010158 !GC
 C          0.0000000000        0.0000000000        0.0000000000
 C          1.5491660552        0.0000000000        0.0000000000
 C          2.2449329901        1.3602586975        0.0000000000
 C          2.2747630206        2.0403098166       -1.3613216523
 C          0.9006679425        2.4310550051       -1.9094470314
 C          0.1222978474        1.2052808842       -2.4282375358
 C         -0.6411197053        0.3267313637       -1.4016076863
 C         -0.4757901458       -1.4688736475        0.2685617849
 C         -0.5919561054       -2.1640733875       -1.0974263712
 C         -0.7938020918       -1.0441078160       -2.1534697208
 O          0.9293675264        0.3258296491       -3.2227895547
 C          0.2336748331       -0.9544967034       -3.3575001246
 H         -1.6309040516        0.7663989157       -1.2139011294
 H         -1.8064273007       -1.1182100019       -2.5739256147
 H         -0.6295763928        1.5885158783       -3.1386363097
 C          1.0578717990        3.4454730676       -3.0430359475
 C          1.2733713486       -2.0784108611       -3.3772599993
 C         -0.5343027174       -0.9527005636       -4.6846941272
 C         -0.5600280582        0.9294346075        1.0854877879
 H          1.8735586313       -0.5600801223        0.8857284626
 H          1.8985062893       -0.5847079527       -0.8550067077
 H          1.7786891626        2.0223519699        0.7378024903
 H          3.2786124066        1.2358388899        0.3543074608
 H          2.7627408499        1.3863663732       -2.0928029856
 H          2.9039086674        2.9384883798       -1.3082496269
 H          0.3156098860        2.8955477728       -1.1004620950
 H         -1.4454536683       -1.4524587524        0.7773119686
 H          0.2146308955       -1.9913807516        0.9392488199
 H          0.3123682881       -2.7412512407       -1.3033729798
 H         -1.4175856586       -2.8862952613       -1.1148750911
 H          1.6091205003        3.0450927249       -3.8962002736
 H          0.0801872034        3.7723459659       -3.3978195446
 H          1.5874640004        4.3311103360       -2.6911410209
 H          1.9502990607       -2.0051391747       -4.2261526248
 H          1.8505483833       -2.0738152127       -2.4519332578
 H          0.7724844697       -3.0428482646       -3.4133715973
 H         -1.2571784793       -0.1390506055       -4.7111374664
 H          0.1513621597       -0.8148490478       -5.5191343297
 H         -1.0680173400       -1.8914670570       -4.8295545501
 H         -0.1267159472        0.7152710249        2.0607059023
 H         -0.3391782276        1.9723848602        0.8579316403
 H         -1.6421669532        0.8246781733        1.1624242545
  42
    -0.010100 !GC
 C          0.0000000000        0.0000000000        0.0000000000
 C          1.5490600760        0.0000000000        0.0000000000
 C          2.2445721944        1.3604796915        0.0000000000
 C          2.2737710412        2.0410392565       -1.3610475062
 C          0.8995530318        2.4320919458       -1.9086229350
 C          0.1202711981        1.2067120103       -2.4269787373
 C         -0.6424054508        0.3274366699       -1.4003597036
 C         -0.4754476622       -1.4692690603        0.2670733809
 C         -0.5931133716       -2.1611382594       -1.1003828930
 C         -0.7952449252       -1.0391929051       -2.1543324339
 O          0.9257566089        0.3277293018       -3.2235375193
 C          0.2284804411       -0.9515560484       -3.3594496360
 H         -1.6318686951        0.7671745867       -1.2112192008
 H         -1.8084746168       -1.1117881739       -2.5736015098
 H         -0.6325631952        1.5906064955       -3.1360183591
 C          1.0568362599        3.4460014232       -3.0425848092
 C          1.2669258692       -2.0765433125       -3.3844262187
 C         -0.5424690839       -0.9460613103       -4.6849435928
 C         -0.5600832292        0.9277038819        1.0869552742
 H          1.8735663402       -0.5599831409        0.8857779823
 H          1.8985408815       -0.5846866315       -0.8550415922
 H          1.7784650407        2.0223721255        0.7380650682
 H          3.2784072369        1.2362799220        0.3538915798
 H          2.7616572513        1.3873989026       -2.0928938381
 H          2.9029608146        2.9391843213       -1.3077624721
 H          0.3152101348        2.8970720685       -1.0994210309
 H         -1.4446681068       -1.4538538996        0.7767021834
 H          0.2155383042       -1.9933543726        0.9359255809
 H          0.3107658750       -2.7384467271       -1.3079852206
 H         -1.4190488540       -2.8830248323       -1.1187133099
 H          1.5863872746        4.3321103307       -2.6918542824
 H          1.6087047062        3.0490664791       -3.8970006008
 H          0.0771630455        3.7716038115       -3.3929659581
 H          0.7907905860       -3.0534828020       -3.4617191888
 H          1.9265989811       -1.9548830077       -4.2424210585
 H          1.8925606599       -2.0546131632       -2.4947732098
 H          0.1277121286       -0.8234250098       -5.5352393843
 H         -1.0711050858       -1.8882452128       -4.8137540442
 H         -1.2796940444       -0.1436052331       -4.6972559483
 H         -0.1317349320        0.7141222750        2.0645529810
 H         -0.3393620972        1.9707964730        0.8604828474
 H         -1.6424019616        0.8218994068        1.1581208408
  42
    -0.010088 !GC
 C          0.0000000000        0.0000000000        0.0000000000
 C          1.5491134441        0.0000000000        0.0000000000
 C          2.2444540692        1.3605876109        0.0000000000
 C          2.2730030066        2.0417892774       -1.3607830803
 C          0.8984474287        2.4322330282       -1.9080175802
 C          0.1202770411        1.2064639104       -2.4272475592
 C         -0.6427330770        0.3273404429       -1.4008166468
 C         -0.4757730908       -1.4691484818        0.2671231091
 C         -0.5951905189       -2.1615551873       -1.0999507513
 C         -0.7943899795       -1.0394813491       -2.1542871245
 O          0.9269654155        0.3274665032       -3.2226184395
 C          0.2311901013       -0.9527405879       -3.3579397920
 H         -1.6323896494        0.7668552016       -1.2119175801
 H         -1.8068822114       -1.1114831951       -2.5756162337
 H         -0.6321493216        1.5897327946       -3.1370855737
 C          1.0544458576        3.4473823744       -3.0411242345
 C          1.2706960306       -2.0767804183       -3.3789085864
 C         -0.5371301212       -0.9498717152       -4.6848826836
 C         -0.5600233701        0.9280653870        1.0866851431
 H          1.8735329408       -0.5599374853        0.8858095636
 H          1.8985410098       -0.5846222868       -0.8549186225
 H          1.7787685914        2.0219915087        0.7387724206
 H          3.2785733496        1.2362567820        0.3531134337
 H          2.7610689037        1.3888180952       -2.0930514856
 H          2.9015785723        2.9403388945       -1.3073945225
 H          0.3136969749        2.8961997469       -1.0985692981
 H         -1.4444662728       -1.4532229079        0.7778172978
 H          0.2156791166       -1.9932211947        0.9354936724
 H          0.3066035109       -2.7416845111       -1.3076081613
 H         -1.4232761008       -2.8806979195       -1.1178960780
 H          1.5992480508        4.3347019553       -2.7150305432
 H          1.6066340801        3.0053333944       -3.8708013337
 H          0.0872280671        3.7733200945       -3.4265535546
 H          1.8928956854       -2.0543127515       -2.4870293026
 H          0.7954571673       -3.0540231089       -3.4578014045
 H          1.9336007889       -1.9550787037       -4.2341598120
 H         -1.2606196572       -0.1367766412       -4.7101427130
 H          0.1481476266       -0.8104609541       -5.5193110699
 H         -1.0701267059       -1.8888520130       -4.8308865165
 H         -1.6369208713        0.8293544333        1.1994389556
 H         -0.1257749645        0.6828719618        2.0573227913
 H         -0.3275210698        1.9684935778        0.8607754754
  42
    -0.010073 !GC
 C          0.0000000000        0.0000000000        0.0000000000
 C          1.5490671413        0.0000000000        0.0000000000
 C          2.2444594549        1.3605430575        0.0000000000
 C          2.2735797065        2.0413303058       -1.3609395516
 C          0.8993825579        2.4331672401       -1.9081024395
 C          0.1196747144        1.2082660769       -2.4268777241
 C         -0.6427637600        0.3283088137       -1.4006169080
 C         -0.4752623889       -1.4694629500        0.2661601317
 C         -0.5918962915       -2.1614143125       -1.1014050738
 C         -0.7953815258       -1.0390792476       -2.1546914486
 O          0.9247400118        0.3297818250       -3.2244222947
 C          0.2274154771       -0.9494046064       -3.3607951181
 H         -1.6322573275        0.7678090005       -1.2111004543
 H         -1.8088060934       -1.1120425513       -2.5734256342
 H         -0.6334391325        1.5927703790       -3.1352818090
 C          1.0564752856        3.4474553483       -3.0418378452
 C          1.2660351016       -2.0741337086       -3.3873881468
 C         -0.5445371114       -0.9427535780       -4.6856861270
 C         -0.5599959736        0.9272565871        1.0874087075
 H          1.8734535139       -0.5598970812        0.8858644193
 H          1.8986033232       -0.5847367938       -0.8549246404
 H          1.7784319030        2.0223361318        0.7382165896
 H          3.2783659238        1.2365166989        0.3537935099
 H          2.7609391795        1.3875814936       -2.0930467220
 H          2.9031755002        2.9392019892       -1.3077573912
 H          0.3151663708        2.8979497034       -1.0986593022
 H         -1.4447296893       -1.4544109275        0.7752915133
 H          0.2154811154       -1.9933660602        0.9353907399
 H          0.3127585401       -2.7373549631       -1.3093304641
 H         -1.4167665771       -2.8844718457       -1.1197511848
 H          1.6085181998        3.0045367026       -3.8712477639
 H          0.0897815897        3.7746776154       -3.4275898766
 H          1.6023646229        4.3340563637       -2.7158990876
 H          0.7900279929       -3.0509894126       -3.4650791416
 H          1.9249682163       -1.9519978989       -4.2457288166
 H          1.8923520429       -2.0527576158       -2.4983886749
 H         -1.0783047233       -1.8808129366       -4.8343018104
 H         -1.2670432439       -0.1286416631       -4.7069630047
 H          0.1393818904       -0.8006672125       -5.5209020533
 H         -1.6371866560        0.8231329585        1.1965699136
 H         -0.1277735269        0.6802029335        2.0581099055
 H         -0.3321244894        1.9695563871        0.8660210672
