      -----------------------------------------------------------      
     |                   =====================                   |     
     |                           x T B                           |     
     |                   =====================                   |     
     |                         S. Grimme                         |     
     |          Mulliken Center for Theoretical Chemistry        |     
     |                    University of Bonn                     |     
      -----------------------------------------------------------      

   * xtb version 6.7.1 (edcfbbe) compiled by 'albert@albert-system' on 2024-07-22

   xtb is free software: you can redistribute it and/or modify it under
   the terms of the GNU Lesser General Public License as published by
   the Free Software Foundation, either version 3 of the License, or
   (at your option) any later version.
   
   xtb is distributed in the hope that it will be useful,
   but WITHOUT ANY WARRANTY; without even the implied warranty of
   MERCHANTABILITY or FITNESS FOR A PARTICULAR PURPOSE.  See the
   GNU Lesser General Public License for more details.
   
   Cite this work as:
   * C. Bannwarth, E. Caldeweyher, S. Ehlert, A. Hansen, P. Pracht,
     J. Seibert, S. Spicher, S. Grimme, WIREs Comput. Mol. Sci., 2020, 11,
     e01493. DOI: 10.1002/wcms.1493
   
   for GFN2-xTB:
   * C. Bannwarth, S. Ehlert and S. Grimme., J. Chem. Theory Comput., 2019,
     15, 1652-1671. DOI: 10.1021/acs.jctc.8b01176
   for GFN1-xTB:
   * S. Grimme, C. Bannwarth, P. Shushkov, J. Chem. Theory Comput., 2017,
     13, 1989-2009. DOI: 10.1021/acs.jctc.7b00118
   for GFN0-xTB:
   * P. Pracht, E. Caldeweyher, S. Ehlert, S. Grimme, ChemRxiv, 2019, preprint.
     DOI: 10.26434/chemrxiv.8326202.v1
   for GFN-FF:
   * S. Spicher and S. Grimme, Angew. Chem. Int. Ed., 2020, 59, 15665-15673.
     DOI: 10.1002/anie.202004239
   
   for ALPB and GBSA implicit solvation:
   * S. Ehlert, M. Stahn, S. Spicher, S. Grimme, J. Chem. Theory Comput.,
     2021, 17, 4250-4261. DOI: 10.1021/acs.jctc.1c00471
   
   for ddCOSMO and CPCM-X implicit solvation:
   * M. Stahn, S. Ehlert, S. Grimme, J. Phys. Chem. A,
     2023, XX, XXXX-XXXX. DOI: 10.1021/acs.jpca.3c04382
   
   for DFT-D4:
   * E. Caldeweyher, C. Bannwarth and S. Grimme, J. Chem. Phys., 2017,
     147, 034112. DOI: 10.1063/1.4993215
   * E. Caldeweyher, S. Ehlert, A. Hansen, H. Neugebauer, S. Spicher,
     C. Bannwarth and S. Grimme, J. Chem. Phys., 2019, 150, 154122.
     DOI: 10.1063/1.5090222
   * E. Caldeweyher, J.-M. Mewes, S. Ehlert and S. Grimme, Phys. Chem. Chem. Phys.
     2020, 22, 8499-8512. DOI: 10.1039/D0CP00502A
   
   for sTDA-xTB:
   * S. Grimme and C. Bannwarth, J. Chem. Phys., 2016, 145, 054103.
     DOI: 10.1063/1.4959605
   
   in the mass-spec context:
   * V. Asgeirsson, C. Bauer and S. Grimme, Chem. Sci., 2017, 8, 4879.
     DOI: 10.1039/c7sc00601b
   * J. Koopman and S. Grimme, ACS Omega 2019, 4, 12, 15120-15133.
     DOI: 10.1021/acsomega.9b02011
   
   for metadynamics refer to:
   * S. Grimme, J. Chem. Theory Comput., 2019, 155, 2847-2862
     DOI: 10.1021/acs.jctc.9b00143
   
   for SPH calculations refer to:
   * S. Spicher and S. Grimme, J. Chem. Theory Comput., 2021, 17, 1701-1714
     DOI: 10.1021/acs.jctc.0c01306
   
   for ONIOM refer to:
   * C. Plett, A. Katbashev, S. Ehlert, S. Grimme, M. Bursch,
     Phys. Chem. Chem. Phys., 2023, 25, 17860-17868. DOI: 10.1039/D3CP02178E
   
   for DIPRO refer to:
   * J. Kohn, N. Gildemeister, S. Grimme, D. Fazzi, A. Hansen,
     J. Chem. Phys., 2023, just accepted.
   
   for PTB refer to:
   * S. Grimme, M. Mueller, A. Hansen, J. Chem. Phys., 2023, 158, 124111.
     DOI: 10.1063/5.0137838
   
   with help from (in alphabetical order)
   P. Atkinson, C. Bannwarth, F. Bohle, G. Brandenburg, E. Caldeweyher
   M. Checinski, S. Dohm, S. Ehlert, S. Ehrlich, I. Gerasimov, C. Hölzer
   A. Katbashev, J. Kohn, J. Koopman, C. Lavigne, S. Lehtola, F. März, M. Müller,
   F. Musil, H. Neugebauer, J. Pisarek, C. Plett, P. Pracht, F. Pultar,
   J. Seibert, P. Shushkov, S. Spicher, M. Stahn, M. Steiner, T. Strunk,
   J. Stückrath, T. Rose, and J. Unsleber
   
 * started run on 2026/08/09 at 17:48:09.401     
   ID    Z sym.   atoms
    1    6 c      1-8, 10-13, 16
    2    8 o      9, 15
    3    1 h      14, 17-35

           -------------------------------------------------
          |                Calculation Setup                |
           -------------------------------------------------

          program call               : /home/dinglab/software/xtb_6.7.1/xtb_dist/bin/xtb coord --gfn2 --sp --chrg 0 --norestart --parallel 12 --alpb chcl3 reference -I xcontrol-inp
          hostname                   : localhost
          coordinate file            : coord
          omp threads                :                    12


           -------------------------------------------------
          |                 G F N 2 - x T B                 |
           -------------------------------------------------

        Reference                      10.1021/acs.jctc.8b01176
      * Hamiltonian:
        H0-scaling (s, p, d)           1.850000    2.230000    2.230000
        zeta-weighting                 0.500000
      * Dispersion:
        s8                             2.700000
        a1                             0.520000
        a2                             5.000000
        s9                             5.000000
      * Repulsion:
        kExp                           1.500000    1.000000
        rExp                           1.000000
      * Coulomb:
        alpha                          2.000000
        third order                    shell-resolved
        anisotropic                    true
        a3                             3.000000
        a5                             4.000000
        cn-shift                       1.200000
        cn-exp                         4.000000
        max-rad                        5.000000

      * Solvation model:               ALPB
        Solvent                        chcl3
        Parameter file                 internal GFN2-xTB/ALPB
        Dielectric constant                4.8100E+00
        Reference state                gsolv=reference [X=1]
        Free energy shift                  2.5086E-03 Eh       1.5742E+00 kcal/mol
        Temperature                        2.9815E+02 K
        Density                            1.4900E+00 kg/L
        Solvent mass                       1.1938E+02 g/mol
        Interaction kernel             P16
        Born radius scaling (c1)           1.3274E+00
        Born radii integrator          GBOBC
        Born offset                        0.0000E+00 a0       0.0000E+00 AA
        H-bond correction              false
        Ion screening                  false
        Surface tension                    1.0000E-05 Eh       1.5569E+01 dyn/cm
        Grid points                               974 per atom

          ...................................................
          :                      SETUP                      :
          :.................................................:
          :  # basis functions                  80          :
          :  # atomic orbitals                  80          :
          :  # shells                           50          :
          :  # electrons                        84          :
          :  max. iterations                   250          :
          :  Hamiltonian                  GFN2-xTB          :
          :  restarted?                      false          :
          :  GBSA solvation                   true          :
          :  PC potential                    false          :
          :  electronic temp.          300.0000000     K    :
          :  accuracy                    1.0000000          :
          :  -> integral cutoff          0.2500000E+02      :
          :  -> integral neglect         0.1000000E-07      :
          :  -> SCF convergence          0.1000000E-05 Eh   :
          :  -> wf. convergence          0.1000000E-03 e    :
          :  Broyden damping             0.4000000          :
          :  net charge                          0          :
          :  unpaired electrons                  0          :
          ...................................................

 iter      E             dE          RMSdq      gap      omega  full diag
   1    -46.7330210 -0.467330E+02  0.343E+00    5.19       0.0  T
   2    -46.7744200 -0.413990E-01  0.195E+00    5.02       1.0  T
   3    -46.7686812  0.573883E-02  0.822E-01    4.91       1.0  T
   4    -46.7769438 -0.826258E-02  0.340E-01    4.85       1.0  T
   5    -46.7788975 -0.195369E-02  0.711E-02    4.87       1.0  T
   6    -46.7789223 -0.247993E-04  0.400E-02    4.88       1.0  T
   7    -46.7789263 -0.401273E-05  0.138E-02    4.88       1.2  T
   8    -46.7789286 -0.228370E-05  0.507E-03    4.88       3.3  T
   9    -46.7789290 -0.478432E-06  0.190E-03    4.88       8.9  T
  10    -46.7789291 -0.139838E-07  0.672E-04    4.88      25.1  T
  11    -46.7789291 -0.140632E-08  0.265E-04    4.88      63.8  T

   *** convergence criteria satisfied after 11 iterations ***

         #    Occupation            Energy/Eh            Energy/eV
      -------------------------------------------------------------
         1        2.0000           -0.6967427             -18.9593
       ...           ...                  ...                  ...
        36        2.0000           -0.4314865             -11.7413
        37        2.0000           -0.4235351             -11.5250
        38        2.0000           -0.4193400             -11.4108
        39        2.0000           -0.4142976             -11.2736
        40        2.0000           -0.3979531             -10.8289
        41        2.0000           -0.3953540             -10.7581
        42        2.0000           -0.3905586             -10.6276 (HOMO)
        43                         -0.2113503              -5.7511 (LUMO)
        44                         -0.1998496              -5.4382
        45                          0.0127299               0.3464
        46                          0.0298775               0.8130
        47                          0.0422951               1.1509
       ...                                ...                  ...
        80                          0.6503575              17.6971
      -------------------------------------------------------------
                  HL-Gap            0.1792083 Eh            4.8765 eV
             Fermi-level           -0.3009545 Eh           -8.1894 eV

 SCC (total)                   0 d,  0 h,  0 min,  0.043 sec
 SCC setup                      ...        0 min,  0.001 sec (  1.421%)
 Dispersion                     ...        0 min,  0.000 sec (  0.855%)
 classical contributions        ...        0 min,  0.000 sec (  0.059%)
 integral evaluation            ...        0 min,  0.001 sec (  3.101%)
 iterations                     ...        0 min,  0.037 sec ( 87.070%)
 molecular gradient             ...        0 min,  0.003 sec (  7.066%)
 printout                       ...        0 min,  0.000 sec (  0.346%)

         :::::::::::::::::::::::::::::::::::::::::::::::::::::
         ::                     SUMMARY                     ::
         :::::::::::::::::::::::::::::::::::::::::::::::::::::
         :: total energy             -46.159725047067 Eh    ::
         :: total w/o Gsasa/hb       -46.146664989379 Eh    ::
         :: gradient norm              0.008887725293 Eh/a0 ::
         :: HOMO-LUMO gap              4.876506255074 eV    ::
         ::.................................................::
         :: SCC energy               -46.778286667336 Eh    ::
         :: -> isotropic ES            0.063010663725 Eh    ::
         :: -> anisotropic ES          0.005635443215 Eh    ::
         :: -> anisotropic XC          0.017173263893 Eh    ::
         :: -> dispersion             -0.036523262133 Eh    ::
         :: -> Gsolv                  -0.021368657838 Eh    ::
         ::    -> Gelec               -0.008308600150 Eh    ::
         ::    -> Gsasa               -0.015568705689 Eh    ::
         ::    -> Ghb                  0.000000000000 Eh    ::
         ::    -> Gshift               0.002508648001 Eh    ::
         :: repulsion energy           0.618561620269 Eh    ::
         :: add. restraining           0.000000000000 Eh    ::
         :: total charge               0.000000000000 e     ::
         :::::::::::::::::::::::::::::::::::::::::::::::::::::

           -------------------------------------------------
          |                Property Printout                |
           -------------------------------------------------

    * Orbital Energies and Occupations

         #    Occupation            Energy/Eh            Energy/eV
      -------------------------------------------------------------
         1        2.0000           -0.6967427             -18.9593
       ...           ...                  ...                  ...
        30        2.0000           -0.4672882             -12.7156
        31        2.0000           -0.4588642             -12.4863
        32        2.0000           -0.4541822             -12.3589
        33        2.0000           -0.4500387             -12.2462
        34        2.0000           -0.4459748             -12.1356
        35        2.0000           -0.4417809             -12.0215
        36        2.0000           -0.4314865             -11.7413
        37        2.0000           -0.4235351             -11.5250
        38        2.0000           -0.4193400             -11.4108
        39        2.0000           -0.4142976             -11.2736
        40        2.0000           -0.3979531             -10.8289
        41        2.0000           -0.3953540             -10.7581
        42        2.0000           -0.3905586             -10.6276 (HOMO)
        43                         -0.2113503              -5.7511 (LUMO)
        44                         -0.1998496              -5.4382
        45                          0.0127299               0.3464
        46                          0.0298775               0.8130
        47                          0.0422951               1.1509
        48                          0.0449018               1.2218
        49                          0.0614958               1.6734
        50                          0.0733447               1.9958
        51                          0.0809258               2.2021
        52                          0.0873853               2.3779
        53                          0.0958642               2.6086
       ...                                ...                  ...
        80                          0.6503575              17.6971
      -------------------------------------------------------------
                  HL-Gap            0.1792083 Eh            4.8765 eV
             Fermi-level           -0.3009545 Eh           -8.1894 eV

     #   Z          covCN         q      C6AA      α(0)
     1   6 c        3.929    -0.010    20.694     6.465
     2   6 c        3.853    -0.029    21.051     6.526
     3   6 c        3.803    -0.063    21.713     6.634
     4   6 c        3.808    -0.055    21.565     6.611
     5   6 c        3.887    -0.038    21.205     6.547
     6   6 c        3.780     0.113    18.748     6.168
     7   6 c        3.840    -0.072    21.854     6.650
     8   6 c        2.979     0.009    27.807     8.650
     9   8 o        1.656    -0.490    22.688     6.430
    10   6 c        3.678     0.082    19.420     6.313
    11   6 c        2.838    -0.113    30.848     9.102
    12   6 c        2.935     0.012    27.747     8.639
    13   6 c        2.845    -0.116    30.924     9.114
    14   1 h        0.923     0.045     2.389     2.417
    15   8 o        1.655    -0.483    22.519     6.406
    16   6 c        3.761    -0.116    22.763     6.801
    17   1 h        0.924     0.040     2.443     2.444
    18   1 h        0.924     0.041     2.430     2.438
    19   1 h        0.924     0.039     2.467     2.456
    20   1 h        0.924     0.037     2.483     2.464
    21   1 h        0.924     0.037     2.483     2.464
    22   1 h        0.924     0.028     2.619     2.531
    23   1 h        0.924     0.055     2.259     2.351
    24   1 h        0.924     0.053     2.284     2.364
    25   1 h        0.805     0.321     0.661     1.277
    26   1 h        0.924     0.042     2.428     2.437
    27   1 h        0.923     0.025     2.661     2.551
    28   1 h        0.926     0.036     2.502     2.474
    29   1 h        0.926     0.036     2.504     2.474
    30   1 h        0.926     0.035     2.521     2.483
    31   1 h        0.926     0.040     2.452     2.449
    32   1 h        0.805     0.314     0.679     1.295
    33   1 h        0.925     0.055     2.261     2.352
    34   1 h        0.924     0.044     2.398     2.422
    35   1 h        0.925     0.047     2.361     2.403

 Mol. C6AA /au·bohr⁶  :      10388.972381
 Mol. C8AA /au·bohr⁸  :     233639.650800
 Mol. α(0) /au        :        153.599904


Wiberg/Mayer (AO) data.
largest (>0.10) Wiberg bond orders for each atom

 ---------------------------------------------------------------------------
     #   Z sym  total        # sym  WBO       # sym  WBO       # sym  WBO
 ---------------------------------------------------------------------------
     1   6 c    3.989 --     7 c    0.982    10 c    0.979     2 c    0.958
                             6 c    0.957
     2   6 c    3.993 --    12 c    0.998     3 c    0.988     1 c    0.958
                            14 h    0.954
     3   6 c    3.996 --     4 c    1.009     2 c    0.988    18 h    0.976
                            17 h    0.975
     4   6 c    3.997 --     3 c    1.009     5 c    0.981    20 h    0.975
                            19 h    0.966
     5   6 c    3.995 --     8 c    0.996     4 c    0.981    21 h    0.965
                             6 c    0.962
     6   6 c    3.952 --     9 o    1.002     5 c    0.962    22 h    0.961
                             1 c    0.957
     7   6 c    3.995 --     8 c    1.005     1 c    0.982    23 h    0.964
                            24 h    0.958
     8   6 c    3.986 --    11 c    1.936     7 c    1.005     5 c    0.996
     9   8 o    1.952 --     6 c    1.002    25 h    0.852
    10   6 c    3.951 --    15 o    0.997     1 c    0.979    26 h    0.969
                            27 h    0.962
    11   6 c    3.988 --     8 c    1.936    28 h    0.975    29 h    0.975
    12   6 c    3.986 --    13 c    1.916    16 c    1.023     2 c    0.998
    13   6 c    3.988 --    12 c    1.916    30 h    0.974    31 h    0.963
    14   1 h    0.998 --     2 c    0.954
    15   8 o    1.939 --    10 c    0.997    32 h    0.876
    16   6 c    3.995 --    12 c    1.023    35 h    0.982    34 h    0.972
                            33 h    0.961
    17   1 h    0.998 --     3 c    0.975
    18   1 h    0.998 --     3 c    0.976
    19   1 h    0.998 --     4 c    0.966
    20   1 h    0.998 --     4 c    0.975
    21   1 h    0.998 --     5 c    0.965
    22   1 h    0.999 --     6 c    0.961
    23   1 h    0.997 --     7 c    0.964
    24   1 h    0.996 --     7 c    0.958
    25   1 h    0.897 --     9 o    0.852
    26   1 h    0.998 --    10 c    0.969
    27   1 h    0.999 --    10 c    0.962
    28   1 h    0.998 --    11 c    0.975
    29   1 h    0.998 --    11 c    0.975
    30   1 h    0.998 --    13 c    0.974
    31   1 h    0.998 --    13 c    0.963
    32   1 h    0.901 --    15 o    0.876
    33   1 h    0.997 --    16 c    0.961
    34   1 h    0.998 --    16 c    0.972
    35   1 h    0.997 --    16 c    0.982
 ---------------------------------------------------------------------------

Topologies differ in total number of bonds
Writing topology from bond orders to xtbtopo.mol

molecular dipole:
                 x           y           z       tot (Debye)
 q only:        0.240       0.842      -0.753
   full:        0.353       1.054      -0.859       3.571
molecular quadrupole (traceless):
                xx          xy          yy          xz          yz          zz
 q only:        5.276       2.257      -2.770      -1.603      -0.906      -2.507
  q+dip:        7.738       3.464      -3.603      -1.574      -0.430      -4.135
   full:        7.103       3.515      -3.528      -2.078      -1.293      -3.575


           -------------------------------------------------
          | TOTAL ENERGY              -46.159725047067 Eh   |
          | GRADIENT NORM               0.008887725293 Eh/α |
          | HOMO-LUMO GAP               4.876506255074 eV   |
           -------------------------------------------------

------------------------------------------------------------------------
 * finished run on 2026/08/09 at 17:48:09.461     
------------------------------------------------------------------------
 total:
 * wall-time:     0 d,  0 h,  0 min,  0.059 sec
 *  cpu-time:     0 d,  0 h,  0 min,  0.643 sec
 * ratio c/w:    10.861 speedup
 SCF:
 * wall-time:     0 d,  0 h,  0 min,  0.043 sec
 *  cpu-time:     0 d,  0 h,  0 min,  0.499 sec
 * ratio c/w:    11.574 speedup

normal termination of xtb
