
                                 *****************
                                 * O   R   C   A *
                                 *****************

                                            #,                                       
                                            ###                                      
                                            ####                                     
                                            #####                                    
                                            ######                                   
                                           ########,                                 
                                     ,,################,,,,,                         
                               ,,#################################,,                 
                          ,,##########################################,,             
                       ,#########################################, ''#####,          
                    ,#############################################,,   '####,        
                  ,##################################################,,,,####,       
                ,###########''''           ''''###############################       
              ,#####''   ,,,,##########,,,,          '''####'''          '####       
            ,##' ,,,,###########################,,,                        '##       
           ' ,,###''''                  '''############,,,                           
         ,,##''                                '''############,,,,        ,,,,,,###''
      ,#''                                            '''#######################'''  
     '                                                          ''''####''''         
             ,#######,   #######,   ,#######,      ##                                
            ,#'     '#,  ##    ##  ,#'     '#,    #''#        ,####,    ,#,          
            ##       ##  ##   ,#'  ##            #'  '#       #'       ,# #          
            ##       ##  #######   ##           ,######,      #####,      #          
            '#,     ,#'  ##    ##  '#,     ,#' ,#      #,     #,   #      #          
             '#######'   ##     ##  '#######'  #'      '#     '####' #    #          



                #########################################################
                #                        -***-                          #
                #          Department of theory and spectroscopy        #
                #                                                       #
                #                      Frank Neese                      #
                #                                                       #
                #     Directorship, Architecture, Infrastructure        #
                #                    SHARK, DRIVERS                     #
                #        Core code/Algorithms in most modules           #
                #                                                       #
                #        Max Planck Institute fuer Kohlenforschung      #
                #                Kaiser Wilhelm Platz 1                 #
                #                 D-45470 Muelheim/Ruhr                 #
                #                      Germany                          #
                #                                                       #
                #                  All rights reserved                  #
                #                        -***-                          #
                #########################################################


                         Program Version 6.1.1  -  RELEASE   -
                                (GIT: $487d211c$)
                          ($2025-11-21 10:33:24 +0100$)


 With contributions from (in alphabetic order):
[Max-Planck-Institut fuer Kohlenforschung]                               
  Daniel Aravena         : Magnetic Suceptibility                        
  Michael Atanasov       : Ab Initio Ligand Field Theory (pilot matlab implementation)
  Alexander A. Auer      : GIAO ZORA, VPT2 properties, NMR spectrum      
  Ute Becker             : All parallelization in ORCA, NUMFREQ, NUMCALC 
  Giovanni Bistoni       : ED, misc. LED, open-shell LED, HFLD           
  Dmytro Bykov           : pre 5.0 version of the SCF Hessian            
  Marcos Casanova-Páez   : Triplet and SCS-CIS(D). UHF-(DLPNO)-IP/EA/STEOM-CCSD. UHF-CVS-IP/STEOM-CCSD   
  Vijay G. Chilkuri      : MRCI spin determinant printing, contributions to CSF-ICE 
  Pauline Colinet        : FMM embedding                                 
  Dipayan Datta          : RHF DLPNO-CCSD density                        
  Achintya Kumar Dutta   : EOM-CC, STEOM-CC                              
  Nicolas Foglia         : Exact transition moments, OPA infrastructure, MCD improvements    
  Dmitry Ganyushin       : Spin-Orbit,Spin-Spin,Magnetic field MRCI      
  Miquel Garcia-Rates    : C-PCM and meta-GGA Hessian, CCSD/C-PCM, Gaussian charge scheme 
  Tiago L. C. Gouveia    : GS-ROHF, GS-ROCIS                             
  Yang Guo               : DLPNO-NEVPT2, F12-NEVPT2, CIM, IAO-localization        
  Andreas Hansen         : Spin unrestricted coupled pair/coupled cluster methods 
  Ingolf Harden          : AUTO-CI MPn and infrastructure                
  Benjamin Helmich-Paris : MC-RPA, TRAH-(SCF,CASSCF), AVAS, COSX integrals, SCF dyn. polar., MC-PDFT, srDFT 
  Lee Huntington         : MR-EOM, pCC                                   
  Robert Izsak           : Overlap fitted RIJCOSX, COSX-SCS-MP3, EOM     
  Riya Kayal             : Wick's Theorem for AUTO-CI, AUTO-CI UHF-CCSDT 
  Emily Kempfer          : AUTO-CI RHF CISDT and CCSDT, approximate NEVPT4
  Christian Kollmar      : KDIIS, OOCD, Brueckner-CCSD(T), CCSD density, CASPT2, CASPT2-K, improved NEVPT2 
  Axel Koslowski         : Symmetry handling                             
  Simone Kossmann        : meta-GGA functionals, TD-DFT gradient, OOMP2, (MP2 Hessian; deprecated post 5.0) 
  Lucas Lang             : DCDCAS, Hyperfine gauge corrections, ICE-SOC+SSC
  Marvin Lechner         : AUTO-CI (C++ implementation), FIC-MRCC        
  Spencer Leger          : CASSCF response                               
  Dagmar Lenk            : GEPOL surface, SMD, ORCA-2-JSON               
  Dimitrios Liakos       : Extrapolation schemes; Compound Job, Property file
  Dimitrios Manganas     : Further ROCIS development; embedding schemes. LFT, Crystal Embedding 
  Dimitrios Pantazis     : SARC Basis sets                               
  Anastasios Papadopoulos: AUTO-CI, single reference methods and gradients 
  Taras Petrenko         : pre 6.0 DFT Hessian and TD-DFT gradient,  ECA, NRVS 
  Petra Pikulova         : Analytic Raman intensities                    
  Peter Pinski           : DLPNO-MP2, DLPNO-MP2 Gradient                 
  Shashank Vittal Rao    : ES-AILFT, MagRelax                            
  Christoph Reimann      : Effective Core Potentials                     
  Marius Retegan         : Local ZFS, SOC                                
  Christoph Riplinger    : Optimizer, TS searches, QM/MM, DLPNO-CCSD(T), (RO)-DLPNO pert. Triples 
  Michael Roemelt        : Original ROCIS implementation, recursive CI coupling coefficients
  Masaaki Saitow         : Open-shell DLPNO-CCSD energy and density      
  Barbara Sandhoefer     : DKH picture change effects                    
  Yorick L. A. Schmerwitz: GMF and freeze-and-release deltaSCF, NEB S-IDPP initial path                    
  Kantharuban Sivalingam : CASSCF convergence/infrastructure, NEVPT2, NEVPT3, NEVPT4(SD), FIC-MRCI and CEPA variants
  Bernardo de Souza      : ESD, SOC TD-DFT                               
  Georgi L. Stoychev     : AutoAux, RI-MP2 NMR, DLPNO-MP2 response, X2C  
  Van Anh Tran           : RI-MP2 g-tensors                              
  Willem Van den Heuvel  : Paramagnetic NMR                              
  Zikuan Wang            : NOTCH, Electric field optimization            
  Frank Wennmohs         : Technical directorship and infrastructure     
  Hang Xu                : AUTO-CI-Response properties                   
                                                                         
[FACCTs GmbH]                                                            
  Markus Bursch, Nicolas Foglia, Miquel Garcia-Rates, Ingolf Harden, Hagen Neugebauer, Anastasios Papadopoulos, 
  Christoph Riplinger, Bernardo de Souza, Georgi L. Stoychev                                                    
                                                                 
  APM, various basis sets, CI-OPT, improved COSX, DLPNO-Multilevel,           
  DOCKER, DRACO, updates on ESD, Fragmentator, GOAT, IRC, LR-CPCM, L-BFGS, MBIS, meta-GGA TD-DFT gradient, ML-optimized integration grids, 
  MM, NACMEs, nearIR, NEB, NEB-TS, NL-DFT gradient (VV10), 2- and 3-layer-ONIOM, interface openCOSMO-RS, QMMM,   
  Crystal-QMMM, RESP, rigid body optimization, SF, symmetry and pop. for TD-DFT, various functionals, SOLVATOR                                   
                                                                         
[Other institutions]                                                     
  V. Asgeirsson          : NEB                                           
  Christoph Bannwarth    : sTDA-DFT, sTD-DFT, PBEh-3c, B97-3c, D3        
  Giovanni Bistoni       : ETS/NOCV, ADLD/ADEX, COVALED                  
  Martin Brehm           : Molecular dynamics                            
  Ronald Cardenas        : ETS/NOCV                                      
  Martina Colucci        : COVALED                                       
  Sebastian Ehlert       : rSCAN, r2SCAN, r2SCAN-3c, D4, dhf basis sets  
  Marvin Friede          : D4 for Fr, Ra, Ac-Lr                          
  Lars Goerigk           : TD-DFT with DH, B97 family of functionals     
  Stefan Grimme          : VdW corrections, initial TS optimization, DFT functionals, gCP, sTDA/sTD-DF 
  Waldemar Hujo          : DFT-NL                                        
  H. Jonsson             : NEB                                           
  Holger Kruse           : gCP                                           
  Marcel Mueller         : wB97X-3c, vDZP basis set                      
  Hagen Neugebauer       : wr2SCAN, Native XTB                           
  Gianluca Regni         : ADLD/ADEX                                     
  Tobias Risthaus        : pre 6.0 range-separated hybrid DFT and stability analysis
  Lukas Wittmann         : regularized MP2, r2SCAN double-hybrids, wr2SCAN        
                                                                         
We gratefully acknowledge several colleagues who have allowed us to      
interface, adapt or use parts of their codes:                            
  Ed Valeev, F. Pavosevic, A. Kumar             : LibInt (2-el integral package), F12 methods 
  Garnet Chan, S. Sharma, J. Yang, R. Olivares  : DMRG                   
  Ulf Ekstrom                                   : XCFun DFT Library      
  Mihaly Kallay                                 : mrcc  (arbitrary order and MRCC methods)
  Frank Weinhold                                : gennbo (NPA and NBO analysis)           
  Simon Mueller                                 : openCOSMO-RS                            
  Christopher J. Cramer and Donald G. Truhlar   : smd solvation model                     
  S Lehtola, MJT Oliveira, MAL Marques          : LibXC Library                           
  Liviu Ungur et al                             : ANISO software                          


 Your calculation uses the libint2 library for the computation of 2-el integrals
 For citations please refer to: http://libint.valeyev.net

 Your ORCA version has been built with support for libXC version: 7.0.0
 For citations please refer to: https://libxc.gitlab.io

 This ORCA versions uses:
   CBLAS   interface :  Fast vector & matrix operations
   LAPACKE interface :  Fast linear algebra routines
   SCALAPACK package :  Parallel linear algebra routines
   Shared memory     :  Shared parallel matrices
   BLAS/LAPACK       :  OpenBLAS 0.3.29  USE64BITINT DYNAMIC_ARCH NO_AFFINITY Haswell SINGLE_THREADED
        Core in use  :  Haswell
   Copyright (c) 2011-2014, The OpenBLAS Project


  ***********************************
  * Starting time: Sun Aug  9 20:55:47 2026
  * Host name:     localhost.localdomain
  * Process ID:    3113130
  * Working dir.:  /home/dinglab/calculation/templates/NMR_modules/STS/alpha_melo_screening/CONF2/part3
  ***********************************

NOTE: MaxCore=2500 MB was set to SCF,MP2,MDCI,CIPSI,MRCI,RASCI and CIS
      => If you want to overwrite this, your respective input block should be placed after the MaxCore statement
Your calculation utilizes the DFT-NL dispersion correction.
Cite in your paper:
Vydrov, O. A.; Van Voorhis, T. J. Chem. Phys. 2010, 133, 244103
Hujo, W.; Grimme, S. J. Chem. Theory Comput. 2011, 7, 3866 
   

Your calculation utilizes the SMD solvation module
Please cite in your paper:
Marenich, A. V.; Cramer, C. J.; Truhlar, D. G. J. Phys. Chem. B 2009, 113, 6378 

================================================================================

----- Orbital basis set information -----
Your calculation utilizes the basis: def2-TZVP
   F. Weigend and R. Ahlrichs, Phys. Chem. Chem. Phys. 7, 3297 (2005).

----- AuxJ basis set information -----
Your calculation utilizes the auxiliary basis: def2/J
   H-Rn: F. Weigend, Phys. Chem. Chem. Phys. 8, 1057 (2006).
   Fr-Lr: K. Eichkorn, F. Weigend, O. Treutler, R. Ahlrichs; Theor. Chem. Acc. 97, 119 (1997).

================================================================================
                                        WARNINGS
                       Please study these warnings very carefully!
================================================================================


WARNING: B97M-V or wB97M-V functional requested.
  ===> : libXC variant has now been activated.
         Any manually given DFX/HFX/RangeSep scaling parameters are IGNORED!


================================================================================
                                       INPUT FILE
================================================================================
NAME = inp
|  1> ! wb97m-v
|  2> ! def2-TZVP
|  3> ! def2/J RIJCOSX
|  4> ! DEFGRID2
|  5> ! scfconv7
|  6> ! miniprint nopop noautostart
|  7> %MaxCore 2500
|  8> %pal
|  9>     nprocs 12
| 10> end
| 11> %cpcm
| 12>     smd    true
| 13>     smdsolvent "CHLOROFORM"
| 14> end
| 15> *xyz 0 1
| 16> C    0.1024188023   0.5245401543   2.6160986629
| 17> C    1.5921648182   0.8167476307   2.4245412972
| 18> C   -2.3457389230  -3.2100109843  -0.3372422136
| 19> C   -3.4014309976  -2.7490645838   0.4509744788
| 20> C   -3.3044842646  -1.5164327187   1.0734314734
| 21> C   -2.1703033326  -0.7065429406   0.8991849944
| 22> C   -1.1318420304  -1.1283046605   0.0426536837
| 23> C   -1.2349471881  -2.4000648250  -0.5337702340
| 24> N   -2.1053756630   0.4917281034   1.6205875315
| 25> C   -0.8430151256   1.2089841567   1.6046578063
| 26> C   -0.2324817540   1.2552217105   0.1726183894
| 27> C    0.0305715232  -0.2033304681  -0.3170406669
| 28> C    1.1564834079   1.8821359980   0.2445251188
| 29> C    1.9732707065   0.7693679791   0.9281466009
| 30> C    1.4126626497  -0.5593454608   0.3480617226
| 31> C    3.4425611379   0.9605921219   0.7481438473
| 32> C    4.2257750405   0.0959503583   0.1106316331
| 33> C    3.7165181772  -1.1807609792  -0.4715158044
| 34> N    2.2402997691  -1.1856264097  -0.7668111351
| 35> C    1.8830356960  -0.3572705468  -1.9697951295
| 36> C    0.3713283663  -0.2096042613  -1.8506376107
| 37> O    1.8363385813  -2.4767542429  -0.9747892394
| 38> H    1.3523890272  -1.3439109643   1.1048629279
| 39> C   -1.1491513663   2.0922625917  -0.6988406447
| 40> O   -0.9920648544   3.2844003430  -0.8832557279
| 41> O   -2.1763041408   1.3990149400  -1.2102439807
| 42> C   -3.1085555700   2.1553651897  -2.0216757821
| 43> H   -0.2183643484   0.8070247579   3.6246403594
| 44> H   -0.0652019030  -0.5563305928   2.5385597057
| 45> H    1.8538482408   1.8101037934   2.8099865913
| 46> H    2.1827079129   0.0807153989   2.9840315084
| 47> H   -2.3910817275  -4.1907398556  -0.8017622552
| 48> H   -4.2870791113  -3.3610087824   0.6009801117
| 49> H   -4.1003650340  -1.1626612597   1.7250178457
| 50> H   -0.4039429198  -2.7501518480  -1.1392171404
| 51> H   -2.9367403796   1.0627827930   1.5629868480
| 52> H   -1.0304172635   2.2438324850   1.9186263516
| 53> H    1.1704199097   2.8102121841   0.8248741405
| 54> H    1.5303789551   2.1180935910  -0.7564826382
| 55> H    3.8624196759   1.8761210945   1.1637194530
| 56> H    5.2926827758   0.2830227394   0.0086741990
| 57> H    4.2117444387  -1.4322427096  -1.4153555141
| 58> H    3.8703061376  -2.0249992012   0.2109502057
| 59> H    2.4115175832   0.6004447493  -1.9135435471
| 60> H    2.2121643586  -0.9090498008  -2.8523059101
| 61> H   -0.1309643342  -1.0409018771  -2.3448797088
| 62> H    0.0425042494   0.7104562234  -2.3416429277
| 63> H   -2.6003141523   2.5569908499  -2.9021032550
| 64> H   -3.8784261047   1.4417247880  -2.3134781377
| 65> H   -3.5385083109   2.9741089372  -1.4395204071
| 66> *
| 67> 
| 68>                          ****END OF INPUT****
================================================================================

                       ****************************
                       * Single Point Calculation *
                       ****************************

---------------------------------
CARTESIAN COORDINATES (ANGSTROEM)
---------------------------------
  C      0.102419    0.524540    2.616099
  C      1.592165    0.816748    2.424541
  C     -2.345739   -3.210011   -0.337242
  C     -3.401431   -2.749065    0.450974
  C     -3.304484   -1.516433    1.073431
  C     -2.170303   -0.706543    0.899185
  C     -1.131842   -1.128305    0.042654
  C     -1.234947   -2.400065   -0.533770
  N     -2.105376    0.491728    1.620588
  C     -0.843015    1.208984    1.604658
  C     -0.232482    1.255222    0.172618
  C      0.030572   -0.203330   -0.317041
  C      1.156483    1.882136    0.244525
  C      1.973271    0.769368    0.928147
  C      1.412663   -0.559345    0.348062
  C      3.442561    0.960592    0.748144
  C      4.225775    0.095950    0.110632
  C      3.716518   -1.180761   -0.471516
  N      2.240300   -1.185626   -0.766811
  C      1.883036   -0.357271   -1.969795
  C      0.371328   -0.209604   -1.850638
  O      1.836339   -2.476754   -0.974789
  H      1.352389   -1.343911    1.104863
  C     -1.149151    2.092263   -0.698841
  O     -0.992065    3.284400   -0.883256
  O     -2.176304    1.399015   -1.210244
  C     -3.108556    2.155365   -2.021676
  H     -0.218364    0.807025    3.624640
  H     -0.065202   -0.556331    2.538560
  H      1.853848    1.810104    2.809987
  H      2.182708    0.080715    2.984032
  H     -2.391082   -4.190740   -0.801762
  H     -4.287079   -3.361009    0.600980
  H     -4.100365   -1.162661    1.725018
  H     -0.403943   -2.750152   -1.139217
  H     -2.936740    1.062783    1.562987
  H     -1.030417    2.243832    1.918626
  H      1.170420    2.810212    0.824874
  H      1.530379    2.118094   -0.756483
  H      3.862420    1.876121    1.163719
  H      5.292683    0.283023    0.008674
  H      4.211744   -1.432243   -1.415356
  H      3.870306   -2.024999    0.210950
  H      2.411518    0.600445   -1.913544
  H      2.212164   -0.909050   -2.852306
  H     -0.130964   -1.040902   -2.344880
  H      0.042504    0.710456   -2.341643
  H     -2.600314    2.556991   -2.902103
  H     -3.878426    1.441725   -2.313478
  H     -3.538508    2.974109   -1.439520

----------------------------
CARTESIAN COORDINATES (A.U.)
----------------------------
  NO LB      ZA    FRAG     MASS         X           Y           Z
   0 C     6.0000    0    12.011    0.193543    0.991237    4.943710
   1 C     6.0000    0    12.011    3.008755    1.543429    4.581719
   2 C     6.0000    0    12.011   -4.432804   -6.066042   -0.637295
   3 C     6.0000    0    12.011   -6.427773   -5.194979    0.852218
   4 C     6.0000    0    12.011   -6.244570   -2.865643    2.028492
   5 C     6.0000    0    12.011   -4.101279   -1.335173    1.699213
   6 C     6.0000    0    12.011   -2.138871   -2.132187    0.080604
   7 C     6.0000    0    12.011   -2.333712   -4.535465   -1.008680
   8 N     7.0000    0    14.007   -3.978583    0.929231    3.062467
   9 C     6.0000    0    12.011   -1.593068    2.284649    3.032364
  10 C     6.0000    0    12.011   -0.439327    2.372025    0.326201
  11 C     6.0000    0    12.011    0.057772   -0.384239   -0.599120
  12 C     6.0000    0    12.011    2.185437    3.556722    0.462086
  13 C     6.0000    0    12.011    3.728941    1.453895    1.753943
  14 C     6.0000    0    12.011    2.669546   -1.057010    0.657741
  15 C     6.0000    0    12.011    6.505498    1.815256    1.413787
  16 C     6.0000    0    12.011    7.985558    0.181320    0.209063
  17 C     6.0000    0    12.011    7.023202   -2.231315   -0.891036
  18 N     7.0000    0    14.007    4.233553   -2.240509   -1.449063
  19 C     6.0000    0    12.011    3.558422   -0.675143   -3.722373
  20 C     6.0000    0    12.011    0.701709   -0.396095   -3.497198
  21 O     8.0000    0    15.999    3.470177   -4.680387   -1.842085
  22 H     1.0000    0     1.008    2.555645   -2.539624    2.087888
  23 C     6.0000    0    12.011   -2.171581    3.953803   -1.320617
  24 O     8.0000    0    15.999   -1.874731    6.206617   -1.669111
  25 O     8.0000    0    15.999   -4.112619    2.643755   -2.287030
  26 C     6.0000    0    12.011   -5.874319    4.073050   -3.820414
  27 H     1.0000    0     1.008   -0.412649    1.525056    6.849578
  28 H     1.0000    0     1.008   -0.123214   -1.051312    4.797183
  29 H     1.0000    0     1.008    3.503265    3.420600    5.310105
  30 H     1.0000    0     1.008    4.124720    0.152530    5.639002
  31 H     1.0000    0     1.008   -4.518490   -7.919351   -1.515111
  32 H     1.0000    0     1.008   -8.101405   -6.351386    1.135688
  33 H     1.0000    0     1.008   -7.748567   -2.197111    3.259811
  34 H     1.0000    0     1.008   -0.763341   -5.197034   -2.152808
  35 H     1.0000    0     1.008   -5.549635    2.008368    2.953617
  36 H     1.0000    0     1.008   -1.947206    4.240229    3.625678
  37 H     1.0000    0     1.008    2.211773    5.310531    1.558786
  38 H     1.0000    0     1.008    2.891997    4.002617   -1.429545
  39 H     1.0000    0     1.008    7.298915    3.545355    2.199111
  40 H     1.0000    0     1.008   10.001721    0.534835    0.016392
  41 H     1.0000    0     1.008    7.959044   -2.706546   -2.674634
  42 H     1.0000    0     1.008    7.313819   -3.826694    0.398638
  43 H     1.0000    0     1.008    4.557108    1.134676   -3.616073
  44 H     1.0000    0     1.008    4.180385   -1.717855   -5.390077
  45 H     1.0000    0     1.008   -0.247487   -1.967019   -4.431180
  46 H     1.0000    0     1.008    0.080321    1.342568   -4.425064
  47 H     1.0000    0     1.008   -4.913882    4.832012   -5.484180
  48 H     1.0000    0     1.008   -7.329163    2.724465   -4.371840
  49 H     1.0000    0     1.008   -6.686812    5.620251   -2.720299



           ************************************************************
           *        Program running with 12 parallel MPI-processes    *
           *              working on a common directory               *
           ************************************************************
------------------------------------------------------------------------------
                   ___                                                        
                  /   \      - P O W E R E D   B Y -                         
                 /     \                                                     
                 |  |  |   _    _      __       _____    __    __             
                 |  |  |  | |  | |    /  \     |  _  \  |  |  /  |          
                  \  \/   | |  | |   /    \    | | | |  |  | /  /          
                 / \  \   | |__| |  /  /\  \   | |_| |  |  |/  /          
                |  |  |   |  __  | /  /__\  \  |    /   |      \           
                |  |  |   | |  | | |   __   |  |    \   |  |\   \          
                \     /   | |  | | |  |  |  |  | |\  \  |  | \   \       
                 \___/    |_|  |_| |__|  |__|  |_| \__\ |__|  \__/        
                                                                              
                      - O R C A' S   B I G   F R I E N D -                    
                                      &                                       
                       - I N T E G R A L  F E E D E R -                       
                                                                              
 v1 FN, 2020, v2 2021, v3 2022-2024                                           
------------------------------------------------------------------------------


----------------------
SHARK INTEGRAL PACKAGE
----------------------

Number of atoms                             ...     50
Number of basis functions                   ...    950
Number of shells                            ...    382
Maximum angular momentum                    ...      3
Integral batch strategy                     ... SHARK/LIBINT Hybrid
RI-J (if used) integral strategy            ... SPLIT-RIJ (Revised 2003 algorithm where possible)
Printlevel                                  ...      1
Contraction scheme used                     ... SEGMENTED contraction
Prescreening option                         ... SCHWARTZ
   Thresh                                   ... 3.000e-11
   Tcut                                     ... 1.000e-12
   Tpresel                                  ... 1.000e-12 
Coulomb Range Separation                    ... NOT USED
Exchange Range Separation                   ... Long Range
   Mu parameter                             ... 3.000e-01
   Scaling (regular/separated)              ... 1.500e-01 8.500e-01
Robust (split-)RI terms used:
  metric    (central integrals)             ... YES
  density   (r.h.s.  integrals)             ... YES
  potential (l.h.s.  integrals)             ... YES
Multipole approximations                    ... NOT USED
Finite Nucleus Model                        ... NOT USED
CABS basis                                  ... NOT available
Auxiliary Coulomb fitting basis             ... AVAILABLE
   # of basis functions in Aux-J            ...   1538
   # of shells in Aux-J                     ...    510
   Maximum angular momentum in Aux-J        ...      4
Auxiliary J/K fitting basis                 ... NOT available
Auxiliary Correlation fitting basis         ... NOT available
Auxiliary 'external' fitting basis          ... NOT available

Checking pre-screening integrals            ... done (  0.0 sec) Dimension = 382
   => SHARK Basis and OBASIS are compatible. Storing Pre-screening
Shell pair information
Shell pair cut-off parameter TPreSel        ...   1.0e-12
Total number of shell pairs                 ...     73153
Shell pairs after pre-screening             ...     56892
Total number of primitive shell pairs       ...    221424
Primitive shell pairs kept                  ...    115234
          la=0 lb=0:  15296 shell pairs
          la=1 lb=0:  16413 shell pairs
          la=1 lb=1:   4434 shell pairs
          la=2 lb=0:   8060 shell pairs
          la=2 lb=1:   4376 shell pairs
          la=2 lb=2:   1120 shell pairs
          la=3 lb=0:   3784 shell pairs
          la=3 lb=1:   2101 shell pairs
          la=3 lb=2:   1045 shell pairs
          la=3 lb=3:    263 shell pairs

Checking whether 4 symmetric matrices of dimension 950 fit in memory
:Max Core in MB      =   2500.00
 MB in use           =     71.92
 MB left             =   2428.08
 MB needed           =     13.79
 Data fit in memory  = YES
Calculating RI/J V-Matrix + Cholesky decomp.... done (  0.1 sec)
Calculating Nuclear repulsion               ... done (  0.0 sec) ENN=   2644.655151064544 Eh

Diagonalization of the overlap matrix:
Smallest eigenvalue                        ... 4.944e-06
Time for diagonalization                   ...    0.273 sec
Threshold for overlap eigenvalues          ... 1.000e-07
Number of eigenvalues below threshold      ... 0
Time for construction of square roots      ...    0.125 sec
Total time needed                          ...    0.407 sec

-------------------
DFT GRID GENERATION
-------------------

General Integration Accuracy     IntAcc      ... 4.388
Radial Grid Type                 RadialGrid  ... OptM3 with GC (2021)
Angular Grid (max. ang.)         AngularGrid ... 4 (Lebedev-302)
Angular grid pruning method      GridPruning ... 4 (adaptive)
Weight generation scheme         WeightScheme... mBecke (2022)
Basis function cutoff            BFCut       ... 1.0000e-11
Integration weight cutoff        WCut        ... 1.0000e-14
Partially contracted basis set               ... off
Rotationally invariant grid construction     ... off
Angular grids for H and He will be reduced by one unit

Total number of grid points                  ...   228750
Total number of batches                      ...     3603
Average number of points per batch           ...       63
Average number of grid points per atom       ...     4575

--------------------
COSX GRID GENERATION
--------------------

GRIDX 1
-------
General Integration Accuracy     IntAcc      ... 3.816
Radial Grid Type                 RadialGrid  ... OptM3 with GC (2021)
Angular Grid (max. ang.)         AngularGrid ... 1 (Lebedev-50)
Angular grid pruning method      GridPruning ... 4 (adaptive)
Weight generation scheme         WeightScheme... mBecke (2022)
Basis function cutoff            BFCut       ... 1.0000e-11
Integration weight cutoff        WCut        ... 1.0000e-14
Partially contracted basis set               ... on
Rotationally invariant grid construction     ... off
Angular grids for H and He will be reduced by one unit

Total number of grid points                  ...    29020
Total number of batches                      ...      259
Average number of points per batch           ...      112
Average number of grid points per atom       ...      580
UseSFitting                                  ... on

GRIDX 2
-------
General Integration Accuracy     IntAcc      ... 4.020
Radial Grid Type                 RadialGrid  ... OptM3 with GC (2021)
Angular Grid (max. ang.)         AngularGrid ... 2 (Lebedev-110)
Angular grid pruning method      GridPruning ... 4 (adaptive)
Weight generation scheme         WeightScheme... mBecke (2022)
Basis function cutoff            BFCut       ... 1.0000e-11
Integration weight cutoff        WCut        ... 1.0000e-14
Partially contracted basis set               ... on
Rotationally invariant grid construction     ... off
Angular grids for H and He will be reduced by one unit

Total number of grid points                  ...    61716
Total number of batches                      ...      506
Average number of points per batch           ...      121
Average number of grid points per atom       ...     1234
UseSFitting                                  ... on

GRIDX 3
-------
General Integration Accuracy     IntAcc      ... 4.338
Radial Grid Type                 RadialGrid  ... OptM3 with GC (2021)
Angular Grid (max. ang.)         AngularGrid ... 3 (Lebedev-194)
Angular grid pruning method      GridPruning ... 4 (adaptive)
Weight generation scheme         WeightScheme... mBecke (2022)
Basis function cutoff            BFCut       ... 1.0000e-11
Integration weight cutoff        WCut        ... 1.0000e-14
Partially contracted basis set               ... on
Rotationally invariant grid construction     ... off
Angular grids for H and He will be reduced by one unit

Total number of grid points                  ...   134340
Total number of batches                      ...     1077
Average number of points per batch           ...      124
Average number of grid points per atom       ...     2687
UseSFitting                                  ... on
Grids setup in   4.6 sec
Initializing property integral containers    ... done (  0.0 sec)

SHARK setup successfully completed in   6.0 seconds

Maximum memory used throughout the entire STARTUP-calculation: 119.4 MB


           ************************************************************
           *        Program running with 12 parallel MPI-processes    *
           *              working on a common directory               *
           ************************************************************
Loading Hartree-Fock densities                     ... done
Calculating cut-offs                               ... done
Initializing the effective Hamiltonian             ... done
Setting up the integral package (SHARK)            ... done
Starting the Coulomb interaction                   ... done (   1.1 sec)
Making the grid                                    ... done (   0.5 sec)
Mapping shells                                     ... done
Starting the XC term evaluation                    ... done (   0.5 sec)
  promolecular density results
     # of electrons  =    187.996456555
     EX              =   -152.170923878
     EC              =     -6.417462609
     EX+EC           =   -158.588386487
Transforming the Hamiltonian                       ... done (   0.1 sec)
Diagonalizing the Hamiltonian                      ... done (   0.3 sec)
Back transforming the eigenvectors                 ... done (   0.1 sec)
Now organizing SCF variables                       ... done
             **** ENERGY FILE WAS UPDATED (inp.en.tmp) ****
Finished Guess after   3.4 sec
Maximum memory used throughout the entire GUESS-calculation: 102.6 MB


           ************************************************************
           *        Program running with 12 parallel MPI-processes    *
           *              working on a common directory               *
           ************************************************************
--------------------
CPCM SOLVATION MODEL
--------------------
CPCM parameters:
  Epsilon                                         ...       4.7113
  Refrac                                          ...       1.4459
  Rsolv                                           ...       1.3000
  Surface type                                    ... GAUSSIAN VDW
  Discretization scheme                           ... Constant charge density
    Threshold for H atoms                         ...       5.0000 (charges/Ang^2)
    Threshold for non-H atoms                     ...       5.0000 (charges/Ang^2)
  Epsilon function type                           ...         CPCM
Solvent:                                          ... CHLOROFORM
SMD-CDS solvent descriptors:
  Soln                                            ...       1.4459
  Soln25                                          ...       1.4431
  Sola                                            ...       0.1500
  Solb                                            ...       0.0200
  Solg                                            ...      38.3900
  Solc                                            ...       0.0000
  Solh                                            ...       0.7500
Radii:
  Scheme                                          ... Element-dependent radii
  Radius for C  used is    3.4960 Bohr (=   1.8500 Ang.)
  Radius for N  used is    3.5716 Bohr (=   1.8900 Ang.)
  Radius for O  used is    3.8248 Bohr (=   2.0240 Ang.)
  Radius for H  used is    2.2677 Bohr (=   1.2000 Ang.)
Calculating surface                               ...        done! (  0.0s)
Cavity surface points                             ...         3295
Cavity Volume                                     ...    2444.3083
Cavity Surface-area                               ...    1204.4594
Calculating surface distance matrix               ...        done! (  0.1s)
Performing Cholesky decomposition & store         ...        done! (  0.3s)
Overall time for CPCM initialization              ...                 0.5s

----------------------------------------D-I-I-S--------------------------------------------
Iteration    Energy (Eh)           Delta-E    RMSDP     MaxDP     DIISErr   Damp  Time(sec)
-------------------------------------------------------------------------------------------
               ***  Starting incremental Fock matrix formation  ***
    1    -1149.8877175974566853     0.00e+00  5.62e-03  9.05e-02  2.96e-01  0.700  40.6
    2    -1150.1378697653899508    -2.50e-01  5.25e-03  1.05e-01  1.44e-01  0.700  21.0
                               ***Turning on AO-DIIS***
    3    -1150.2631400045588634    -1.25e-01  2.87e-03  4.77e-02  5.24e-02  0.700  20.0
    4    -1150.3389717028321684    -7.58e-02  6.29e-03  1.10e-01  4.05e-02  0.000  19.4
    5    -1150.5046581280184910    -1.66e-01  5.63e-04  1.33e-02  9.78e-03  0.000  20.3
    6    -1150.5050838778929574    -4.26e-04  3.24e-04  8.70e-03  3.32e-03  0.000  17.4
                              *** Initializing SOSCF ***
---------------------------------------S-O-S-C-F--------------------------------------
Iteration    Energy (Eh)           Delta-E    RMSDP     MaxDP     MaxGrad    Time(sec)
--------------------------------------------------------------------------------------
    7    -1150.5051631892711157    -7.93e-05  2.18e-04  6.68e-03  9.35e-04    16.8
               *** Restarting incremental Fock matrix formation ***
    8    -1150.5051657744561453    -2.59e-06  5.37e-04  1.03e-02  2.29e-04    39.8
    9    -1150.5051720857222790    -6.31e-06  2.57e-04  5.08e-03  1.50e-04    28.3
   10    -1150.5051730631175815    -9.77e-07  1.67e-04  3.25e-03  9.33e-05    26.8
   11    -1150.5051735868064497    -5.24e-07  3.32e-05  6.98e-04  1.76e-05    25.5
                  *** Gradient check signals convergence ***

               *****************************************************
               *                     SUCCESS                       *
               *           SCF CONVERGED AFTER  11 CYCLES          *
               *****************************************************


------------------
NL GRID GENERATION
------------------

General Integration Accuracy     IntAcc      ... 4.004
Radial Grid Type                 RadialGrid  ... OptM3 with GC (2021)
Angular Grid (max. ang.)         AngularGrid ... 2 (Lebedev-110)
Angular grid pruning method      GridPruning ... 4 (adaptive)
Weight generation scheme         WeightScheme... mBecke (2022)
Basis function cutoff            BFCut       ... 1.0000e-10
Integration weight cutoff        WCut        ... 1.0000e-14
Partially contracted basis set               ... off
Rotationally invariant grid construction     ... off
Angular grids for H and He will be reduced by one unit

Total number of grid points                  ...    71403
Total number of batches                      ...     1140
Average number of points per batch           ...       62
Average number of grid points per atom       ...     1428
Final grid set up in    0.4 sec

-------------------------------------------------------------------------------
                    post-SCF DFT-NL dispersion correction                      
-------------------------------------------------------------------------------

SCF Energy:    -1150.505173589 
NL    Energy:      0.666290408 
SC+NL Energy:  -1149.838883181 
NL done in  :              4.1 sec
-------------------------------------------------------------------------------
Recomputing exchange energy using gridx3       ... done (   64.550 sec)
Old exchange energy                            :    -48.371997451 Eh
New exchange energy                            :    -48.372057051 Eh
Exchange energy change after final integration :     -0.000059600 Eh
Total energy after final integration           :  -1149.838942781 Eh

SMD CDS free energy correction energy :                -5.77532     Kcal/mol
Total Energy after SMD CDS correction =             -1149.848146343 Eh
             **** ENERGY FILE WAS UPDATED (inp.en.tmp) ****

----------------
TOTAL SCF ENERGY
----------------

Total Energy       :      -1149.84814634252666 Eh          -31288.95876 eV

Components:
Nuclear Repulsion  :       2644.65515106454404 Eh           71964.72528 eV
Electronic Energy  :      -3795.12980937752127 Eh         -103270.73230 eV
One Electron Energy:      -6822.70104930061370 Eh         -185655.13408 eV
Two Electron Energy:       3027.57123992309243 Eh           82384.40178 eV
CPCM Dielectric    :         -0.03051527592804 Eh              -0.83036 eV
SMD CDS (Gcds)     :         -0.00920356160407 Eh              -0.25044 eV

Virial components:
Potential Energy   :      -2295.95572625813656 Eh          -62476.13154 eV
Kinetic Energy     :       1146.10757991560968 Eh           31187.17277 eV
Virial Ratio       :          2.00326371319104

DFT components:
N(Alpha)           :       94.000338461306 electrons
N(Beta)            :       94.000338461306 electrons
N(Total)           :      188.000676922612 electrons
NL Energy, E(C,NL) :        0.666290407965 Eh       
E(XC)              :     -114.201786712490 Eh       

CPCM Solvation Model Properties:
Surface-charge          :         -0.06047515831400
Corrected charge        :         -0.00000000000000
Outlying charge corr.   :          0.00015929688617 Eh               0.00433 eV
Free-energy (cav+disp)  :         -0.00920356160407 Eh              -0.25044 eV

---------------
SCF CONVERGENCE
---------------

  Last Energy change         ...    5.2369e-07  Tolerance :   1.0000e-07
  Last MAX-Density change    ...    6.9799e-04  Tolerance :   1.0000e-05
  Last RMS-Density change    ...    3.3179e-05  Tolerance :   1.0000e-06
  Last DIIS Error            ...    9.3505e-04  Tolerance :   1.0000e-07
  Last Orbital Gradient      ...    1.7611e-05  Tolerance :   1.0000e-04
  Last Orbital Rotation      ...    3.9067e-05  Tolerance :   1.0000e-04


----------------
ORBITAL ENERGIES
----------------

  NO   OCC          E(Eh)            E(eV) 
   0   2.0000     -19.381532      -527.3983 
   1   2.0000     -19.324569      -525.8483 
   2   2.0000     -19.252761      -523.8943 
   3   2.0000     -14.633551      -398.1992 
   4   2.0000     -14.503127      -394.6502 
   5   2.0000     -10.479182      -285.1530 
   6   2.0000     -10.392816      -282.8029 
   7   2.0000     -10.387365      -282.6546 
   8   2.0000     -10.386730      -282.6373 
   9   2.0000     -10.382093      -282.5111 
  10   2.0000     -10.381250      -282.4882 
  11   2.0000     -10.379149      -282.4310 
  12   2.0000     -10.375583      -282.3340 
  13   2.0000     -10.370876      -282.2059 
  14   2.0000     -10.367760      -282.1211 
  15   2.0000     -10.351585      -281.6810 
  16   2.0000     -10.349682      -281.6292 
  17   2.0000     -10.347530      -281.5706 
  18   2.0000     -10.346372      -281.5391 
  19   2.0000     -10.343397      -281.4581 
  20   2.0000     -10.343294      -281.4553 
  21   2.0000     -10.340615      -281.3825 
  22   2.0000     -10.339545      -281.3533 
  23   2.0000     -10.335216      -281.2355 
  24   2.0000     -10.333064      -281.1770 
  25   2.0000     -10.331065      -281.1226 
  26   2.0000      -1.239047       -33.7162 
  27   2.0000      -1.180202       -32.1149 
  28   2.0000      -1.148514       -31.2527 
  29   2.0000      -1.068887       -29.0859 
  30   2.0000      -1.013326       -27.5740 
  31   2.0000      -0.970232       -26.4014 
  32   2.0000      -0.959559       -26.1109 
  33   2.0000      -0.944777       -25.7087 
  34   2.0000      -0.900121       -24.4935 
  35   2.0000      -0.890511       -24.2320 
  36   2.0000      -0.877381       -23.8747 
  37   2.0000      -0.866466       -23.5778 
  38   2.0000      -0.848222       -23.0813 
  39   2.0000      -0.842367       -22.9220 
  40   2.0000      -0.831122       -22.6160 
  41   2.0000      -0.795994       -21.6601 
  42   2.0000      -0.754669       -20.5356 
  43   2.0000      -0.741038       -20.1647 
  44   2.0000      -0.735310       -20.0088 
  45   2.0000      -0.721867       -19.6430 
  46   2.0000      -0.710695       -19.3390 
  47   2.0000      -0.691550       -18.8180 
  48   2.0000      -0.683938       -18.6109 
  49   2.0000      -0.660115       -17.9627 
  50   2.0000      -0.639425       -17.3996 
  51   2.0000      -0.631515       -17.1844 
  52   2.0000      -0.623230       -16.9590 
  53   2.0000      -0.619955       -16.8698 
  54   2.0000      -0.610255       -16.6059 
  55   2.0000      -0.599044       -16.3008 
  56   2.0000      -0.596722       -16.2376 
  57   2.0000      -0.587643       -15.9906 
  58   2.0000      -0.571958       -15.5638 
  59   2.0000      -0.566299       -15.4098 
  60   2.0000      -0.559346       -15.2206 
  61   2.0000      -0.552717       -15.0402 
  62   2.0000      -0.547905       -14.9092 
  63   2.0000      -0.542115       -14.7517 
  64   2.0000      -0.527888       -14.3646 
  65   2.0000      -0.523859       -14.2549 
  66   2.0000      -0.520624       -14.1669 
  67   2.0000      -0.516595       -14.0573 
  68   2.0000      -0.508216       -13.8293 
  69   2.0000      -0.502256       -13.6671 
  70   2.0000      -0.488921       -13.3042 
  71   2.0000      -0.484727       -13.1901 
  72   2.0000      -0.483520       -13.1572 
  73   2.0000      -0.479546       -13.0491 
  74   2.0000      -0.472723       -12.8635 
  75   2.0000      -0.470249       -12.7961 
  76   2.0000      -0.468637       -12.7523 
  77   2.0000      -0.458700       -12.4819 
  78   2.0000      -0.453895       -12.3511 
  79   2.0000      -0.447412       -12.1747 
  80   2.0000      -0.443111       -12.0577 
  81   2.0000      -0.431737       -11.7482 
  82   2.0000      -0.423643       -11.5279 
  83   2.0000      -0.417839       -11.3700 
  84   2.0000      -0.412972       -11.2375 
  85   2.0000      -0.410647       -11.1743 
  86   2.0000      -0.403786       -10.9876 
  87   2.0000      -0.384502       -10.4628 
  88   2.0000      -0.372729       -10.1425 
  89   2.0000      -0.350361        -9.5338 
  90   2.0000      -0.333780        -9.0826 
  91   2.0000      -0.319287        -8.6882 
  92   2.0000      -0.314101        -8.5471 
  93   2.0000      -0.289234        -7.8705 
  94   0.0000       0.064801         1.7633 
  95   0.0000       0.079732         2.1696 
  96   0.0000       0.082476         2.2443 
  97   0.0000       0.086929         2.3655 
  98   0.0000       0.096994         2.6393 
  99   0.0000       0.103815         2.8249 
 100   0.0000       0.114347         3.1115 
 101   0.0000       0.121218         3.2985 
 102   0.0000       0.126247         3.4354 
 103   0.0000       0.131947         3.5905 
 104   0.0000       0.134050         3.6477 
*Only the first 10 virtual orbitals were printed.
Total SCF time: 0 days 0 hours 6 min 8 sec 
Finished LeanSCF after 368.9 sec

Maximum memory used throughout the entire LEANSCF-calculation: 176.2 MB

-------------------------   --------------------
FINAL SINGLE POINT ENERGY     -1149.848146342527
-------------------------   --------------------



           ************************************************************
           *        Program running with 12 parallel MPI-processes    *
           *              working on a common directory               *
           ************************************************************

------------------------------------------------------------------------------
                              ORCA PROPERTY CALCULATIONS
------------------------------------------------------------------------------

GBWName                                 ... inp.gbw
Number of atoms                         ...     50
Number of basis functions               ...    950
Max core memory                         ...   2500 MB

Electric properties:
Dipole moment                           ... YES
Quadrupole moment                       ...  NO
Static polarizability (Dipole/Dipole)   ...  NO
Static polarizability (Dipole/Quad.)    ...  NO
Static polarizability (Quad./Quad.)     ...  NO
Static polarizability (Velocity)        ...  NO
Static hyperpolarizability              ...  NO

Atomic electric properties:
Dipole moment                           ...  NO
Quadrupole moment                       ...  NO
Static polarizability                   ...  NO

Choice of electric origin               ... Center of mass
Position of electric origin             ...    -0.016865    -0.007144     0.028577

General magnetic properties:
Magnetizability                         ...  NO

EPR properties:
g-Tensor (aka g-matrix)                 ...  NO
Zero-Field splitting spin-orbit         ...  NO
Zero-field splitting spin-spin          ...  NO
Hyperfine couplings                     ...  NO (   0 nuclei)
Quadrupole couplings                    ...  NO (   0 nuclei)
Contact density                         ...  NO (   0 nuclei)

NMR properties:
Chemical shifts                         ...  NO (   0 nuclei)
Spin-rotation constants                 ...  NO (   0 nuclei)
Spin-spin couplings                     ...  NO (   0 nuclei,    0 pairs)

Choice of magnetic origin               ... GIAO
Position of magnetic origin             ...     0.000000     0.000000     0.000000

Properties with geometric perturbations:
SCF Hessian                             ...  NO
IR spectrum                             ...  NO
VCD spectrum                            ...  NO
X-ray spectroscopy properties:
SCF XES/XAS/RIXS spectra                ...  NO

SCF SOC stabilization energy            ...  NO
Diagonal Born-Oppenheimer correction    ...  NO

-------------
DIPOLE MOMENT
-------------

Method             : SCF
Type of density    : Electron Density
Multiplicity       :   1
Irrep              :   0
Energy             : -1149.8481463425266611 Eh
Basis              : AO
                                X                 Y                 Z
Electronic contribution:     -3.995593267      -0.381607425      -0.118700731
Nuclear contribution   :      4.321421524       2.556820392       0.422581981
                        -----------------------------------------
Total Dipole Moment    :      0.325828257       2.175212967       0.303881251
                        -----------------------------------------
Magnitude (a.u.)       :      2.220373689
Magnitude (Debye)      :      5.643741402



--------------------
Rotational spectrum 
--------------------
 
Rotational constants in cm-1:             0.010805             0.007373             0.006225 
Rotational constants in MHz :           323.914827           221.043219           186.607207 

Dipole components along the rotational axes: 
x,y,z [a.u.] :     0.390006     2.175636     0.211099 
x,y,z [Debye]:     0.991317     5.530027     0.536571 

 

Dipole moment calculation done in   0.0 sec 

Maximum memory used throughout the entire PROP-calculation: 105.9 MB

--------------------------------
SUGGESTED CITATIONS FOR THIS RUN
--------------------------------

Below you find a list of papers that are relevant to this ORCA run
We neither can nor want to force you to cite these papers, but we appreciate if you do
You receive ORCA, which is the product of decades of hard work by many enthusiastic individuals, for free
The only thing we kindly ask in return is that you cite our papers,
We deeply appreciate it, if you show your appreciation for ORCA by not just citing the generic ORCA reference.

Please note that relegating all ORCA citations to the supporting information does *not* help us.
SI sections are not indexed - citations you put there will not count into any citation statistics
But we need these citations in order to attract the funding resources that allow us to do what we are doing

Therefore, if you are a happy ORCA user, please consider citing a few of the papers listed below in the main body of your paper

In addition to the list printed below, the program has created the file inp.bibtex that contains the list in bibtex format
You can import this file easily into all common literature databanks and citation aid programs

It goes without saying that in many instances, there are alternative algorithms to achieve similar
results as the ones you have gotten from ORCA. It is, of course, also the case that in some instances
ORCA just re-implements algorithms worked out by others. We are fully aware of that and we are also
fully appreciative of our colleagues work. Hence this citation list should not be read as indicating
that the listed papers, which are focused on our own work, are the only ones worth citing. It simply
meant to make it easier for users to cite ORCA specific papers. It is not a substitute for doing your
own literature research and citing the relevant literature in a scientifically appropriate manner.

List of essential papers. We consider these as the minimum necessary citations

  1. Neese, F.
     Software update: the ORCA program system, version 6.0
     WIRES Comput. Molec. Sci. 2025 15(1), e70019
     doi.org/10.1002/wcms.70019

List of papers to cite with high priority. The work reported in these papers was absolutely
necessary for this run to complete.
Our perspective: the developers of density functionals and basis sets usually get cited in chemistry papers
Good! But without the algorithms to do something with them, the functionals or basis sets would not do anything.
Hence, in our opinion, the algorithm design and method developments papers are equally worthy of getting cited

  1. Neese, F.
     An improvement of the resolution of the identity approximation for the formation of the Coulomb matrix
     J. Comp. Chem. 2003 24(14), 1740-1747
     doi.org/10.1002/jcc.10318
  2. Neese, F.; Wennmohs, F.; Hansen, A.; Becker, U.
     Efficient, approximate and parallel Hartree-Fock and hybrid DFT calculations. A 'chain-of-spheres' algorithm for the Hartree-Fock exchange
     Chem. Phys. 2009 356(1-3), 98-109
     doi.org/10.1016/j.chemphys.2008.10.036
  3. Lehtola, S.; Steigemann, C.; Oliveira, M.; Marques, M.
     Recent developments in Libxc - A comprehensive library of functionals for density functional theory
     Software X 2018 7 , 
     doi.org/10.1016/j.softx.2017.11.002
  4. Garcia-Rates, M.; Neese, F.
     Effect of the Solute Cavity on the Solvation Energy and its Derivatives within the Framework of the Gaussian Charge Scheme
     J. Comput. Chem. 2020 41 , 922-939
     doi.org/10.1002/jcc.26139
  5. Helmich-Paris, B.; de Souza, B.; Neese, F.; Izsák, R.
     An improved chain of spheres for exchange algorithm
     J. Chem. Phys. 2021 155(10), 104109
     doi.org/10.1063/5.0058766
  6. Neese, F.
     The SHARK Integral Generation and Digestion System
     J. Comp. Chem. 2022 44(3), 381
     doi.org/10.1002/jcc.26942

List of suggested additional citations. These are papers that are important in the 'surrounding' of 
of this run, or papers that preceded the highly important papers. If you like your results we are grateful for a citation.

  1. Izsak, R.; Neese, F.
     An overlap fitted chain of spheres exchange method
     J. Chem. Phys. 2011 135 , 144105
     doi.org/10.1063/1.3646921
  2. Izsak, R.; Hansen, A.; Neese, F.
     The resolution of identity and chain of spheres approximations for the LPNO-CCSD singles Fock term
     Molec. Phys. 2012 110 , 2413-2417
     doi.org/10.1080/00268976.2012.687466
  3. Neese, F.
     The ORCA program system
     WIRES Comput. Molec. Sci. 2012 2(1), 73-78
     doi.org/10.1002/wcms.81
  4. Izsak, R.; Neese, F.; Klopper, W.
     Robust fitting techniques in the chain of spheres approximation to the Fock exchange: The role of the complementary space
     J. Chem. Phys. 2013 139 , 
     doi.org/10.1063/1.4819264
  5. Neese, F.
     Software update: the ORCA program system, version 4.0
     WIRES Comput. Molec. Sci. 2018 8(1), 1-6
     doi.org/10.1002/wcms.1327
  6. Neese, F.; Wennmohs, F.; Becker, U.; Riplinger, C.
     The ORCA quantum chemistry program package
     J. Chem. Phys. 2020 152(22), 224108
     doi.org/10.1063/5.0004608
  7. Neese, F.
     Software update: The ORCA program system—Version 5.0
     WIRES Comput. Molec. Sci. 2022 12(1), e1606
     doi.org/10.1002/wcms.1606

List of optional additional citations

  1. Neese, F.
     Approximate second-order SCF convergence for spin unrestricted wavefunctions
     Chem. Phys. Lett. 2000 325(1-3), 93-98
     doi.org/10.1016/s0009-2614(00)00662-x

Timings for individual modules:

Sum of individual times          ...      379.628 sec (=   6.327 min)
Startup calculation              ...        6.321 sec (=   0.105 min)   1.7 %
SCF iterations                   ...      372.665 sec (=   6.211 min)  98.2 %
Property calculations            ...        0.642 sec (=   0.011 min)   0.2 %
                             ****ORCA TERMINATED NORMALLY****
TOTAL RUN TIME: 0 days 0 hours 6 minutes 19 seconds 952 msec
