 Entering Gaussian System
 *********************************************
 Gaussian 98:
 frequency output generated by the xtb code
 *********************************************
                         Standard orientation:
 --------------------------------------------------------------------
  Center     Atomic     Atomic              Coordinates (Angstroms)
  Number     Number      Type              X           Y           Z
 --------------------------------------------------------------------
    1          6             0        0.016371   -0.747006   -0.013965
    2          6             0        0.619664    0.469755   -0.764037
    3          6             0       -0.414003    1.610091   -0.877613
    4          6             0       -1.298977    1.807742    0.352529
    5          6             0       -1.825733    0.464298    0.868674
    6          6             0       -0.631530   -0.373234    1.337086
    7          6             0       -1.233772   -1.229503   -0.781278
    8          6             0       -2.358911   -0.365159   -0.267654
    9          8             0        0.150115    0.309238    2.283736
   10          6             0        1.044497   -1.872883    0.159769
   11          6             0       -3.592625   -0.339979   -0.737680
   12          6             0        1.976582    0.934813   -0.266925
   13          6             0        2.171642    1.769187    0.742476
   14          1             0        0.804532    0.112652   -1.784805
   15          8             0        1.540471   -2.385282   -1.058845
   16          6             0        3.134751    0.450419   -1.093970
   17          1             0        0.113228    2.539721   -1.098774
   18          1             0       -1.067580    1.394501   -1.726008
   19          1             0       -0.749027    2.286521    1.161724
   20          1             0       -2.139144    2.451362    0.085221
   21          1             0       -2.555665    0.627722    1.662969
   22          1             0       -1.006404   -1.305988    1.797510
   23          1             0       -1.124980   -1.147730   -1.863132
   24          1             0       -1.444381   -2.276051   -0.539316
   25          1             0        0.983619   -0.161274    2.397288
   26          1             0        0.591496   -2.686210    0.747523
   27          1             0        1.922546   -1.508291    0.699160
   28          1             0       -3.897014   -0.953343   -1.569560
   29          1             0       -4.347542    0.296937   -0.309419
   30          1             0        3.166119    2.084470    1.016268
   31          1             0        1.373603    2.162646    1.343451
   32          1             0        0.791743   -2.702415   -1.580173
   33          1             0        3.075847   -0.623221   -1.259620
   34          1             0        3.111562    0.934881   -2.071188
   35          1             0        4.083235    0.686483   -0.617636
 --------------------------------------------------------------------
     1 basis functions        1 primitive gaussians
     1 alpha electrons        1 beta electrons
 
 Harmonic frequencies (cm**-1), IR intensities (km*mol⁻¹),
 Raman scattering activities (A**4/amu), Raman depolarization ratios,
 reduced masses (AMU), force constants (mDyne/A) and normal coordinates:
                      1                      2                      3
                        a                      a                      a 
 Frequencies --    61.0456                94.3703               121.9258
 Red. masses --     9.5472                 9.5246                 9.5380
 Frc consts  --     0.0000                 0.0000                 0.0000
 IR Inten    --     1.1078                 0.1550                 0.4699
 Raman Activ --     0.0000                 0.0000                 0.0000
 Depolar     --     0.0000                 0.0000                 0.0000
 Atom AN      X      Y      Z        X      Y      Z        X      Y      Z
   1   6    -0.01  -0.01   0.09    -0.02   0.06  -0.03    -0.03  -0.11   0.02
   2   6    -0.05  -0.03   0.02     0.10  -0.01  -0.03     0.01  -0.18  -0.06
   3   6    -0.01   0.01   0.05     0.14   0.01  -0.16    -0.03  -0.25  -0.28
   4   6     0.01   0.00   0.07     0.08   0.08  -0.21     0.14  -0.01  -0.20
   5   6    -0.04  -0.00  -0.00     0.01   0.15  -0.11     0.12   0.09   0.03
   6   6    -0.08  -0.02   0.06    -0.07   0.08  -0.05     0.04  -0.03   0.03
   7   6     0.02  -0.08   0.08    -0.02   0.12  -0.09    -0.11  -0.08   0.12
   8   6     0.03   0.03  -0.07    -0.06  -0.01   0.04    -0.00   0.08   0.09
   9   8    -0.16  -0.05   0.15    -0.13  -0.01   0.04     0.14  -0.19   0.07
  10   6     0.07   0.07   0.14    -0.06   0.02  -0.01    -0.03  -0.12  -0.03
  11   6     0.11   0.16  -0.25    -0.20  -0.38   0.38     0.02   0.34   0.06
  12   6     0.00  -0.04  -0.13     0.08  -0.05   0.05    -0.10   0.04   0.06
  13   6     0.13  -0.32   0.08     0.09  -0.30   0.25    -0.29   0.04   0.09
  14   1    -0.04  -0.02   0.00     0.05  -0.02   0.00     0.04  -0.08   0.00
  15   8     0.11   0.03   0.20     0.01   0.10  -0.01     0.08   0.04  -0.06
  16   6    -0.14   0.24  -0.48     0.08   0.16  -0.08     0.03   0.32   0.09
  17   1     0.01  -0.00   0.02     0.05  -0.00  -0.05    -0.02  -0.08  -0.16
  18   1    -0.01   0.02   0.02     0.05  -0.00  -0.05    -0.03  -0.14  -0.04
  19   1     0.01  -0.02   0.02     0.02   0.03  -0.06     0.07   0.03  -0.10
  20   1     0.01   0.02   0.03     0.03   0.03  -0.08     0.04  -0.00  -0.06
  21   1    -0.03  -0.01  -0.01     0.01   0.08  -0.03     0.05   0.06   0.02
  22   1    -0.03  -0.01   0.00    -0.05   0.02  -0.03    -0.02   0.00   0.00
  23   1     0.02  -0.06   0.02    -0.01   0.08  -0.02    -0.05  -0.06   0.03
  24   1    -0.00  -0.01   0.06     0.01   0.02  -0.07    -0.05  -0.01   0.07
  25   1    -0.07  -0.05   0.09    -0.07  -0.05   0.07     0.01  -0.09   0.02
  26   1     0.04   0.02   0.06    -0.03  -0.00  -0.02    -0.01  -0.06  -0.04
  27   1     0.02   0.06   0.03    -0.03  -0.00   0.02    -0.02  -0.04   0.02
  28   1     0.05   0.05  -0.09    -0.08  -0.16   0.16    -0.03   0.11   0.02
  29   1     0.03   0.07  -0.11    -0.07  -0.14   0.14     0.04   0.14   0.01
  30   1     0.05  -0.09  -0.01     0.03  -0.10   0.09    -0.10   0.06   0.04
  31   1     0.06  -0.16   0.10     0.03  -0.13   0.11    -0.10  -0.04   0.03
  32   1     0.03  -0.02   0.06     0.01   0.04  -0.02     0.03   0.02  -0.04
  33   1     0.01   0.06  -0.13     0.06   0.04  -0.03     0.10   0.08   0.06
  34   1    -0.16   0.07  -0.14    -0.02   0.05  -0.02    -0.03   0.06   0.01
  35   1    -0.01   0.13  -0.22     0.03   0.08  -0.05    -0.01   0.19   0.02
                      4                      5                      6
                        a                      a                      a 
 Frequencies --   124.7952               154.6781               178.3690
 Red. masses --    12.2340                11.9447                 6.1566
 Frc consts  --     0.0000                 0.0000                 0.0000
 IR Inten    --     5.1825                 3.1065                 6.4731
 Raman Activ --     0.0000                 0.0000                 0.0000
 Depolar     --     0.0000                 0.0000                 0.0000
 Atom AN      X      Y      Z        X      Y      Z        X      Y      Z
   1   6    -0.09  -0.03  -0.03     0.02  -0.01   0.13     0.02   0.07  -0.12
   2   6    -0.06  -0.04  -0.03    -0.02  -0.06   0.03    -0.12   0.10  -0.17
   3   6    -0.02  -0.00   0.02    -0.02  -0.08  -0.07    -0.13   0.09  -0.10
   4   6    -0.00   0.00   0.04    -0.07  -0.03  -0.11    -0.02   0.07  -0.03
   5   6    -0.04   0.01   0.02    -0.01  -0.00   0.02     0.06   0.05  -0.01
   6   6    -0.05  -0.02  -0.02     0.03   0.10   0.11     0.06   0.02  -0.08
   7   6    -0.11   0.01  -0.02     0.02  -0.17   0.24    -0.01  -0.03   0.01
   8   6    -0.08   0.04   0.02     0.02  -0.08   0.06     0.03   0.03   0.02
   9   8    -0.01  -0.05  -0.04    -0.07   0.34   0.06     0.10  -0.15  -0.01
  10   6    -0.07  -0.00   0.03     0.11   0.04  -0.12     0.18   0.23   0.01
  11   6    -0.10   0.09   0.07     0.10  -0.01  -0.13     0.00   0.06   0.09
  12   6    -0.02  -0.13  -0.06    -0.00  -0.13   0.05    -0.13  -0.03  -0.05
  13   6     0.02  -0.07  -0.12     0.03  -0.22   0.12    -0.15  -0.20   0.09
  14   1    -0.03  -0.01  -0.01    -0.00  -0.04   0.02    -0.04   0.04  -0.05
  15   8     0.60   0.47   0.12    -0.15   0.41  -0.41     0.15  -0.11   0.15
  16   6    -0.03  -0.29   0.02     0.00  -0.14   0.06    -0.07  -0.12   0.07
  17   1     0.00  -0.00   0.01    -0.01  -0.03  -0.03    -0.04   0.03  -0.04
  18   1    -0.01   0.01   0.01     0.01  -0.04  -0.02    -0.06   0.02  -0.01
  19   1     0.01  -0.01   0.01    -0.03   0.03  -0.04     0.01   0.02  -0.02
  20   1     0.01   0.01   0.02    -0.03  -0.03  -0.06    -0.02   0.02   0.02
  21   1    -0.00   0.01   0.01    -0.01   0.01   0.00     0.03   0.01   0.01
  22   1    -0.01  -0.01  -0.00     0.03   0.04   0.06     0.00  -0.00  -0.05
  23   1    -0.04   0.01  -0.01    -0.00  -0.12   0.06    -0.02  -0.04  -0.00
  24   1    -0.04   0.00  -0.01     0.01  -0.04   0.14     0.00  -0.00   0.04
  25   1     0.01  -0.00  -0.04    -0.01   0.11   0.05    -0.05  -0.14   0.10
  26   1    -0.07  -0.06  -0.11     0.08  -0.03  -0.06     0.10   0.10   0.09
  27   1    -0.09  -0.02   0.15     0.05  -0.00  -0.06     0.05   0.15  -0.06
  28   1    -0.05   0.04   0.02     0.05  -0.01  -0.04    -0.02   0.02   0.03
  29   1    -0.02   0.03   0.03     0.02   0.02  -0.08     0.02   0.03   0.03
  30   1     0.01  -0.04  -0.03     0.02  -0.09   0.05    -0.04  -0.11   0.08
  31   1     0.01   0.01  -0.05     0.01  -0.05   0.03    -0.05  -0.04   0.01
  32   1     0.23   0.15  -0.10    -0.07   0.11  -0.07     0.04  -0.13   0.10
  33   1     0.00  -0.10   0.08    -0.05  -0.02  -0.08    -0.21   0.02  -0.26
  34   1    -0.02  -0.15  -0.03     0.07   0.05   0.06     0.21   0.23   0.15
  35   1    -0.01  -0.04  -0.02    -0.00  -0.14   0.07    -0.04  -0.34   0.21
                      7                      8                      9
                        a                      a                      a 
 Frequencies --   189.5738               213.1208               220.5721
 Red. masses --    11.1352                 3.7354                 5.8615
 Frc consts  --     0.0000                 0.0000                 0.0000
 IR Inten    --     8.0947               110.7980                64.9390
 Raman Activ --     0.0000                 0.0000                 0.0000
 Depolar     --     0.0000                 0.0000                 0.0000
 Atom AN      X      Y      Z        X      Y      Z        X      Y      Z
   1   6    -0.03  -0.05  -0.09     0.04   0.03  -0.08     0.03   0.10  -0.01
   2   6    -0.03   0.02   0.02    -0.06   0.07  -0.07    -0.08   0.10  -0.09
   3   6    -0.06   0.01   0.07    -0.07   0.08   0.01    -0.07   0.10  -0.10
   4   6    -0.16  -0.04   0.01    -0.06   0.02   0.03    -0.01   0.09  -0.06
   5   6    -0.02  -0.09   0.03     0.05  -0.02   0.02     0.04   0.08  -0.03
   6   6     0.11   0.05  -0.06     0.09   0.04  -0.04     0.02   0.03  -0.02
   7   6    -0.06  -0.01  -0.06     0.03  -0.02  -0.01     0.05  -0.02   0.06
   8   6    -0.04  -0.04   0.01     0.04  -0.02   0.02     0.06   0.01  -0.00
   9   8     0.30   0.35  -0.43     0.10   0.18  -0.15     0.07  -0.29   0.19
  10   6    -0.08  -0.10  -0.01     0.09   0.07  -0.08     0.12   0.19   0.01
  11   6    -0.03   0.11  -0.00     0.04   0.02   0.02     0.07  -0.08  -0.04
  12   6    -0.04  -0.03   0.13    -0.06  -0.00   0.01    -0.08   0.01  -0.03
  13   6     0.01  -0.24   0.29    -0.09  -0.10   0.09    -0.09  -0.15   0.11
  14   1     0.00   0.03  -0.00    -0.02   0.04  -0.03    -0.02   0.02  -0.02
  15   8     0.13  -0.17   0.11     0.01  -0.11  -0.05    -0.10   0.04  -0.01
  16   6    -0.06   0.14   0.02    -0.06  -0.13   0.11    -0.09  -0.17   0.09
  17   1    -0.01   0.01   0.05    -0.02   0.02   0.01    -0.02   0.03  -0.04
  18   1     0.00   0.02   0.00    -0.02   0.03   0.00    -0.03   0.02  -0.02
  19   1    -0.08   0.02   0.00    -0.02   0.02   0.00     0.01   0.03  -0.02
  20   1    -0.07  -0.05  -0.02    -0.03  -0.01   0.01    -0.01   0.02  -0.00
  21   1     0.01  -0.05   0.02     0.02  -0.02   0.01     0.01   0.02  -0.01
  22   1     0.08   0.03   0.05     0.04   0.01  -0.00    -0.02  -0.00  -0.04
  23   1    -0.03   0.01  -0.02    -0.01  -0.02  -0.00     0.01  -0.04   0.01
  24   1    -0.01  -0.01  -0.03     0.02  -0.01   0.01     0.02  -0.00   0.05
  25   1     0.17   0.22  -0.27    -0.27  -0.34   0.50     0.25   0.23  -0.43
  26   1    -0.06  -0.02  -0.02     0.04   0.04   0.01     0.07   0.08   0.06
  27   1    -0.04  -0.04   0.04     0.03   0.05  -0.05     0.06   0.08  -0.05
  28   1    -0.02   0.06  -0.02     0.01   0.01   0.00     0.04  -0.05   0.00
  29   1     0.00   0.03   0.02     0.02   0.01   0.01     0.01  -0.03  -0.04
  30   1     0.01  -0.10   0.09    -0.03  -0.06   0.06    -0.02  -0.09   0.07
  31   1     0.02  -0.07   0.10    -0.03  -0.04   0.02    -0.03  -0.02   0.01
  32   1     0.06  -0.04  -0.01    -0.01  -0.02  -0.00    -0.05  -0.05   0.07
  33   1     0.01   0.04  -0.01     0.13  -0.09   0.31     0.09  -0.09   0.27
  34   1    -0.06   0.06   0.01    -0.17  -0.30  -0.10    -0.15  -0.28  -0.09
  35   1    -0.01   0.06  -0.01    -0.01   0.22  -0.10    -0.02   0.16  -0.09
                     10                     11                     12
                        a                      a                      a 
 Frequencies --   260.2558               273.4323               282.8555
 Red. masses --     9.8706                 8.5735                 9.6423
 Frc consts  --     0.0000                 0.0000                 0.0000
 IR Inten    --     9.9706                 3.3545                 7.7181
 Raman Activ --     0.0000                 0.0000                 0.0000
 Depolar     --     0.0000                 0.0000                 0.0000
 Atom AN      X      Y      Z        X      Y      Z        X      Y      Z
   1   6     0.07   0.04  -0.06    -0.06  -0.09  -0.04    -0.10  -0.01   0.03
   2   6     0.09   0.02  -0.09    -0.04  -0.11  -0.08     0.06  -0.03   0.10
   3   6    -0.00  -0.04  -0.00     0.26   0.19   0.22     0.19   0.10   0.08
   4   6    -0.18  -0.19  -0.08     0.23   0.09   0.21    -0.30  -0.03  -0.22
   5   6    -0.03  -0.19   0.06    -0.00   0.07  -0.10    -0.09  -0.02  -0.01
   6   6     0.03  -0.07  -0.01    -0.05   0.01  -0.06    -0.08  -0.02  -0.01
   7   6     0.01   0.06  -0.07    -0.12  -0.22   0.14    -0.11  -0.11   0.08
   8   6    -0.06  -0.08   0.05    -0.03   0.04  -0.07    -0.12  -0.10   0.05
   9   8    -0.40   0.13   0.21    -0.13   0.13  -0.12     0.31  -0.29  -0.17
  10   6     0.15   0.09  -0.07     0.08   0.02  -0.06     0.04   0.17   0.10
  11   6    -0.12   0.34   0.22    -0.08  -0.08   0.04    -0.09   0.07  -0.03
  12   6     0.12  -0.02  -0.12    -0.03  -0.15  -0.08     0.13  -0.08   0.03
  13   6     0.01  -0.07  -0.05    -0.31  -0.05  -0.11     0.10   0.06  -0.07
  14   1     0.01   0.00  -0.03    -0.05  -0.01  -0.03     0.01  -0.01   0.03
  15   8     0.07  -0.12  -0.04     0.06  -0.03  -0.07    -0.14   0.19   0.06
  16   6     0.23  -0.01   0.01     0.16   0.12   0.05     0.17   0.05  -0.01
  17   1    -0.02   0.01   0.05     0.15   0.03   0.15     0.10   0.03   0.15
  18   1     0.03   0.00  -0.03     0.07   0.18   0.04     0.15   0.11  -0.07
  19   1    -0.10   0.01  -0.02     0.07  -0.06   0.11    -0.20   0.10  -0.05
  20   1    -0.08  -0.11  -0.07     0.11   0.09   0.09    -0.13  -0.11  -0.19
  21   1     0.01  -0.05   0.03    -0.01   0.02  -0.04    -0.02   0.01   0.00
  22   1     0.05  -0.05  -0.03    -0.02   0.01   0.00    -0.05   0.00  -0.00
  23   1    -0.01   0.05  -0.02    -0.05  -0.17   0.03    -0.05  -0.06   0.02
  24   1     0.03   0.01  -0.06    -0.06  -0.03   0.15    -0.01  -0.03   0.06
  25   1     0.01   0.21  -0.03     0.01   0.09  -0.07    -0.01  -0.21  -0.01
  26   1     0.09   0.05   0.04     0.07   0.00   0.02     0.08   0.05   0.08
  27   1     0.05   0.07  -0.07     0.02   0.06  -0.05     0.02   0.12  -0.03
  28   1    -0.14   0.19   0.03    -0.04  -0.08   0.06    -0.04   0.03  -0.01
  29   1     0.04   0.12   0.17    -0.01   0.01  -0.02    -0.01   0.04  -0.01
  30   1    -0.01  -0.01   0.02    -0.12   0.04   0.01     0.02   0.05  -0.03
  31   1    -0.02  -0.03  -0.05    -0.13  -0.04  -0.07     0.02  -0.01  -0.02
  32   1     0.02  -0.14   0.06     0.02  -0.14   0.05    -0.05  -0.02   0.08
  33   1     0.11  -0.01   0.05     0.13   0.03   0.01     0.08   0.01  -0.01
  34   1     0.07  -0.05  -0.02     0.04   0.03   0.01     0.03   0.02   0.00
  35   1     0.05   0.06   0.01     0.01   0.11   0.05     0.04   0.04  -0.01
                     13                     14                     15
                        a                      a                      a 
 Frequencies --   290.3322               304.3386               333.6347
 Red. masses --     7.7952                 9.3689                 9.4421
 Frc consts  --     0.0000                 0.0000                 0.0000
 IR Inten    --    24.3990                 2.4289                 2.2621
 Raman Activ --     0.0000                 0.0000                 0.0000
 Depolar     --     0.0000                 0.0000                 0.0000
 Atom AN      X      Y      Z        X      Y      Z        X      Y      Z
   1   6     0.08   0.07   0.01    -0.05   0.11  -0.03    -0.00  -0.08   0.12
   2   6    -0.01   0.02  -0.13     0.04  -0.01  -0.16    -0.01  -0.17   0.07
   3   6     0.07   0.17   0.07    -0.17  -0.18  -0.04     0.14  -0.08   0.04
   4   6    -0.21   0.05  -0.07     0.13  -0.15   0.19     0.10  -0.09   0.00
   5   6     0.06   0.01   0.09    -0.10  -0.09   0.13     0.05  -0.08  -0.04
   6   6     0.13   0.08   0.06    -0.01  -0.00   0.01    -0.01  -0.05   0.07
   7   6     0.10   0.10   0.02    -0.05   0.12  -0.04     0.18   0.14  -0.30
   8   6     0.09  -0.01   0.10    -0.11  -0.01   0.06     0.15  -0.01  -0.13
   9   8     0.06  -0.02   0.24     0.13   0.02  -0.13     0.08   0.09  -0.11
  10   6    -0.19  -0.18   0.02    -0.08   0.18   0.13     0.11   0.10   0.19
  11   6     0.16  -0.06  -0.07    -0.03  -0.07  -0.15     0.06   0.08   0.13
  12   6    -0.00  -0.06  -0.21     0.09  -0.02  -0.21    -0.09  -0.15   0.05
  13   6    -0.34  -0.15  -0.08    -0.02  -0.18  -0.05    -0.33  -0.02  -0.02
  14   1    -0.05   0.01  -0.05    -0.00  -0.02  -0.05    -0.00  -0.07   0.03
  15   8    -0.01  -0.09   0.07    -0.20   0.18   0.16    -0.20   0.27   0.05
  16   6     0.12   0.02  -0.07     0.38   0.09   0.08    -0.19  -0.08  -0.09
  17   1     0.06   0.05   0.12    -0.12  -0.03  -0.09     0.08  -0.04   0.04
  18   1     0.06   0.14  -0.03    -0.11  -0.12   0.06     0.05   0.03  -0.01
  19   1    -0.15   0.12  -0.02     0.12  -0.13   0.04     0.01  -0.03   0.01
  20   1    -0.11  -0.08  -0.10     0.08   0.04   0.13     0.03  -0.02  -0.01
  21   1     0.02  -0.01   0.04    -0.02  -0.02   0.04    -0.02  -0.02  -0.04
  22   1     0.03   0.01  -0.01     0.04  -0.02   0.00     0.00  -0.00   0.05
  23   1     0.01   0.07   0.01    -0.03   0.07  -0.01     0.12   0.20  -0.07
  24   1     0.04   0.02  -0.03     0.01   0.02  -0.04     0.03   0.01  -0.25
  25   1     0.03   0.01   0.04     0.00  -0.04  -0.00     0.02   0.02  -0.01
  26   1    -0.17  -0.05  -0.08    -0.01   0.06   0.06     0.10   0.01   0.09
  27   1    -0.07  -0.17   0.10    -0.02   0.08   0.02     0.05   0.08  -0.00
  28   1     0.10  -0.02  -0.04     0.06  -0.01  -0.08    -0.05   0.08   0.02
  29   1     0.01  -0.05  -0.04    -0.06  -0.06  -0.07     0.06   0.01   0.13
  30   1    -0.13  -0.01   0.07    -0.01  -0.06   0.03    -0.12   0.05   0.02
  31   1    -0.17  -0.09  -0.08    -0.02  -0.06  -0.03    -0.13  -0.04  -0.04
  32   1    -0.01   0.27  -0.15    -0.08   0.14   0.02    -0.08   0.03   0.08
  33   1     0.03   0.01  -0.05     0.17   0.02   0.05    -0.06  -0.02  -0.05
  34   1     0.09   0.03  -0.01     0.18   0.00   0.01    -0.10   0.00  -0.01
  35   1     0.01  -0.01   0.04     0.05   0.08   0.11    -0.03  -0.04  -0.06
                     16                     17                     18
                        a                      a                      a 
 Frequencies --   346.1607               395.5377               406.7137
 Red. masses --     5.0186                 7.7090                 9.3243
 Frc consts  --     0.0000                 0.0000                 0.0000
 IR Inten    --    98.4256                77.8812                10.9237
 Raman Activ --     0.0000                 0.0000                 0.0000
 Depolar     --     0.0000                 0.0000                 0.0000
 Atom AN      X      Y      Z        X      Y      Z        X      Y      Z
   1   6     0.05   0.01  -0.06    -0.03  -0.02  -0.03     0.03  -0.15   0.12
   2   6    -0.01   0.08  -0.05     0.05  -0.08   0.04    -0.06  -0.09   0.18
   3   6    -0.00   0.09  -0.03     0.15  -0.06  -0.02    -0.24  -0.17   0.17
   4   6     0.06  -0.03   0.02     0.09  -0.07  -0.06    -0.25   0.29   0.10
   5   6     0.04  -0.08  -0.15    -0.03   0.03   0.14    -0.07   0.21  -0.04
   6   6    -0.01  -0.05  -0.10     0.01  -0.03   0.03    -0.14   0.06  -0.01
   7   6     0.06  -0.28   0.03    -0.18   0.19   0.03     0.07   0.06  -0.04
   8   6     0.08  -0.14  -0.12    -0.23   0.06   0.22     0.13   0.25  -0.18
   9   8    -0.10  -0.04  -0.10    -0.03   0.04   0.02     0.01  -0.05  -0.09
  10   6     0.02   0.06   0.11     0.25   0.17  -0.11     0.23  -0.07  -0.00
  11   6    -0.02   0.13   0.18    -0.09  -0.06  -0.18     0.02  -0.02   0.10
  12   6    -0.02   0.08   0.01    -0.00  -0.10   0.14     0.05  -0.14  -0.04
  13   6     0.09   0.03   0.04    -0.07   0.07   0.01     0.01  -0.07  -0.09
  14   1     0.00   0.04  -0.02     0.04  -0.03   0.01    -0.05  -0.00   0.03
  15   8    -0.14  -0.06   0.14     0.16  -0.29  -0.01     0.09  -0.14  -0.09
  16   6    -0.04   0.01   0.03    -0.12  -0.05  -0.03     0.18   0.02   0.00
  17   1     0.00   0.03   0.00     0.06  -0.02   0.03    -0.10  -0.06  -0.10
  18   1    -0.01   0.03  -0.01     0.06   0.02  -0.03    -0.11  -0.17   0.11
  19   1     0.04  -0.06   0.02     0.02  -0.01  -0.02    -0.11   0.15   0.02
  20   1     0.03   0.02   0.05     0.04  -0.01  -0.04    -0.09   0.04  -0.04
  21   1    -0.01  -0.04  -0.06     0.04   0.06   0.07    -0.06  -0.01  -0.03
  22   1    -0.00  -0.02  -0.04     0.02  -0.01   0.01    -0.10   0.05   0.01
  23   1    -0.01  -0.16  -0.00    -0.09   0.14   0.01     0.07   0.01  -0.01
  24   1     0.03  -0.06   0.11    -0.04   0.03  -0.07    -0.05   0.03  -0.02
  25   1    -0.01   0.01  -0.03     0.02   0.05  -0.02    -0.00  -0.03  -0.07
  26   1    -0.02   0.03   0.04     0.17   0.07   0.07     0.13  -0.03   0.04
  27   1     0.01  -0.01   0.03     0.08   0.16  -0.12     0.09   0.02  -0.06
  28   1    -0.15   0.06   0.09     0.11  -0.04  -0.09    -0.02  -0.04   0.06
  29   1     0.10   0.12   0.12    -0.12  -0.07  -0.14     0.01  -0.01   0.05
  30   1     0.04  -0.02  -0.00    -0.03   0.05  -0.01    -0.01   0.01  -0.03
  31   1     0.05   0.03   0.03    -0.03   0.02  -0.01    -0.02  -0.04  -0.04
  32   1    -0.14   0.66  -0.23    -0.04   0.40  -0.18    -0.02   0.17  -0.08
  33   1    -0.03   0.00   0.01    -0.03  -0.01  -0.04     0.12   0.00  -0.01
  34   1     0.00   0.00   0.01    -0.09   0.01   0.00     0.06   0.02   0.01
  35   1    -0.01  -0.01   0.01    -0.01  -0.02  -0.06     0.02   0.05   0.04
                     19                     20                     21
                        a                      a                      a 
 Frequencies --   466.4766               498.2337               511.2956
 Red. masses --     7.7489                11.0437                10.4050
 Frc consts  --     0.0000                 0.0000                 0.0000
 IR Inten    --     1.9092                 4.4955                 8.9607
 Raman Activ --     0.0000                 0.0000                 0.0000
 Depolar     --     0.0000                 0.0000                 0.0000
 Atom AN      X      Y      Z        X      Y      Z        X      Y      Z
   1   6     0.12   0.13  -0.06     0.02   0.04   0.22    -0.05   0.11  -0.18
   2   6     0.30   0.10   0.06    -0.02   0.02   0.04     0.02  -0.01  -0.05
   3   6     0.03  -0.17   0.10     0.02   0.04  -0.04    -0.06  -0.07   0.03
   4   6    -0.01  -0.03   0.07     0.04  -0.12  -0.03    -0.05  -0.04   0.05
   5   6    -0.07  -0.01   0.01    -0.18  -0.08  -0.18     0.06  -0.09  -0.07
   6   6     0.01   0.02  -0.13    -0.02   0.14   0.25     0.23   0.14  -0.01
   7   6     0.01   0.02   0.15     0.05   0.05   0.02    -0.05  -0.04  -0.09
   8   6    -0.06   0.10  -0.07    -0.19  -0.02  -0.32     0.02   0.10  -0.26
   9   8    -0.03  -0.05  -0.13     0.36   0.06   0.27     0.15   0.05   0.36
  10   6    -0.03   0.02   0.00     0.09  -0.06  -0.05    -0.14   0.16  -0.08
  11   6    -0.10  -0.01   0.01    -0.33   0.01  -0.07    -0.09  -0.05  -0.01
  12   6     0.31   0.12   0.05    -0.01   0.20  -0.16     0.02  -0.45   0.32
  13   6    -0.26   0.09   0.19    -0.03  -0.05   0.05     0.02   0.07  -0.11
  14   1     0.08   0.05   0.01    -0.02  -0.05   0.03     0.03   0.05  -0.03
  15   8    -0.02   0.03   0.01     0.11  -0.14  -0.09    -0.02   0.01   0.07
  16   6    -0.00  -0.19  -0.25     0.01  -0.02  -0.00    -0.01   0.04   0.00
  17   1    -0.09  -0.02  -0.07     0.02   0.02   0.04    -0.05  -0.01  -0.04
  18   1    -0.01  -0.17   0.08     0.02   0.05  -0.04    -0.03  -0.08   0.03
  19   1    -0.04   0.01   0.03     0.06  -0.14   0.02    -0.03  -0.00   0.02
  20   1     0.01  -0.01  -0.03     0.06   0.06   0.05    -0.02  -0.02   0.01
  21   1    -0.01  -0.03   0.02    -0.10  -0.00  -0.10    -0.00  -0.08  -0.02
  22   1     0.02  -0.01  -0.06     0.00   0.06   0.11     0.10   0.02  -0.02
  23   1    -0.02  -0.16   0.03     0.11  -0.02   0.01    -0.00  -0.14  -0.03
  24   1     0.01   0.04   0.21     0.00   0.02   0.02    -0.03   0.02   0.10
  25   1    -0.01  -0.02  -0.03     0.05  -0.07   0.01     0.05   0.03   0.08
  26   1    -0.05   0.01  -0.02     0.03  -0.03  -0.02    -0.06   0.07  -0.01
  27   1    -0.01  -0.04   0.02     0.04  -0.04  -0.03    -0.05   0.06  -0.01
  28   1    -0.03  -0.00   0.00    -0.19   0.06  -0.03    -0.05   0.01  -0.01
  29   1    -0.03  -0.01   0.01    -0.04   0.01   0.07    -0.02  -0.04   0.04
  30   1    -0.15   0.13   0.22    -0.01  -0.02   0.03     0.01   0.00  -0.04
  31   1    -0.22  -0.09  -0.06    -0.01  -0.04   0.03     0.01   0.10  -0.08
  32   1     0.00  -0.03   0.02     0.02   0.02  -0.05     0.01   0.01  -0.01
  33   1    -0.14  -0.05  -0.05    -0.05  -0.01   0.05     0.12   0.02  -0.12
  34   1    -0.06  -0.07  -0.08     0.08  -0.06  -0.03    -0.16   0.13   0.06
  35   1     0.08  -0.15  -0.18    -0.01  -0.04   0.03     0.01   0.09  -0.07
                     22                     23                     24
                        a                      a                      a 
 Frequencies --   526.4496               573.1696               598.6459
 Red. masses --     8.6501                 9.9931                 9.5759
 Frc consts  --     0.0000                 0.0000                 0.0000
 IR Inten    --     4.4608                 3.3658                 3.1672
 Raman Activ --     0.0000                 0.0000                 0.0000
 Depolar     --     0.0000                 0.0000                 0.0000
 Atom AN      X      Y      Z        X      Y      Z        X      Y      Z
   1   6     0.05  -0.07  -0.01    -0.06   0.21   0.17     0.35   0.07   0.06
   2   6    -0.02  -0.09  -0.09    -0.07   0.15   0.07     0.04   0.00  -0.18
   3   6     0.07  -0.06  -0.01    -0.05   0.15  -0.23    -0.03   0.01  -0.00
   4   6    -0.03  -0.17  -0.04     0.04  -0.19  -0.09    -0.04  -0.01   0.01
   5   6     0.13  -0.13   0.12    -0.14  -0.07   0.12    -0.13   0.03  -0.03
   6   6     0.11  -0.21  -0.01    -0.28  -0.14   0.21     0.05   0.10  -0.23
   7   6    -0.08   0.15   0.07     0.18   0.13   0.16     0.19   0.21   0.22
   8   6     0.07   0.53  -0.26     0.17   0.10  -0.03    -0.20  -0.03   0.07
   9   8    -0.07   0.01  -0.06    -0.03  -0.03  -0.25    -0.06  -0.10  -0.12
  10   6     0.04  -0.03   0.09    -0.10   0.11  -0.16     0.24  -0.25   0.21
  11   6    -0.06  -0.10   0.05     0.16  -0.01   0.11    -0.19   0.05  -0.06
  12   6    -0.13   0.17  -0.12     0.03  -0.23   0.11    -0.11  -0.21   0.10
  13   6     0.07  -0.03   0.01    -0.04  -0.00  -0.07     0.01  -0.01  -0.10
  14   1    -0.00  -0.04  -0.02    -0.02  -0.03   0.05     0.01   0.02  -0.06
  15   8    -0.06   0.08   0.05     0.10  -0.14  -0.04    -0.05   0.08  -0.04
  16   6    -0.08   0.04   0.08     0.06  -0.01  -0.03    -0.11   0.06   0.08
  17   1     0.06  -0.01   0.10    -0.03   0.07   0.01     0.01   0.01   0.05
  18   1     0.06   0.08  -0.05     0.03   0.06  -0.10    -0.00   0.05  -0.02
  19   1    -0.06   0.07  -0.04     0.09  -0.10  -0.05     0.03  -0.08   0.02
  20   1    -0.07  -0.15  -0.07     0.02  -0.01   0.06     0.03   0.06   0.04
  21   1     0.05  -0.05   0.05    -0.09   0.04  -0.02     0.03  -0.00   0.05
  22   1     0.07  -0.07   0.00    -0.06  -0.04   0.07     0.01   0.00  -0.11
  23   1     0.01  -0.18   0.01     0.08  -0.08   0.04     0.05   0.06   0.06
  24   1    -0.16   0.12   0.22     0.04   0.06   0.15     0.08   0.05   0.06
  25   1     0.00   0.05   0.04    -0.03  -0.05  -0.07    -0.03  -0.05  -0.03
  26   1     0.03  -0.01   0.03    -0.07   0.04  -0.07    -0.02  -0.07  -0.01
  27   1     0.01   0.01   0.02    -0.02  -0.03  -0.02     0.10  -0.19   0.09
  28   1     0.08  -0.00  -0.05     0.06   0.09  -0.04    -0.06   0.04  -0.04
  29   1    -0.12  -0.18   0.06     0.03  -0.08   0.13    -0.05  -0.00   0.01
  30   1     0.05  -0.05  -0.06    -0.02  -0.03   0.04     0.04  -0.15  -0.00
  31   1     0.07  -0.00   0.07    -0.04   0.05  -0.09     0.04   0.15  -0.08
  32   1    -0.03   0.04   0.03     0.05  -0.02  -0.06    -0.05  -0.02   0.07
  33   1    -0.05   0.01   0.07     0.09   0.00  -0.07     0.06   0.02  -0.05
  34   1     0.05  -0.03   0.00    -0.06   0.06   0.03    -0.11   0.09   0.06
  35   1    -0.04  -0.01   0.07     0.01   0.05  -0.03    -0.04   0.08   0.00
                     25                     26                     27
                        a                      a                      a 
 Frequencies --   610.2860               689.5812               699.3892
 Red. masses --     9.9473                 7.0617                 2.4721
 Frc consts  --     0.0000                 0.0000                 0.0000
 IR Inten    --     3.2462                 0.4241                 0.8590
 Raman Activ --     0.0000                 0.0000                 0.0000
 Depolar     --     0.0000                 0.0000                 0.0000
 Atom AN      X      Y      Z        X      Y      Z        X      Y      Z
   1   6     0.01  -0.17   0.10     0.08   0.22   0.11     0.03  -0.03  -0.07
   2   6    -0.12   0.23   0.20    -0.04   0.01   0.21    -0.05  -0.01   0.09
   3   6    -0.19   0.34  -0.21     0.08  -0.04   0.09    -0.09   0.11  -0.09
   4   6     0.04   0.10  -0.06     0.08   0.05   0.00    -0.04   0.07  -0.04
   5   6     0.29  -0.10  -0.08     0.20  -0.07  -0.11    -0.05   0.01   0.02
   6   6     0.14  -0.30   0.08     0.12  -0.17  -0.01     0.06   0.12  -0.13
   7   6    -0.12  -0.02  -0.02     0.18   0.16   0.18     0.01  -0.01  -0.04
   8   6    -0.15   0.04  -0.04    -0.12  -0.07  -0.05    -0.02  -0.07   0.07
   9   8    -0.03   0.04  -0.03    -0.05  -0.03  -0.13    -0.01  -0.00   0.03
  10   6     0.11  -0.16   0.14    -0.12   0.20  -0.14     0.06  -0.06   0.05
  11   6    -0.17  -0.01  -0.08    -0.15   0.01  -0.08     0.01   0.01  -0.00
  12   6     0.16  -0.09   0.07    -0.13  -0.09  -0.06     0.02  -0.10   0.07
  13   6    -0.03   0.03   0.01    -0.04  -0.11  -0.12    -0.03  -0.01   0.00
  14   1    -0.04   0.05   0.06    -0.03  -0.03   0.06     0.01   0.03   0.02
  15   8    -0.05   0.07   0.03     0.00  -0.04   0.04    -0.01   0.02  -0.01
  16   6     0.16  -0.05  -0.10    -0.08   0.03   0.07     0.05  -0.03  -0.01
  17   1    -0.07   0.09  -0.12    -0.01  -0.03  -0.10     0.00   0.02   0.01
  18   1    -0.06   0.02  -0.04    -0.02  -0.13   0.08     0.01   0.04  -0.05
  19   1     0.05   0.03  -0.04    -0.07   0.11   0.00     0.09  -0.08  -0.02
  20   1    -0.07  -0.02   0.10    -0.03  -0.09  -0.07     0.03   0.11   0.10
  21   1     0.12   0.00   0.01     0.08  -0.01  -0.01     0.03   0.00   0.04
  22   1     0.03  -0.06   0.06     0.05  -0.06  -0.03     0.01   0.03  -0.04
  23   1     0.00   0.05   0.00     0.08   0.05   0.05    -0.01  -0.08  -0.02
  24   1    -0.07  -0.01  -0.07     0.14   0.02   0.03    -0.02   0.02   0.07
  25   1     0.02   0.08   0.07     0.01   0.03   0.01     0.00   0.00  -0.01
  26   1     0.05  -0.06   0.03    -0.11   0.08  -0.06     0.01  -0.02   0.01
  27   1     0.03  -0.04   0.03    -0.03  -0.02   0.01     0.02  -0.02   0.02
  28   1    -0.02  -0.06   0.00    -0.13  -0.15   0.12     0.10   0.29  -0.25
  29   1    -0.07   0.01  -0.09     0.03   0.17  -0.14    -0.09  -0.28   0.25
  30   1    -0.05   0.02   0.12    -0.01   0.18  -0.27    -0.05   0.40  -0.31
  31   1    -0.09   0.01  -0.10     0.04  -0.23   0.16     0.02  -0.37   0.28
  32   1    -0.04   0.00   0.05     0.03  -0.02  -0.02    -0.02   0.01   0.02
  33   1     0.07  -0.01  -0.06    -0.00   0.00   0.05    -0.03  -0.02   0.05
  34   1    -0.01   0.02  -0.01     0.07  -0.02   0.00     0.08  -0.06  -0.03
  35   1     0.06   0.00  -0.06    -0.07   0.02   0.11     0.00  -0.05   0.03
                     28                     29                     30
                        a                      a                      a 
 Frequencies --   721.0341               794.5766               834.4004
 Red. masses --     4.1648                 8.0796                 8.7980
 Frc consts  --     0.0000                 0.0000                 0.0000
 IR Inten    --     2.2749                14.8287                 4.7410
 Raman Activ --     0.0000                 0.0000                 0.0000
 Depolar     --     0.0000                 0.0000                 0.0000
 Atom AN      X      Y      Z        X      Y      Z        X      Y      Z
   1   6    -0.02   0.02   0.04    -0.01  -0.03   0.06     0.02   0.03  -0.10
   2   6     0.01   0.02   0.11    -0.17  -0.12   0.44     0.06   0.34   0.33
   3   6     0.16  -0.02   0.13    -0.13  -0.16   0.05     0.13   0.05   0.12
   4   6     0.13   0.23   0.00    -0.12  -0.09  -0.12     0.11  -0.31  -0.14
   5   6     0.13   0.01  -0.04     0.11   0.01  -0.20    -0.06  -0.03  -0.09
   6   6     0.00  -0.10   0.06     0.23   0.14  -0.30    -0.07   0.14  -0.06
   7   6     0.06  -0.04  -0.04    -0.01   0.11   0.11    -0.19   0.00  -0.16
   8   6    -0.10  -0.20   0.04     0.02   0.01   0.05     0.05   0.05   0.09
   9   8    -0.02  -0.01  -0.04    -0.06  -0.06  -0.00     0.04   0.03   0.07
  10   6    -0.06   0.06  -0.05    -0.13   0.10  -0.11     0.15  -0.11   0.11
  11   6    -0.09   0.00  -0.08     0.07   0.02   0.02     0.12   0.04   0.08
  12   6    -0.07   0.07  -0.11    -0.01   0.10  -0.09    -0.07  -0.05  -0.12
  13   6    -0.00  -0.06  -0.06     0.00  -0.04   0.02    -0.03  -0.16  -0.17
  14   1    -0.04  -0.01   0.03    -0.05  -0.06   0.13    -0.01   0.15   0.06
  15   8     0.00  -0.01   0.02    -0.00   0.00   0.05     0.00   0.00  -0.04
  16   6    -0.07   0.04   0.03     0.06  -0.02  -0.06    -0.15   0.05   0.06
  17   1     0.01  -0.04  -0.18     0.10  -0.07   0.20    -0.14   0.08  -0.10
  18   1    -0.04  -0.16   0.14     0.10   0.10  -0.12     0.04  -0.22   0.08
  19   1    -0.10   0.15   0.04     0.15  -0.23  -0.03    -0.03  -0.10   0.01
  20   1     0.00  -0.03  -0.13     0.04   0.15   0.15     0.05  -0.08  -0.08
  21   1     0.06   0.05   0.00     0.11  -0.04   0.03    -0.04   0.07  -0.06
  22   1    -0.02  -0.02   0.02    -0.00   0.05  -0.10    -0.02   0.05  -0.01
  23   1     0.04  -0.09  -0.01     0.01   0.03   0.03    -0.17  -0.08  -0.06
  24   1     0.04  -0.00   0.06    -0.00   0.03   0.03    -0.07   0.03   0.06
  25   1     0.00   0.02   0.02    -0.00   0.02   0.02    -0.01  -0.04  -0.03
  26   1    -0.02   0.02  -0.01    -0.00   0.04   0.01     0.00  -0.03  -0.01
  27   1    -0.02   0.02  -0.01    -0.04   0.08  -0.05     0.05  -0.08   0.06
  28   1     0.05   0.35  -0.30     0.05   0.01  -0.01     0.11  -0.07   0.05
  29   1    -0.12  -0.32   0.29    -0.00  -0.04   0.03    -0.01   0.00  -0.06
  30   1     0.03  -0.24   0.13    -0.01  -0.10   0.13    -0.02  -0.02  -0.05
  31   1    -0.01   0.19  -0.16    -0.04   0.14  -0.15    -0.03  -0.05  -0.08
  32   1     0.01  -0.00  -0.02     0.03  -0.00  -0.04    -0.04   0.01   0.05
  33   1     0.02   0.01  -0.01     0.04  -0.01  -0.01     0.03   0.01   0.02
  34   1    -0.01   0.03   0.02     0.05  -0.00  -0.02     0.03   0.01   0.02
  35   1    -0.04   0.04   0.03    -0.01   0.02   0.02    -0.11   0.07   0.12
                     31                     32                     33
                        a                      a                      a 
 Frequencies --   877.9490               890.7581               898.6205
 Red. masses --     8.1269                 4.0965                 5.2033
 Frc consts  --     0.0000                 0.0000                 0.0000
 IR Inten    --     0.6074                25.8937                15.9508
 Raman Activ --     0.0000                 0.0000                 0.0000
 Depolar     --     0.0000                 0.0000                 0.0000
 Atom AN      X      Y      Z        X      Y      Z        X      Y      Z
   1   6    -0.08  -0.07   0.12    -0.02  -0.01   0.05    -0.01  -0.06  -0.04
   2   6    -0.02   0.00  -0.26    -0.00   0.03   0.01     0.14  -0.05  -0.04
   3   6    -0.04   0.08   0.12     0.03   0.03  -0.00     0.09   0.11  -0.08
   4   6     0.05  -0.23   0.04     0.03  -0.05   0.00    -0.12   0.15   0.01
   5   6     0.21  -0.09  -0.45     0.01  -0.03   0.01    -0.14  -0.09  -0.08
   6   6    -0.04   0.13  -0.02     0.03   0.09  -0.07     0.06  -0.12   0.03
   7   6    -0.14   0.16   0.32    -0.03  -0.09   0.11    -0.06   0.18   0.09
   8   6     0.05  -0.01   0.04     0.04   0.11  -0.09     0.04  -0.04   0.02
   9   8    -0.02  -0.02  -0.02    -0.03  -0.02  -0.02     0.03  -0.01   0.01
  10   6    -0.09  -0.05  -0.00    -0.02   0.02  -0.01    -0.06  -0.09  -0.00
  11   6     0.13   0.06   0.02    -0.12  -0.34   0.29     0.09  -0.05   0.02
  12   6     0.01  -0.01   0.07     0.00  -0.00  -0.00     0.00   0.07  -0.08
  13   6    -0.00   0.09   0.05     0.00   0.01  -0.01     0.03  -0.32   0.20
  14   1    -0.03   0.02  -0.08    -0.00   0.01   0.00     0.05  -0.02  -0.01
  15   8     0.02   0.00   0.00     0.01  -0.01  -0.01    -0.01   0.03   0.03
  16   6     0.06  -0.02  -0.01    -0.01   0.00   0.00    -0.06   0.00   0.05
  17   1    -0.11   0.05  -0.06    -0.03   0.02  -0.04    -0.01   0.02  -0.13
  18   1    -0.12  -0.04   0.13    -0.01  -0.03   0.02    -0.00  -0.06   0.02
  19   1    -0.16  -0.05   0.12    -0.02   0.00   0.01    -0.03  -0.08   0.07
  20   1    -0.05  -0.16  -0.05     0.00  -0.03  -0.02     0.01   0.12   0.05
  21   1     0.01   0.02  -0.17     0.01  -0.01   0.01    -0.09  -0.07  -0.06
  22   1    -0.10   0.08   0.01    -0.00   0.02  -0.03     0.05  -0.05   0.01
  23   1     0.01   0.20   0.11     0.06   0.12   0.04    -0.07   0.01   0.02
  24   1    -0.09   0.02  -0.09    -0.02  -0.05  -0.13    -0.02   0.06   0.07
  25   1    -0.03  -0.06  -0.06    -0.01  -0.02  -0.02     0.02   0.03   0.06
  26   1     0.10  -0.03   0.07    -0.01   0.01  -0.00     0.10  -0.03   0.07
  27   1    -0.02   0.10  -0.08     0.00  -0.00  -0.01    -0.02   0.10  -0.07
  28   1     0.09   0.01  -0.00     0.16   0.45  -0.39    -0.02   0.03  -0.01
  29   1    -0.03  -0.15   0.12     0.14   0.39  -0.34     0.10   0.07   0.01
  30   1     0.02   0.00  -0.01     0.00  -0.01   0.01    -0.04   0.37  -0.31
  31   1     0.04  -0.03   0.10    -0.00  -0.02   0.00    -0.05   0.36  -0.32
  32   1     0.05  -0.01  -0.06     0.01  -0.00  -0.01     0.03   0.00  -0.03
  33   1    -0.02  -0.00  -0.01     0.00   0.00   0.00     0.01   0.01  -0.02
  34   1    -0.02  -0.01  -0.00     0.00  -0.00  -0.00    -0.06   0.03   0.03
  35   1     0.05  -0.03  -0.06    -0.01   0.00   0.01    -0.02   0.02  -0.00
                     34                     35                     36
                        a                      a                      a 
 Frequencies --   904.5985               922.1910               932.2266
 Red. masses --     6.0842                 6.9270                 6.4437
 Frc consts  --     0.0000                 0.0000                 0.0000
 IR Inten    --    17.7697                10.4821                 1.1591
 Raman Activ --     0.0000                 0.0000                 0.0000
 Depolar     --     0.0000                 0.0000                 0.0000
 Atom AN      X      Y      Z        X      Y      Z        X      Y      Z
   1   6    -0.01  -0.09  -0.07    -0.13  -0.11   0.05    -0.03  -0.01  -0.12
   2   6     0.16  -0.01   0.03     0.05   0.09   0.08    -0.15   0.01  -0.01
   3   6     0.09   0.07  -0.06     0.06   0.15  -0.12    -0.14  -0.07   0.12
   4   6    -0.15   0.21  -0.03     0.10  -0.14   0.07     0.13  -0.10  -0.05
   5   6    -0.18  -0.10  -0.08    -0.04   0.02   0.32     0.16   0.10  -0.03
   6   6     0.09  -0.19   0.02     0.04   0.27  -0.20    -0.12   0.01   0.07
   7   6    -0.06   0.26   0.07     0.19  -0.10   0.07     0.16   0.31  -0.22
   8   6     0.05  -0.08   0.03    -0.02   0.04  -0.10    -0.06  -0.17   0.08
   9   8     0.04   0.02   0.03    -0.06  -0.03  -0.00     0.01   0.04   0.03
  10   6    -0.10  -0.14  -0.01    -0.22  -0.20   0.00    -0.05  -0.20   0.06
  11   6     0.11  -0.08   0.01    -0.06  -0.00  -0.12    -0.04  -0.10   0.00
  12   6     0.01  -0.06  -0.01     0.01  -0.00  -0.04    -0.07   0.01   0.05
  13   6    -0.02   0.16  -0.24     0.04  -0.04  -0.05    -0.07   0.04   0.10
  14   1     0.04  -0.00   0.01     0.03   0.02   0.03    -0.06   0.06  -0.03
  15   8    -0.02   0.06   0.05     0.01   0.04   0.02    -0.00   0.04   0.01
  16   6    -0.10   0.05   0.05    -0.08   0.01   0.03     0.15  -0.07  -0.09
  17   1     0.01   0.01  -0.10    -0.07   0.08  -0.08     0.01  -0.03   0.12
  18   1     0.03  -0.08  -0.00     0.00  -0.04  -0.00    -0.04   0.08   0.01
  19   1     0.03  -0.09   0.03    -0.01   0.09  -0.03    -0.00   0.07  -0.04
  20   1     0.04   0.19   0.07    -0.03  -0.13  -0.03    -0.01  -0.11  -0.05
  21   1    -0.10  -0.09  -0.05     0.10  -0.02   0.19     0.08   0.14  -0.00
  22   1     0.08  -0.06   0.02     0.01   0.05  -0.07    -0.09   0.04   0.05
  23   1    -0.10  -0.03   0.00     0.20   0.03   0.04    -0.10  -0.28  -0.10
  24   1    -0.01   0.09   0.13     0.05  -0.04  -0.06     0.14   0.14   0.32
  25   1     0.04   0.07   0.06    -0.03  -0.05  -0.05    -0.01  -0.02  -0.03
  26   1     0.15  -0.05   0.12     0.24  -0.07   0.20     0.15  -0.06   0.12
  27   1    -0.04   0.16  -0.11    -0.04   0.24  -0.22    -0.01   0.12  -0.10
  28   1    -0.05   0.03   0.00    -0.16  -0.06   0.07    -0.06   0.07  -0.06
  29   1     0.14   0.10   0.01     0.02  -0.03   0.09     0.10   0.18  -0.11
  30   1     0.03  -0.30   0.22    -0.02   0.03   0.03     0.02  -0.00  -0.08
  31   1     0.02  -0.30   0.19    -0.04  -0.04  -0.07     0.06   0.10   0.08
  32   1     0.04   0.00  -0.05     0.12  -0.01  -0.15     0.04   0.00  -0.05
  33   1    -0.05   0.01   0.05     0.01   0.00   0.01     0.05  -0.02  -0.04
  34   1     0.02  -0.02  -0.00     0.00   0.01   0.01     0.01  -0.01  -0.02
  35   1    -0.04  -0.00   0.04    -0.05   0.03   0.05     0.06  -0.02  -0.05
                     37                     38                     39
                        a                      a                      a 
 Frequencies --   944.3600               954.5956               959.5240
 Red. masses --     7.1806                 5.3785                 7.2607
 Frc consts  --     0.0000                 0.0000                 0.0000
 IR Inten    --     1.8995                 1.2016                 5.1324
 Raman Activ --     0.0000                 0.0000                 0.0000
 Depolar     --     0.0000                 0.0000                 0.0000
 Atom AN      X      Y      Z        X      Y      Z        X      Y      Z
   1   6    -0.06   0.07   0.02     0.00  -0.02  -0.06     0.07  -0.13  -0.13
   2   6    -0.22  -0.07   0.15    -0.08   0.09  -0.06     0.00   0.27  -0.02
   3   6     0.14   0.11  -0.11    -0.14  -0.15   0.10    -0.01  -0.12   0.24
   4   6     0.12   0.01   0.06     0.12  -0.04  -0.04     0.02  -0.04  -0.25
   5   6    -0.18  -0.12   0.14     0.05   0.14   0.04    -0.17   0.16   0.05
   6   6     0.09   0.12  -0.16    -0.01  -0.06   0.05     0.07  -0.24   0.05
   7   6    -0.19   0.12   0.06    -0.18   0.10   0.15     0.08  -0.15   0.19
   8   6     0.07  -0.04  -0.06     0.04  -0.06  -0.09     0.01   0.12  -0.05
   9   8    -0.02  -0.03   0.01     0.00   0.00  -0.01     0.04   0.01   0.01
  10   6     0.13   0.03   0.05     0.06   0.02   0.01    -0.07  -0.04  -0.08
  11   6     0.14  -0.12  -0.12     0.10  -0.21  -0.21    -0.02  -0.01  -0.04
  12   6    -0.13   0.04   0.06     0.11  -0.02  -0.02    -0.11  -0.01   0.03
  13   6    -0.15   0.09   0.12     0.21  -0.03  -0.05    -0.19  -0.00   0.05
  14   1    -0.05  -0.08   0.06    -0.02   0.09  -0.04    -0.02   0.25  -0.07
  15   8     0.02  -0.03  -0.04    -0.00  -0.00  -0.01    -0.04   0.05   0.09
  16   6     0.24  -0.07  -0.17    -0.15   0.03   0.09     0.14  -0.06  -0.09
  17   1     0.05  -0.02  -0.19     0.01  -0.03   0.17    -0.08   0.02   0.10
  18   1    -0.05  -0.05   0.05    -0.00   0.10  -0.03     0.07  -0.07   0.02
  19   1    -0.08   0.09   0.04     0.04   0.09  -0.07     0.10  -0.07  -0.09
  20   1     0.00  -0.08  -0.09     0.03  -0.04  -0.07     0.13   0.14  -0.11
  21   1    -0.05  -0.08   0.05     0.03   0.11   0.01    -0.05   0.14  -0.01
  22   1     0.12  -0.02  -0.07    -0.02  -0.01   0.01     0.05  -0.07   0.01
  23   1    -0.10   0.05   0.01    -0.11   0.11   0.04     0.10   0.15   0.07
  24   1    -0.10   0.04  -0.00    -0.08   0.02  -0.04    -0.01  -0.08  -0.16
  25   1    -0.01  -0.03  -0.01     0.01   0.03   0.02     0.05   0.10   0.10
  26   1    -0.07  -0.00  -0.08    -0.04   0.00  -0.04     0.03   0.01   0.04
  27   1     0.03  -0.10   0.10     0.00  -0.04   0.06    -0.03   0.06  -0.06
  28   1    -0.22   0.01   0.04    -0.34   0.12  -0.04    -0.06   0.02  -0.01
  29   1     0.22   0.05   0.17     0.29   0.06   0.25     0.00  -0.05   0.08
  30   1     0.05  -0.14  -0.09    -0.07   0.20   0.18     0.04  -0.10  -0.21
  31   1     0.12   0.17   0.15    -0.15  -0.17  -0.19     0.13   0.15   0.15
  32   1    -0.06   0.01   0.07    -0.04   0.01   0.05     0.03  -0.01  -0.02
  33   1     0.04  -0.02  -0.03     0.01   0.01   0.00     0.04  -0.02  -0.03
  34   1     0.08  -0.04  -0.06    -0.03   0.03   0.04     0.02  -0.02  -0.03
  35   1     0.08  -0.05  -0.06    -0.08   0.06   0.08     0.05  -0.02  -0.05
                     40                     41                     42
                        a                      a                      a 
 Frequencies --   984.7797              1033.2825              1038.7060
 Red. masses --     6.7753                 5.1128                 6.2032
 Frc consts  --     0.0000                 0.0000                 0.0000
 IR Inten    --     1.2822                 3.2366                14.0979
 Raman Activ --     0.0000                 0.0000                 0.0000
 Depolar     --     0.0000                 0.0000                 0.0000
 Atom AN      X      Y      Z        X      Y      Z        X      Y      Z
   1   6     0.02  -0.05  -0.12     0.07   0.05  -0.04    -0.03  -0.30  -0.12
   2   6    -0.40  -0.03  -0.01     0.18   0.08  -0.03    -0.00  -0.19  -0.06
   3   6     0.04  -0.02  -0.00     0.02  -0.09  -0.08     0.09   0.22   0.04
   4   6     0.20   0.00  -0.05    -0.06   0.08   0.11    -0.15  -0.17  -0.06
   5   6    -0.31  -0.07  -0.05     0.13  -0.05  -0.03     0.01   0.13   0.02
   6   6     0.08  -0.08  -0.10    -0.10   0.02   0.08    -0.07  -0.05  -0.03
   7   6     0.17   0.03   0.05    -0.07  -0.02   0.05     0.22   0.07   0.00
   8   6    -0.01   0.03   0.05     0.01  -0.01  -0.03    -0.04   0.05   0.07
   9   8     0.05   0.01   0.05    -0.01   0.02   0.00     0.04   0.04   0.06
  10   6     0.01  -0.07  -0.05     0.00  -0.05  -0.03     0.07   0.15  -0.15
  11   6    -0.02   0.11   0.12    -0.01  -0.00  -0.01    -0.02  -0.04  -0.05
  12   6    -0.02   0.02   0.06    -0.15  -0.02   0.10    -0.01  -0.09   0.10
  13   6     0.22   0.09   0.09    -0.02   0.10   0.13     0.06   0.04   0.04
  14   1    -0.09   0.06  -0.02     0.16   0.03   0.01     0.01   0.00  -0.03
  15   8    -0.03   0.04   0.07    -0.02   0.03   0.05    -0.02  -0.00   0.06
  16   6    -0.00  -0.06  -0.09    -0.13  -0.18  -0.36    -0.05   0.12  -0.14
  17   1     0.12  -0.09  -0.09     0.04  -0.02   0.05    -0.10   0.08  -0.16
  18   1    -0.11   0.06   0.08     0.07   0.02  -0.08    -0.05  -0.12   0.10
  19   1    -0.12   0.06   0.06     0.03   0.05  -0.02    -0.06  -0.21   0.10
  20   1     0.09  -0.03  -0.21    -0.06  -0.02   0.08    -0.01   0.03   0.08
  21   1    -0.19   0.02  -0.12    -0.01  -0.10  -0.03     0.18   0.16   0.14
  22   1     0.15  -0.08  -0.04    -0.05   0.02   0.03    -0.15   0.08   0.07
  23   1     0.07   0.00   0.02    -0.08   0.05   0.01     0.13  -0.06   0.00
  24   1     0.06   0.01   0.02     0.02  -0.02  -0.03    -0.06   0.05   0.06
  25   1     0.03   0.04   0.06    -0.03  -0.06  -0.07     0.02   0.03   0.03
  26   1     0.01  -0.00   0.02     0.01   0.01   0.03    -0.10   0.02  -0.14
  27   1    -0.01   0.02  -0.03     0.03  -0.01  -0.05    -0.07  -0.01   0.13
  28   1     0.18  -0.05   0.02     0.00   0.01  -0.02    -0.10   0.00   0.01
  29   1    -0.13  -0.03  -0.10    -0.01  -0.02   0.02     0.06   0.06   0.01
  30   1    -0.05   0.19   0.24     0.00   0.02   0.03    -0.00   0.01   0.09
  31   1    -0.12  -0.12  -0.11     0.03   0.09   0.05    -0.03   0.06  -0.07
  32   1     0.01   0.00  -0.00     0.03  -0.01  -0.02    -0.11   0.04   0.13
  33   1     0.13  -0.02  -0.03     0.35  -0.07  -0.04    -0.08   0.00   0.15
  34   1     0.10   0.00  -0.02     0.36  -0.03  -0.09     0.23  -0.13  -0.12
  35   1    -0.08   0.06   0.09    -0.31   0.19   0.35    -0.07  -0.05   0.11
                     43                     44                     45
                        a                      a                      a 
 Frequencies --  1047.4253              1052.0943              1069.5384
 Red. masses --     8.9192                 6.6672                 8.3295
 Frc consts  --     0.0000                 0.0000                 0.0000
 IR Inten    --    81.1806                59.6091                42.1141
 Raman Activ --     0.0000                 0.0000                 0.0000
 Depolar     --     0.0000                 0.0000                 0.0000
 Atom AN      X      Y      Z        X      Y      Z        X      Y      Z
   1   6     0.19  -0.17  -0.02    -0.16   0.05   0.16    -0.07  -0.21  -0.32
   2   6     0.03  -0.07   0.06    -0.05   0.02  -0.18     0.13  -0.04   0.18
   3   6     0.02   0.08  -0.06     0.14   0.01   0.14    -0.07   0.03  -0.14
   4   6    -0.01  -0.06   0.06    -0.14  -0.01  -0.16     0.06  -0.03   0.16
   5   6    -0.02   0.04  -0.00     0.04   0.00   0.05    -0.04   0.05  -0.08
   6   6    -0.10  -0.00  -0.04     0.13   0.01   0.03    -0.13  -0.09  -0.11
   7   6     0.01  -0.01  -0.02     0.00   0.02  -0.11     0.19   0.04   0.20
   8   6    -0.01   0.03   0.03    -0.00  -0.01   0.01    -0.02   0.03   0.02
   9   8     0.04   0.06   0.06    -0.05  -0.07  -0.07     0.10   0.08   0.12
  10   6     0.12  -0.04  -0.45    -0.06   0.08   0.24    -0.08   0.14   0.23
  11   6     0.00  -0.02  -0.02     0.02  -0.01  -0.01    -0.03   0.02   0.01
  12   6    -0.03   0.18  -0.13    -0.06   0.15  -0.07    -0.01   0.10  -0.10
  13   6    -0.01   0.02  -0.00     0.06   0.09   0.08    -0.06  -0.02  -0.04
  14   1     0.00  -0.07   0.03    -0.05  -0.04  -0.04     0.11   0.03   0.05
  15   8    -0.14   0.15   0.39     0.09  -0.10  -0.22     0.10  -0.10  -0.26
  16   6     0.02  -0.23   0.13    -0.00  -0.27   0.02     0.00  -0.12   0.06
  17   1    -0.01   0.02  -0.05    -0.07   0.04  -0.07     0.03  -0.00   0.03
  18   1    -0.02  -0.01   0.01     0.00  -0.11   0.09     0.01   0.06  -0.07
  19   1    -0.04  -0.01   0.04     0.02  -0.18   0.03    -0.03   0.11   0.00
  20   1    -0.04  -0.06   0.03     0.10   0.18  -0.01    -0.10  -0.16   0.05
  21   1     0.04   0.03   0.03     0.15   0.01   0.14    -0.09   0.02  -0.09
  22   1    -0.08   0.05   0.04    -0.02   0.02   0.01    -0.04   0.01   0.01
  23   1    -0.07  -0.00  -0.01     0.16  -0.09  -0.02    -0.03   0.10   0.05
  24   1    -0.05   0.01   0.00    -0.09   0.04   0.03     0.13  -0.02   0.00
  25   1    -0.02  -0.05  -0.06     0.02   0.06   0.06     0.03   0.03   0.03
  26   1    -0.07   0.06  -0.07    -0.00  -0.03  -0.01    -0.03  -0.03  -0.06
  27   1     0.07  -0.11  -0.10    -0.04   0.04   0.09    -0.19   0.17   0.22
  28   1    -0.04   0.01  -0.00    -0.02  -0.03   0.02     0.01   0.03  -0.02
  29   1     0.03   0.01   0.02     0.03   0.04  -0.01    -0.03  -0.02   0.01
  30   1     0.00   0.00  -0.02    -0.01   0.09   0.06     0.01  -0.07  -0.05
  31   1     0.02  -0.10   0.10    -0.00  -0.11   0.10     0.02  -0.03   0.05
  32   1     0.04  -0.00   0.01    -0.05   0.01   0.03    -0.16   0.05   0.16
  33   1     0.21  -0.02  -0.23     0.31  -0.05  -0.24     0.11  -0.01  -0.11
  34   1    -0.25   0.19   0.15    -0.14   0.18   0.13    -0.12   0.10   0.08
  35   1     0.02   0.11  -0.09    -0.06   0.17   0.01    -0.00   0.07  -0.03
                     46                     47                     48
                        a                      a                      a 
 Frequencies --  1079.1431              1100.6155              1122.0451
 Red. masses --     6.4641                 5.6833                 7.9761
 Frc consts  --     0.0000                 0.0000                 0.0000
 IR Inten    --    22.0962                10.6953                39.9297
 Raman Activ --     0.0000                 0.0000                 0.0000
 Depolar     --     0.0000                 0.0000                 0.0000
 Atom AN      X      Y      Z        X      Y      Z        X      Y      Z
   1   6     0.03   0.17   0.17     0.13   0.22  -0.16     0.11  -0.04   0.17
   2   6     0.17  -0.17   0.04    -0.18  -0.12   0.02     0.00   0.22  -0.04
   3   6    -0.15   0.14  -0.04     0.14   0.03   0.03    -0.00  -0.13  -0.13
   4   6     0.03  -0.19   0.11    -0.16  -0.06  -0.05     0.05   0.03   0.11
   5   6    -0.14   0.36  -0.08     0.08   0.02   0.02    -0.11   0.00  -0.12
   6   6     0.21  -0.14  -0.07    -0.19  -0.14  -0.01    -0.23  -0.29  -0.34
   7   6    -0.07  -0.10  -0.13     0.02  -0.14   0.06    -0.05   0.00  -0.06
   8   6    -0.00   0.02   0.04     0.03   0.21  -0.07    -0.03  -0.03   0.08
   9   8     0.03  -0.08  -0.06     0.09   0.11   0.08     0.20   0.18   0.20
  10   6    -0.03  -0.01   0.04    -0.06  -0.05   0.19    -0.09   0.11   0.11
  11   6     0.02  -0.02  -0.01    -0.01  -0.03  -0.04     0.07  -0.01   0.02
  12   6     0.00  -0.00   0.01    -0.04   0.02   0.00     0.00  -0.04   0.03
  13   6    -0.02   0.02   0.02     0.05   0.02   0.02    -0.02  -0.02  -0.01
  14   1     0.07  -0.29   0.10    -0.09  -0.04  -0.00     0.04  -0.04   0.03
  15   8     0.01  -0.01  -0.02     0.00   0.01  -0.09    -0.00  -0.02  -0.07
  16   6    -0.05  -0.03  -0.05     0.05  -0.00   0.01     0.00   0.02  -0.01
  17   1    -0.17   0.13   0.09     0.11  -0.08  -0.18     0.05  -0.04   0.06
  18   1    -0.08   0.06   0.01    -0.01  -0.08   0.06    -0.03   0.10  -0.04
  19   1    -0.12   0.00   0.08    -0.03  -0.18   0.07    -0.13   0.01   0.12
  20   1    -0.02  -0.11  -0.04    -0.06   0.02   0.14     0.08   0.02  -0.16
  21   1    -0.10   0.31  -0.12     0.14   0.12   0.09     0.22  -0.14   0.23
  22   1     0.07  -0.08  -0.10    -0.05  -0.03  -0.03    -0.19   0.03  -0.01
  23   1    -0.07  -0.04  -0.04    -0.36   0.14  -0.01     0.14  -0.07  -0.00
  24   1     0.05  -0.03  -0.00     0.34  -0.12  -0.07    -0.23   0.05   0.00
  25   1     0.11   0.22   0.24    -0.01  -0.03  -0.03     0.04   0.03   0.05
  26   1     0.02   0.01   0.05    -0.01   0.07   0.16    -0.05   0.08   0.07
  27   1     0.04  -0.02  -0.05     0.09  -0.04  -0.11     0.07  -0.06  -0.06
  28   1    -0.02   0.04  -0.03    -0.06   0.03  -0.01     0.03  -0.01   0.01
  29   1     0.02  -0.01   0.03     0.01  -0.04   0.07     0.05   0.03   0.01
  30   1     0.01  -0.04  -0.01    -0.01   0.03   0.06     0.01  -0.00  -0.05
  31   1     0.02   0.02   0.03    -0.02  -0.03  -0.01     0.00   0.00   0.00
  32   1     0.06  -0.02  -0.08     0.13  -0.06  -0.17     0.12  -0.05  -0.16
  33   1     0.06  -0.01  -0.01    -0.01   0.00  -0.01    -0.02   0.00   0.02
  34   1     0.05   0.00  -0.01    -0.02   0.00   0.00     0.01  -0.01  -0.01
  35   1    -0.06   0.03   0.07     0.04  -0.01  -0.04     0.00  -0.01   0.00
                     49                     50                     51
                        a                      a                      a 
 Frequencies --  1135.4209              1139.8977              1154.8095
 Red. masses --     7.8420                 6.3579                 4.6832
 Frc consts  --     0.0000                 0.0000                 0.0000
 IR Inten    --    11.8643                52.8920                31.1404
 Raman Activ --     0.0000                 0.0000                 0.0000
 Depolar     --     0.0000                 0.0000                 0.0000
 Atom AN      X      Y      Z        X      Y      Z        X      Y      Z
   1   6    -0.28   0.13   0.01    -0.27   0.17   0.08    -0.25   0.27  -0.05
   2   6    -0.13   0.31  -0.05     0.07  -0.11  -0.06     0.01  -0.02  -0.01
   3   6     0.21  -0.24  -0.21    -0.10   0.09   0.17     0.05  -0.06   0.04
   4   6    -0.15  -0.08   0.24     0.10   0.08  -0.15    -0.09   0.02   0.02
   5   6     0.07   0.18  -0.05    -0.01  -0.10  -0.01     0.06   0.05  -0.04
   6   6     0.09  -0.00   0.04    -0.17  -0.15  -0.24    -0.15  -0.14  -0.16
   7   6     0.02  -0.01   0.02    -0.01   0.01   0.07    -0.06  -0.00   0.02
   8   6     0.01   0.01  -0.03     0.04   0.00  -0.11    -0.02  -0.05   0.05
   9   8    -0.00  -0.09  -0.07     0.11   0.13   0.14     0.08   0.12   0.11
  10   6     0.14  -0.20  -0.15     0.12  -0.14  -0.14     0.12  -0.15  -0.03
  11   6    -0.01   0.00  -0.00     0.02   0.03   0.05     0.05  -0.01   0.01
  12   6    -0.06  -0.02   0.02     0.03  -0.01  -0.00     0.02   0.02  -0.02
  13   6     0.01  -0.02  -0.03     0.01   0.02   0.03    -0.01  -0.01  -0.00
  14   1     0.05  -0.02   0.04    -0.04  -0.22   0.04     0.02   0.08  -0.03
  15   8    -0.00   0.03   0.11     0.01   0.00   0.09    -0.01   0.02   0.06
  16   6     0.06   0.02   0.01    -0.03   0.00  -0.01    -0.01  -0.01   0.01
  17   1     0.11  -0.08  -0.01    -0.26   0.18   0.13     0.14  -0.11  -0.07
  18   1     0.06  -0.00  -0.08     0.00  -0.03   0.04     0.06  -0.05  -0.01
  19   1    -0.14  -0.09   0.17     0.11   0.09  -0.14     0.06  -0.03  -0.03
  20   1     0.02   0.02  -0.02     0.11   0.09  -0.13    -0.21  -0.13   0.28
  21   1     0.04  -0.10   0.04     0.14  -0.17   0.15     0.01   0.31  -0.08
  22   1    -0.20   0.09   0.02     0.03  -0.05  -0.06     0.26  -0.20  -0.15
  23   1    -0.03   0.03   0.00    -0.12   0.07   0.01     0.43  -0.05   0.05
  24   1     0.21  -0.04   0.02     0.28  -0.05   0.02    -0.16   0.02  -0.02
  25   1     0.10   0.20   0.20    -0.01  -0.05  -0.04    -0.03  -0.09  -0.07
  26   1     0.10  -0.12  -0.07     0.10  -0.13  -0.10     0.07  -0.08  -0.03
  27   1    -0.06   0.04   0.05    -0.06   0.03   0.06     0.05  -0.05  -0.02
  28   1     0.01   0.02  -0.02     0.08  -0.01   0.00     0.01  -0.00   0.00
  29   1    -0.01  -0.02   0.01    -0.03  -0.03   0.00     0.04   0.02   0.01
  30   1    -0.00   0.01  -0.02    -0.00   0.02   0.02     0.00  -0.01  -0.00
  31   1    -0.02  -0.04  -0.01     0.01   0.03   0.00     0.00   0.00   0.00
  32   1    -0.13   0.06   0.17    -0.13   0.06   0.17    -0.03   0.03   0.04
  33   1    -0.03   0.01   0.01     0.01  -0.00   0.01     0.00   0.00  -0.01
  34   1    -0.01  -0.01  -0.01     0.02  -0.00  -0.00    -0.01   0.01   0.01
  35   1     0.05  -0.04  -0.05    -0.03   0.01   0.03    -0.00   0.01  -0.00
                     52                     53                     54
                        a                      a                      a 
 Frequencies --  1171.8427              1197.3344              1207.2752
 Red. masses --     3.1170                 5.7299                 5.5024
 Frc consts  --     0.0000                 0.0000                 0.0000
 IR Inten    --     2.8690                 9.3510                34.6572
 Raman Activ --     0.0000                 0.0000                 0.0000
 Depolar     --     0.0000                 0.0000                 0.0000
 Atom AN      X      Y      Z        X      Y      Z        X      Y      Z
   1   6     0.09   0.06   0.06    -0.36   0.00  -0.36    -0.14   0.04  -0.05
   2   6     0.11   0.06   0.07     0.08  -0.09   0.12     0.11  -0.11   0.04
   3   6    -0.17  -0.04  -0.07    -0.09   0.01  -0.07    -0.15   0.08   0.07
   4   6     0.04   0.06  -0.06     0.01   0.04   0.00     0.09   0.00  -0.14
   5   6    -0.06  -0.10  -0.05     0.10  -0.05  -0.01    -0.08  -0.13   0.08
   6   6     0.06   0.03   0.14     0.06   0.02   0.14    -0.06   0.09  -0.01
   7   6     0.01  -0.10  -0.05     0.03   0.05   0.10    -0.09   0.06   0.07
   8   6     0.01   0.10  -0.01    -0.02   0.05   0.04     0.05  -0.09  -0.16
   9   8    -0.07   0.01  -0.01    -0.06  -0.01  -0.01     0.04  -0.10  -0.06
  10   6    -0.07  -0.05  -0.08     0.18  -0.01   0.12     0.09  -0.01  -0.00
  11   6     0.02  -0.01  -0.00     0.00  -0.02  -0.02     0.02   0.04   0.05
  12   6     0.11  -0.01  -0.01    -0.06   0.05  -0.02     0.35   0.00  -0.07
  13   6    -0.07  -0.02  -0.02     0.00  -0.02  -0.04    -0.12   0.01   0.02
  14   1     0.06  -0.00   0.03     0.21  -0.03   0.06    -0.09   0.19  -0.09
  15   8     0.05  -0.02   0.00    -0.07   0.04   0.02    -0.03   0.01   0.03
  16   6    -0.06   0.00   0.01     0.03  -0.01   0.01    -0.15  -0.01   0.03
  17   1     0.18  -0.13  -0.01    -0.13   0.09   0.12     0.25  -0.18  -0.13
  18   1    -0.20   0.21   0.04    -0.05   0.07  -0.01    -0.18   0.14   0.10
  19   1    -0.26  -0.16   0.28    -0.15  -0.08   0.16     0.02  -0.01  -0.03
  20   1     0.11   0.09  -0.16     0.17   0.15  -0.21    -0.05  -0.06   0.04
  21   1     0.24   0.26   0.16     0.03  -0.02   0.00     0.09   0.02   0.11
  22   1     0.22  -0.08   0.03     0.05   0.01   0.08    -0.23   0.10  -0.00
  23   1    -0.08   0.02  -0.02     0.24   0.01   0.05     0.06   0.03   0.03
  24   1     0.00  -0.03  -0.02     0.11  -0.01   0.02     0.09  -0.01   0.01
  25   1    -0.10  -0.20  -0.21    -0.04  -0.07  -0.07     0.13   0.27   0.28
  26   1     0.11  -0.11  -0.06    -0.13   0.12   0.07    -0.04   0.04   0.01
  27   1    -0.13   0.16   0.05     0.22  -0.27  -0.08     0.07  -0.10  -0.01
  28   1    -0.01  -0.01   0.01    -0.02  -0.00   0.00     0.08  -0.04   0.02
  29   1     0.03   0.01   0.02     0.03   0.01   0.02    -0.03  -0.01  -0.02
  30   1     0.02  -0.06  -0.08     0.01  -0.04  -0.00     0.03  -0.08  -0.10
  31   1     0.02   0.01   0.03    -0.02  -0.03  -0.03     0.07   0.07   0.09
  32   1    -0.14   0.06   0.17     0.15  -0.06  -0.19     0.05  -0.02  -0.05
  33   1     0.01  -0.00   0.01     0.00  -0.00  -0.01     0.02  -0.00   0.00
  34   1     0.01   0.01   0.01    -0.01   0.01   0.00     0.00   0.04   0.03
  35   1    -0.04   0.02   0.04     0.02  -0.01  -0.03    -0.11   0.08   0.10
                     55                     56                     57
                        a                      a                      a 
 Frequencies --  1228.8620              1234.1321              1252.1362
 Red. masses --     7.7126                 6.0404                 7.8408
 Frc consts  --     0.0000                 0.0000                 0.0000
 IR Inten    --    16.7411                10.2847                18.4839
 Raman Activ --     0.0000                 0.0000                 0.0000
 Depolar     --     0.0000                 0.0000                 0.0000
 Atom AN      X      Y      Z        X      Y      Z        X      Y      Z
   1   6    -0.16  -0.11   0.08    -0.22  -0.30   0.17    -0.11  -0.09   0.25
   2   6    -0.11   0.10  -0.07     0.02   0.16  -0.11     0.22   0.04  -0.04
   3   6     0.07  -0.07  -0.05     0.07  -0.09  -0.02    -0.12   0.04   0.11
   4   6    -0.05  -0.03   0.02     0.01   0.06   0.11     0.09   0.06  -0.17
   5   6     0.09   0.06  -0.03    -0.25   0.00  -0.14     0.00  -0.19  -0.03
   6   6     0.09  -0.06  -0.11     0.17   0.01  -0.04    -0.03   0.05  -0.13
   7   6     0.15  -0.05  -0.08     0.02   0.11   0.01     0.01  -0.08  -0.13
   8   6    -0.09   0.23   0.27     0.05  -0.08  -0.16    -0.09   0.31   0.27
   9   8    -0.02   0.06   0.05    -0.06  -0.04   0.00     0.03  -0.02   0.01
  10   6     0.02   0.06   0.02     0.05   0.18   0.05     0.00   0.11  -0.02
  11   6    -0.01  -0.08  -0.09     0.03   0.05   0.07     0.03  -0.09  -0.09
  12   6     0.48  -0.05  -0.07    -0.01  -0.01   0.00    -0.32   0.02   0.06
  13   6    -0.13   0.03   0.06     0.00   0.00   0.01     0.08  -0.03  -0.05
  14   1    -0.27  -0.08  -0.02    -0.02   0.06  -0.04     0.20   0.16  -0.03
  15   8    -0.03  -0.01   0.01    -0.07  -0.02   0.02    -0.03  -0.03   0.04
  16   6    -0.18   0.01   0.04     0.00  -0.00  -0.00     0.10  -0.01  -0.03
  17   1     0.00  -0.01  -0.01    -0.02   0.01   0.03     0.16  -0.11  -0.05
  18   1    -0.00   0.00  -0.00     0.13  -0.06  -0.08    -0.11   0.09   0.07
  19   1    -0.01  -0.04   0.02     0.05   0.10  -0.06     0.00  -0.04  -0.00
  20   1     0.01   0.01  -0.02    -0.13  -0.11   0.14    -0.07  -0.06   0.07
  21   1    -0.22  -0.17  -0.19     0.22   0.29   0.17    -0.12  -0.09  -0.12
  22   1     0.08  -0.01   0.03     0.22   0.01   0.17    -0.02   0.02  -0.02
  23   1    -0.03  -0.04  -0.03    -0.21   0.01  -0.02     0.01  -0.05  -0.03
  24   1     0.11  -0.02   0.02     0.22  -0.00   0.06     0.26  -0.05   0.05
  25   1    -0.07  -0.13  -0.12    -0.05  -0.08  -0.07     0.04   0.08   0.09
  26   1     0.01  -0.03  -0.04    -0.03  -0.02  -0.09     0.08  -0.11  -0.12
  27   1     0.04  -0.07   0.01     0.09  -0.16   0.03     0.02  -0.07   0.03
  28   1    -0.14   0.05  -0.02     0.11  -0.02   0.01    -0.12   0.03  -0.00
  29   1     0.06   0.02   0.05    -0.02  -0.01  -0.01     0.10   0.03   0.08
  30   1     0.03  -0.05  -0.09    -0.00   0.02  -0.00    -0.01   0.03   0.04
  31   1     0.10   0.11   0.12     0.00   0.01   0.00    -0.07  -0.08  -0.08
  32   1     0.05  -0.03  -0.06     0.12  -0.07  -0.16     0.04  -0.03  -0.05
  33   1     0.00   0.00   0.02    -0.00  -0.00   0.00     0.01  -0.00  -0.02
  34   1    -0.00   0.03   0.02     0.00   0.00  -0.00     0.01  -0.02  -0.01
  35   1    -0.13   0.09   0.13    -0.00   0.01   0.00     0.07  -0.05  -0.08
                     58                     59                     60
                        a                      a                      a 
 Frequencies --  1264.7801              1272.4855              1284.4946
 Red. masses --     7.4637                 6.2108                 3.7758
 Frc consts  --     0.0000                 0.0000                 0.0000
 IR Inten    --    34.3122                10.7826                 4.3410
 Raman Activ --     0.0000                 0.0000                 0.0000
 Depolar     --     0.0000                 0.0000                 0.0000
 Atom AN      X      Y      Z        X      Y      Z        X      Y      Z
   1   6    -0.14   0.15  -0.12    -0.12  -0.12   0.03     0.08   0.02  -0.09
   2   6    -0.02   0.02  -0.01     0.03   0.24  -0.07    -0.02   0.17  -0.07
   3   6    -0.01  -0.05   0.05     0.01  -0.08   0.07     0.01  -0.01   0.12
   4   6     0.11   0.14  -0.01    -0.06   0.09  -0.10     0.01   0.04  -0.04
   5   6    -0.16  -0.25  -0.26     0.23  -0.19   0.31    -0.15  -0.14  -0.00
   6   6    -0.05   0.13   0.12    -0.09   0.05  -0.22     0.23  -0.09  -0.07
   7   6     0.38  -0.15  -0.01     0.19   0.05   0.09    -0.16  -0.01  -0.02
   8   6    -0.08   0.21   0.22     0.08  -0.14  -0.15    -0.03   0.08   0.05
   9   8     0.01  -0.11  -0.06     0.03   0.02   0.04    -0.06   0.01   0.02
  10   6     0.01  -0.11  -0.01     0.03   0.04   0.01    -0.01  -0.13  -0.03
  11   6     0.01  -0.04  -0.04    -0.08   0.04   0.01     0.05  -0.02  -0.00
  12   6     0.02  -0.00  -0.01    -0.02  -0.02   0.02    -0.00  -0.02   0.01
  13   6    -0.00   0.01   0.01    -0.00  -0.01  -0.01     0.00  -0.01  -0.00
  14   1    -0.03  -0.15   0.05     0.09  -0.32   0.13     0.06  -0.37   0.14
  15   8     0.04   0.02  -0.01    -0.03  -0.01   0.02     0.08   0.03  -0.05
  16   6    -0.01   0.00   0.00     0.01   0.01  -0.01    -0.00   0.02  -0.00
  17   1    -0.07   0.04   0.07     0.04  -0.04   0.00     0.08  -0.06  -0.03
  18   1     0.10  -0.06  -0.05    -0.10   0.08   0.07    -0.06   0.03   0.08
  19   1     0.04   0.07  -0.04    -0.04  -0.10   0.07     0.11   0.08  -0.12
  20   1    -0.12  -0.11   0.09     0.03   0.10   0.01    -0.08  -0.05   0.09
  21   1     0.18   0.00   0.12    -0.18   0.31  -0.22    -0.04   0.17  -0.04
  22   1     0.04   0.02   0.05    -0.04   0.02  -0.06    -0.25   0.25   0.30
  23   1    -0.20   0.06  -0.02    -0.26   0.06  -0.00     0.24  -0.02   0.02
  24   1    -0.38   0.05  -0.04    -0.23   0.06   0.00     0.19  -0.04   0.01
  25   1     0.07   0.15   0.16     0.03   0.05   0.05    -0.06  -0.11  -0.11
  26   1    -0.04   0.06   0.09     0.00  -0.02  -0.04    -0.16   0.20   0.19
  27   1     0.04  -0.02  -0.08     0.02  -0.04   0.01    -0.02   0.06  -0.04
  28   1    -0.07   0.01   0.00    -0.04  -0.01   0.01     0.02  -0.01   0.01
  29   1     0.05   0.03   0.03    -0.10  -0.02  -0.09     0.06   0.02   0.05
  30   1    -0.00   0.00   0.01     0.00   0.00  -0.02    -0.01   0.02  -0.00
  31   1     0.01   0.01   0.01    -0.01  -0.02  -0.01     0.00   0.01  -0.00
  32   1    -0.04   0.02   0.06     0.05  -0.02  -0.07    -0.10   0.06   0.13
  33   1    -0.00   0.00   0.00     0.00  -0.00   0.01     0.00   0.00   0.01
  34   1    -0.00  -0.00  -0.00     0.00  -0.00  -0.00    -0.00  -0.01  -0.01
  35   1    -0.00  -0.00   0.01     0.01  -0.02  -0.00     0.01  -0.03   0.00
                     61                     62                     63
                        a                      a                      a 
 Frequencies --  1291.8181              1313.5437              1327.4267
 Red. masses --     5.2162                 4.4739                 4.5555
 Frc consts  --     0.0000                 0.0000                 0.0000
 IR Inten    --     7.5319                27.1852                12.1249
 Raman Activ --     0.0000                 0.0000                 0.0000
 Depolar     --     0.0000                 0.0000                 0.0000
 Atom AN      X      Y      Z        X      Y      Z        X      Y      Z
   1   6    -0.18   0.05  -0.03     0.19  -0.03  -0.22    -0.05   0.24  -0.04
   2   6     0.10   0.07   0.00    -0.11   0.14  -0.02     0.04  -0.14   0.04
   3   6    -0.01   0.09   0.11     0.04  -0.01   0.07    -0.07   0.10  -0.02
   4   6    -0.06  -0.22  -0.07    -0.02  -0.01  -0.03    -0.09  -0.08   0.20
   5   6    -0.06   0.38  -0.07    -0.03   0.00  -0.09    -0.06  -0.16  -0.03
   6   6     0.15  -0.13   0.05    -0.13   0.12   0.17     0.25  -0.14  -0.02
   7   6     0.17  -0.01   0.03    -0.11   0.00   0.01     0.10  -0.06  -0.00
   8   6     0.03  -0.11  -0.04    -0.03   0.03   0.03    -0.02   0.04   0.04
   9   8    -0.04   0.04   0.02     0.01  -0.06  -0.04    -0.02   0.08   0.03
  10   6     0.01  -0.00   0.03     0.14   0.06   0.05     0.05   0.04   0.05
  11   6    -0.03   0.03   0.02     0.02  -0.01  -0.00     0.00  -0.00  -0.01
  12   6    -0.06   0.01   0.01     0.06  -0.02  -0.00    -0.03   0.01  -0.01
  13   6     0.00  -0.03  -0.03    -0.02  -0.00  -0.00     0.01   0.00   0.00
  14   1     0.18  -0.09   0.07     0.08  -0.37   0.15    -0.04   0.14  -0.06
  15   8     0.01   0.00   0.00    -0.21  -0.03   0.07    -0.10  -0.03   0.05
  16   6     0.01   0.00  -0.00    -0.00   0.00  -0.01     0.01  -0.01  -0.00
  17   1     0.23  -0.15  -0.15     0.02  -0.02  -0.01     0.08  -0.05  -0.08
  18   1    -0.27   0.14   0.20    -0.07   0.02   0.08     0.12  -0.07  -0.09
  19   1     0.14   0.04  -0.18     0.07   0.03  -0.08     0.10   0.16  -0.14
  20   1    -0.02  -0.04   0.04    -0.03  -0.02   0.04     0.15   0.12  -0.18
  21   1     0.01  -0.35   0.10     0.09  -0.08   0.08    -0.01   0.23  -0.06
  22   1     0.08  -0.02   0.08     0.09  -0.07  -0.05    -0.40   0.16   0.01
  23   1    -0.17   0.05  -0.01     0.17  -0.04   0.02    -0.06   0.03  -0.00
  24   1    -0.22   0.05   0.01     0.05  -0.02  -0.03    -0.16   0.02  -0.02
  25   1    -0.07  -0.13  -0.13     0.04   0.08   0.07    -0.06  -0.11  -0.12
  26   1     0.01  -0.01  -0.01     0.15  -0.23  -0.24     0.19  -0.24  -0.21
  27   1     0.06  -0.07  -0.05    -0.18   0.18   0.25    -0.04   0.04   0.08
  28   1     0.00   0.02  -0.02     0.03  -0.01  -0.00    -0.01  -0.00   0.00
  29   1    -0.06  -0.02  -0.04     0.04   0.02   0.03     0.01   0.01   0.01
  30   1    -0.00  -0.01  -0.01    -0.00   0.01  -0.01    -0.01   0.01   0.03
  31   1    -0.02  -0.02  -0.03     0.02   0.01   0.02     0.00   0.01  -0.00
  32   1    -0.00   0.00   0.01     0.23  -0.11  -0.32     0.11  -0.06  -0.14
  33   1     0.01  -0.00  -0.00    -0.01  -0.00   0.03    -0.01  -0.00  -0.00
  34   1     0.00  -0.01  -0.00    -0.02   0.02   0.01    -0.00   0.01   0.00
  35   1     0.02  -0.02  -0.02    -0.01  -0.00   0.02     0.00   0.01  -0.00
                     64                     65                     66
                        a                      a                      a 
 Frequencies --  1336.3256              1348.7100              1354.0833
 Red. masses --     4.9090                 3.9853                 4.1967
 Frc consts  --     0.0000                 0.0000                 0.0000
 IR Inten    --    33.2461                38.6195                11.7638
 Raman Activ --     0.0000                 0.0000                 0.0000
 Depolar     --     0.0000                 0.0000                 0.0000
 Atom AN      X      Y      Z        X      Y      Z        X      Y      Z
   1   6     0.03  -0.16   0.04     0.11  -0.04  -0.18    -0.02  -0.06  -0.07
   2   6    -0.07   0.06  -0.03    -0.09   0.04   0.00     0.18   0.09  -0.08
   3   6     0.03   0.09   0.01     0.02  -0.03   0.02    -0.35   0.20   0.16
   4   6    -0.25  -0.18   0.27     0.07   0.06  -0.08     0.09  -0.07   0.02
   5   6     0.09  -0.13  -0.13    -0.06  -0.00   0.02     0.05   0.10   0.03
   6   6    -0.18   0.13   0.04     0.05  -0.00   0.08    -0.06   0.03  -0.01
   7   6    -0.02   0.02  -0.02    -0.05   0.02   0.02    -0.01   0.03   0.03
   8   6    -0.05   0.07   0.06     0.01  -0.02  -0.03     0.01  -0.03  -0.02
   9   8     0.04  -0.04  -0.02    -0.00   0.02  -0.01    -0.01  -0.03  -0.00
  10   6    -0.11   0.03  -0.02    -0.31   0.22   0.09    -0.01   0.01   0.01
  11   6     0.01  -0.02  -0.01     0.00   0.01   0.01    -0.01   0.00   0.00
  12   6     0.07   0.00  -0.01     0.05  -0.00  -0.00    -0.10  -0.03   0.00
  13   6    -0.03  -0.02  -0.01    -0.01   0.00   0.00     0.03   0.03   0.03
  14   1     0.18  -0.04   0.05     0.03  -0.14   0.06    -0.26  -0.25   0.02
  15   8     0.09   0.01  -0.02     0.11  -0.02   0.05     0.01   0.00   0.00
  16   6    -0.02   0.00   0.01    -0.02   0.01   0.02     0.02   0.00  -0.00
  17   1     0.12  -0.07  -0.13    -0.05   0.03   0.04     0.30  -0.22  -0.17
  18   1    -0.04   0.02   0.04     0.01  -0.02   0.00     0.42  -0.26  -0.27
  19   1     0.24   0.21  -0.29    -0.04  -0.04   0.05    -0.09  -0.07   0.11
  20   1     0.23   0.20  -0.26    -0.08  -0.07   0.09     0.08  -0.00  -0.14
  21   1     0.08   0.17  -0.02     0.00  -0.03   0.03    -0.01  -0.10   0.01
  22   1     0.17  -0.14  -0.15    -0.14   0.02  -0.07     0.12  -0.01   0.08
  23   1     0.02  -0.02  -0.00     0.08   0.01   0.01     0.04  -0.04   0.01
  24   1     0.10  -0.01   0.03     0.03  -0.00  -0.00     0.01  -0.01  -0.05
  25   1     0.05   0.09   0.10    -0.00  -0.00  -0.00     0.01   0.02   0.03
  26   1    -0.03   0.06   0.08     0.35  -0.34  -0.20    -0.01   0.01   0.00
  27   1     0.10  -0.12  -0.12     0.29  -0.35  -0.31     0.03  -0.03  -0.03
  28   1     0.03  -0.01  -0.00     0.02  -0.01   0.00    -0.00   0.00  -0.00
  29   1     0.06   0.02   0.05     0.00   0.00   0.00    -0.01  -0.01  -0.01
  30   1    -0.00  -0.01  -0.01     0.00  -0.01  -0.01    -0.01   0.04   0.03
  31   1     0.01   0.02   0.01     0.01   0.00   0.01     0.00  -0.00   0.01
  32   1    -0.10   0.05   0.14    -0.14   0.07   0.20    -0.01   0.01   0.02
  33   1     0.00   0.00  -0.00     0.02   0.00  -0.03     0.00   0.00  -0.02
  34   1     0.00  -0.00  -0.00     0.01  -0.03  -0.01    -0.01  -0.02  -0.01
  35   1    -0.01   0.00   0.00     0.00  -0.01  -0.01     0.01  -0.01   0.00
                     67                     68                     69
                        a                      a                      a 
 Frequencies --  1366.3816              1368.1049              1401.9420
 Red. masses --     4.0175                 3.8453                 2.6386
 Frc consts  --     0.0000                 0.0000                 0.0000
 IR Inten    --     5.6107                12.6851                 4.7028
 Raman Activ --     0.0000                 0.0000                 0.0000
 Depolar     --     0.0000                 0.0000                 0.0000
 Atom AN      X      Y      Z        X      Y      Z        X      Y      Z
   1   6    -0.05  -0.08   0.11    -0.10  -0.15  -0.04    -0.00  -0.00  -0.01
   2   6    -0.26  -0.00  -0.12     0.26   0.12   0.05    -0.00  -0.00  -0.01
   3   6    -0.11   0.08   0.15     0.03  -0.06  -0.06     0.01  -0.01   0.00
   4   6     0.12   0.04  -0.07    -0.00   0.01   0.00    -0.00  -0.03  -0.00
   5   6    -0.08   0.01   0.01    -0.07  -0.04  -0.05     0.00  -0.01  -0.01
   6   6     0.14  -0.02   0.13     0.13   0.03   0.22    -0.00   0.01   0.01
   7   6     0.02   0.02  -0.02     0.01   0.03   0.02     0.01   0.00   0.00
   8   6     0.01  -0.00  -0.01    -0.02   0.02   0.00    -0.02   0.01   0.00
   9   8     0.02   0.10   0.00     0.03   0.11  -0.00     0.00   0.00  -0.00
  10   6     0.04  -0.03  -0.03     0.03  -0.01  -0.01     0.03  -0.01   0.02
  11   6    -0.00   0.00   0.00     0.00   0.00   0.00    -0.01  -0.00  -0.00
  12   6     0.19   0.04  -0.01    -0.16  -0.04   0.01     0.07   0.08   0.11
  13   6    -0.06  -0.02  -0.03     0.04   0.02   0.02    -0.00   0.06   0.07
  14   1     0.54   0.01   0.08    -0.44  -0.13  -0.02    -0.12  -0.03  -0.01
  15   8    -0.00   0.01  -0.02     0.01   0.01  -0.01    -0.01  -0.00   0.00
  16   6    -0.06  -0.00   0.01     0.05   0.00  -0.01    -0.27   0.09   0.18
  17   1     0.05  -0.04  -0.03     0.01  -0.01   0.02    -0.01   0.00  -0.01
  18   1     0.23  -0.18  -0.11    -0.12   0.11   0.05     0.01   0.02  -0.01
  19   1    -0.06  -0.05   0.08     0.02   0.03  -0.03    -0.02   0.06  -0.02
  20   1    -0.05  -0.06   0.04    -0.03  -0.01   0.04     0.02   0.05   0.05
  21   1    -0.01  -0.04   0.02     0.03   0.02   0.03     0.00   0.00  -0.00
  22   1    -0.23  -0.13  -0.42    -0.25  -0.21  -0.58     0.00  -0.01  -0.01
  23   1    -0.07  -0.02  -0.01     0.01  -0.07  -0.00    -0.00  -0.02  -0.00
  24   1     0.03   0.00   0.02     0.04  -0.02  -0.04     0.00  -0.00  -0.02
  25   1    -0.04  -0.07  -0.09    -0.03  -0.07  -0.08     0.00   0.00  -0.00
  26   1    -0.09   0.10   0.07    -0.09   0.09   0.06    -0.04  -0.00  -0.04
  27   1    -0.04   0.04   0.05     0.00  -0.01   0.01    -0.01   0.05  -0.00
  28   1    -0.01   0.00   0.00     0.04  -0.02   0.00     0.03  -0.01  -0.00
  29   1    -0.01  -0.00  -0.01     0.03   0.02   0.03     0.02   0.01   0.02
  30   1     0.02  -0.07  -0.07    -0.03   0.07   0.07     0.14  -0.21  -0.29
  31   1    -0.00  -0.01  -0.00     0.01   0.01   0.02    -0.24  -0.18  -0.20
  32   1     0.01  -0.01  -0.01    -0.01   0.01   0.01     0.02  -0.01  -0.02
  33   1     0.02  -0.01   0.03    -0.02   0.01  -0.02     0.37   0.03  -0.26
  34   1     0.01   0.04   0.02    -0.02  -0.03  -0.02     0.36  -0.21  -0.10
  35   1    -0.01   0.01  -0.01     0.00  -0.01   0.01     0.18  -0.14  -0.31
                     70                     71                     72
                        a                      a                      a 
 Frequencies --  1410.7991              1420.2263              1460.6478
 Red. masses --     2.3742                 2.6645                 1.8985
 Frc consts  --     0.0000                 0.0000                 0.0000
 IR Inten    --     5.4325                15.5294                 0.5710
 Raman Activ --     0.0000                 0.0000                 0.0000
 Depolar     --     0.0000                 0.0000                 0.0000
 Atom AN      X      Y      Z        X      Y      Z        X      Y      Z
   1   6    -0.00   0.01   0.01    -0.00   0.01   0.01    -0.02   0.03   0.02
   2   6    -0.01  -0.01  -0.01     0.00   0.01   0.02    -0.02  -0.01   0.00
   3   6    -0.01   0.00   0.00    -0.01   0.01  -0.01     0.00   0.03  -0.05
   4   6     0.01  -0.01  -0.03    -0.00   0.04   0.01     0.00  -0.02  -0.02
   5   6     0.07   0.05   0.08     0.01   0.01   0.02    -0.00  -0.02  -0.00
   6   6     0.01  -0.01  -0.02     0.00  -0.01  -0.01     0.00  -0.01  -0.03
   7   6     0.09  -0.03  -0.00     0.01  -0.01  -0.00     0.04   0.19   0.17
   8   6    -0.24  -0.01  -0.10    -0.02  -0.00  -0.01     0.00   0.02   0.01
   9   8    -0.01  -0.00   0.00    -0.00  -0.00  -0.00    -0.00  -0.01   0.00
  10   6    -0.00  -0.00  -0.00     0.02  -0.01   0.01     0.02  -0.03   0.06
  11   6    -0.16   0.01  -0.06    -0.02   0.00  -0.00    -0.00   0.00  -0.00
  12   6     0.00   0.01   0.01    -0.00  -0.14  -0.19     0.01   0.00  -0.01
  13   6     0.00   0.00   0.00    -0.02  -0.07  -0.08    -0.00  -0.01  -0.01
  14   1     0.02   0.01  -0.00     0.11   0.04   0.01     0.07   0.03   0.00
  15   8    -0.00  -0.00   0.00    -0.01  -0.00   0.00     0.00  -0.00   0.01
  16   6     0.03  -0.01  -0.03    -0.17   0.09   0.20     0.01   0.00  -0.00
  17   1     0.00  -0.00   0.01     0.01  -0.00   0.02     0.07  -0.01   0.14
  18   1     0.01  -0.01  -0.00    -0.02  -0.01   0.01    -0.07  -0.12   0.08
  19   1    -0.04  -0.01   0.03     0.04  -0.09   0.03    -0.03   0.05  -0.01
  20   1    -0.00   0.01   0.03    -0.03  -0.07  -0.08     0.02   0.04   0.05
  21   1    -0.07  -0.03  -0.04    -0.01  -0.00  -0.00     0.00   0.01  -0.00
  22   1     0.01   0.01   0.03     0.00   0.00   0.01     0.01   0.02   0.05
  23   1    -0.07   0.02  -0.01    -0.01   0.01  -0.00    -0.12  -0.62  -0.05
  24   1    -0.05   0.01   0.00    -0.01   0.00   0.01     0.02  -0.14  -0.60
  25   1    -0.00  -0.00  -0.00     0.00   0.00   0.01     0.00   0.01   0.01
  26   1     0.00  -0.00  -0.00    -0.03  -0.00  -0.03    -0.11  -0.03  -0.13
  27   1    -0.00   0.00  -0.00    -0.01   0.04  -0.01     0.04   0.11  -0.14
  28   1     0.61  -0.25  -0.04     0.05  -0.02  -0.00     0.01  -0.00   0.00
  29   1     0.43   0.22   0.43     0.03   0.02   0.03     0.00   0.00   0.00
  30   1     0.01  -0.02  -0.02    -0.20   0.29   0.39    -0.00   0.00   0.01
  31   1    -0.02  -0.01  -0.01     0.34   0.26   0.29     0.01   0.01   0.01
  32   1     0.00  -0.00  -0.00     0.01  -0.01  -0.01    -0.02   0.01   0.02
  33   1    -0.03  -0.01   0.04     0.15   0.04  -0.27    -0.02   0.00  -0.01
  34   1    -0.03   0.03   0.01     0.20  -0.22  -0.10    -0.03  -0.02  -0.01
  35   1    -0.02   0.01   0.03     0.12  -0.06  -0.22    -0.02   0.01   0.03
                     73                     74                     75
                        a                      a                      a 
 Frequencies --  1474.7333              1475.6181              1479.8098
 Red. masses --     1.8183                 1.8516                 1.5821
 Frc consts  --     0.0000                 0.0000                 0.0000
 IR Inten    --     4.5199                 1.1035                 2.4583
 Raman Activ --     0.0000                 0.0000                 0.0000
 Depolar     --     0.0000                 0.0000                 0.0000
 Atom AN      X      Y      Z        X      Y      Z        X      Y      Z
   1   6    -0.00   0.01  -0.02     0.00  -0.02   0.02     0.01  -0.00  -0.00
   2   6     0.00   0.01  -0.00    -0.00   0.02  -0.02     0.00   0.02  -0.01
   3   6    -0.01   0.05  -0.08    -0.02   0.03  -0.06     0.00  -0.01   0.02
   4   6     0.04  -0.12  -0.07     0.05  -0.16  -0.10    -0.00   0.01   0.00
   5   6     0.00  -0.01  -0.01     0.00  -0.02  -0.01    -0.00   0.00   0.00
   6   6    -0.01   0.00  -0.00    -0.02   0.01   0.00    -0.00   0.00   0.00
   7   6     0.01   0.02   0.02    -0.02  -0.06  -0.06    -0.00   0.01   0.00
   8   6    -0.00   0.01   0.01    -0.00   0.00   0.00    -0.00   0.00   0.00
   9   8     0.00  -0.00   0.00     0.01  -0.00  -0.00     0.00   0.00   0.00
  10   6    -0.07   0.07  -0.16     0.05  -0.04   0.11    -0.00  -0.00  -0.00
  11   6     0.00  -0.00   0.00     0.01  -0.00   0.00     0.00  -0.00   0.00
  12   6    -0.01  -0.02  -0.03     0.00  -0.03  -0.03    -0.02  -0.02   0.04
  13   6     0.00  -0.01  -0.01     0.00   0.01   0.01     0.01   0.00   0.00
  14   1    -0.02  -0.01   0.00     0.01  -0.01   0.00    -0.00  -0.03   0.01
  15   8     0.00  -0.00  -0.03    -0.00   0.00   0.02     0.00   0.00   0.00
  16   6    -0.06  -0.02   0.00     0.06   0.02   0.04     0.04  -0.20   0.09
  17   1     0.12  -0.02   0.22     0.10  -0.02   0.17    -0.03   0.00  -0.05
  18   1    -0.06  -0.22   0.10    -0.03  -0.18   0.07     0.01   0.05  -0.02
  19   1    -0.23   0.26  -0.00    -0.31   0.35  -0.00     0.01  -0.01  -0.00
  20   1     0.09   0.22   0.25     0.12   0.29   0.34    -0.01  -0.01  -0.01
  21   1     0.00  -0.00  -0.00     0.00  -0.01  -0.00    -0.00  -0.00   0.00
  22   1     0.01   0.01   0.02     0.01  -0.02  -0.02     0.00  -0.00  -0.00
  23   1    -0.01  -0.05  -0.00     0.03   0.20   0.02     0.00  -0.02  -0.00
  24   1    -0.02  -0.01  -0.06     0.01   0.04   0.20     0.00  -0.00  -0.01
  25   1    -0.00  -0.01   0.00     0.01   0.01   0.01    -0.00  -0.00  -0.00
  26   1     0.34   0.07   0.36    -0.24  -0.04  -0.25    -0.01   0.00  -0.01
  27   1    -0.10  -0.31   0.37     0.07   0.22  -0.25     0.00   0.01  -0.01
  28   1    -0.01   0.00   0.00    -0.02   0.01   0.00     0.00  -0.00   0.00
  29   1    -0.00  -0.00  -0.00    -0.01  -0.01  -0.01     0.00   0.00   0.00
  30   1    -0.03   0.04   0.05    -0.01   0.02   0.02     0.01  -0.02  -0.03
  31   1     0.05   0.04   0.04     0.03   0.03   0.03    -0.02  -0.01  -0.03
  32   1     0.01  -0.00  -0.01    -0.00   0.00   0.00    -0.01   0.01   0.01
  33   1     0.05  -0.01   0.08    -0.10   0.03  -0.16    -0.48   0.03  -0.14
  34   1     0.11   0.10   0.05    -0.08  -0.15  -0.07     0.41   0.09   0.05
  35   1     0.05   0.00  -0.12    -0.06   0.06   0.10    -0.01   0.65  -0.29
                     76                     77                     78
                        a                      a                      a 
 Frequencies --  1488.4385              1492.6466              1723.4783
 Red. masses --     1.9477                 1.6359                11.2429
 Frc consts  --     0.0000                 0.0000                 0.0000
 IR Inten    --     0.9050                 6.4863                26.6542
 Raman Activ --     0.0000                 0.0000                 0.0000
 Depolar     --     0.0000                 0.0000                 0.0000
 Atom AN      X      Y      Z        X      Y      Z        X      Y      Z
   1   6    -0.00  -0.01   0.00    -0.00  -0.01   0.00    -0.00  -0.01  -0.00
   2   6     0.00   0.01  -0.02     0.02   0.01   0.01    -0.03  -0.03  -0.05
   3   6    -0.02   0.14  -0.20    -0.00  -0.00  -0.01     0.00   0.01   0.00
   4   6    -0.04   0.12   0.06     0.01  -0.02  -0.01     0.00  -0.00  -0.00
   5   6    -0.00  -0.00   0.01     0.00  -0.00  -0.00    -0.00  -0.00  -0.00
   6   6     0.01   0.00   0.01    -0.00   0.00   0.00     0.00   0.00   0.00
   7   6    -0.01  -0.03  -0.03    -0.01  -0.01  -0.01     0.00   0.00  -0.00
   8   6     0.01  -0.01  -0.01    -0.00   0.00  -0.00     0.00  -0.00   0.00
   9   8    -0.00   0.00   0.00     0.00  -0.00  -0.00    -0.00  -0.00  -0.00
  10   6     0.01  -0.00   0.02     0.02  -0.03   0.08     0.00   0.00   0.00
  11   6    -0.01   0.00   0.00     0.00  -0.00   0.00    -0.00   0.00  -0.00
  12   6     0.00   0.01   0.02    -0.01  -0.00  -0.01     0.10   0.46   0.57
  13   6     0.01   0.02   0.02    -0.00  -0.05  -0.06    -0.09  -0.38  -0.47
  14   1    -0.04  -0.01  -0.01    -0.06  -0.00  -0.01    -0.11  -0.03  -0.01
  15   8     0.00   0.00   0.00     0.00   0.00   0.01    -0.00   0.00  -0.00
  16   6     0.00  -0.02  -0.00    -0.17  -0.06  -0.10     0.03  -0.04  -0.05
  17   1     0.28  -0.03   0.50     0.01  -0.01   0.01     0.00   0.00   0.01
  18   1    -0.18  -0.49   0.26    -0.00  -0.00   0.00     0.01  -0.02   0.00
  19   1     0.22  -0.23  -0.01    -0.05   0.05   0.00    -0.01   0.00   0.00
  20   1    -0.08  -0.19  -0.23     0.02   0.04   0.05     0.00   0.00   0.00
  21   1     0.00   0.02   0.00     0.00  -0.00   0.00     0.00  -0.00   0.00
  22   1    -0.01  -0.01  -0.02     0.00  -0.01  -0.01     0.00  -0.00  -0.00
  23   1     0.01   0.13   0.01     0.01   0.04   0.00     0.00   0.00   0.00
  24   1    -0.00   0.03   0.11     0.01   0.01   0.04     0.00   0.00   0.00
  25   1    -0.00  -0.00  -0.01     0.00   0.01   0.00     0.00   0.00  -0.00
  26   1    -0.04  -0.00  -0.03    -0.16  -0.04  -0.17    -0.00   0.00   0.00
  27   1     0.01   0.03  -0.04     0.07   0.14  -0.20    -0.00  -0.00   0.00
  28   1     0.00  -0.00  -0.00    -0.00   0.00   0.00     0.00  -0.00  -0.00
  29   1    -0.00   0.00   0.00    -0.00  -0.00  -0.00    -0.00   0.00   0.00
  30   1     0.03  -0.04  -0.06    -0.05   0.06   0.08    -0.13   0.03   0.06
  31   1    -0.06  -0.04  -0.05     0.07   0.04   0.05     0.15   0.02   0.00
  32   1     0.00  -0.00  -0.00    -0.01   0.00   0.02     0.00  -0.00  -0.00
  33   1    -0.02  -0.00   0.00     0.18  -0.09   0.53     0.04   0.00  -0.07
  34   1     0.03   0.02   0.01     0.25   0.47   0.23     0.03  -0.05  -0.03
  35   1    -0.00   0.04  -0.02     0.16  -0.11  -0.30    -0.03   0.02   0.04
                     79                     80                     81
                        a                      a                      a 
 Frequencies --  1739.9656              2793.2138              2857.5328
 Red. masses --    11.5867                 1.7096                 1.7343
 Frc consts  --     0.0000                 0.0000                 0.0000
 IR Inten    --    29.7889               148.6521               109.8047
 Raman Activ --     0.0000                 0.0000                 0.0000
 Depolar     --     0.0000                 0.0000                 0.0000
 Atom AN      X      Y      Z        X      Y      Z        X      Y      Z
   1   6     0.02  -0.01  -0.00    -0.00  -0.01   0.01     0.00   0.01  -0.00
   2   6    -0.00  -0.00  -0.00    -0.00   0.00   0.00    -0.00   0.00   0.00
   3   6    -0.00   0.00  -0.00     0.00   0.00  -0.00     0.00   0.00  -0.00
   4   6     0.00   0.01  -0.00     0.00   0.00  -0.00    -0.00   0.00   0.00
   5   6     0.06   0.03   0.06     0.00  -0.01  -0.00    -0.00   0.00   0.00
   6   6     0.01   0.01   0.01    -0.08  -0.21   0.12     0.00   0.01  -0.00
   7   6     0.08  -0.03  -0.00     0.00   0.00  -0.00    -0.00  -0.01   0.00
   8   6    -0.70   0.01  -0.27     0.00  -0.00  -0.00    -0.00  -0.00   0.00
   9   8    -0.00  -0.00  -0.00    -0.01  -0.02  -0.01     0.00   0.00   0.00
  10   6    -0.00   0.00  -0.00     0.01   0.01  -0.01     0.12   0.20  -0.11
  11   6     0.58  -0.01   0.22     0.00   0.00   0.00    -0.00  -0.00  -0.00
  12   6     0.00   0.00   0.00     0.00  -0.00  -0.00    -0.00  -0.00  -0.00
  13   6    -0.00  -0.00  -0.00    -0.00  -0.00   0.00     0.00   0.00   0.00
  14   1     0.00   0.00   0.00     0.00  -0.00  -0.01     0.00  -0.00  -0.01
  15   8    -0.00   0.00   0.00     0.00   0.00  -0.00     0.01  -0.00  -0.02
  16   6    -0.00  -0.00  -0.00    -0.00  -0.00  -0.00     0.00  -0.00   0.00
  17   1    -0.00   0.00   0.00    -0.00  -0.00   0.00    -0.00   0.00  -0.00
  18   1    -0.00   0.00   0.00    -0.00   0.00  -0.00     0.00   0.00   0.00
  19   1     0.00  -0.01   0.01    -0.00   0.00  -0.00    -0.00  -0.00  -0.00
  20   1    -0.00  -0.00  -0.01    -0.00  -0.00   0.00     0.00  -0.00   0.00
  21   1    -0.03  -0.01  -0.02    -0.01   0.00   0.02     0.00  -0.00  -0.00
  22   1    -0.00   0.00  -0.00     0.33   0.81  -0.41    -0.01  -0.03   0.02
  23   1    -0.02  -0.00  -0.00     0.00   0.00   0.00     0.00  -0.00  -0.00
  24   1    -0.00  -0.00  -0.01    -0.00  -0.01   0.00     0.00   0.02  -0.01
  25   1     0.00   0.00   0.00    -0.00   0.00  -0.00     0.00   0.00  -0.00
  26   1     0.00   0.00   0.00    -0.02  -0.03   0.02    -0.40  -0.72   0.50
  27   1    -0.00  -0.00   0.00     0.00   0.00  -0.00    -0.04   0.01  -0.05
  28   1    -0.05   0.09   0.08    -0.00  -0.00  -0.00     0.00   0.00   0.00
  29   1     0.01  -0.09  -0.10    -0.00  -0.00  -0.00     0.00  -0.00  -0.00
  30   1    -0.00  -0.00  -0.00     0.00   0.00   0.00    -0.00  -0.00  -0.00
  31   1     0.00  -0.00   0.00     0.00   0.00  -0.00     0.00  -0.00  -0.00
  32   1     0.00  -0.00  -0.00     0.00  -0.00   0.00    -0.00  -0.00   0.00
  33   1     0.00  -0.00  -0.00    -0.00   0.00   0.00    -0.00   0.00   0.00
  34   1     0.00  -0.00  -0.00     0.00   0.00  -0.00    -0.00   0.00  -0.00
  35   1    -0.00  -0.00   0.00     0.00   0.00   0.00    -0.00   0.00   0.00
                     82                     83                     84
                        a                      a                      a 
 Frequencies --  2909.5200              2932.3663              2961.6911
 Red. masses --     1.7541                 1.8204                 1.8957
 Frc consts  --     0.0000                 0.0000                 0.0000
 IR Inten    --    51.5134                57.7316                42.8042
 Raman Activ --     0.0000                 0.0000                 0.0000
 Depolar     --     0.0000                 0.0000                 0.0000
 Atom AN      X      Y      Z        X      Y      Z        X      Y      Z
   1   6    -0.00  -0.00   0.01    -0.00  -0.01   0.00    -0.00  -0.00   0.00
   2   6    -0.04   0.08   0.24    -0.00   0.00   0.00     0.00   0.01   0.02
   3   6    -0.02  -0.00  -0.02    -0.00  -0.00  -0.00     0.18   0.13   0.15
   4   6    -0.00   0.00  -0.00    -0.00   0.00  -0.00    -0.07   0.03  -0.04
   5   6     0.00  -0.00  -0.00     0.00  -0.00  -0.00     0.02  -0.00  -0.02
   6   6     0.00   0.00  -0.00    -0.00  -0.00   0.00     0.00   0.00  -0.00
   7   6     0.00   0.00  -0.01    -0.05  -0.24   0.11     0.00  -0.00  -0.01
   8   6    -0.00   0.00   0.00     0.00  -0.01   0.00     0.00  -0.00  -0.00
   9   8    -0.00   0.00   0.00    -0.00   0.00  -0.00    -0.00   0.00   0.00
  10   6    -0.00  -0.00   0.00     0.00  -0.00   0.00     0.00   0.00   0.00
  11   6     0.00  -0.00  -0.00    -0.00   0.00  -0.00     0.00   0.00   0.00
  12   6     0.00   0.01   0.01     0.00  -0.00   0.00    -0.00  -0.00   0.00
  13   6     0.00  -0.00  -0.00    -0.00  -0.00  -0.00     0.00  -0.00  -0.00
  14   1     0.16  -0.31  -0.89     0.00  -0.00  -0.01     0.01  -0.03  -0.08
  15   8    -0.00   0.00  -0.00    -0.00   0.00   0.00    -0.00  -0.00  -0.00
  16   6    -0.00  -0.00  -0.01    -0.00  -0.00  -0.00    -0.00  -0.00  -0.00
  17   1    -0.00   0.00  -0.00    -0.00  -0.00   0.00    -0.15  -0.28   0.09
  18   1     0.06   0.02   0.08     0.01   0.01   0.02    -0.50  -0.17  -0.65
  19   1     0.00   0.00   0.00    -0.00   0.00  -0.00     0.06   0.06   0.10
  20   1     0.00  -0.00   0.00     0.00  -0.00   0.00     0.21  -0.17   0.07
  21   1    -0.01   0.00   0.01    -0.01   0.00   0.01    -0.06   0.02   0.07
  22   1    -0.00  -0.01   0.00     0.00   0.01  -0.01    -0.00  -0.00   0.00
  23   1    -0.00  -0.00   0.02     0.01  -0.02  -0.16    -0.01  -0.01   0.04
  24   1    -0.00  -0.01   0.00     0.18   0.90  -0.22     0.00   0.02  -0.01
  25   1     0.00  -0.00  -0.00    -0.00  -0.00   0.00     0.00  -0.00   0.00
  26   1     0.00   0.01  -0.00     0.01   0.02  -0.01    -0.00  -0.00   0.00
  27   1    -0.00  -0.00  -0.00    -0.01  -0.00  -0.00    -0.00  -0.00  -0.00
  28   1     0.00   0.00   0.00    -0.00  -0.00  -0.00    -0.00  -0.00  -0.00
  29   1    -0.00   0.00   0.00     0.00   0.00   0.00     0.00  -0.00   0.00
  30   1    -0.01  -0.00  -0.00     0.00   0.00   0.00    -0.00   0.00  -0.00
  31   1     0.00  -0.00  -0.00     0.00  -0.00   0.00    -0.00   0.00   0.00
  32   1     0.00  -0.00   0.00    -0.00   0.00   0.00     0.00   0.00   0.00
  33   1     0.00   0.01  -0.00     0.00   0.00   0.00     0.00   0.00  -0.00
  34   1     0.00  -0.01   0.02     0.00  -0.00   0.00     0.00  -0.00   0.01
  35   1     0.01   0.00   0.00     0.00   0.00   0.00     0.00   0.00   0.00
                     85                     86                     87
                        a                      a                      a 
 Frequencies --  2969.4794              2973.8384              2976.4513
 Red. masses --     1.7726                 1.6871                 1.8392
 Frc consts  --     0.0000                 0.0000                 0.0000
 IR Inten    --    50.8310                32.7659               101.9085
 Raman Activ --     0.0000                 0.0000                 0.0000
 Depolar     --     0.0000                 0.0000                 0.0000
 Atom AN      X      Y      Z        X      Y      Z        X      Y      Z
   1   6    -0.00   0.00  -0.00    -0.01  -0.00  -0.00    -0.00   0.00  -0.00
   2   6    -0.00   0.00   0.01    -0.00   0.00   0.00    -0.00  -0.00  -0.00
   3   6     0.04   0.04   0.02     0.00   0.01   0.00    -0.07  -0.08  -0.01
   4   6     0.06  -0.05   0.03     0.01  -0.00   0.01    -0.19   0.10  -0.08
   5   6    -0.16   0.04   0.18     0.01  -0.00  -0.01    -0.07   0.02   0.07
   6   6    -0.00  -0.00   0.01    -0.00   0.00  -0.00    -0.00  -0.00   0.00
   7   6     0.00  -0.00  -0.01    -0.00  -0.00   0.01    -0.00   0.00   0.01
   8   6    -0.00   0.00   0.00    -0.00  -0.00  -0.00    -0.00   0.00   0.00
   9   8     0.00  -0.00  -0.00     0.00   0.00   0.00     0.00  -0.00  -0.00
  10   6    -0.00  -0.00  -0.00    -0.20  -0.07  -0.13    -0.01  -0.00  -0.01
  11   6     0.00  -0.00  -0.00    -0.00   0.00   0.00     0.00  -0.00  -0.00
  12   6     0.00  -0.00   0.00     0.00   0.00   0.00     0.00   0.00  -0.00
  13   6    -0.00   0.00   0.00    -0.00  -0.00  -0.00    -0.00   0.00   0.00
  14   1     0.00  -0.01  -0.02     0.00  -0.00  -0.01    -0.00   0.00   0.01
  15   8    -0.00   0.00  -0.00     0.00  -0.00  -0.01    -0.00  -0.00  -0.00
  16   6    -0.00   0.00  -0.00    -0.00  -0.00   0.00    -0.00  -0.00  -0.00
  17   1    -0.06  -0.11   0.03    -0.01  -0.02   0.00     0.16   0.28  -0.06
  18   1    -0.09  -0.03  -0.12    -0.00  -0.00  -0.01     0.06   0.01   0.09
  19   1     0.02  -0.00   0.02    -0.01  -0.01  -0.01     0.05   0.08   0.10
  20   1    -0.26   0.19  -0.09    -0.03   0.02  -0.01     0.62  -0.47   0.20
  21   1     0.59  -0.13  -0.64    -0.02   0.01   0.02     0.25  -0.06  -0.27
  22   1     0.01   0.01  -0.01    -0.00  -0.00   0.00     0.00   0.01  -0.00
  23   1    -0.00  -0.00   0.04     0.00   0.00  -0.05     0.00   0.00  -0.04
  24   1     0.00   0.02  -0.01     0.00  -0.00   0.00    -0.00  -0.01   0.00
  25   1    -0.00   0.00  -0.00     0.00   0.00   0.00    -0.00   0.00   0.00
  26   1    -0.00   0.00  -0.00    -0.06  -0.06   0.02    -0.00  -0.00   0.00
  27   1     0.01   0.01   0.01     0.77   0.33   0.46     0.04   0.02   0.03
  28   1     0.00  -0.00  -0.00     0.00   0.00   0.00     0.00   0.00   0.00
  29   1    -0.00   0.00   0.00     0.00  -0.00  -0.00    -0.00   0.00   0.00
  30   1    -0.00  -0.00  -0.00     0.00   0.00   0.00     0.00   0.00   0.00
  31   1     0.00  -0.00  -0.00     0.00  -0.00  -0.00     0.01  -0.00  -0.00
  32   1     0.00  -0.00   0.00    -0.01  -0.00  -0.01    -0.00  -0.00  -0.00
  33   1     0.00   0.00  -0.00     0.00   0.00   0.00     0.00   0.00  -0.00
  34   1     0.00  -0.00   0.00    -0.00   0.00  -0.01     0.00  -0.00   0.00
  35   1     0.00   0.00   0.00     0.01   0.00   0.00     0.00   0.00   0.00
                     88                     89                     90
                        a                      a                      a 
 Frequencies --  2982.7846              2987.4171              2988.8422
 Red. masses --     1.6596                 1.6110                 1.7588
 Frc consts  --     0.0000                 0.0000                 0.0000
 IR Inten    --    49.1333                41.0523                90.2203
 Raman Activ --     0.0000                 0.0000                 0.0000
 Depolar     --     0.0000                 0.0000                 0.0000
 Atom AN      X      Y      Z        X      Y      Z        X      Y      Z
   1   6    -0.00   0.00   0.01     0.00   0.00  -0.00     0.00  -0.00   0.00
   2   6    -0.00   0.00   0.00    -0.00  -0.00   0.01    -0.00   0.00   0.01
   3   6     0.01   0.01   0.01    -0.04  -0.15   0.12    -0.01  -0.06   0.05
   4   6     0.01  -0.01  -0.00     0.06  -0.03   0.04     0.03  -0.01   0.02
   5   6    -0.00  -0.00   0.00     0.01  -0.00  -0.01     0.00  -0.00  -0.00
   6   6     0.00  -0.00  -0.00    -0.00  -0.00  -0.00     0.00   0.00  -0.00
   7   6    -0.02   0.02   0.24    -0.00  -0.00   0.00    -0.00  -0.00   0.01
   8   6    -0.00   0.00   0.01     0.00  -0.00  -0.00     0.00  -0.00   0.00
   9   8    -0.00   0.00   0.00    -0.00   0.00   0.00    -0.00   0.00   0.00
  10   6     0.01   0.00   0.01    -0.00  -0.00  -0.00     0.00   0.00   0.00
  11   6     0.00  -0.00  -0.00    -0.00   0.00   0.00    -0.00   0.00  -0.00
  12   6     0.00   0.00  -0.00     0.00  -0.00  -0.00    -0.00  -0.00   0.01
  13   6     0.00   0.00   0.00     0.00   0.00  -0.00     0.00  -0.00  -0.00
  14   1     0.00  -0.01  -0.02     0.01  -0.01  -0.03     0.00  -0.01  -0.03
  15   8    -0.00   0.00  -0.00     0.00  -0.00  -0.00    -0.00  -0.00  -0.00
  16   6    -0.00   0.00  -0.01    -0.01   0.06  -0.09     0.02  -0.13   0.20
  17   1    -0.02  -0.04   0.01     0.38   0.65  -0.13     0.16   0.28  -0.05
  18   1    -0.02  -0.01  -0.03    -0.24  -0.11  -0.29    -0.11  -0.05  -0.13
  19   1     0.01   0.01   0.01    -0.05  -0.05  -0.07    -0.02  -0.02  -0.03
  20   1    -0.03   0.02  -0.01    -0.17   0.13  -0.05    -0.07   0.06  -0.02
  21   1     0.01  -0.00  -0.01    -0.02   0.00   0.03    -0.01   0.00   0.01
  22   1    -0.00  -0.00  -0.00     0.00  -0.00   0.00     0.00  -0.00  -0.00
  23   1     0.10   0.10  -0.94     0.00   0.00  -0.00     0.00   0.00  -0.04
  24   1    -0.04  -0.16   0.08     0.00   0.01  -0.00    -0.00  -0.00   0.00
  25   1     0.00  -0.00  -0.00     0.00  -0.00  -0.00     0.00  -0.00  -0.00
  26   1     0.00   0.00  -0.00    -0.00  -0.00   0.00     0.00   0.00  -0.00
  27   1    -0.04  -0.02  -0.02     0.00   0.00   0.00    -0.01  -0.00  -0.01
  28   1     0.00   0.01   0.01    -0.00  -0.00  -0.00     0.00   0.00   0.00
  29   1    -0.00  -0.00  -0.00     0.00  -0.00  -0.00     0.00  -0.00  -0.00
  30   1    -0.00  -0.00  -0.00     0.00   0.00   0.00    -0.00  -0.00  -0.00
  31   1     0.00  -0.00  -0.00    -0.00   0.00   0.00     0.00   0.00  -0.00
  32   1     0.00  -0.00  -0.00    -0.00   0.00  -0.00     0.00   0.00   0.00
  33   1    -0.00  -0.00  -0.00    -0.01  -0.05  -0.02     0.01   0.12   0.05
  34   1     0.00  -0.01   0.03     0.01  -0.17   0.34    -0.03   0.39  -0.78
  35   1     0.00   0.00   0.00     0.02   0.01  -0.00    -0.05  -0.03   0.00
                     91                     92                     93
                        a                      a                      a 
 Frequencies --  3010.9604              3036.5447              3039.7930
 Red. masses --     1.6493                 1.7111                 1.6270
 Frc consts  --     0.0000                 0.0000                 0.0000
 IR Inten    --    58.4391                54.4102                13.4618
 Raman Activ --     0.0000                 0.0000                 0.0000
 Depolar     --     0.0000                 0.0000                 0.0000
 Atom AN      X      Y      Z        X      Y      Z        X      Y      Z
   1   6     0.00  -0.00  -0.00     0.00  -0.00   0.00     0.00   0.00  -0.00
   2   6    -0.00  -0.00  -0.00    -0.00   0.00   0.00     0.00  -0.00  -0.00
   3   6    -0.02  -0.03  -0.01     0.00   0.00   0.00    -0.00   0.00  -0.00
   4   6    -0.09  -0.14  -0.17     0.00   0.00   0.00     0.00   0.00   0.00
   5   6     0.01  -0.01  -0.02    -0.00   0.00   0.00     0.00   0.00  -0.00
   6   6    -0.00  -0.00  -0.00     0.00  -0.00   0.00     0.00  -0.00   0.00
   7   6     0.00  -0.00  -0.00    -0.00  -0.00   0.00     0.00   0.00  -0.00
   8   6     0.00   0.00   0.00    -0.00   0.00  -0.00    -0.00   0.00  -0.00
   9   8    -0.00   0.00  -0.00    -0.00  -0.00  -0.00     0.00   0.00  -0.00
  10   6    -0.00  -0.00  -0.00    -0.00  -0.00  -0.00    -0.00   0.00   0.00
  11   6     0.00   0.00   0.00     0.00  -0.00  -0.00     0.00   0.00   0.00
  12   6     0.00  -0.00  -0.00     0.01   0.00   0.00     0.00  -0.01  -0.01
  13   6    -0.01   0.00   0.00    -0.01  -0.00  -0.00     0.00   0.00   0.00
  14   1    -0.00   0.00   0.01     0.00  -0.00  -0.01     0.00   0.00   0.01
  15   8     0.00  -0.00  -0.00    -0.00   0.00  -0.00    -0.00  -0.00   0.00
  16   6     0.00  -0.00   0.00     0.22   0.07   0.10    -0.01  -0.23  -0.06
  17   1     0.05   0.08  -0.02    -0.00  -0.00   0.00    -0.00  -0.00   0.00
  18   1     0.03   0.01   0.04    -0.00  -0.00  -0.00     0.00   0.00   0.00
  19   1     0.50   0.40   0.69    -0.00  -0.00  -0.01    -0.00  -0.00  -0.00
  20   1    -0.16   0.09  -0.07     0.00  -0.00   0.00    -0.00   0.00   0.00
  21   1    -0.04   0.01   0.05     0.00  -0.00  -0.00    -0.00   0.00   0.00
  22   1    -0.00  -0.00   0.00     0.00   0.00  -0.00    -0.00   0.00   0.00
  23   1    -0.00  -0.00   0.02    -0.00  -0.00  -0.00    -0.00  -0.00   0.00
  24   1     0.00   0.00  -0.00     0.00   0.00  -0.00    -0.00  -0.00   0.00
  25   1     0.00  -0.00   0.00     0.00   0.00   0.00    -0.00  -0.00  -0.00
  26   1    -0.00  -0.00   0.00    -0.00  -0.00  -0.00    -0.00  -0.00  -0.00
  27   1     0.01   0.00   0.00     0.01   0.00   0.00    -0.00   0.00  -0.00
  28   1    -0.00  -0.00  -0.00    -0.00  -0.00  -0.00    -0.00  -0.00  -0.00
  29   1    -0.00   0.00   0.00    -0.00   0.00   0.00    -0.00   0.00   0.00
  30   1     0.00   0.00   0.00     0.04   0.01   0.01    -0.00  -0.00  -0.00
  31   1     0.02  -0.01  -0.01     0.00  -0.00  -0.00    -0.00   0.00   0.00
  32   1    -0.00   0.00  -0.00     0.00  -0.00   0.00     0.00   0.00  -0.00
  33   1     0.00   0.00   0.00     0.03  -0.03   0.01     0.07   0.95   0.13
  34   1     0.00   0.00  -0.00     0.03  -0.01   0.07     0.00  -0.10   0.12
  35   1    -0.01  -0.00  -0.00    -0.83  -0.21  -0.44    -0.03  -0.04  -0.02
                     94                     95                     96
                        a                      a                      a 
 Frequencies --  3088.9830              3099.0847              3122.4923
 Red. masses --     1.7140                 1.5442                 2.0637
 Frc consts  --     0.0000                 0.0000                 0.0000
 IR Inten    --    84.9374                39.2320                55.2585
 Raman Activ --     0.0000                 0.0000                 0.0000
 Depolar     --     0.0000                 0.0000                 0.0000
 Atom AN      X      Y      Z        X      Y      Z        X      Y      Z
   1   6     0.00  -0.00   0.00    -0.00   0.00  -0.00    -0.00   0.00   0.00
   2   6    -0.00  -0.00  -0.00     0.00  -0.00  -0.00    -0.00   0.00   0.00
   3   6    -0.00  -0.00   0.00    -0.00  -0.00  -0.00    -0.00  -0.00  -0.00
   4   6    -0.00  -0.00  -0.00    -0.00  -0.00  -0.00    -0.00   0.00  -0.00
   5   6    -0.00   0.00   0.00    -0.00   0.00   0.00    -0.00  -0.00   0.00
   6   6    -0.00  -0.00   0.00    -0.00  -0.00  -0.00     0.00   0.00   0.00
   7   6    -0.00  -0.00  -0.00     0.00  -0.00  -0.00     0.00  -0.00  -0.00
   8   6    -0.00   0.00  -0.00     0.01  -0.00   0.00    -0.00   0.01   0.01
   9   8     0.00  -0.00  -0.00    -0.00   0.00  -0.00     0.00  -0.00  -0.00
  10   6    -0.00  -0.00  -0.00     0.00  -0.00   0.00     0.00  -0.00   0.00
  11   6     0.00   0.00   0.00    -0.18  -0.05  -0.12    -0.12   0.21   0.19
  12   6     0.01  -0.01  -0.01     0.00  -0.00  -0.00     0.00   0.00   0.00
  13   6     0.21   0.10   0.10     0.00   0.00   0.00    -0.00   0.00   0.00
  14   1     0.00   0.00   0.01    -0.00   0.00   0.00     0.00  -0.00  -0.00
  15   8    -0.00   0.00  -0.00    -0.00   0.00   0.00     0.00   0.00   0.00
  16   6     0.01   0.00   0.00     0.00   0.00  -0.00     0.00   0.00   0.00
  17   1     0.00   0.00  -0.00     0.00   0.00   0.00    -0.00  -0.00  -0.00
  18   1    -0.00  -0.00  -0.00    -0.00  -0.00  -0.00     0.00   0.00   0.00
  19   1    -0.00   0.00   0.00     0.00   0.00   0.00     0.00   0.00   0.00
  20   1     0.00  -0.00   0.00     0.00  -0.00   0.00     0.00  -0.00   0.00
  21   1    -0.00  -0.00  -0.00     0.00  -0.00  -0.00     0.00  -0.00  -0.01
  22   1     0.00   0.00  -0.00     0.00   0.00  -0.00    -0.00   0.00   0.00
  23   1    -0.00  -0.00   0.00    -0.00  -0.00   0.01     0.00   0.00  -0.01
  24   1     0.00   0.00  -0.00     0.00   0.01  -0.00     0.00  -0.00   0.00
  25   1     0.00   0.00   0.00    -0.00   0.00   0.00    -0.00   0.00   0.00
  26   1    -0.00  -0.00  -0.00     0.00   0.00  -0.00     0.00   0.00   0.00
  27   1     0.00   0.00   0.00    -0.00  -0.00  -0.00    -0.00  -0.00  -0.00
  28   1    -0.00  -0.00  -0.01     0.22   0.48   0.64    -0.16  -0.27  -0.38
  29   1    -0.00   0.00   0.00     0.34  -0.31  -0.22     0.58  -0.48  -0.31
  30   1    -0.88  -0.27  -0.24    -0.01  -0.00  -0.00     0.00   0.00   0.00
  31   1     0.13  -0.04  -0.07     0.00  -0.00  -0.00     0.00  -0.00  -0.00
  32   1     0.00  -0.00   0.00    -0.00  -0.00  -0.00     0.00  -0.00  -0.00
  33   1     0.00  -0.01   0.00     0.00   0.00   0.00     0.00  -0.00   0.00
  34   1     0.00  -0.00   0.01     0.00  -0.00   0.00     0.00   0.00  -0.00
  35   1    -0.04  -0.01  -0.02    -0.00  -0.00  -0.00    -0.00  -0.00  -0.00
                     97                     98                     99
                        a                      a                      a 
 Frequencies --  3157.0505              3514.7887              3540.8757
 Red. masses --     1.8852                 1.8727                 1.8722
 Frc consts  --     0.0000                 0.0000                 0.0000
 IR Inten    --    26.9898                35.4146                35.9923
 Raman Activ --     0.0000                 0.0000                 0.0000
 Depolar     --     0.0000                 0.0000                 0.0000
 Atom AN      X      Y      Z        X      Y      Z        X      Y      Z
   1   6    -0.00  -0.00  -0.00    -0.00  -0.00  -0.00     0.00  -0.00  -0.00
   2   6    -0.00  -0.00  -0.00     0.00  -0.00   0.00    -0.00   0.00  -0.00
   3   6    -0.00  -0.00  -0.00     0.00   0.00   0.00    -0.00   0.00  -0.00
   4   6    -0.00  -0.00  -0.00     0.00   0.00   0.00     0.00   0.00   0.00
   5   6    -0.00  -0.00   0.00    -0.00   0.00  -0.00    -0.00  -0.00   0.00
   6   6    -0.00  -0.00   0.00     0.00  -0.00   0.00    -0.01   0.00  -0.00
   7   6     0.00   0.00   0.00    -0.00   0.00   0.00    -0.00  -0.00  -0.00
   8   6    -0.00  -0.00   0.00    -0.00  -0.00  -0.00    -0.00   0.00   0.00
   9   8     0.00   0.00  -0.00     0.00  -0.00   0.00    -0.21   0.12  -0.03
  10   6    -0.00  -0.00  -0.00     0.00   0.00   0.01     0.00   0.00  -0.00
  11   6    -0.00   0.00   0.00     0.00   0.00   0.00    -0.00   0.00  -0.00
  12   6     0.01   0.01   0.01     0.00  -0.00   0.00     0.00  -0.00  -0.00
  13   6     0.22  -0.09  -0.14     0.00   0.00  -0.00     0.00  -0.00  -0.00
  14   1     0.00   0.00   0.00    -0.00   0.00  -0.00     0.00   0.00   0.00
  15   8    -0.00   0.00   0.00     0.19   0.08   0.13     0.00   0.00   0.00
  16   6     0.00   0.00   0.00     0.00  -0.00   0.00    -0.00   0.00  -0.00
  17   1     0.00   0.00  -0.00    -0.00  -0.00   0.00    -0.00  -0.00  -0.00
  18   1     0.00   0.00   0.00    -0.00  -0.00  -0.00     0.00   0.00   0.00
  19   1     0.01   0.01   0.02    -0.00  -0.00  -0.00    -0.00  -0.00  -0.00
  20   1     0.00  -0.00  -0.00     0.00  -0.00  -0.00     0.00  -0.00   0.00
  21   1     0.00  -0.00  -0.00     0.00  -0.00  -0.00     0.00  -0.00  -0.00
  22   1     0.00   0.00  -0.00    -0.00   0.00  -0.00     0.00   0.00  -0.00
  23   1     0.00  -0.00  -0.00     0.00  -0.00  -0.00     0.00  -0.00   0.00
  24   1     0.00   0.00  -0.00     0.00   0.00  -0.00     0.00   0.00  -0.00
  25   1    -0.00   0.00  -0.00    -0.00   0.00  -0.00     0.84  -0.47   0.12
  26   1    -0.00  -0.00   0.00     0.00   0.00  -0.00     0.00  -0.00   0.00
  27   1     0.00   0.00   0.00    -0.01  -0.00  -0.00    -0.00  -0.00   0.00
  28   1    -0.00  -0.00  -0.00     0.00  -0.00  -0.00    -0.00  -0.00  -0.00
  29   1     0.00  -0.00  -0.00    -0.00   0.00   0.00     0.00  -0.00  -0.00
  30   1    -0.11  -0.05  -0.05    -0.00  -0.00  -0.00    -0.00  -0.00  -0.00
  31   1    -0.71   0.34   0.53    -0.00   0.00   0.00    -0.00   0.00   0.00
  32   1     0.00   0.00   0.00    -0.75  -0.32  -0.53    -0.00  -0.00  -0.00
  33   1     0.00  -0.00  -0.00     0.00   0.00   0.00     0.00  -0.00   0.00
  34   1     0.00  -0.00  -0.00     0.00   0.00  -0.00    -0.00   0.00   0.00
  35   1    -0.01  -0.00  -0.00    -0.00  -0.00  -0.00     0.00  -0.00   0.00
