35
 xtb: 6.7.1 (edcfbbe)
c            0.08560954595220       -0.63384008521084        0.12080206090662
c           -0.97897895506698        0.40875459701442        0.65282502655351
c           -0.35368816320538        1.83608294786952        0.75884036918889
c            0.57225421307573        2.23417163190345       -0.41225942826472
c            1.50807695391248        1.06506999204716       -0.81744135538911
c            0.64867675563806       -0.14255600894255       -1.25108193387222
c            1.35902467596346       -0.56972659231342        1.03037174001424
c            2.24135682331166        0.51320499546155        0.40249333315040
o            1.41234395675748       -1.13508058942852       -1.95587905477701
c           -0.48574966807512       -2.05339133612715        0.02844198216429
c            3.45176524949189        0.89299104319140        0.82741646223442
c           -2.32770707357751        0.37243815471002       -0.07910076597045
c           -2.59049075629709        0.99476736319123       -1.24101995190415
h           -1.19516883876191        0.09458411284093        1.68665260490493
o           -0.87649090721652       -2.48513981922203        1.34350901569990
c           -3.43094576889052       -0.37887494108593        0.64598086153788
h           -1.15842763251995        2.57827434100875        0.87378380869192
h            0.23478480262544        1.88010380618238        1.68956334210858
h           -0.01109152591948        2.54314457109284       -1.29519298513292
h            1.17956107764299        3.10556414054706       -0.11782513526706
h            2.19372207679342        1.39147992611047       -1.61519800104412
h           -0.15110839809252        0.13352531743205       -1.95068483651194
h            1.88308454236724       -1.54071215008985        1.03185519327974
h            1.11497502158569       -0.35199039258974        2.08122162340980
h            2.24408003691330       -1.30177900441477       -1.46491355566388
h            0.28774211840747       -2.72291939952111       -0.38587586649898
h           -1.34432315705218       -2.07135980099949       -0.66964475608870
h            3.91384334641986        0.45880939991665        1.71782089032684
h            4.02663554576149        1.66143735114529        0.30451138948234
h           -3.58504684216780        0.94462010003311       -1.69115387763894
h           -1.85584686053928        1.58772523595261       -1.78488244082156
h           -1.18418930842286       -3.41077955998718        1.27309925079348
h           -3.11751217220693       -1.40006656581415        0.91048138460343
h           -3.67117980771768        0.12742205102604        1.59790274065281
h           -4.35247250716925       -0.43243887045328        0.04782012789172
