35
 xtb: 6.7.1 (edcfbbe)
c            0.00953514391043       -0.77631306538231       -0.02900994939863
c            0.61878632545710        0.48012323086337       -0.77113196083803
c           -0.39447284582925        1.67479615783295       -0.81602619191420
c           -1.31059672816531        1.81616537256594        0.41862508370360
c           -1.86714791641298        0.44165313192526        0.87043331727893
c           -0.69065191080285       -0.45659771292931        1.32160412097934
c           -1.25075577141501       -1.22992079084670       -0.84009908857318
c           -2.39884229016975       -0.36320088910463       -0.30974456511379
o            0.17966472849359        0.10158610148734        2.30088847763890
c            1.04300281122912       -1.90576313908373        0.14249858984265
c           -3.64933687804993       -0.33385829737704       -0.78318478241366
c            2.04054558412399        0.91741106540515       -0.39522268076861
c            3.04219684140598        0.68533519788123       -1.26603823216879
h            0.71632193046404        0.14145616155738       -1.81519739963772
o            1.57373272258886       -2.40456405916342       -1.09249463811887
c            2.32317579109043        1.68260730533493        0.88217664311274
h            0.15146540563546        2.61554585752264       -0.99067062991379
h           -1.03484810227499        1.53389485780658       -1.70115534231566
h           -0.76821858810711        2.26999615682062        1.26295678775307
h           -2.14696078339736        2.49120849902093        0.17430563604928
h           -2.62410039347854        0.57879741025563        1.65999610436056
h           -1.10568400971395       -1.41137170048780        1.70665809038501
h           -1.11593776507993       -1.13500881435643       -1.92779812480977
h           -1.46215021216494       -2.29472892544042       -0.63925163118533
h           -0.33951863256756        0.23794541795519        3.11986466812801
h            0.54825958580510       -2.76565051495307        0.62491425793556
h            1.85249888166533       -1.57393503574906        0.81695061656780
h           -3.95498513111894       -0.93828825296280       -1.64128021151132
h           -4.41911246175485        0.29561893975046       -0.32967231549676
h            4.06525592317454        1.01159020917485       -1.06466393361232
h            2.87624597320752        0.19645840620992       -2.23038229368963
h            2.24994904601575       -1.76717092966180       -1.39847592915946
h            1.64418303234791        2.54541063660877        0.98587810172014
h            2.16993173897264        1.05733169092567        1.77064419867037
h            3.35595522545444        2.06189038343687        0.88593199550414
