35
 xtb: 6.7.1 (edcfbbe)
c            0.15467030217239       -0.62088597314256        0.37719641012750
c           -0.92430207975861        0.47033522740909        0.74951016674290
c           -0.36850798844184        1.91860672135460        0.53775683645689
c            0.53679882728238        2.09739828763423       -0.70138872461352
c            1.53122878257704        0.91678420201163       -0.84985329129190
c            0.72391816335940       -0.38462444075006       -1.04947066436611
c            1.42670337167519       -0.35967610788127        1.25654799312711
c            2.25834374231324        0.64929390357465        0.46373816385282
o            1.57379923429133       -1.49458894664168       -1.37573405963316
c           -0.37216132344031       -2.05288479257117        0.61437272681602
c            3.41400841261067        1.20073288120109        0.84969536879161
c           -2.32969612721893        0.30019659390081        0.15829674635017
c           -3.34362120673744       -0.06360462805769        0.96763716432330
h           -1.06430153292763        0.35200709070425        1.83720122947012
o           -1.36845928416725       -2.49238279206460       -0.31584600807647
c           -2.60401711025691        0.60342862831469       -1.30382918396916
h           -1.20464496258521        2.63526123822834        0.50239504854000
h            0.21631265820661        2.18701543258821        1.43174713227883
h           -0.06193921913669        2.17297586705157       -1.62446845369730
h            1.09430412590366        3.04355975047509       -0.60966334798066
h            2.22158368431825        1.11701420474728       -1.68655985153309
h           -0.05688774091713       -0.26856552732552       -1.81757305154606
h            1.99601095572050       -1.29409938501067        1.38954097594899
h            1.17306837843483        0.00397476008499        2.26482363663358
h            2.06461386044837       -1.26337899533384       -2.19057144769378
h           -0.73751070954875       -2.12945334773342        1.65785473881421
h            0.46290782702321       -2.75994624495698        0.51109656875649
h            3.86831832611562        0.97189570412339        1.81715404032402
h            3.95476532381582        1.90292983031270        0.21013012423002
h           -4.36773150477415       -0.15823084419253        0.59855813198315
h           -3.18857427599146       -0.27157189648795        2.02905500338587
h           -2.19741108480556       -2.01748095481666       -0.09925323635117
h           -2.23919760539343        1.60288870325736       -1.58646863658893
h           -2.11071544921665       -0.12078783764783       -1.96956852923707
h           -3.68297949554626        0.56799150676573       -1.51353685461876
