          50
 Energy =    -1150.29637620 a.u.  Frame:     1 Step:     1 Geom:     1
C           0.09557500      0.57834100      2.57664100
C           1.59181400      0.84051900      2.37748700
C          -2.30215900     -3.22404600     -0.17843200
C          -3.31193400     -2.76249300      0.66275300
C          -3.23227100     -1.48859100      1.19832900
C          -2.15425900     -0.64530200      0.89523100
C          -1.14423400     -1.09100200      0.01942600
C          -1.23694500     -2.38845100     -0.48615700
N          -2.12136500      0.63765000      1.44776300
C          -0.81517300      1.27032400      1.54300500
C          -0.21738400      1.27738900      0.11268600
C           0.02390800     -0.18632100     -0.36483100
C           1.18293800      1.87991100      0.16847200
C           1.97498900      0.76718900      0.88227200
C           1.39246400     -0.55944200      0.31736100
C           3.44947500      0.92704200      0.70822300
C           4.21871000      0.03525200      0.09867200
C           3.68753600     -1.24393700     -0.45929700
N           2.21973700     -1.22425000     -0.76981200
C           1.88550600     -0.42777100     -1.99516300
C           0.37948700     -0.23785100     -1.89211500
O           1.79780600     -2.52386500     -0.95113500
H           1.30504300     -1.32439300      1.08009500
C          -1.16475300      2.12591900     -0.72172100
O          -1.17536200      3.33686200     -0.66817900
O          -2.00247200      1.41873200     -1.48421700
C          -2.98934100      2.16449400     -2.22211500
H          -0.21394700      0.89032500      3.57613100
H          -0.09247900     -0.49510700      2.52133800
H           1.86841700      1.82945400      2.75125600
H           2.17054900      0.10797000      2.94423200
H          -2.33954300     -4.22674000     -0.58474300
H          -4.15295000     -3.39792900      0.91266600
H          -4.00659900     -1.12727000      1.86600700
H          -0.41853600     -2.74823100     -1.09546400
H          -2.69403000      0.74117000      2.27289100
H          -0.96706600      2.31201000      1.82796700
H           1.21271300      2.82088300      0.71562100
H           1.56424500      2.07326200     -0.83337500
H           3.88208700      1.83959000      1.10572500
H           5.28593300      0.19759700      0.00125800
H           4.18234200     -1.52780700     -1.38698200
H           3.80755300     -2.07389000      0.23707300
H           2.43399100      0.51296000     -1.96395300
H           2.20438100     -1.01372900     -2.85163600
H          -0.13538100     -1.07042600     -2.35832700
H           0.07194200      0.66501500     -2.41096600
H          -3.62450600      2.72446000     -1.53724400
H          -2.50696800      2.85146400     -2.91601800
H          -3.56888800      1.42043800     -2.75956600
          50
 Energy =    -1150.29579190 a.u.  Frame:     1 Step:     1 Geom:     2
C          -0.00397900      0.64387500      2.48100300
C           1.47968600      0.96541100      2.28283300
C          -2.17834700     -3.43781600     -0.00466200
C          -3.22392800     -2.96290200      0.78399300
C          -3.21542100     -1.64920600      1.21941600
C          -2.17407900     -0.78005900      0.86598600
C          -1.13017000     -1.24052200      0.03931900
C          -1.15049600     -2.57688800     -0.36350300
N          -2.20688600      0.54018200      1.32488600
C          -0.92787400      1.22905600      1.39626000
C          -0.31418600      1.16606200     -0.02498800
C           0.00139800     -0.31413600     -0.39846700
C           1.05664900      1.83768400      0.00250000
C           1.88909800      0.81314800      0.80044800
C           1.37895600     -0.57541400      0.31759000
C           3.35629500      1.03542500      0.63325700
C           4.17590600      0.14805700      0.08625800
C           3.71572900     -1.18784900     -0.39582500
N           2.25189100     -1.26606300     -0.71559600
C           1.88717500     -0.57357100     -1.99445300
C           0.37282800     -0.46303500     -1.91574500
O           1.90222100     -2.59658200     -0.80948700
H           1.31990700     -1.29356200      1.12714100
C          -1.31366500      1.84195500     -0.95216400
O          -2.01152000      1.30426500     -1.77713000
O          -1.34264700      3.16951100     -0.72369700
C          -2.29751600      3.92636700     -1.49317400
H          -0.34162600      1.00233800      3.45556600
H          -0.14046000     -0.43838300      2.49124100
H           1.70282100      1.98908300      2.59398800
H           2.08511400      0.30098900      2.90304600
H          -2.16047400     -4.46968500     -0.33134800
H          -4.03762600     -3.61769000      1.07147700
H          -4.01738200     -1.27572200      1.84655800
H          -0.30511800     -2.94043900     -0.93270400
H          -2.79680900      0.67472000      2.13319000
H          -1.12518000      2.27859200      1.61301200
H           1.03846000      2.81306200      0.48634000
H           1.44547300      1.97957500     -1.00513500
H           3.73762000      1.99081500      0.97939100
H           5.23521600      0.35644900     -0.01018000
H           4.23298300     -1.50156200     -1.30140200
H           3.87289600     -1.96606400      0.35092200
H           2.38249900      0.39610100     -2.02157700
H           2.24749300     -1.19628700     -2.80743700
H          -0.08716100     -1.36003300     -2.31503000
H           0.01284200      0.37324200     -2.50499100
H          -3.30810000      3.57430500     -1.29118600
H          -2.17922300      4.95628100     -1.17013600
H          -2.08690400      3.83243500     -2.55754000
