
                                 *****************
                                 * O   R   C   A *
                                 *****************

                                            #,                                       
                                            ###                                      
                                            ####                                     
                                            #####                                    
                                            ######                                   
                                           ########,                                 
                                     ,,################,,,,,                         
                               ,,#################################,,                 
                          ,,##########################################,,             
                       ,#########################################, ''#####,          
                    ,#############################################,,   '####,        
                  ,##################################################,,,,####,       
                ,###########''''           ''''###############################       
              ,#####''   ,,,,##########,,,,          '''####'''          '####       
            ,##' ,,,,###########################,,,                        '##       
           ' ,,###''''                  '''############,,,                           
         ,,##''                                '''############,,,,        ,,,,,,###''
      ,#''                                            '''#######################'''  
     '                                                          ''''####''''         
             ,#######,   #######,   ,#######,      ##                                
            ,#'     '#,  ##    ##  ,#'     '#,    #''#        ,####,    ,#,          
            ##       ##  ##   ,#'  ##            #'  '#       #'       ,# #          
            ##       ##  #######   ##           ,######,      #####,      #          
            '#,     ,#'  ##    ##  '#,     ,#' ,#      #,     #,   #      #          
             '#######'   ##     ##  '#######'  #'      '#     '####' #    #          



                #########################################################
                #                        -***-                          #
                #          Department of theory and spectroscopy        #
                #                                                       #
                #                      Frank Neese                      #
                #                                                       #
                #     Directorship, Architecture, Infrastructure        #
                #                    SHARK, DRIVERS                     #
                #        Core code/Algorithms in most modules           #
                #                                                       #
                #        Max Planck Institute fuer Kohlenforschung      #
                #                Kaiser Wilhelm Platz 1                 #
                #                 D-45470 Muelheim/Ruhr                 #
                #                      Germany                          #
                #                                                       #
                #                  All rights reserved                  #
                #                        -***-                          #
                #########################################################


                         Program Version 6.1.1  -  RELEASE   -
                                (GIT: $487d211c$)
                          ($2025-11-21 10:33:24 +0100$)


 With contributions from (in alphabetic order):
[Max-Planck-Institut fuer Kohlenforschung]                               
  Daniel Aravena         : Magnetic Suceptibility                        
  Michael Atanasov       : Ab Initio Ligand Field Theory (pilot matlab implementation)
  Alexander A. Auer      : GIAO ZORA, VPT2 properties, NMR spectrum      
  Ute Becker             : All parallelization in ORCA, NUMFREQ, NUMCALC 
  Giovanni Bistoni       : ED, misc. LED, open-shell LED, HFLD           
  Dmytro Bykov           : pre 5.0 version of the SCF Hessian            
  Marcos Casanova-Páez   : Triplet and SCS-CIS(D). UHF-(DLPNO)-IP/EA/STEOM-CCSD. UHF-CVS-IP/STEOM-CCSD   
  Vijay G. Chilkuri      : MRCI spin determinant printing, contributions to CSF-ICE 
  Pauline Colinet        : FMM embedding                                 
  Dipayan Datta          : RHF DLPNO-CCSD density                        
  Achintya Kumar Dutta   : EOM-CC, STEOM-CC                              
  Nicolas Foglia         : Exact transition moments, OPA infrastructure, MCD improvements    
  Dmitry Ganyushin       : Spin-Orbit,Spin-Spin,Magnetic field MRCI      
  Miquel Garcia-Rates    : C-PCM and meta-GGA Hessian, CCSD/C-PCM, Gaussian charge scheme 
  Tiago L. C. Gouveia    : GS-ROHF, GS-ROCIS                             
  Yang Guo               : DLPNO-NEVPT2, F12-NEVPT2, CIM, IAO-localization        
  Andreas Hansen         : Spin unrestricted coupled pair/coupled cluster methods 
  Ingolf Harden          : AUTO-CI MPn and infrastructure                
  Benjamin Helmich-Paris : MC-RPA, TRAH-(SCF,CASSCF), AVAS, COSX integrals, SCF dyn. polar., MC-PDFT, srDFT 
  Lee Huntington         : MR-EOM, pCC                                   
  Robert Izsak           : Overlap fitted RIJCOSX, COSX-SCS-MP3, EOM     
  Riya Kayal             : Wick's Theorem for AUTO-CI, AUTO-CI UHF-CCSDT 
  Emily Kempfer          : AUTO-CI RHF CISDT and CCSDT, approximate NEVPT4
  Christian Kollmar      : KDIIS, OOCD, Brueckner-CCSD(T), CCSD density, CASPT2, CASPT2-K, improved NEVPT2 
  Axel Koslowski         : Symmetry handling                             
  Simone Kossmann        : meta-GGA functionals, TD-DFT gradient, OOMP2, (MP2 Hessian; deprecated post 5.0) 
  Lucas Lang             : DCDCAS, Hyperfine gauge corrections, ICE-SOC+SSC
  Marvin Lechner         : AUTO-CI (C++ implementation), FIC-MRCC        
  Spencer Leger          : CASSCF response                               
  Dagmar Lenk            : GEPOL surface, SMD, ORCA-2-JSON               
  Dimitrios Liakos       : Extrapolation schemes; Compound Job, Property file
  Dimitrios Manganas     : Further ROCIS development; embedding schemes. LFT, Crystal Embedding 
  Dimitrios Pantazis     : SARC Basis sets                               
  Anastasios Papadopoulos: AUTO-CI, single reference methods and gradients 
  Taras Petrenko         : pre 6.0 DFT Hessian and TD-DFT gradient,  ECA, NRVS 
  Petra Pikulova         : Analytic Raman intensities                    
  Peter Pinski           : DLPNO-MP2, DLPNO-MP2 Gradient                 
  Shashank Vittal Rao    : ES-AILFT, MagRelax                            
  Christoph Reimann      : Effective Core Potentials                     
  Marius Retegan         : Local ZFS, SOC                                
  Christoph Riplinger    : Optimizer, TS searches, QM/MM, DLPNO-CCSD(T), (RO)-DLPNO pert. Triples 
  Michael Roemelt        : Original ROCIS implementation, recursive CI coupling coefficients
  Masaaki Saitow         : Open-shell DLPNO-CCSD energy and density      
  Barbara Sandhoefer     : DKH picture change effects                    
  Yorick L. A. Schmerwitz: GMF and freeze-and-release deltaSCF, NEB S-IDPP initial path                    
  Kantharuban Sivalingam : CASSCF convergence/infrastructure, NEVPT2, NEVPT3, NEVPT4(SD), FIC-MRCI and CEPA variants
  Bernardo de Souza      : ESD, SOC TD-DFT                               
  Georgi L. Stoychev     : AutoAux, RI-MP2 NMR, DLPNO-MP2 response, X2C  
  Van Anh Tran           : RI-MP2 g-tensors                              
  Willem Van den Heuvel  : Paramagnetic NMR                              
  Zikuan Wang            : NOTCH, Electric field optimization            
  Frank Wennmohs         : Technical directorship and infrastructure     
  Hang Xu                : AUTO-CI-Response properties                   
                                                                         
[FACCTs GmbH]                                                            
  Markus Bursch, Nicolas Foglia, Miquel Garcia-Rates, Ingolf Harden, Hagen Neugebauer, Anastasios Papadopoulos, 
  Christoph Riplinger, Bernardo de Souza, Georgi L. Stoychev                                                    
                                                                 
  APM, various basis sets, CI-OPT, improved COSX, DLPNO-Multilevel,           
  DOCKER, DRACO, updates on ESD, Fragmentator, GOAT, IRC, LR-CPCM, L-BFGS, MBIS, meta-GGA TD-DFT gradient, ML-optimized integration grids, 
  MM, NACMEs, nearIR, NEB, NEB-TS, NL-DFT gradient (VV10), 2- and 3-layer-ONIOM, interface openCOSMO-RS, QMMM,   
  Crystal-QMMM, RESP, rigid body optimization, SF, symmetry and pop. for TD-DFT, various functionals, SOLVATOR                                   
                                                                         
[Other institutions]                                                     
  V. Asgeirsson          : NEB                                           
  Christoph Bannwarth    : sTDA-DFT, sTD-DFT, PBEh-3c, B97-3c, D3        
  Giovanni Bistoni       : ETS/NOCV, ADLD/ADEX, COVALED                  
  Martin Brehm           : Molecular dynamics                            
  Ronald Cardenas        : ETS/NOCV                                      
  Martina Colucci        : COVALED                                       
  Sebastian Ehlert       : rSCAN, r2SCAN, r2SCAN-3c, D4, dhf basis sets  
  Marvin Friede          : D4 for Fr, Ra, Ac-Lr                          
  Lars Goerigk           : TD-DFT with DH, B97 family of functionals     
  Stefan Grimme          : VdW corrections, initial TS optimization, DFT functionals, gCP, sTDA/sTD-DF 
  Waldemar Hujo          : DFT-NL                                        
  H. Jonsson             : NEB                                           
  Holger Kruse           : gCP                                           
  Marcel Mueller         : wB97X-3c, vDZP basis set                      
  Hagen Neugebauer       : wr2SCAN, Native XTB                           
  Gianluca Regni         : ADLD/ADEX                                     
  Tobias Risthaus        : pre 6.0 range-separated hybrid DFT and stability analysis
  Lukas Wittmann         : regularized MP2, r2SCAN double-hybrids, wr2SCAN        
                                                                         
We gratefully acknowledge several colleagues who have allowed us to      
interface, adapt or use parts of their codes:                            
  Ed Valeev, F. Pavosevic, A. Kumar             : LibInt (2-el integral package), F12 methods 
  Garnet Chan, S. Sharma, J. Yang, R. Olivares  : DMRG                   
  Ulf Ekstrom                                   : XCFun DFT Library      
  Mihaly Kallay                                 : mrcc  (arbitrary order and MRCC methods)
  Frank Weinhold                                : gennbo (NPA and NBO analysis)           
  Simon Mueller                                 : openCOSMO-RS                            
  Christopher J. Cramer and Donald G. Truhlar   : smd solvation model                     
  S Lehtola, MJT Oliveira, MAL Marques          : LibXC Library                           
  Liviu Ungur et al                             : ANISO software                          


 Your calculation uses the libint2 library for the computation of 2-el integrals
 For citations please refer to: http://libint.valeyev.net

 Your ORCA version has been built with support for libXC version: 7.0.0
 For citations please refer to: https://libxc.gitlab.io

 This ORCA versions uses:
   CBLAS   interface :  Fast vector & matrix operations
   LAPACKE interface :  Fast linear algebra routines
   SCALAPACK package :  Parallel linear algebra routines
   Shared memory     :  Shared parallel matrices
   BLAS/LAPACK       :  OpenBLAS 0.3.29  USE64BITINT DYNAMIC_ARCH NO_AFFINITY Haswell SINGLE_THREADED
        Core in use  :  Haswell
   Copyright (c) 2011-2014, The OpenBLAS Project


  ***********************************
  * Starting time: Sun Aug  9 17:35:23 2026
  * Host name:     localhost.localdomain
  * Process ID:    2979275
  * Working dir.:  /home/dinglab/calculation/templates/NMR_modules/autohnmr/alpha_diol_screening/CONF21/NMR
  ***********************************

NOTE: MaxCore=2500 MB was set to SCF,MP2,MDCI,CIPSI,MRCI,RASCI and CIS
      => If you want to overwrite this, your respective input block should be placed after the MaxCore statement
================================================================================

----- Orbital basis set information -----
Your calculation utilizes the basis: cc-pVTZ 
       H, B-Ne : Obtained from the ccRepo (grant-hill.group.shef.ac.uk/ccrepo) Feb. 2017
                 T. H. Dunning, Jr., J. Chem. Phys. 90, 1007 (1989)
            He : Obtained from the ccRepo (grant-hill.group.shef.ac.uk/ccrepo) Feb. 2017
                 D. E. Woon, T. H. Dunning, Jr., J. Chem. Phys. 100, 2975 (1994)
  Li-Be, Na-Mg : Obtained from the ccRepo (grant-hill.group.shef.ac.uk/ccrepo) Feb. 2017
                 B. P. Prascher, D. E. Woon, K. A. Peterson, T. H. Dunning, Jr., A. K. Wilson, Theor. Chem. Acc. 128, 69 (2011)
         Al-Ar : Obtained from the ccRepo (grant-hill.group.shef.ac.uk/ccrepo) Feb. 2017
                 D. E. Woon, T. H. Dunning, Jr., J. Chem. Phys. 98, 1358 (1993)
            Ca : Obtained from the Peterson Research Group Website (tyr0.chem.wsu.edu/~kipeters) Feb. 2017
                 J. Koput, K. A. Peterson, J. Phys. Chem. 106, 9595 (2002)
         Sc-Zn : Obtained from the ccRepo (grant-hill.group.shef.ac.uk/ccrepo) Feb. 2017
                 N. B. Balabanov, K. A. Peterson, J. Chem. Phys. 123, 064107 (2005)
                 N. B. Balabanov, K. A. Peterson, J. Chem. Phys. 125, 074110 (2006)
         Ga-Kr : Obtained from the ccRepo (grant-hill.group.shef.ac.uk/ccrepo) Feb. 2017
                 A. K. Wilson, D. E. Woon, K. A. Peterson, T. H. Dunning, Jr., J. Chem. Phys. 110, 7667 (1999)
             Y : Obtained from the ccRepo (grant-hill.group.shef.ac.uk/ccrepo) Feb. 2017
                 K. A. Peterson, D. Figgen, M. Dolg, H. Stoll, J. Chem. Phys. 126, 124101 (2007)
        Ag, Au : Obtained from the Peterson Research Group Website (tyr0.chem.wsu.edu/~kipeters) Feb. 2017
                 K. A. Peterson, C. Puzzarini, Theor. Chem. Acc. 114, 283 (2005)

----- AuxJ basis set information -----
Your calculation utilizes the auxiliary basis: def2/J
   H-Rn: F. Weigend, Phys. Chem. Chem. Phys. 8, 1057 (2006).
   Fr-Lr: K. Eichkorn, F. Weigend, O. Treutler, R. Ahlrichs; Theor. Chem. Acc. 97, 119 (1997).

================================================================================
                                        WARNINGS
                       Please study these warnings very carefully!
================================================================================

NOTE: Magnetic properties with GIAOs requested for meta-GGA functional
   => Setting %eprnmr tau = Dobson

================================================================================
                                       INPUT FILE
================================================================================
NAME = inpS
|  1> ! revTPSS
|  2> ! cc-pVTZ
|  3> ! RI def2/J
|  4> ! DEFGRID2
|  5> ! scfconv7
|  6> ! miniprint nopop noautostart
|  7> %MaxCore 2500
|  8> %pal
|  9>     nprocs 12
| 10> end
| 11> ! CPCM(chloroform)
| 12> *xyz 0 1
| 13> C   -0.0081294787  -0.5659333180   0.2894416848
| 14> C   -1.0282709280   0.5802863521   0.6784800000
| 15> C   -0.3442412357   1.9831670656   0.6263534733
| 16> C    0.6089670480   2.1949170802  -0.5702646438
| 17> C    1.5025150609   0.9489070632  -0.7969058619
| 18> C    0.6105884800  -0.2691580551  -1.1125734826
| 19> C    1.2495560942  -0.4650845434   1.2135421545
| 20> C    2.1746338608   0.5270410816   0.5073657654
| 21> O    1.4501522184  -1.3198191448  -1.6105791204
| 22> C   -0.7273762746  -1.9225509739   0.4000684188
| 23> C    3.3613966746   0.9536130268   0.9523331491
| 24> C   -2.3798574449   0.5315751380  -0.0525593728
| 25> C   -2.5990859396   0.9832049702  -1.2989030944
| 26> H   -1.2626316011   0.3966982189   1.7416531230
| 27> O    0.2058404852  -3.0023666564   0.1693954685
| 28> C   -3.5360358013  -0.0099504728   0.7716466116
| 29> H   -1.1192191271   2.7645942694   0.6400119948
| 30> H    0.2367819340   2.1118117107   1.5534240873
| 31> H    0.0472632939   2.4067169973  -1.4950833217
| 32> H    1.2414624458   3.0769587453  -0.3791110864
| 33> H    2.2265528402   1.1437701922  -1.6033675816
| 34> H   -0.1680495847  -0.0345717201  -1.8586576314
| 35> H    1.7401663311  -1.4459670781   1.3032020860
| 36> H    0.9880959521  -0.1455687983   2.2353719322
| 37> H    1.1281889083  -2.1679857367  -1.2294796678
| 38> H   -1.5490611741  -1.9693376739  -0.3355911319
| 39> H   -1.1694873454  -2.0219286712   1.4091663932
| 40> H    3.7736962895   0.6220091270   1.9089626180
| 41> H    3.9716579452   1.6520070615   0.3740650201
| 42> H   -3.5974296210   0.9436127022  -1.7413600880
| 43> H   -1.8208228546   1.4171262922  -1.9253066644
| 44> H   -0.3061439542  -3.8272367968   0.0453689447
| 45> H   -4.4748796920  -0.0236731618   0.1993260467
| 46> H   -3.3397639336  -1.0330992889   1.1317168323
| 47> H   -3.6908213083   0.6114850718   1.6707856310
| 48> *
| 49> %eprnmr
| 50>  Nuclei = all H { shift }
| 51>  origin giao
| 52>  giao_2el giao_2el_same_as_scf
| 53>  giao_1el giao_1el_analytic
| 54> end
| 55> 
| 56>                          ****END OF INPUT****
================================================================================

                       ****************************
                       * Single Point Calculation *
                       ****************************

---------------------------------
CARTESIAN COORDINATES (ANGSTROEM)
---------------------------------
  C     -0.008129   -0.565933    0.289442
  C     -1.028271    0.580286    0.678480
  C     -0.344241    1.983167    0.626353
  C      0.608967    2.194917   -0.570265
  C      1.502515    0.948907   -0.796906
  C      0.610588   -0.269158   -1.112573
  C      1.249556   -0.465085    1.213542
  C      2.174634    0.527041    0.507366
  O      1.450152   -1.319819   -1.610579
  C     -0.727376   -1.922551    0.400068
  C      3.361397    0.953613    0.952333
  C     -2.379857    0.531575   -0.052559
  C     -2.599086    0.983205   -1.298903
  H     -1.262632    0.396698    1.741653
  O      0.205840   -3.002367    0.169395
  C     -3.536036   -0.009950    0.771647
  H     -1.119219    2.764594    0.640012
  H      0.236782    2.111812    1.553424
  H      0.047263    2.406717   -1.495083
  H      1.241462    3.076959   -0.379111
  H      2.226553    1.143770   -1.603368
  H     -0.168050   -0.034572   -1.858658
  H      1.740166   -1.445967    1.303202
  H      0.988096   -0.145569    2.235372
  H      1.128189   -2.167986   -1.229480
  H     -1.549061   -1.969338   -0.335591
  H     -1.169487   -2.021929    1.409166
  H      3.773696    0.622009    1.908963
  H      3.971658    1.652007    0.374065
  H     -3.597430    0.943613   -1.741360
  H     -1.820823    1.417126   -1.925307
  H     -0.306144   -3.827237    0.045369
  H     -4.474880   -0.023673    0.199326
  H     -3.339764   -1.033099    1.131717
  H     -3.690821    0.611485    1.670786

----------------------------
CARTESIAN COORDINATES (A.U.)
----------------------------
  NO LB      ZA    FRAG     MASS         X           Y           Z
   0 C     6.0000    0    12.011   -0.015362   -1.069459    0.546966
   1 C     6.0000    0    12.011   -1.943150    1.096582    1.282141
   2 C     6.0000    0    12.011   -0.650522    3.747643    1.183637
   3 C     6.0000    0    12.011    1.150781    4.147792   -1.077644
   4 C     6.0000    0    12.011    2.839342    1.793174   -1.505934
   5 C     6.0000    0    12.011    1.153845   -0.508635   -2.102459
   6 C     6.0000    0    12.011    2.361319   -0.878882    2.293262
   7 C     6.0000    0    12.011    4.109462    0.995963    0.958782
   8 O     8.0000    0    15.999    2.740391   -2.494097   -3.043553
   9 C     6.0000    0    12.011   -1.374542   -3.633095    0.756020
  10 C     6.0000    0    12.011    6.352119    1.802067    1.799649
  11 C     6.0000    0    12.011   -4.497279    1.004531   -0.099323
  12 C     6.0000    0    12.011   -4.911561    1.857988   -2.454571
  13 H     1.0000    0     1.008   -2.386028    0.749651    3.291247
  14 O     8.0000    0    15.999    0.388982   -5.673651    0.320111
  15 C     6.0000    0    12.011   -6.682139   -0.018804    1.458201
  16 H     1.0000    0     1.008   -2.115018    5.224326    1.209447
  17 H     1.0000    0     1.008    0.447453    3.990746    2.935546
  18 H     1.0000    0     1.008    0.089315    4.548036   -2.825298
  19 H     1.0000    0     1.008    2.346024    5.814609   -0.716416
  20 H     1.0000    0     1.008    4.207575    2.161412   -3.029926
  21 H     1.0000    0     1.008   -0.317568   -0.065331   -3.512354
  22 H     1.0000    0     1.008    3.288438   -2.732482    2.462695
  23 H     1.0000    0     1.008    1.867231   -0.275085    4.224241
  24 H     1.0000    0     1.008    2.131968   -4.096899   -2.323380
  25 H     1.0000    0     1.008   -2.927301   -3.721509   -0.634175
  26 H     1.0000    0     1.008   -2.210011   -3.820891    2.662939
  27 H     1.0000    0     1.008    7.131252    1.175427    3.607417
  28 H     1.0000    0     1.008    7.505346    3.121841    0.706880
  29 H     1.0000    0     1.008   -6.798157    1.783170   -3.290694
  30 H     1.0000    0     1.008   -3.440857    2.677981   -3.638302
  31 H     1.0000    0     1.008   -0.578528   -7.232429    0.085735
  32 H     1.0000    0     1.008   -8.456297   -0.044736    0.376672
  33 H     1.0000    0     1.008   -6.311239   -1.952275    2.138635
  34 H     1.0000    0     1.008   -6.974641    1.155539    3.157327



           ************************************************************
           *        Program running with 12 parallel MPI-processes    *
           *              working on a common directory               *
           ************************************************************
------------------------------------------------------------------------------
                   ___                                                        
                  /   \      - P O W E R E D   B Y -                         
                 /     \                                                     
                 |  |  |   _    _      __       _____    __    __             
                 |  |  |  | |  | |    /  \     |  _  \  |  |  /  |          
                  \  \/   | |  | |   /    \    | | | |  |  | /  /          
                 / \  \   | |__| |  /  /\  \   | |_| |  |  |/  /          
                |  |  |   |  __  | /  /__\  \  |    /   |      \           
                |  |  |   | |  | | |   __   |  |    \   |  |\   \          
                \     /   | |  | | |  |  |  |  | |\  \  |  | \   \       
                 \___/    |_|  |_| |__|  |__|  |_| \__\ |__|  \__/        
                                                                              
                      - O R C A' S   B I G   F R I E N D -                    
                                      &                                       
                       - I N T E G R A L  F E E D E R -                       
                                                                              
 v1 FN, 2020, v2 2021, v3 2022-2024                                           
------------------------------------------------------------------------------


----------------------
SHARK INTEGRAL PACKAGE
----------------------

Number of atoms                             ...     35
Number of basis functions                   ...    820
Number of shells                            ...    360
Maximum angular momentum                    ...      3
Integral batch strategy                     ... SHARK/LIBINT Hybrid
RI-J (if used) integral strategy            ... SPLIT-RIJ (Revised 2003 algorithm where possible)
Printlevel                                  ...      1
Contraction scheme used                     ... PARTIAL GENERAL contraction
Prescreening option                         ... SCHWARTZ
   Thresh                                   ... 3.000e-11
   Tcut                                     ... 1.000e-12
   Tpresel                                  ... 1.000e-12 
Coulomb Range Separation                    ... NOT USED
Exchange Range Separation                   ... NOT USED
Multipole approximations                    ... NOT USED
Finite Nucleus Model                        ... NOT USED
CABS basis                                  ... NOT available
Auxiliary Coulomb fitting basis             ... AVAILABLE
   # of basis functions in Aux-J            ...    955
   # of shells in Aux-J                     ...    325
   Maximum angular momentum in Aux-J        ...      4
Auxiliary J/K fitting basis                 ... NOT available
Auxiliary Correlation fitting basis         ... NOT available
Auxiliary 'external' fitting basis          ... NOT available

Checking pre-screening integrals            ... done (  0.0 sec) Dimension = 360
Save PGC pre-screening integrals            ... done (  0.0 sec) Dimension = 360
Calculate PGC overlap integrals             ... done (  0.1 sec) Dimension = 270
Calculating pre-screening integrals (ORCA)  ... done (  0.1 sec) Dimension = 270
Shell pair information
Shell pair cut-off parameter TPreSel        ...   1.0e-12
Total number of shell pairs                 ...     64980
Shell pairs after pre-screening             ...     44896
Total number of primitive shell pairs       ...     92770
Primitive shell pairs kept                  ...     56198
          la=0 lb=0:  13138 shell pairs
          la=1 lb=0:  13051 shell pairs
          la=1 lb=1:   3064 shell pairs
          la=2 lb=0:   7122 shell pairs
          la=2 lb=1:   3418 shell pairs
          la=2 lb=2:    991 shell pairs
          la=3 lb=0:   2303 shell pairs
          la=3 lb=1:   1079 shell pairs
          la=3 lb=2:    622 shell pairs
          la=3 lb=3:    108 shell pairs

Checking whether 4 symmetric matrices of dimension 820 fit in memory
:Max Core in MB      =   2500.00
 MB in use           =     54.47
 MB left             =   2445.53
 MB needed           =     10.27
 Data fit in memory  = YES
Calculating RI/J V-Matrix + Cholesky decomp.... done (  0.0 sec)
Calculating Nuclear repulsion               ... done (  0.0 sec) ENN=   1106.270478434199 Eh

Diagonalization of the overlap matrix:
Smallest eigenvalue                        ... 9.296e-05
Time for diagonalization                   ...    0.140 sec
Threshold for overlap eigenvalues          ... 1.000e-07
Number of eigenvalues below threshold      ... 0
Time for construction of square roots      ...    0.056 sec
Total time needed                          ...    0.200 sec

-------------------
DFT GRID GENERATION
-------------------

General Integration Accuracy     IntAcc      ... 4.388
Radial Grid Type                 RadialGrid  ... OptM3 with GC (2021)
Angular Grid (max. ang.)         AngularGrid ... 4 (Lebedev-302)
Angular grid pruning method      GridPruning ... 4 (adaptive)
Weight generation scheme         WeightScheme... mBecke (2022)
Basis function cutoff            BFCut       ... 1.0000e-11
Integration weight cutoff        WCut        ... 1.0000e-14
Partially contracted basis set               ... off
Rotationally invariant grid construction     ... off
Angular grids for H and He will be reduced by one unit

Total number of grid points                  ...   152270
Total number of batches                      ...     2397
Average number of points per batch           ...       63
Average number of grid points per atom       ...     4351

---------------------
SHARK GRID GENERATION
---------------------

General Integration Accuracy     IntAcc      ... 4.388
Radial Grid Type                 RadialGrid  ... OptM3 with GC (2021)
Angular Grid (max. ang.)         AngularGrid ... 4 (Lebedev-302)
Angular grid pruning method      GridPruning ... 4 (adaptive)
Weight generation scheme         WeightScheme... mBecke (2022)
Basis function cutoff            BFCut       ... 1.0000e-11
Integration weight cutoff        WCut        ... 1.0000e-14
Partially contracted basis set               ... off
Rotationally invariant grid construction     ... off
Angular grids for H and He will be reduced by one unit
Steep s-basis detected: some atoms will have their radial
                        grid points doubled.

Total number of grid points                  ...   241524
Total number of batches                      ...     3791
Average number of points per batch           ...       63
Average number of grid points per atom       ...     6901
Grids setup in   3.5 sec
Initializing property integral containers    ... done (  0.0 sec)

SHARK setup successfully completed in   4.5 seconds

Maximum memory used throughout the entire STARTUP-calculation: 104.4 MB


           ************************************************************
           *        Program running with 12 parallel MPI-processes    *
           *              working on a common directory               *
           ************************************************************
Loading Hartree-Fock densities                     ... done
Calculating cut-offs                               ... done
Initializing the effective Hamiltonian             ... done
Setting up the integral package (SHARK)            ... done
Starting the Coulomb interaction                   ... done (   0.5 sec)
Making the grid                                    ... done (   0.3 sec)
Mapping shells                                     ... done
Starting the XC term evaluation                    ... done (   0.2 sec)
  promolecular density results
     # of electrons  =    113.992460590
     EX              =    -88.664376677
     EC              =     -3.809021549
     EX+EC           =    -92.473398225
Transforming the Hamiltonian                       ... done (   0.1 sec)
Diagonalizing the Hamiltonian                      ... done (   0.2 sec)
Back transforming the eigenvectors                 ... done (   0.0 sec)
Now organizing SCF variables                       ... done
             **** ENERGY FILE WAS UPDATED (inpS.en.tmp) ****
Finished Guess after   1.7 sec
Maximum memory used throughout the entire GUESS-calculation: 69.5 MB


           ************************************************************
           *        Program running with 12 parallel MPI-processes    *
           *              working on a common directory               *
           ************************************************************
--------------------
CPCM SOLVATION MODEL
--------------------
CPCM parameters:
  Epsilon                                         ...       4.8030
  Refrac                                          ...       1.4459
  Rsolv                                           ...       1.3000
  Surface type                                    ... GAUSSIAN VDW
  Discretization scheme                           ... Constant charge density
    Threshold for H atoms                         ...       5.0000 (charges/Ang^2)
    Threshold for non-H atoms                     ...       5.0000 (charges/Ang^2)
  Epsilon function type                           ...         CPCM
Solvent:                                          ... CHLOROFORM
Radii:
  Scheme                                          ... Element-dependent radii
  Radius for C  used is    3.8550 Bohr (=   2.0400 Ang.)
  Radius for O  used is    3.4469 Bohr (=   1.8240 Ang.)
  Radius for H  used is    2.4944 Bohr (=   1.3200 Ang.)
Calculating surface                               ...        done! (  0.0s)
Cavity surface points                             ...         2591
Cavity Volume                                     ...    1801.2619
Cavity Surface-area                               ...     909.8568
Calculating surface distance matrix               ...        done! (  0.1s)
Performing Cholesky decomposition & store         ...        done! (  0.2s)
Overall time for CPCM initialization              ...                 0.3s

----------------------------------------D-I-I-S--------------------------------------------
Iteration    Energy (Eh)           Delta-E    RMSDP     MaxDP     DIISErr   Damp  Time(sec)
-------------------------------------------------------------------------------------------
               ***  Starting incremental Fock matrix formation  ***
    1    -657.5209227423426910     0.00e+00  3.11e-03  5.30e-02  2.60e-01  0.700   4.5
    2    -657.7122491451150381    -1.91e-01  2.40e-03  4.44e-02  9.91e-02  0.700   4.2
                               ***Turning on AO-DIIS***
    3    -657.7841891566606591    -7.19e-02  8.73e-04  1.16e-02  3.27e-02  0.700   3.9
    4    -657.8266981549325010    -4.25e-02  1.33e-03  1.51e-02  1.81e-02  0.000   3.7
    5    -657.9209418775922131    -9.42e-02  4.60e-04  8.25e-03  6.19e-03  0.000   3.7
                              *** Initializing SOSCF ***
---------------------------------------S-O-S-C-F--------------------------------------
Iteration    Energy (Eh)           Delta-E    RMSDP     MaxDP     MaxGrad    Time(sec)
--------------------------------------------------------------------------------------
    6    -657.9215251485704812    -5.83e-04  1.60e-04  2.49e-03  1.42e-03     3.9
               *** Restarting incremental Fock matrix formation ***
    7    -657.9215748378699118    -4.97e-05  1.17e-04  2.17e-03  3.12e-04     4.5
    8    -657.9215573534279429     1.75e-05  5.06e-05  1.03e-03  7.16e-04     3.4
    9    -657.9215826368670150    -2.53e-05  2.18e-05  3.51e-04  9.86e-05     3.1
   10    -657.9215817669769422     8.70e-07  1.19e-05  1.95e-04  1.77e-04     3.0
   11    -657.9215829421191302    -1.18e-06  2.06e-06  2.21e-05  4.08e-06     2.9
                  *** Gradient check signals convergence ***

               *****************************************************
               *                     SUCCESS                       *
               *           SCF CONVERGED AFTER  11 CYCLES          *
               *****************************************************

             **** ENERGY FILE WAS UPDATED (inpS.en.tmp) ****

----------------
TOTAL SCF ENERGY
----------------

Total Energy       :       -657.92158290723046 Eh          -17902.95644 eV

Components:
Nuclear Repulsion  :       1106.27047843419905 Eh           30103.15013 eV
Electronic Energy  :      -1764.17972164878347 Eh          -48005.77079 eV
One Electron Energy:      -3089.74797034127459 Eh          -84076.31663 eV
Two Electron Energy:       1325.56824869249112 Eh           36070.54584 eV
CPCM Dielectric    :         -0.01233969264595 Eh              -0.33578 eV

Virial components:
Potential Energy   :      -1311.43666240423863 Eh          -35686.00583 eV
Kinetic Energy     :        653.51507949700806 Eh           17783.04939 eV
Virial Ratio       :          2.00674277235288

DFT components:
N(Alpha)           :       56.999986445743 electrons
N(Beta)            :       56.999986445743 electrons
N(Total)           :      113.999972891486 electrons
E(X)               :      -91.242313591754 Eh       
E(C)               :       -3.881189486003 Eh       
E(XC)              :      -95.123503077757 Eh       

CPCM Solvation Model Properties:
Surface-charge          :         -0.03038144073243
Corrected charge        :          0.00000000000000
Outlying charge corr.   :          0.00004547143488 Eh               0.00124 eV
Free-energy (cav+disp)  :  This term is not implemented in the current solvation scheme

---------------
SCF CONVERGENCE
---------------

  Last Energy change         ...    1.1751e-06  Tolerance :   1.0000e-07
  Last MAX-Density change    ...    2.2080e-05  Tolerance :   1.0000e-05
  Last RMS-Density change    ...    2.0574e-06  Tolerance :   1.0000e-06
  Last DIIS Error            ...    1.4229e-03  Tolerance :   1.0000e-07
  Last Orbital Gradient      ...    4.0845e-06  Tolerance :   1.0000e-04
  Last Orbital Rotation      ...    1.2860e-05  Tolerance :   1.0000e-04


----------------
ORBITAL ENERGIES
----------------

  NO   OCC          E(Eh)            E(eV) 
   0   2.0000     -18.929721      -515.1039 
   1   2.0000     -18.896965      -514.2126 
   2   2.0000     -10.062731      -273.8208 
   3   2.0000     -10.051353      -273.5112 
   4   2.0000     -10.028436      -272.8876 
   5   2.0000     -10.025291      -272.8020 
   6   2.0000     -10.020312      -272.6666 
   7   2.0000     -10.011795      -272.4348 
   8   2.0000     -10.010042      -272.3871 
   9   2.0000     -10.010008      -272.3862 
  10   2.0000     -10.009830      -272.3813 
  11   2.0000     -10.009492      -272.3721 
  12   2.0000     -10.009176      -272.3635 
  13   2.0000      -9.997967      -272.0585 
  14   2.0000      -9.992898      -271.9206 
  15   2.0000      -0.964999       -26.2590 
  16   2.0000      -0.935887       -25.4668 
  17   2.0000      -0.799607       -21.7584 
  18   2.0000      -0.748255       -20.3610 
  19   2.0000      -0.711463       -19.3599 
  20   2.0000      -0.701275       -19.0827 
  21   2.0000      -0.664274       -18.0758 
  22   2.0000      -0.632128       -17.2011 
  23   2.0000      -0.627970       -17.0879 
  24   2.0000      -0.613677       -16.6990 
  25   2.0000      -0.560964       -15.2646 
  26   2.0000      -0.541440       -14.7333 
  27   2.0000      -0.510061       -13.8795 
  28   2.0000      -0.488669       -13.2974 
  29   2.0000      -0.480394       -13.0722 
  30   2.0000      -0.455349       -12.3907 
  31   2.0000      -0.442659       -12.0454 
  32   2.0000      -0.430531       -11.7153 
  33   2.0000      -0.428278       -11.6540 
  34   2.0000      -0.409206       -11.1350 
  35   2.0000      -0.396136       -10.7794 
  36   2.0000      -0.395353       -10.7581 
  37   2.0000      -0.382524       -10.4090 
  38   2.0000      -0.374268       -10.1844 
  39   2.0000      -0.365997        -9.9593 
  40   2.0000      -0.364081        -9.9072 
  41   2.0000      -0.345802        -9.4097 
  42   2.0000      -0.344841        -9.3836 
  43   2.0000      -0.340765        -9.2727 
  44   2.0000      -0.330330        -8.9887 
  45   2.0000      -0.325611        -8.8603 
  46   2.0000      -0.314789        -8.5658 
  47   2.0000      -0.306613        -8.3434 
  48   2.0000      -0.298060        -8.1106 
  49   2.0000      -0.279622        -7.6089 
  50   2.0000      -0.278165        -7.5692 
  51   2.0000      -0.266235        -7.2446 
  52   2.0000      -0.257579        -7.0091 
  53   2.0000      -0.233790        -6.3617 
  54   2.0000      -0.226047        -6.1510 
  55   2.0000      -0.214668        -5.8414 
  56   2.0000      -0.212387        -5.7793 
  57   0.0000      -0.019355        -0.5267 
  58   0.0000      -0.015738        -0.4283 
  59   0.0000       0.021061         0.5731 
  60   0.0000       0.033847         0.9210 
  61   0.0000       0.049649         1.3510 
  62   0.0000       0.055646         1.5142 
  63   0.0000       0.072258         1.9662 
  64   0.0000       0.073874         2.0102 
  65   0.0000       0.075927         2.0661 
  66   0.0000       0.081700         2.2232 
  67   0.0000       0.087197         2.3728 
*Only the first 10 virtual orbitals were printed.
Total SCF time: 0 days 0 hours 0 min 44 sec 
Finished LeanSCF after  44.2 sec

Maximum memory used throughout the entire LEANSCF-calculation: 86.0 MB


           ************************************************************
           *        Program running with 12 parallel MPI-processes    *
           *              working on a common directory               *
           ************************************************************

------------------------------------------------------------------------------
                         ORCA PROPERTY INTEGRAL CALCULATIONS
------------------------------------------------------------------------------

GBWName                                   ... inpS.gbw
Number of atoms                           ...     35
Number of basis functions                 ...    820
Max core memory                           ...   2500 MB

Dipole integrals                          ... YES
Quadrupole integrals                      ...  NO
Linear momentum integrals                 ...  NO
Angular momentum integrals                ...  NO
Higher moments length integrals           ...  NO
Higher moments velocity integrals         ...  NO
Kinetic energy integrals                  ...  NO
GIAO right hand sides                     ... YES
GIAO dipole derivative integrals          ...  NO
SOC integrals                             ...  NO
EPR diamagnetic integrals (GIAO)          ...  NO
EPR gauge integrals                       ...  NO
Field gradient integrals                  ...  NO (   0 nuclei)
Spin-dipole/Fermi contact integrals       ...  NO (   0 nuclei)
Contact density integrals                 ...  NO (   0 nuclei)
Nucleus-orbit integrals                   ...  NO (   0 nuclei)
Geometric perturbations                   ...  NO (  35 nuclei)

Tau option for meta-GGA DFT with GIAOs    ... Dobson
Choice of electric origin   ... Center of mass
Position of electric origin ... (  0.0535,  0.0096, -0.0006) 
Choice of magnetic origin   ... GIAO
Position of magnetic origin ... (  0.0000,  0.0000,  0.0000) 

Calculating integrals                     ... Electric Dipole (Length)     done (  0.1 sec)

Calculating integrals                     ... GIAO Right Hand Sides
     -> RI used in SCF. Same chosen for GIAO calculation.
  One-electron GIAO integrals (SHARK)     ... done (  2.1 sec)
  Calculating G(B)[P]                     ... (RI-J: SHARK-ok) (copy J to G-ok) => dG/dB done (  5.0 sec)
  DFT XC-terms                            ... done ( 31.8 sec)
  Extracting occupied and virtual blocks  ... 
  Operator  0  NO=  57 NV= 673 
  Transforming and RHS contribution       ... done
  Adding eps_i * S(B)_ai terms            ... done
  Projecting overlap derivatives          ... done (  0.2 sec)
  Recalculating density on grid           ... done (  1.2 sec)
  Calculating the xc-kernel               ... done (  0.1 sec)
  Building VXC[dS/dB_ij]                  ... done (  7.8 sec)
  Transforming to MO basis                ... done
  Summing VXC[dS/dB_ij] into RHS contribs.... done
  GIAO Right hand sides done ( 48.6 sec)


Property integrals calculated in  48.7 sec

Maximum memory used throughout the entire PROPINT-calculation: 151.1 MB

-------------------------   --------------------
FINAL SINGLE POINT ENERGY      -657.921582907230
-------------------------   --------------------



           ************************************************************
           *        Program running with 12 parallel MPI-processes    *
           *              working on a common directory               *
           ************************************************************
------------------------------------------------------------------------------
                            ORCA SCF RESPONSE CALCULATION
------------------------------------------------------------------------------

GBWName                                 ... inpS.gbw
Number of atoms                         ...     35
Number of basis functions               ...    820
Max core memory                         ...   2500 MB

Electric field perturbation             ...  NO
Quadrupolar field perturbation          ...  NO
Magnetic field perturbation (no GIAO)   ...  NO
Magnetic field perturbation (with GIAO) ... YES
Linear momentum (velocity) perturbation ...  NO
Spin-orbit coupling perturbation        ...  NO
Choice of electric origin               ... Center of mass
Position of electric origin             ...     0.053492     0.009645    -0.000628
Choice of magnetic origin               ... GIAO
Position of magnetic origin             ...     0.000000     0.000000     0.000000
Nuclear geometric perturbations         ...  NO ( 105 perturbations)
Nucleus-orbit perturbations             ...  NO (   0 perturbations)
Spin-dipole/Fermi contact perturbations ...  NO (   0 perturbations)

Total number of real perturbations      ...      0
Total number of imaginary perturbations ...      3
Total number of triplet perturbations   ...      0
Total number of SOC perturbations       ...      0

Using XC Grid                  ... (inpS.grid_cpscf.tmp) 
Recalculating density on grid  ... (inpS.grho_cpscf0.tmp) done
Calculating the xc-kernel      ... (inpS.fxc_cpscf0.tmp) done

                              ***************************
                              * IMAGINARY PERTURBATIONS *
                              ***************************



-------------------
SHARK CP-SCF DRIVER
-------------------

Dimension of the orbital basis          ...    730
Dimension of the CPSCF-problem          ...  38361
Number of operators                     ...      1
Max. number of iterations               ...    128
Convergence Tolerance                   ... 1.0e-03
Number of perturbations                 ...      3
Perturbation type                       ... IMAGINARY

----------------------------
POPLE LINEAR EQUATION SOLVER
----------------------------

  ITERATION   0:   ||err||_max =   2.4552e-01 (   1.8 sec   0/  3 done)
  ITERATION   1:   ||err||_max =   3.9508e-03 (   1.5 sec   0/  3 done)
  ITERATION   2:   ||err||_max =   6.0817e-05 (   1.5 sec   3/  3 done)

CP-SCF equations solved in   4.8 sec
Response densities calculated in   0.1 sec

Maximum memory used throughout the entire SCFRESP-calculation: 99.0 MB


           ************************************************************
           *        Program running with 12 parallel MPI-processes    *
           *              working on a common directory               *
           ************************************************************

------------------------------------------------------------------------------
                              ORCA PROPERTY CALCULATIONS
------------------------------------------------------------------------------

GBWName                                 ... inpS.gbw
Number of atoms                         ...     35
Number of basis functions               ...    820
Max core memory                         ...   2500 MB

Electric properties:
Dipole moment                           ... YES
Quadrupole moment                       ...  NO
Static polarizability (Dipole/Dipole)   ...  NO
Static polarizability (Dipole/Quad.)    ...  NO
Static polarizability (Quad./Quad.)     ...  NO
Static polarizability (Velocity)        ...  NO
Static hyperpolarizability              ...  NO

Atomic electric properties:
Dipole moment                           ...  NO
Quadrupole moment                       ...  NO
Static polarizability                   ...  NO

Choice of electric origin               ... Center of mass
Position of electric origin             ...     0.053492     0.009645    -0.000628

General magnetic properties:
Magnetizability                         ...  NO

EPR properties:
g-Tensor (aka g-matrix)                 ...  NO
Zero-Field splitting spin-orbit         ...  NO
Zero-field splitting spin-spin          ...  NO
Hyperfine couplings                     ...  NO (   0 nuclei)
Quadrupole couplings                    ...  NO (   0 nuclei)
Contact density                         ...  NO (   0 nuclei)

NMR properties:
Chemical shifts                         ... YES (  20 nuclei)
Spin-rotation constants                 ...  NO (   0 nuclei)
Spin-spin couplings                     ...  NO (   0 nuclei,    0 pairs)

Choice of magnetic origin               ... GIAO
Position of magnetic origin             ...     0.000000     0.000000     0.000000

Properties with geometric perturbations:
SCF Hessian                             ...  NO
IR spectrum                             ...  NO
VCD spectrum                            ...  NO
X-ray spectroscopy properties:
SCF XES/XAS/RIXS spectra                ...  NO

SCF SOC stabilization energy            ...  NO
Diagonal Born-Oppenheimer correction    ...  NO

-------------
DIPOLE MOMENT
-------------

Method             : SCF
Type of density    : Electron Density
Multiplicity       :   1
Irrep              :   0
Energy             :  -657.9215829072304587 Eh
Basis              : AO
                                X                 Y                 Z
Electronic contribution:      5.639892637      -4.462239938      -2.629485651
Nuclear contribution   :     -7.210225929       4.040768638       3.404678521
                        -----------------------------------------
Total Dipole Moment    :     -1.570333292      -0.421471300       0.775192871
                        -----------------------------------------
Magnitude (a.u.)       :      1.801251978
Magnitude (Debye)      :      4.578418676



--------------------
Rotational spectrum 
--------------------
 
Rotational constants in cm-1:             0.027217             0.018899             0.014645 
Rotational constants in MHz :           815.934499           566.575899           439.037026 

Dipole components along the rotational axes: 
x,y,z [a.u.] :     1.565586    -0.415184     0.788081 
x,y,z [Debye]:     3.979403    -1.055313     2.003144 

 

Dipole moment calculation done in   0.0 sec 
GIAO: Analytic para- and diamagnetic shielding integrals (SHARK)       ... done (  1.5 sec)
-------------------
CHEMICAL SHIELDINGS (ppm)
-------------------

Method             : SCF
Type of density    : Electron Density
Type of derivative : Magnetic Field (with GIAOs) (Direction=X)
Multiplicity       :   1
Irrep              :   0
Basis              : AO
 --------------
 Nucleus  13H :
 --------------

Diamagnetic contribution to the shielding tensor (ppm) : 
            31.621         -0.317        -2.921
            -0.430         30.695        -1.911
            -5.047          0.259        42.818

Paramagnetic contribution to the shielding tensor (ppm): 
            -0.194          1.204         0.558
             1.998         -4.270         2.173
             2.155         -1.091       -12.474

Total shielding tensor (ppm): 
            31.427          0.887        -2.363
             1.568         26.425         0.262
            -2.892         -0.832        30.344


 Diagonalized sT*s matrix:
 
 sDSO            31.011           34.555           39.568  iso=      35.045
 sPSO            -4.904           -6.210           -5.824  iso=      -5.646
        ---------------  ---------------  ---------------
 Total           26.107           28.345           33.744  iso=      29.399

 Orientation: 
  X           0.2662193    0.5678398   -0.7789000
  Y          -0.9591408    0.2363574   -0.1555124
  Z           0.0957926    0.7884752    0.6075612

 --------------
 Nucleus  16H :
 --------------

Diamagnetic contribution to the shielding tensor (ppm) : 
            29.349         -6.593        -0.117
           -10.240         40.107         3.213
            -3.097          5.496        23.596

Paramagnetic contribution to the shielding tensor (ppm): 
             1.378          3.510        -1.724
             7.118         -6.857        -1.511
             1.579         -3.641         2.871

Total shielding tensor (ppm): 
            30.727         -3.083        -1.841
            -3.122         33.250         1.702
            -1.518          1.854        26.467


 Diagonalized sT*s matrix:
 
 sDSO            22.925           24.754           45.373  iso=      31.017
 sPSO             2.875            3.937           -9.421  iso=      -0.870
        ---------------  ---------------  ---------------
 Total           25.800           28.691           35.953  iso=      30.148

 Orientation: 
  X           0.2509427   -0.7953432    0.5517762
  Y          -0.1244657   -0.5917949   -0.7964214
  Z           0.9599667    0.1311789   -0.2474996

 --------------
 Nucleus  17H :
 --------------

Diamagnetic contribution to the shielding tensor (ppm) : 
            28.765          1.122         4.497
             1.514         32.825         5.685
             4.106          7.364        35.992

Paramagnetic contribution to the shielding tensor (ppm): 
            -0.827          0.089        -2.780
            -0.052         -3.637        -1.654
            -2.393         -4.402        -4.221

Total shielding tensor (ppm): 
            27.939          1.211         1.717
             1.461         29.188         4.031
             1.714          2.962        31.771


 Diagonalized sT*s matrix:
 
 sDSO            28.351           26.814           42.417  iso=      32.527
 sPSO            -1.621            0.469           -7.532  iso=      -2.895
        ---------------  ---------------  ---------------
 Total           26.730           27.283           34.885  iso=      29.632

 Orientation: 
  X          -0.1946385    0.9340654    0.2993955
  Y           0.8405774    0.0015304    0.5416892
  Z          -0.5055150   -0.3570987    0.7854522

 --------------
 Nucleus  18H :
 --------------

Diamagnetic contribution to the shielding tensor (ppm) : 
            29.419         -0.621         4.693
            -2.368         33.452        -3.586
             2.524         -3.609        35.174

Paramagnetic contribution to the shielding tensor (ppm): 
            -0.757         -1.055        -2.378
             0.973         -4.160        -0.834
            -1.009          0.345        -4.726

Total shielding tensor (ppm): 
            28.662         -1.676         2.315
            -1.395         29.291        -4.420
             1.515         -3.264        30.449


 Diagonalized sT*s matrix:
 
 sDSO            30.516           28.135           39.394  iso=      32.682
 sPSO            -4.534           -0.459           -4.650  iso=      -3.214
        ---------------  ---------------  ---------------
 Total           25.982           27.677           34.744  iso=      29.468

 Orientation: 
  X          -0.0451567    0.9286936    0.3680885
  Y           0.7548597    0.2730645   -0.5963410
  Z           0.6543299   -0.2509264    0.7133641

 --------------
 Nucleus  19H :
 --------------

Diamagnetic contribution to the shielding tensor (ppm) : 
            27.465          7.348         0.104
             7.125         41.012         2.349
            -0.157          0.271        23.024

Paramagnetic contribution to the shielding tensor (ppm): 
             1.795         -4.129        -1.378
            -2.851         -6.408        -3.290
            -0.970         -0.828         2.821

Total shielding tensor (ppm): 
            29.260          3.219        -1.275
             4.274         34.605        -0.941
            -1.127         -0.557        25.845


 Diagonalized sT*s matrix:
 
 sDSO            23.128           24.899           43.473  iso=      30.500
 sPSO             2.307            2.704           -6.802  iso=      -0.597
        ---------------  ---------------  ---------------
 Total           25.435           27.604           36.671  iso=      29.903

 Orientation: 
  X           0.3630501    0.8046705    0.4697871
  Y          -0.0725091   -0.4782608    0.8752194
  Z           0.9289440   -0.3518124   -0.1152867

 --------------
 Nucleus  20H :
 --------------

Diamagnetic contribution to the shielding tensor (ppm) : 
            32.839          2.949        -8.109
             1.123         27.924        -1.884
            -8.796         -2.064        35.206

Paramagnetic contribution to the shielding tensor (ppm): 
            -3.392         -2.685         5.086
            -0.213         -0.905         1.484
             5.085          0.439        -5.262

Total shielding tensor (ppm): 
            29.446          0.264        -3.023
             0.909         27.019        -0.401
            -3.711         -1.625        29.944


 Diagonalized sT*s matrix:
 
 sDSO            25.954           26.946           43.068  iso=      31.990
 sPSO             0.257           -0.027           -9.788  iso=      -3.186
        ---------------  ---------------  ---------------
 Total           26.211           26.920           33.279  iso=      28.803

 Orientation: 
  X           0.6295552    0.3944751   -0.6693651
  Y           0.3738337   -0.9090370   -0.1841199
  Z           0.6811084    0.1343176    0.7197570

 --------------
 Nucleus  21H :
 --------------

Diamagnetic contribution to the shielding tensor (ppm) : 
            36.620         -3.759         6.903
            -2.799         32.242         2.945
             5.466          2.362        37.581

Paramagnetic contribution to the shielding tensor (ppm): 
            -9.087          0.821        -5.274
            -1.712         -6.123        -2.682
            -4.605         -0.843       -10.416

Total shielding tensor (ppm): 
            27.533         -2.939         1.629
            -4.511         26.120         0.263
             0.861          1.519        27.165


 Diagonalized sT*s matrix:
 
 sDSO            27.911           39.506           39.025  iso=      35.481
 sPSO            -5.353          -11.911           -8.362  iso=      -8.542
        ---------------  ---------------  ---------------
 Total           22.559           27.595           30.663  iso=      26.939

 Orientation: 
  X           0.6100010    0.0919183   -0.7870514
  Y           0.7279850    0.3272631    0.6024423
  Z          -0.3129483    0.9404520   -0.1327156

 --------------
 Nucleus  22H :
 --------------

Diamagnetic contribution to the shielding tensor (ppm) : 
            31.664         -5.616         3.080
            -6.623         39.802        -0.969
             2.478         -2.115        26.056

Paramagnetic contribution to the shielding tensor (ppm): 
            -3.334          4.411         0.031
             5.304         -8.918        -1.046
             0.630          0.924        -0.602

Total shielding tensor (ppm): 
            28.329         -1.206         3.111
            -1.320         30.883        -2.015
             3.108         -1.192        25.454


 Diagonalized sT*s matrix:
 
 sDSO            25.619           29.617           42.285  iso=      32.507
 sPSO            -2.218           -0.929           -9.708  iso=      -4.285
        ---------------  ---------------  ---------------
 Total           23.401           28.689           32.577  iso=      28.222

 Orientation: 
  X          -0.5135592   -0.6854934    0.5160967
  Y           0.1019425   -0.6459572   -0.7565362
  Z           0.8519769   -0.3359139    0.4016182

 --------------
 Nucleus  23H :
 --------------

Diamagnetic contribution to the shielding tensor (ppm) : 
            29.667         -1.669        -2.040
             0.243         30.706         4.294
            -1.235          3.825        42.177

Paramagnetic contribution to the shielding tensor (ppm): 
            -1.377          2.134         1.990
            -0.201         -4.287        -4.278
             2.363         -3.394        -8.495

Total shielding tensor (ppm): 
            28.289          0.465        -0.050
             0.042         26.419         0.017
             1.127          0.432        33.681


 Diagonalized sT*s matrix:
 
 sDSO            30.684           29.913           41.951  iso=      34.183
 sPSO            -4.302           -1.648           -8.209  iso=      -4.720
        ---------------  ---------------  ---------------
 Total           26.382           28.265           33.742  iso=      29.463

 Orientation: 
  X           0.1306211    0.9853954    0.1092428
  Y          -0.9911674    0.1272436    0.0373676
  Z           0.0229215   -0.1131589    0.9933125

 --------------
 Nucleus  24H :
 --------------

Diamagnetic contribution to the shielding tensor (ppm) : 
            26.569          4.177        -3.186
             3.678         44.196        -2.648
            -4.817         -5.591        26.845

Paramagnetic contribution to the shielding tensor (ppm): 
            -6.390         -0.029        -5.418
             1.060         -6.611        -3.771
            -2.817         -0.022        -4.009

Total shielding tensor (ppm): 
            20.179          4.148        -8.604
             4.738         37.585        -6.419
            -7.635         -5.613        22.836


 Diagonalized sT*s matrix:
 
 sDSO            22.763           29.314           45.533  iso=      32.537
 sPSO            -9.493           -4.080           -3.437  iso=      -5.670
        ---------------  ---------------  ---------------
 Total           13.270           25.234           42.096  iso=      26.867

 Orientation: 
  X           0.7623508    0.5606342    0.3232810
  Y           0.0231789   -0.5228680    0.8520985
  Z           0.6467488   -0.6421046   -0.4116037

 --------------
 Nucleus  25H :
 --------------

Diamagnetic contribution to the shielding tensor (ppm) : 
            37.353          1.925         6.503
             2.899         32.192         2.214
             7.803          2.777        33.443

Paramagnetic contribution to the shielding tensor (ppm): 
            -7.337         -2.983        -4.286
            -5.274         -2.765        -2.314
            -7.448         -0.777       -11.192

Total shielding tensor (ppm): 
            30.016         -1.058         2.217
            -2.375         29.426        -0.099
             0.355          2.000        22.250


 Diagonalized sT*s matrix:
 
 sDSO            30.183           39.245           33.559  iso=      34.329
 sPSO            -8.336          -10.872           -2.086  iso=      -7.098
        ---------------  ---------------  ---------------
 Total           21.847           28.372           31.473  iso=      27.231

 Orientation: 
  X          -0.2037615    0.5906928   -0.7807453
  Y          -0.1490174    0.7694710    0.6210540
  Z           0.9676131    0.2428915   -0.0687650

 --------------
 Nucleus  26H :
 --------------

Diamagnetic contribution to the shielding tensor (ppm) : 
            28.895          1.594        -8.890
             1.365         30.642        -0.776
            -5.202         -1.694        39.276

Paramagnetic contribution to the shielding tensor (ppm): 
            -0.597         -2.807         4.202
            -2.672         -1.964         0.136
             1.350         -0.512       -13.660

Total shielding tensor (ppm): 
            28.299         -1.213        -4.688
            -1.307         28.678        -0.640
            -3.852         -2.206        25.616


 Diagonalized sT*s matrix:
 
 sDSO            28.842           31.114           38.858  iso=      32.938
 sPSO            -6.891           -1.917           -7.413  iso=      -5.407
        ---------------  ---------------  ---------------
 Total           21.950           29.197           31.445  iso=      27.531

 Orientation: 
  X           0.5799536   -0.1003707   -0.8084427
  Y           0.2599976    0.9632876    0.0669196
  Z           0.7720461   -0.2490034    0.5847582

 --------------
 Nucleus  27H :
 --------------

Diamagnetic contribution to the shielding tensor (ppm) : 
            32.191          0.622         9.048
             1.298         23.704        -3.247
             9.026         -4.462        34.842

Paramagnetic contribution to the shielding tensor (ppm): 
            -2.122          0.035        -4.995
             0.714          0.690         5.379
            -7.674          4.821        -9.938

Total shielding tensor (ppm): 
            30.069          0.657         4.053
             2.011         24.395         2.132
             1.352          0.359        24.903


 Diagonalized sT*s matrix:
 
 sDSO            31.386           20.666           38.685  iso=      30.246
 sPSO            -8.127            3.817           -7.059  iso=      -3.790
        ---------------  ---------------  ---------------
 Total           23.258           24.483           31.626  iso=      26.456

 Orientation: 
  X           0.2055224    0.4296205    0.8793104
  Y           0.6330869   -0.7435340    0.2153095
  Z          -0.7462986   -0.5124290    0.4247999

 --------------
 Nucleus  28H :
 --------------

Diamagnetic contribution to the shielding tensor (ppm) : 
            35.038          9.470        -2.083
             9.933         28.402        -5.436
            -2.011         -5.272        26.922

Paramagnetic contribution to the shielding tensor (ppm): 
            -4.390         -6.899         2.597
            -8.719         -3.523         5.845
             4.581          7.138        -3.124

Total shielding tensor (ppm): 
            30.648          2.571         0.514
             1.213         24.879         0.409
             2.570          1.866        23.798


 Diagonalized sT*s matrix:
 
 sDSO            32.170           19.976           38.216  iso=      30.121
 sPSO            -9.102            4.654           -6.590  iso=      -3.679
        ---------------  ---------------  ---------------
 Total           23.068           24.631           31.625  iso=      26.441

 Orientation: 
  X          -0.0340227   -0.3724093   -0.9274447
  Y          -0.4746367    0.8226760   -0.3129284
  Z           0.8795240    0.4295526   -0.2047488

 --------------
 Nucleus  29H :
 --------------

Diamagnetic contribution to the shielding tensor (ppm) : 
            39.817         -0.703         6.524
            -0.226         24.995        -2.022
             8.764         -2.987        31.771

Paramagnetic contribution to the shielding tensor (ppm): 
           -13.882          0.249        -5.867
            -1.491          0.278         0.006
            -6.801          1.866        -3.597

Total shielding tensor (ppm): 
            25.935         -0.454         0.657
            -1.717         25.273        -2.015
             1.963         -1.121        28.174


 Diagonalized sT*s matrix:
 
 sDSO            27.865           29.447           39.271  iso=      32.194
 sPSO            -3.502           -4.025           -9.674  iso=      -5.734
        ---------------  ---------------  ---------------
 Total           24.363           25.422           29.597  iso=      26.461

 Orientation: 
  X           0.4135557   -0.8047412    0.4258677
  Y           0.8868159    0.2500832   -0.3886077
  Z           0.2062262    0.5383772    0.8170806

 --------------
 Nucleus  30H :
 --------------

Diamagnetic contribution to the shielding tensor (ppm) : 
            37.074          2.452        -3.802
             3.354         30.899        -3.974
            -3.442         -5.407        35.455

Paramagnetic contribution to the shielding tensor (ppm): 
           -11.257         -4.011         7.935
            -3.560         -5.997         2.336
             4.588          3.143        -6.790

Total shielding tensor (ppm): 
            25.817         -1.559         4.133
            -0.206         24.903        -1.638
             1.147         -2.264        28.665


 Diagonalized sT*s matrix:
 
 sDSO            29.292           39.807           34.329  iso=      34.476
 sPSO            -5.323          -15.370           -3.350  iso=      -8.015
        ---------------  ---------------  ---------------
 Total           23.968           24.437           30.979  iso=      26.462

 Orientation: 
  X          -0.4071921    0.7964090    0.4471322
  Y           0.7459027    0.5724909   -0.3404166
  Z           0.5270900   -0.1949022    0.8271574

 --------------
 Nucleus  31H :
 --------------

Diamagnetic contribution to the shielding tensor (ppm) : 
            24.384          5.898        -0.541
             8.485         44.453         2.955
             2.304          5.047        19.645

Paramagnetic contribution to the shielding tensor (ppm): 
             3.242         -0.851         1.131
            -1.470         -3.318        -0.570
            -1.915         -2.745         0.486

Total shielding tensor (ppm): 
            27.626          5.047         0.590
             7.016         41.135         2.385
             0.389          2.302        20.131


 Diagonalized sT*s matrix:
 
 sDSO            19.057           22.230           47.195  iso=      29.494
 sPSO             0.811            3.125           -3.525  iso=       0.137
        ---------------  ---------------  ---------------
 Total           19.868           25.355           43.670  iso=      29.631

 Orientation: 
  X           0.0240368   -0.9303698   -0.3658337
  Y          -0.1179746    0.3607427   -0.9251739
  Z           0.9927257    0.0653973   -0.1010889

 --------------
 Nucleus  32H :
 --------------

Diamagnetic contribution to the shielding tensor (ppm) : 
            40.222          0.738         2.343
             2.324         21.188        -2.284
             2.879         -0.223        28.107

Paramagnetic contribution to the shielding tensor (ppm): 
            -5.203         -0.209         0.336
            -0.947          5.196         2.059
            -2.711         -0.640         0.005

Total shielding tensor (ppm): 
            35.019          0.529         2.679
             1.377         26.384        -0.225
             0.168         -0.863        28.113


 Diagonalized sT*s matrix:
 
 sDSO            20.952           27.736           40.829  iso=      29.839
 sPSO             5.072            0.381           -5.455  iso=      -0.001
        ---------------  ---------------  ---------------
 Total           26.024           28.117           35.374  iso=      29.839

 Orientation: 
  X          -0.1537066   -0.1597265    0.9751214
  Y           0.9251871   -0.3698101    0.0852600
  Z           0.3469915    0.9152748    0.2046192

 --------------
 Nucleus  33H :
 --------------

Diamagnetic contribution to the shielding tensor (ppm) : 
            30.927          1.581        -3.276
             0.860         33.303        -5.749
            -2.237         -5.580        27.649

Paramagnetic contribution to the shielding tensor (ppm): 
             0.264         -0.551         1.480
            -1.223         -1.941         3.055
             1.289          2.907        -0.815

Total shielding tensor (ppm): 
            31.192          1.030        -1.796
            -0.362         31.362        -2.694
            -0.948         -2.673        26.834


 Diagonalized sT*s matrix:
 
 sDSO            23.866           30.466           37.546  iso=      30.626
 sPSO             1.507            0.485           -4.484  iso=      -0.831
        ---------------  ---------------  ---------------
 Total           25.373           30.951           33.063  iso=      29.796

 Orientation: 
  X           0.1911404   -0.8744197   -0.4459321
  Y           0.3953713    0.4844104   -0.7804026
  Z           0.8984136   -0.0271423    0.4383108

 --------------
 Nucleus  34H :
 --------------

Diamagnetic contribution to the shielding tensor (ppm) : 
            29.077         -2.583        -6.380
            -2.374         24.519         3.811
            -6.606          6.324        34.685

Paramagnetic contribution to the shielding tensor (ppm): 
             1.480          1.745         2.682
             1.390          2.876        -1.444
             3.991         -4.005        -3.458

Total shielding tensor (ppm): 
            30.557         -0.838        -3.698
            -0.984         27.396         2.367
            -2.615          2.319        31.228


 Diagonalized sT*s matrix:
 
 sDSO            22.521           25.092           40.669  iso=      29.427
 sPSO             3.659            3.087           -5.847  iso=       0.300
        ---------------  ---------------  ---------------
 Total           26.180           28.178           34.822  iso=      29.727

 Orientation: 
  X          -0.1986769    0.7735463   -0.6017920
  Y           0.8383790    0.4521587    0.3044228
  Z          -0.5075906    0.4440480    0.7383584



--------------------------------
CHEMICAL SHIELDING SUMMARY (ppm)
--------------------------------


  Nucleus  Element    Isotropic     Anisotropy
  -------  -------  ------------   ------------
     13       H           29.399          6.519 
     16       H           30.148          8.707 
     17       H           29.632          7.878 
     18       H           29.468          7.915 
     19       H           29.903         10.152 
     20       H           28.803          6.714 
     21       H           26.939          5.586 
     22       H           28.222          6.532 
     23       H           29.463          6.419 
     24       H           26.867         22.844 
     25       H           27.231          6.364 
     26       H           27.531          5.872 
     27       H           26.456          7.755 
     28       H           26.441          7.776 
     29       H           26.461          4.704 
     30       H           26.462          6.777 
     31       H           29.631         21.058 
     32       H           29.839          8.303 
     33       H           29.796          4.901 
     34       H           29.727          7.643 


NMR shielding tensor and spin rotation calculation done in   1.5 sec 

Maximum memory used throughout the entire PROP-calculation: 82.1 MB

--------------------------------
SUGGESTED CITATIONS FOR THIS RUN
--------------------------------

Below you find a list of papers that are relevant to this ORCA run
We neither can nor want to force you to cite these papers, but we appreciate if you do
You receive ORCA, which is the product of decades of hard work by many enthusiastic individuals, for free
The only thing we kindly ask in return is that you cite our papers,
We deeply appreciate it, if you show your appreciation for ORCA by not just citing the generic ORCA reference.

Please note that relegating all ORCA citations to the supporting information does *not* help us.
SI sections are not indexed - citations you put there will not count into any citation statistics
But we need these citations in order to attract the funding resources that allow us to do what we are doing

Therefore, if you are a happy ORCA user, please consider citing a few of the papers listed below in the main body of your paper

In addition to the list printed below, the program has created the file inpS.bibtex that contains the list in bibtex format
You can import this file easily into all common literature databanks and citation aid programs

It goes without saying that in many instances, there are alternative algorithms to achieve similar
results as the ones you have gotten from ORCA. It is, of course, also the case that in some instances
ORCA just re-implements algorithms worked out by others. We are fully aware of that and we are also
fully appreciative of our colleagues work. Hence this citation list should not be read as indicating
that the listed papers, which are focused on our own work, are the only ones worth citing. It simply
meant to make it easier for users to cite ORCA specific papers. It is not a substitute for doing your
own literature research and citing the relevant literature in a scientifically appropriate manner.

List of essential papers. We consider these as the minimum necessary citations

  1. Neese, F.
     Software update: the ORCA program system, version 6.0
     WIRES Comput. Molec. Sci. 2025 15(1), e70019
     doi.org/10.1002/wcms.70019

List of papers to cite with high priority. The work reported in these papers was absolutely
necessary for this run to complete.
Our perspective: the developers of density functionals and basis sets usually get cited in chemistry papers
Good! But without the algorithms to do something with them, the functionals or basis sets would not do anything.
Hence, in our opinion, the algorithm design and method developments papers are equally worthy of getting cited

  1. Neese, F.
     An improvement of the resolution of the identity approximation for the formation of the Coulomb matrix
     J. Comp. Chem. 2003 24(14), 1740-1747
     doi.org/10.1002/jcc.10318
  2. Stoychev, G.L.; Auer, A.A.; Izsak, R.; Neese, F.
     Self-Consistent Field Calculation of Nuclear Magnetic Resonance Chemical Shielding Constants Using Gauge-Including Atomic Orbitals and Approximate Two-Electron Integrals
     J. Chem. Theory Comput. 2018 14(2), 619-637
     doi.org/10.1021/acs.jctc.7b01006
  3. Garcia-Rates, M.; Neese, F.
     Effect of the Solute Cavity on the Solvation Energy and its Derivatives within the Framework of the Gaussian Charge Scheme
     J. Comput. Chem. 2020 41 , 922-939
     doi.org/10.1002/jcc.26139
  4. Neese, F.
     The SHARK Integral Generation and Digestion System
     J. Comp. Chem. 2022 44(3), 381
     doi.org/10.1002/jcc.26942

List of suggested additional citations. These are papers that are important in the 'surrounding' of 
of this run, or papers that preceded the highly important papers. If you like your results we are grateful for a citation.

  1. Neese, F.
     The ORCA program system
     WIRES Comput. Molec. Sci. 2012 2(1), 73-78
     doi.org/10.1002/wcms.81
  2. Neese, F.
     Software update: the ORCA program system, version 4.0
     WIRES Comput. Molec. Sci. 2018 8(1), 1-6
     doi.org/10.1002/wcms.1327
  3. Neese, F.; Wennmohs, F.; Becker, U.; Riplinger, C.
     The ORCA quantum chemistry program package
     J. Chem. Phys. 2020 152(22), 224108
     doi.org/10.1063/5.0004608
  4. Neese, F.
     Software update: The ORCA program system—Version 5.0
     WIRES Comput. Molec. Sci. 2022 12(1), e1606
     doi.org/10.1002/wcms.1606

List of optional additional citations

  1. Neese, F.
     Approximate second-order SCF convergence for spin unrestricted wavefunctions
     Chem. Phys. Lett. 2000 325(1-3), 93-98
     doi.org/10.1016/s0009-2614(00)00662-x

Timings for individual modules:

Sum of individual times          ...      108.083 sec (=   1.801 min)
Startup calculation              ...        4.736 sec (=   0.079 min)   4.4 %
SCF iterations                   ...       46.259 sec (=   0.771 min)  42.8 %
Property integrals               ...       49.231 sec (=   0.821 min)  45.5 %
SCF Response                     ...        5.831 sec (=   0.097 min)   5.4 %
Property calculations            ...        2.026 sec (=   0.034 min)   1.9 %
                             ****ORCA TERMINATED NORMALLY****
TOTAL RUN TIME: 0 days 0 hours 1 minutes 48 seconds 402 msec
