35
 energy: -46.138020579471 gnorm: 0.000535014905 xtb: 6.7.1 (edcfbbe)
C           -0.58394898673119        1.00500882266631        0.12589899630577
C           -0.66542885077127       -0.44230330338792       -0.42675041854069
C            0.72984397547394       -0.93415402620738       -0.86939146676285
C            1.88345651936061       -0.50569065342539        0.03560101310073
C            1.77385366705215        0.98102254454632        0.38641483692634
C            0.49803958053237        1.18394091749592        1.21175578525196
C           -0.01461360774356        1.91456425970581       -0.98126489300105
C            1.48277724037015        1.78643500267037       -0.84928412695021
O            0.43140431803870        0.35188640872803        2.33052769047068
C           -1.94533965630856        1.51213551166243        0.61022407968330
C            2.37785642162047        2.28612971657693       -1.68104359067255
C           -1.39404368390059       -1.45329786167773        0.43915703473141
C           -0.84683801914240       -2.13429331272249        1.43283990806171
H           -1.26927667082219       -0.36135610830472       -1.34117530203542
O           -2.31869072310589        0.84019591589748        1.79594623637188
C           -2.80140082318439       -1.74943319439955        0.00137226894812
H            0.70909267665505       -2.02325276366866       -0.94261179979652
H            0.92782750877497       -0.54226580529755       -1.87024592756516
H            1.88496355930287       -1.07024158333072        0.96658306424006
H            2.82682229444801       -0.69347366552318       -0.48110370172749
H            2.66966460243462        1.31004651457129        0.91443136045222
H            0.45501819739333        2.23925806577144        1.54539698205181
H           -0.36677831205747        1.63941794696897       -1.97597666075815
H           -0.30864662532402        2.95343226036054       -0.80565982604082
H           -0.50454938050608        0.24413478187842        2.54598316298880
H           -2.69908466040314        1.36457413900620       -0.17730260315029
H           -1.87081473645964        2.59324730607920        0.80601325128092
H            2.09159125016801        2.83800862644929       -2.56085512947447
H            3.43409701541631        2.16343162406383       -1.51399678853430
H           -1.41496568840866       -2.87075179432015        1.97749703950143
H            0.16130768904066       -1.97901017362587        1.76554770322081
H           -3.17715424367652        1.16234388218140        2.08670131776666
H           -3.27736883327025       -2.45342497452132        0.67910782726950
H           -3.40373398166614       -0.84415107295066       -0.03392476242559
H           -2.79573903260006       -2.18301395391743       -1.00001256118842
