  35
        -46.14419677
 C         -0.0685809345       -0.7775745903       -0.3288215306
 C          0.5389091975        0.5313509345       -0.9117561393
 C         -0.4808686263        1.6869855803       -0.8033941730
 C         -1.2638039394        1.7446473593        0.5096530808
 C         -1.7741243831        0.3529604701        0.8920316445
 C         -0.5810334885       -0.5904504117        1.1153293875
 C         -1.3957439592       -1.0647608280       -1.0586591404
 C         -2.4385804305       -0.2804673842       -0.3008417767
 O          0.3709369503       -0.2100235462        2.0706703912
 C          0.8773271722       -1.9848368261       -0.4061755111
 C         -3.7109851339       -0.1633959995       -0.6315028539
 C          1.9216500448        0.9294646056       -0.4240282781
 C          2.1525401184        1.8369335440        0.5167104047
 H          0.6662624614        0.3289854502       -1.9838002261
 O          1.9568668094       -1.9302946774        0.4897510166
 C          3.0772424292        0.3160501561       -1.1588990062
 H          0.0400447121        2.6325736858       -0.9657055803
 H         -1.2066001881        1.5775132644       -1.6115662347
 H         -0.6617727006        2.1402873753        1.3294364434
 H         -2.1144838006        2.4173212976        0.3806887172
 H         -2.4277620483        0.4157235190        1.7637299119
 H         -0.9653876447       -1.5535985831        1.4788693174
 H         -1.3629536833       -0.7953508806       -2.1145488146
 H         -1.6315612149       -2.1309082875       -1.0038669507
 H          0.8468583850        0.5644732383        1.7390455424
 H          1.3046969142       -2.0782115458       -1.4093390150
 H          0.2842985440       -2.8932000779       -0.2073287799
 H         -4.1135295577       -0.6326912789       -1.5133294539
 H         -4.4013574133        0.4052264885       -0.0325426928
 H          3.1605967555        2.1086613336        0.7818122584
 H          1.3862544059        2.3757646367        1.0472621254
 H          1.6224410933       -1.6131639276        1.3429447174
 H          3.2007792917       -0.7242400211       -0.8689683644
 H          2.9126481356        0.3559066999       -2.2347083631
 H          3.9991742663        0.8429002829       -0.9271766385
  35
        -46.14399516
 C         -0.0696280551       -0.7871223883       -0.3499350359
 C          0.5155645155        0.5236766430       -0.9501630621
 C         -0.4792611382        1.6879625615       -0.7805011483
 C         -1.1932813167        1.7149457894        0.5693655046
 C         -1.7495573207        0.3269798215        0.9045373491
 C         -0.5805632107       -0.6405169693        1.1012559853
 C         -1.4049588191       -1.0785311117       -1.0624022461
 C         -2.4274562818       -0.2678960074       -0.3015353079
 O          0.3451641329       -0.2264753739        2.0654509295
 C          0.9123571674       -1.9635275048       -0.4596906380
 C         -3.6926144083       -0.1048049531       -0.6406657958
 C          1.9282098491        0.8773380237       -0.5255700478
 C          2.9570574221        0.4543161579       -1.2543808444
 H          0.5878384019        0.3248454353       -2.0285782872
 O          1.9546849783       -1.9128816337        0.4884430673
 C          2.1595761689        1.7499686062        0.6687471589
 H          0.0390100742        2.6332593239       -0.9498625656
 H         -1.2404735145        1.5996623388       -1.5587883940
 H         -0.5194813433        2.0145991012        1.3701316327
 H         -2.0120068552        2.4356283801        0.5218306888
 H         -2.3983822345        0.3818423678        1.7794509035
 H         -0.9871999570       -1.6237968635        1.3995752312
 H         -1.3836712820       -0.8268445442       -2.1230246331
 H         -1.6493437024       -2.1414727953       -0.9839735796
 H          1.0684248853       -0.8716348874        2.0351169564
 H          1.3173684028       -2.0250914673       -1.4786643366
 H          0.3814282065       -2.8969233755       -0.2487853553
 H         -4.1040258676       -0.5493329038       -1.5314490020
 H         -4.3677782384        0.4801757217       -0.0401802290
 H          3.9745265687        0.6964293362       -0.9936697727
 H          2.8325840737       -0.1387490168       -2.1460246414
 H          2.5357356862       -1.1746437017        0.2475895638
 H          1.6323538627        1.3665601099        1.5375504944
 H          3.2222375652        1.8118100391        0.8927714083
 H          1.7970813482        2.7581067191        0.4729157730
  35
        -46.14241057
 C         -0.0726963766       -0.7896907988       -0.2818418807
 C          0.5212977063        0.5018816669       -0.9055626411
 C         -0.4607551089        1.6862329872       -0.7693662214
 C         -1.2360764360        1.7292777873        0.5453151957
 C         -1.8017267539        0.3463676697        0.8828057306
 C         -0.6286172215       -0.5998799031        1.1488461928
 C         -1.3820157707       -1.1155347055       -1.0261673630
 C         -2.4301754564       -0.2777085285       -0.3342541317
 O          0.2497231052       -0.1247015892        2.1268291507
 C          0.9254140952       -1.9543838323       -0.3279960596
 C         -3.6778495634       -0.1157011392       -0.7335757366
 C          1.9300696323        0.8733369910       -0.4799031961
 C          2.2463206531        1.4694095003        0.6609816351
 H          0.5959905805        0.2854495214       -1.9799167286
 O          1.9588484855       -1.8442117255        0.6234183425
 C          2.9835219656        0.6128446252       -1.5243400575
 H          0.0929978722        2.6183602609       -0.8982853230
 H         -1.1870142928        1.6205987437       -1.5827849917
 H         -0.5978627348        2.0434581816        1.3697552102
 H         -2.0515090428        2.4487664444        0.4505382389
 H         -2.4836382665        0.4154301417        1.7311613881
 H         -1.0290252826       -1.5790166771        1.4697173328
 H         -1.3261879908       -0.9071577260       -2.0949630770
 H         -1.6266958200       -2.1752323075       -0.9116544503
 H          0.9946817069       -0.7415710282        2.1553153574
 H          1.3387453783       -2.0584346449       -1.3422858117
 H          0.4101007678       -2.8871279665       -0.0794118078
 H         -4.0533789749       -0.5824928129       -1.6288279718
 H         -4.3740391375        0.4904044571       -0.1799054661
 H          3.2660240236        1.7432433899        0.8809756372
 H          1.5222788867        1.6880531115        1.4221862597
 H          2.4486383978       -1.0283467003        0.4429745131
 H          3.9775940897        0.8353655779       -1.1431757553
 H          2.9642096450       -0.4214766054       -1.8667879749
 H          2.8014573175        1.2460803148       -2.3934161779
  35
        -46.14197269
 C          0.0101277226       -0.7576588475       -0.0404948581
 C          0.6213924515        0.4735388234       -0.7701789044
 C         -0.4278979950        1.5974948590       -0.8989505644
 C         -1.3036139915        1.8105906016        0.3369607884
 C         -1.8075329008        0.4702758114        0.8784073617
 C         -0.6078779490       -0.3869559544        1.3247775074
 C         -1.2520966569       -1.2079806428       -0.8038692134
 C         -2.3663067765       -0.3539612391       -0.2490136680
 O          0.2465432668        0.1593332535        2.2800511047
 C          1.0127315901       -1.9052630603        0.1280703648
 C         -3.6117932764       -0.3317404667       -0.6854544850
 C          1.9552566476        0.9664036227       -0.2397030903
 C          2.1112435582        1.9825171229        0.5999328019
 H          0.8413473591        0.1255770355       -1.7882349163
 O          1.5500823857       -2.3807008735       -1.0844744669
 C          3.1652168905        0.3232221658       -0.8553530668
 H          0.0824207479        2.5279521075       -1.1555791209
 H         -1.0902446920        1.3537942283       -1.7323360350
 H         -0.7673368545        2.3303016694        1.1321444305
 H         -2.1569331465        2.4332021789        0.0591593553
 H         -2.5250879738        0.6351379706        1.6837165363
 H         -0.9947689504       -1.3028932747        1.7922943706
 H         -1.1589803348       -1.0990780170       -1.8857171856
 H         -1.4650276561       -2.2603237035       -0.5901837601
 H          0.7906135971        0.8378480104        1.8582668731
 H          0.5161936284       -2.7244161829        0.6692041466
 H          1.8596546765       -1.5755489437        0.7330053950
 H         -3.9360842444       -0.9410929287       -1.5125269444
 H         -4.3585667814        0.2966747668       -0.2316017362
 H          3.0966072771        2.3034448109        0.8952180087
 H          1.3042530621        2.5692264803        1.0034887971
 H          0.8279317734       -2.7138332569       -1.6281073989
 H          3.0182040865       -0.7361946142       -1.0366726473
 H          3.3576689513        0.7947020932       -1.8208336046
 H          4.0436465779        0.4651483085       -0.2310377995
  35
        -46.14107006
 C          0.1082221293       -0.6858408882       -0.2375451150
 C          0.6143598182        0.6283151558       -0.8979376473
 C         -0.4896857856        1.7075807833       -0.8605101663
 C         -1.2883646559        1.7751815800        0.4418271282
 C         -1.6949231618        0.3716681738        0.8966273014
 C         -0.4349642829       -0.4620151526        1.1903726564
 C         -1.1795593248       -1.1364263117       -0.9507946537
 C         -2.2900602448       -0.3874788083       -0.2604868505
 O          0.4613378137        0.0280144023        2.1419887975
 C          1.1832649342       -1.7857538615       -0.2692528199
 C         -3.5623932316       -0.3862339059       -0.6122858125
 C          1.9593313134        1.1531423446       -0.4284475284
 C          2.1294693344        2.0891871639        0.4967241588
 H          0.7672099855        0.3746846371       -1.9555855216
 O          0.7218585087       -3.0329857798        0.1868087367
 C          3.1489458828        0.6716501298       -1.2111718563
 H         -0.0403335320        2.6803209307       -1.0707361844
 H         -1.1958097928        1.4971429096       -1.6659323327
 H         -0.7247924733        2.2571022523        1.2425081414
 H         -2.1852174539        2.3746544470        0.2713463400
 H         -2.3640298359        0.4342806894        1.7568067073
 H         -0.7684803734       -1.4262348272        1.5980312295
 H         -1.1562330667       -0.9484669912       -2.0244959820
 H         -1.3065746921       -2.2130015495       -0.8083626109
 H          0.9210375692        0.7911650108        1.7705040291
 H          2.0473968341       -1.4629535780        0.3262364133
 H          1.4983195512       -1.9613419972       -1.3016066657
 H         -3.9153905032       -0.9419224485       -1.4646014819
 H         -4.3021501720        0.1686900229       -0.0609586477
 H          3.1148727505        2.4484803697        0.7432074389
 H          1.3269314357        2.5729443228        1.0257450304
 H          0.5572956092       -2.9706494622        1.1341660494
 H          4.0760782354        0.9640562807       -0.7250990701
 H          3.1476688447       -0.4052295234       -1.3469890224
 H          3.1264979462        1.1275982092       -2.2021841717
  35
        -46.14085676
 C          0.1095519173       -0.6793666602       -0.2603281161
 C          0.6096074688        0.6441342917       -0.9056069097
 C         -0.5067783966        1.7091061660       -0.8657218545
 C         -1.2945917715        1.7733311710        0.4436913770
 C         -1.6820205851        0.3663951580        0.9055640345
 C         -0.4085580656       -0.4542583825        1.1773794378
 C         -1.1872133523       -1.1239454570       -0.9605689635
 C         -2.2919694066       -0.3939899551       -0.2423533437
 O          0.5026390366        0.0581062210        2.1032238155
 C          1.1782096073       -1.7848144323       -0.3154539838
 C         -3.5715250664       -0.4072806467       -0.5667602610
 C          1.9447925217        1.1657616965       -0.4096114141
 C          2.0910342169        2.1877778768        0.4251903450
 H          0.7746511240        0.4080418686       -1.9659293194
 O          0.7018112660       -3.0421199860        0.0979347473
 C          3.1838315961        0.5418870625       -0.9999178034
 H         -0.0733625630        2.6858444363       -1.0894038665
 H         -1.2168995188        1.4833204395       -1.6632838316
 H         -0.7291369125        2.2629633809        1.2385473419
 H         -2.1997205483        2.3621166052        0.2797728044
 H         -2.3365419182        0.4236303738        1.7772981622
 H         -0.7195065432       -1.4186730261        1.6015576886
 H         -1.1800685489       -0.9182088947       -2.0313040449
 H         -1.3062942138       -2.2035631715       -0.8354701612
 H          0.9153993561        0.8464098179        1.7271048079
 H          2.0377821502       -1.4897885557        0.2972564889
 H          1.5065501785       -1.9312846299       -1.3474017982
 H         -3.9355493663       -0.9626511755       -1.4146310758
 H         -4.3063966328        0.1345320403        0.0038171316
 H          3.0743127147        2.5368124217        0.6949576328
 H          1.2766720247        2.7398368427        0.8591398115
 H          0.5233277365       -3.0060176440        1.0440824381
 H          2.9511721105       -0.1126023694       -1.8341672292
 H          3.8563516081        1.3219415707       -1.3528661181
 H          3.7229915255       -0.0358372549       -0.2508532883
  35
        -46.13972911
 C         -0.0752455403       -0.7879485329       -0.2882754202
 C          0.5364439407        0.5012841283       -0.8977364314
 C         -0.4608067756        1.6757922114       -0.7962212348
 C         -1.2493853206        1.7406580212        0.5105749469
 C         -1.8011623545        0.3597540767        0.8762141319
 C         -0.6226901462       -0.5869262411        1.1375028740
 C         -1.3897750625       -1.1000038644       -1.0330257330
 C         -2.4399680312       -0.2787978975       -0.3284265576
 O          0.3427842650       -0.1429822246        2.0587775741
 C          0.8888963636       -1.9777924312       -0.3368344186
 C         -3.6984431838       -0.1392354093       -0.7014811303
 C          1.9313335145        0.8787702039       -0.4329560039
 C          2.1988211188        1.6199301526        0.6299990681
 H          0.6433542853        0.2775654074       -1.9672701831
 O          2.0306857392       -1.8239221737        0.4620360042
 C          3.0384013976        0.4398151043       -1.3479079261
 H          0.0846312538        2.6104232163       -0.9377326470
 H         -1.1802315724        1.5887219282       -1.6136118477
 H         -0.6191167674        2.0943090397        1.3269775426
 H         -2.0748663016        2.4459513431        0.3936540066
 H         -2.4841602829        0.4359161579        1.7271937621
 H         -1.0231676989       -1.5588919943        1.4816316422
 H         -1.3332038371       -0.8727423141       -2.0972753843
 H         -1.6310869568       -2.1626516949       -0.9388562362
 H         -0.0926074340        0.0430716003        2.8971077666
 H          1.2324804678       -2.1466827897       -1.3633427816
 H          0.3364993845       -2.8793426779       -0.0172965010
 H         -4.0829754593       -0.6151480288       -1.5876251779
 H         -4.3942464987        0.4575460909       -0.1368379999
 H          3.2136135952        1.8832256886        0.8783924411
 H          1.4481871119        1.9732126303        1.3101850121
 H          1.7864783821       -1.2794985829        1.2239302380
 H          3.9927429649        0.8375074061       -1.0136968252
 H          3.1094824350       -0.6448210171       -1.3640882904
 H          2.8525080777        0.7868531512       -2.3647104378
  35
        -46.13953802
 C          0.0135802513       -0.7566927968       -0.0415069808
 C          0.6202678162        0.4757271302       -0.7716751315
 C         -0.4331453872        1.5946466305       -0.9023603107
 C         -1.3082808503        1.8084053969        0.3337712703
 C         -1.8050399153        0.4666605402        0.8779543761
 C         -0.6016300976       -0.3839604485        1.3242274999
 C         -1.2459602929       -1.2112511342       -0.8020326515
 C         -2.3611669824       -0.3615592473       -0.2490724651
 O          0.2558455421        0.1702544878        2.2745815531
 C          1.0146634161       -1.8999825564        0.1252910190
 C         -3.6084025211       -0.3418825489       -0.6812981596
 C          1.9495499176        0.9707881213       -0.2371174236
 C          2.1066151338        2.0040086042        0.5814817142
 H          0.8395868260        0.1210048333       -1.7862354611
 O          1.4595127982       -2.3514158705       -1.1389592879
 C          3.1677694933        0.3016283425       -0.8131981779
 H          0.0725220666        2.5263681468       -1.1641360077
 H         -1.0951753600        1.3431152328       -1.7331026038
 H         -0.7741897768        2.3341311275        1.1269125506
 H         -2.1652616412        2.4256784634        0.0550848469
 H         -2.5224266286        0.6294415533        1.6842141679
 H         -0.9827067211       -1.2987411410        1.7980118844
 H         -1.1386329065       -1.1132914759       -1.8816254739
 H         -1.4464883627       -2.2646618983       -0.5917073560
 H          0.7731370911        0.8686324263        1.8515915267
 H          0.5140016909       -2.7174419539        0.6634076519
 H          1.8589573283       -1.5620549426        0.7419806294
 H         -3.9322209847       -0.9523258905       -1.5075129327
 H         -4.3560701833        0.2847583778       -0.2257767273
 H          3.0924152964        2.3218463084        0.8798056411
 H          1.3006418603        2.6060782839        0.9632075721
 H          1.9794273741       -3.1513191805       -1.0155582711
 H          2.9429820422       -0.6937316430       -1.1805713715
 H          3.5242332932        0.8894546964       -1.6605143912
 H          3.9719523893        0.2506705911       -0.0825132782
  35
        -46.13917202
 C          0.0142407595       -0.7626338952       -0.0458800902
 C          0.6280668595        0.4731793059       -0.7698671526
 C         -0.4325276680        1.5892464080       -0.8996845035
 C         -1.3090008594        1.8033281703        0.3355347919
 C         -1.8030142782        0.4618354820        0.8829949688
 C         -0.5972368831       -0.3892888774        1.3219317716
 C         -1.2495200402       -1.2032988364       -0.8102572980
 C         -2.3652794149       -0.3641980709       -0.2423627549
 O          0.2638088988        0.1645587369        2.2693553668
 C          0.9986240802       -1.9274363122        0.1164014354
 C         -3.6158160970       -0.3484345939       -0.6646725733
 C          1.9565471351        0.9937959906       -0.2454970200
 C          2.0878658531        2.0463283780        0.5522441847
 H          0.8360456673        0.1371143619       -1.7959527775
 O          1.4568185726       -2.4722386692       -1.0956051094
 C          3.1968218845        0.3394974409       -0.7929254514
 H          0.0673551965        2.5224364827       -1.1675212908
 H         -1.0950962161        1.3310502450       -1.7279308276
 H         -0.7797464262        2.3350644531        1.1279583592
 H         -2.1671240043        2.4165308568        0.0518448136
 H         -2.5158666430        0.6251296858        1.6928336778
 H         -0.9738194728       -1.3048987550        1.7957683554
 H         -1.1523790810       -1.0888253884       -1.8901103394
 H         -1.4445540353       -2.2607550786       -0.6175902945
 H          0.7568571323        0.8852713744        1.8572944860
 H          0.4864423456       -2.7505380306        0.6221429963
 H          1.8319351601       -1.6169819384        0.7620193898
 H         -3.9432180754       -0.9572915217       -1.4905460133
 H         -4.3630088792        0.2715186739       -0.1995088253
 H          3.0627922839        2.3979666917        0.8466129942
 H          1.2651403553        2.6257910823        0.9319841457
 H          1.9264057476       -1.7878878277       -1.5849340587
 H          3.3496606840       -0.6574643662       -0.3845306701
 H          3.1392344015        0.2610897316       -1.8790077805
 H          4.0746533568        0.9307579824       -0.5435774132
  35
        -46.13905947
 C          0.0165832121       -0.7478020816       -0.0143723779
 C          0.6154222677        0.4699405036       -0.7649222023
 C         -0.4196551978        1.6088128098       -0.8740899404
 C         -1.3013383084        1.8034218489        0.3585908187
 C         -1.8248526309        0.4586670885        0.8731386220
 C         -0.6261100027       -0.3739433657        1.3393796169
 C         -1.2339109477       -1.2328223121       -0.7782508260
 C         -2.3577087051       -0.3669263944       -0.2647211557
 O          0.1533150553        0.3120626447        2.2768382645
 C          1.0474120811       -1.8719803519        0.1540924858
 C         -3.5884230465       -0.3352213683       -0.7406862011
 C          1.9713034468        0.9346636618       -0.2663836432
 C          2.1634614123        1.7740862922        0.7388422984
 H          0.7993701985        0.1150487174       -1.7871043760
 O          1.5472984165       -2.3746906999       -1.0610951553
 C          3.1305336861        0.4406685248       -1.0848975465
 H          0.1065800162        2.5389223017       -1.0957705146
 H         -1.0752415458        1.3940288296       -1.7216470652
 H         -0.7491812591        2.2793216968        1.1671698845
 H         -2.1426622761        2.4468377344        0.0941223474
 H         -2.5548767539        0.6189620081        1.6673774075
 H         -0.9974330719       -1.3105286440        1.7982473091
 H         -1.1277344061       -1.1556133548       -1.8614271534
 H         -1.4439173973       -2.2796190980       -0.5334250841
 H          1.0069521415       -0.1237641890        2.3584746679
 H          0.5932205813       -2.6868506122        0.7413513475
 H          1.9220785349       -1.5073157883        0.6996983108
 H         -3.8922106172       -0.9449128316       -1.5752926998
 H         -4.3422284214        0.3035337312       -0.3139187205
 H          3.1576820453        2.0880801075        1.0139557981
 H          1.3640520906        2.1744662466        1.3327524683
 H          0.8067904522       -2.6970294458       -1.5866034436
 H          3.0688798655       -0.6333861923       -1.2442613458
 H          3.1134401118        0.9191168089       -2.0651635158
 H          4.0774454515        0.6776403039       -0.6061911280
  35
        -46.13888631
 C         -0.0108506366       -0.7117031844       -0.1538687153
 C          0.4557772201        0.7156028195       -0.5957276350
 C         -0.0269310604        1.7946874120        0.3814747010
 C         -1.5330788726        1.6953442348        0.6236566743
 C         -1.9827149722        0.2280929282        0.7613163726
 C         -0.8020121335       -0.6555193688        1.1779839951
 C         -1.1490017961       -1.1483740646       -1.0906276751
 C         -2.3276950344       -0.3499622974       -0.5907936125
 O         -0.1141523492       -0.2158354070        2.3140588353
 C          1.1039881448       -1.7657491528       -0.0704701167
 C         -3.4657462177       -0.1701768338       -1.2353775956
 C          1.9421236061        0.8172433794       -0.8627667751
 C          2.8461541445        1.0959852862        0.0681281093
 H         -0.0406929766        0.9234677370       -1.5504206864
 O          1.9544168795       -1.6058106864        1.0415001605
 C          2.3409206549        0.6273038112       -2.2973865407
 H          0.4808738401        1.6899120452        1.3367896732
 H          0.2201046051        2.7765039799       -0.0282995386
 H         -1.7770972569        2.2388728033        1.5364412456
 H         -2.0837614579        2.1539482892       -0.2006885394
 H         -2.8208089431        0.1602292614        1.4557980165
 H         -1.1833110401       -1.6752636017        1.3692693600
 H         -0.9364079862       -0.9708779534       -2.1449150672
 H         -1.3543500091       -2.2166501074       -0.9724735622
 H          0.6835097194       -0.7642782366        2.3733507613
 H          1.6870597985       -1.7899032118       -0.9993607926
 H          0.6453513214       -2.7508858031        0.0634803713
 H         -3.6390521884       -0.5927551721       -2.2108540605
 H         -4.2712458281        0.4042744142       -0.8109986793
 H          3.8940427276        1.1696240295       -0.1739564700
 H          2.5873695677        1.3037483603        1.0926750248
 H          2.4865748919       -0.8080277551        0.8927870995
 H          3.4182879352        0.5205382536       -2.3979527822
 H          1.8548688263       -0.2450990310       -2.7311478460
 H          2.0274424440        1.4972311693       -2.8758643295
  35
        -46.13886365
 C         -0.0694201573       -0.7838533938       -0.3478675734
 C          0.5185194365        0.5267083577       -0.9439087801
 C         -0.4750185964        1.6913381036       -0.7696365816
 C         -1.1964303129        1.7124292544        0.5763797068
 C         -1.7515072637        0.3225738744        0.9067435098
 C         -0.5749884905       -0.6377212111        1.1040436975
 C         -1.4048182806       -1.0741927169       -1.0621188823
 C         -2.4285337859       -0.2678117496       -0.3002863516
 O          0.3411860554       -0.2023958856        2.0646287063
 C          0.9099112569       -1.9551999369       -0.4840612387
 C         -3.6939670342       -0.1063529233       -0.6396905691
 C          1.9353320464        0.8653435887       -0.5225778464
 C          2.9555482783        0.4399588183       -1.2555719422
 H          0.5860703711        0.3316015951       -2.0233651287
 O          1.9214288839       -1.8675072968        0.5018107212
 C          2.1766945755        1.7550533429        0.6574887345
 H          0.0462827885        2.6364815608       -0.9287468508
 H         -1.2328996890        1.6107867952       -1.5525075226
 H         -0.5254292107        2.0097382508        1.3802437357
 H         -2.0160813799        2.4322429759        0.5277754866
 H         -2.3999554375        0.3737524938        1.7822774404
 H         -0.9702895881       -1.6249446706        1.4095084807
 H         -1.3814696647       -0.8187198197       -2.1218728138
 H         -1.6507062325       -2.1373658665       -0.9873463274
 H          1.1377469619       -0.7369279714        1.9386670506
 H          1.3450106690       -1.9536018043       -1.4902929525
 H          0.3607668381       -2.9010851101       -0.3512646087
 H         -4.1047208737       -0.5495433446       -1.5315733310
 H         -4.3707466136        0.4743887374       -0.0368414250
 H          3.9750738703        0.6692705216       -0.9941005314
 H          2.8255327588       -0.1590006867       -2.1426531167
 H          2.6665263702       -2.4165984623        0.2432588745
 H          1.6261305714        1.4114640871        1.5269755412
 H          3.2371533020        1.7820510537        0.8959666879
 H          1.8549071855        2.7717778687        0.4321863404
  35
        -46.13876332
 C         -0.0676860942       -0.7902072060       -0.3270150715
 C          0.5183774299        0.5173797229       -0.9285435249
 C         -0.4647317546        1.6913605920       -0.7497641889
 C         -1.1841605854        1.7065156575        0.5965462288
 C         -1.7713775040        0.3228231640        0.8989337334
 C         -0.6129397889       -0.6584803968        1.1094084032
 C         -1.3960887578       -1.0818402718       -1.0583807986
 C         -2.4269068704       -0.2580555500       -0.3264766538
 O          0.3377745700       -0.2879632716        2.0816407216
 C          0.9145643208       -1.9624025302       -0.4369230762
 C         -3.6827518336       -0.0785764141       -0.6913400479
 C          1.9437264723        0.8650109749       -0.5455785080
 C          2.9330297930        0.5393646632       -1.3647022109
 H          0.5686807374        0.3142364519       -2.0060803972
 O          2.0398465609       -1.8477821690        0.3905455028
 C          2.2197761523        1.6489050006        0.7004712608
 H          0.0682813659        2.6318393459       -0.8978752603
 H         -1.2236258744        1.6277891795       -1.5326899743
 H         -0.4963265123        1.9785398958        1.3981686691
 H         -1.9848973487        2.4481807274        0.5670499664
 H         -2.4479537883        0.3749109117        1.7568714731
 H         -1.0291360414       -1.6431857362        1.3902688757
 H         -1.3537419059       -0.8422534721       -2.1203092977
 H         -1.6470360984       -2.1431040088       -0.9733515205
 H         -0.1148743811       -0.1798884111        2.9246856084
 H          1.2853167505       -2.0517069974       -1.4625067086
 H          0.3703699570       -2.8919732128       -0.1908518877
 H         -4.0794747791       -0.5173268617       -1.5911691521
 H         -4.3636723005        0.5159588733       -0.1064816912
 H          3.9578039089        0.7773324048       -1.1369727683
 H          2.7709419829       -0.0020758942       -2.2814654105
 H          1.7696301787       -1.3832398210        1.1944830212
 H          1.8156197861        1.1430071234        1.5709032801
 H          3.2916537618        1.7699811142        0.8338370208
 H          1.7695017455        2.6393753936        0.6399516752
  35
        -46.13856632
 C          0.0982803739       -0.7004558418       -0.2989650739
 C          0.5931770387        0.6212573043       -0.9531491045
 C         -0.4949607591        1.7068724947       -0.8546190563
 C         -1.2169131110        1.7512312664        0.4905695503
 C         -1.6619015274        0.3441240002        0.9029109157
 C         -0.4219526964       -0.5195349472        1.1452499482
 C         -1.2122508839       -1.1197108933       -0.9960374253
 C         -2.2951758038       -0.3625249783       -0.2657592713
 O          0.4613946017        0.0282549692        2.0851221881
 C          1.1855125381       -1.7839350445       -0.3848188762
 C         -3.5716820747       -0.3247299444       -0.5995104857
 C          1.9667191722        1.1000407530       -0.5195179168
 C          3.0405382064        0.6909699453       -1.1824917616
 H          0.7044107682        0.3796191099       -2.0191276108
 O          0.8858969693       -2.9552307825        0.3360340931
 C          2.1056255358        2.0823941207        0.6022982585
 H         -0.0538314425        2.6799069642       -1.0753021319
 H         -1.2413891958        1.5151788219       -1.6288650149
 H         -0.5728937120        2.1479057385        1.2728731294
 H         -2.0914414725        2.3991089271        0.4029159039
 H         -2.3117673056        0.3955142326        1.7775919465
 H         -0.7504428428       -1.5099174720        1.5035106127
 H         -1.2058311828       -0.9058559376       -2.0655745014
 H         -1.3869488932       -2.1944615259       -0.8808379366
 H          1.1792878314       -0.6013796074        2.2110234978
 H          2.1132943447       -1.4085053709        0.0534577088
 H          1.3804897852       -2.0195967182       -1.4407870723
 H         -3.9497812471       -0.8449544794       -1.4638748224
 H         -4.2902197420        0.2305246129       -0.0216564548
 H          4.0310197719        1.0181482486       -0.9141374890
 H          2.9820708664        0.0116589989       -2.0167072124
 H          0.1144180050       -3.3793106183       -0.0559110027
 H          1.6149241073        1.7156127822        1.4985757144
 H          3.1569385583        2.2562567535        0.8189067924
 H          1.6533331136        3.0359341084        0.3336945300
  35
        -46.13844425
 C          0.0296981978       -0.7792056510       -0.0360211537
 C          0.6526606064        0.4117171592       -0.8189282992
 C         -0.3995400546        1.5173826037       -1.0128886546
 C         -1.2410976118        1.8061945725        0.2295911038
 C         -1.7678054680        0.5015109274        0.8377646136
 C         -0.5814922938       -0.3439058841        1.3128556012
 C         -1.2441111652       -1.2528478730       -0.7692457600
 C         -2.3476449306       -0.3679415820       -0.2436161416
 O          0.2469969287        0.3478614890        2.2057719216
 C          1.0231191674       -1.9349015451        0.1417408764
 C         -3.5972763543       -0.3547939365       -0.6681083933
 C          1.9864652803        0.9078540968       -0.2846915497
 C          3.0999510990        0.2753548858       -0.6310569206
 H          0.8820978902        0.0058675508       -1.8128415741
 O          1.4758773394       -2.4838185077       -1.0706176083
 C          2.0561503105        2.1398070461        0.5674104116
 H          0.0920622746        2.4305540533       -1.3502301474
 H         -1.0774150307        1.2114716119       -1.8131998852
 H         -0.6606702514        2.3267814399        0.9883485308
 H         -2.0848211488        2.4398119526       -0.0514482912
 H         -2.4725436009        0.7182189976        1.6415023448
 H         -0.9718129711       -1.2495147983        1.8138991630
 H         -1.1574037707       -1.1904290501       -1.8550605164
 H         -1.4628933151       -2.2940287363       -0.5089436034
 H          1.0256897342       -0.1889170599        2.3839308517
 H          0.5500266238       -2.7169624155        0.7587752573
 H          1.9244528519       -1.5904540688        0.6550737755
 H         -3.9343940853       -0.9957390092       -1.4656560636
 H         -4.3338301121        0.2996669367       -0.2349820035
 H          4.0660694566        0.6006028495       -0.2810640208
 H          3.0953846630       -0.5942312326       -1.2657636068
 H          0.7115346432       -2.7795328562       -1.5775684191
 H          1.4444708001        2.0346068740        1.4585584289
 H          3.0849598623        2.3229052190        0.8689501465
 H          1.7067790008        3.0113528611        0.0159785168
  35
        -46.13802513
 C         -0.0778654401       -0.7840497321       -0.2880262346
 C          0.5289544162        0.5070698449       -0.8974498153
 C         -0.4605921318        1.6856066039       -0.7694146156
 C         -1.2461098113        1.7312183542        0.5398478839
 C         -1.8005764334        0.3466109694        0.8871651833
 C         -0.6147342861       -0.5897979984        1.1457840763
 C         -1.3906866903       -1.0992935959       -1.0320763789
 C         -2.4387545655       -0.2784286019       -0.3223912150
 O          0.2727074031       -0.0974925887        2.1042254516
 C          0.8945784071       -1.9647552493       -0.3603797958
 C         -3.6937835988       -0.1306793814       -0.7042529231
 C          1.9314155149        0.8681826507       -0.4449810804
 C          2.2230271528        1.5502227858        0.6506394771
 H          0.6208465262        0.2960743403       -1.9718561690
 O          1.9618152530       -1.7695509213        0.5450916051
 C          3.0136594328        0.5063166076       -1.4239860514
 H          0.0903158122        2.6193337844       -0.8970435707
 H         -1.1814224416        1.6156939394       -1.5877173874
 H         -0.6162015206        2.0558987546        1.3663651309
 H         -2.0680560680        2.4422171615        0.4348424148
 H         -2.4739041153        0.4143976199        1.7424894761
 H         -1.0032515281       -1.5699953791        1.4849203862
 H         -1.3375331390       -0.8707255891       -2.0969715491
 H         -1.6337685076       -2.1615954125       -0.9369690807
 H          1.1315242273       -0.5039954167        1.9267624247
 H          1.2685709671       -2.0763652464       -1.3886381594
 H          0.3519309545       -2.8864583954       -0.0980978692
 H         -4.0755677437       -0.5966847785       -1.5973953645
 H         -4.3900395457        0.4632737874       -0.1376830385
 H          3.2425898542        1.8086530997        0.8862564576
 H          1.4839197470        1.8555732818        1.3659668977
 H          2.5768004952       -2.5059101350        0.4746204798
 H          2.9859767701       -0.5523570193       -1.6721768177
 H          2.8777683871        1.0670595175       -2.3501364513
 H          3.9950485847        0.7404693993       -1.0201384089
  35
        -46.13800548
 C          0.0908101177       -0.6887323155       -0.2349383656
 C          0.5844646224        0.6192157543       -0.9064411470
 C         -0.4858686429        1.7282239720       -0.8139380500
 C         -1.2654225343        1.7614643989        0.4986393873
 C         -1.7181963768        0.3524820110        0.8939575046
 C         -0.4724723165       -0.4854906871        1.1912268165
 C         -1.1922100947       -1.1437443563       -0.9591412096
 C         -2.3009057309       -0.3664126666       -0.2925657147
 O          0.3590771054        0.1115128533        2.1446663528
 C          1.2060183000       -1.7462497958       -0.2674872656
 C         -3.5594237417       -0.3219966005       -0.6883222473
 C          1.9618829954        1.0992772612       -0.4880303205
 C          2.2287485704        1.7662270642        0.6230377639
 H          0.6811444569        0.3721576165       -1.9721850751
 O          0.9136024404       -2.9180338542        0.4539370555
 C          3.0389580070        0.8547381649       -1.5090425682
 H         -0.0039902597        2.6939011914       -0.9771176539
 H         -1.2033174911        1.5785654633       -1.6243907292
 H         -0.6554385950        2.1588541833        1.3079671911
 H         -2.1367293165        2.4077568505        0.3764621867
 H         -2.4007361425        0.4015816880        1.7434827251
 H         -0.7893821235       -1.4760105180        1.5618740918
 H         -1.1529659938       -0.9683105525       -2.0350281296
 H         -1.3659683635       -2.2144775161       -0.8091286083
 H          1.1266595964       -0.4561628871        2.2677703782
 H          2.1047139765       -1.3405279214        0.2046557740
 H          1.4449428234       -1.9904298380       -1.3135255610
 H         -3.9006734720       -0.8516712101       -1.5622392180
 H         -4.2994400318        0.2481575717       -0.1537438234
 H          3.2282324873        2.1097064206        0.8363850894
 H          1.4868206510        1.9793320321        1.3680371314
 H          0.1542334532       -3.3550443596        0.0526660415
 H          4.0099201491        1.1667062234       -1.1331377665
 H          3.0924447182       -0.1974554755       -1.7832856437
 H          2.8232217132        1.4219073205       -2.4152590749
  35
        -46.13796983
 C          0.0459217241       -0.7696360530       -0.0371991548
 C          0.6447716139        0.4374779947       -0.8175865869
 C         -0.4131808133        1.5462491817       -0.9726097729
 C         -1.2502074773        1.7995462274        0.2796347809
 C         -1.7706642884        0.4763759807        0.8508299117
 C         -0.5815052363       -0.3683351211        1.3161212037
 C         -1.2192087248       -1.2530446336       -0.7754842669
 C         -2.3317851617       -0.3806053328       -0.2526016722
 O          0.2318505389        0.3014446976        2.2422572406
 C          1.0581232677       -1.9116824387        0.1334156334
 C         -3.5763680254       -0.3625723660       -0.6918990719
 C          1.9879259985        0.9417053683       -0.3210534835
 C          3.1106274874        0.4100700565       -0.7883514115
 H          0.8387380361        0.0554326838       -1.8302283897
 O          1.3497345583       -2.5930340270       -1.0600614584
 C          2.0553191437        2.0873919609        0.6416897699
 H          0.0747014218        2.4691829601       -1.2898547745
 H         -1.0944602417        1.2559619338       -1.7755114793
 H         -0.6693872831        2.3010757518        1.0512661135
 H         -2.0953894784        2.4387686185        0.0167308953
 H         -2.4837364962        0.6679400186        1.6537485017
 H         -0.9714268288       -1.2893531536        1.7847519592
 H         -1.1228692176       -1.1968254128       -1.8596710324
 H         -1.4124791488       -2.2991867863       -0.5250062583
 H          0.9533818606       -0.2825408046        2.4961998448
 H          0.6352567633       -2.6736291857        0.7959381782
 H          1.9821135612       -1.5280979844        0.5921143253
 H         -3.9013852476       -0.9946064195       -1.5011817201
 H         -4.3200522251        0.2841747544       -0.2588094389
 H          4.0773350057        0.7529986454       -0.4594573794
 H          3.1301970700       -0.3804915050       -1.5215826439
 H          1.7468570987       -1.9683501647       -1.6770547913
 H          1.4572547218        1.8897432968        1.5255814326
 H          3.0853643357        2.2635109074        0.9424697506
 H          1.6797587160        2.9967681960        0.1748831301
  35
        -46.13796099
 C          0.0132568145       -0.7683110309       -0.0336142511
 C          0.5872043783        0.4618699039       -0.7900302812
 C         -0.4238331764        1.6271775111       -0.8177780765
 C         -1.2494685469        1.7774125265        0.4566316151
 C         -1.8239257901        0.4207373552        0.8807577748
 C         -0.6542403409       -0.4676199448        1.3222896941
 C         -1.2359117408       -1.2359680925       -0.8098221878
 C         -2.3459721841       -0.3485766118       -0.3052792563
 O          0.1891998253        0.0745582430        2.3052132227
 C          1.0711164467       -1.8698943993        0.1280312596
 C         -3.5632803440       -0.2601893708       -0.8085668760
 C          1.9845249259        0.9057077874       -0.4072513962
 C          2.9984690493        0.6518444057       -1.2256676691
 H          0.6810704542        0.1201172481       -1.8292432028
 O          1.6031818135       -2.3410081038       -1.0821848042
 C          2.2065653114        1.6918298651        0.8444155129
 H          0.1082366132        2.5568728980       -1.0288230980
 H         -1.1169143168        1.4583094324       -1.6447854446
 H         -0.6333407026        2.1606547638        1.2716349888
 H         -2.0598507641        2.4862894108        0.2758413003
 H         -2.5773644810        0.5552850685        1.6620714898
 H         -1.0566144538       -1.4253106617        1.6980338892
 H         -1.1117167319       -1.1745493179       -1.8900056647
 H         -1.4541316113       -2.2795635294       -0.5688151327
 H         -0.3363766790        0.2366902834        3.0958105934
 H          0.6108187623       -2.7407564964        0.6044370061
 H          1.8650118719       -1.4977816350        0.7889198733
 H         -3.8638444470       -0.8356609816       -1.6677142399
 H         -4.3076580579        0.3910619049       -0.3827541204
 H          4.0025943246        0.9680180122       -0.9970160666
 H          2.8797522345        0.1426704403       -2.1698940457
 H          2.1653356500       -1.6486705574       -1.4486689358
 H          1.6787919568        2.6429927135        0.7897213966
 H          1.8310509660        1.1484763074        1.7050664557
 H          3.2656690452        1.8957204963        0.9818667266
  35
        -46.13775782
 C          0.1177053482       -0.6788484356       -0.2565087297
 C          0.6157677269        0.6460540411       -0.8990578111
 C         -0.5078679020        1.7034885639       -0.8536251938
 C         -1.2928805050        1.7610751571        0.4584913674
 C         -1.6764588613        0.3506884629        0.9164467137
 C         -0.3978976980       -0.4623974563        1.1827913912
 C         -1.1781130937       -1.1228781484       -0.9595286577
 C         -2.2836182378       -0.3987128721       -0.2386218213
 O          0.5116241306        0.0692176052        2.1000696367
 C          1.1813371687       -1.7815123183       -0.2844744787
 C         -3.5619195785       -0.4064225720       -0.5684523069
 C          1.9491650732        1.1778744030       -0.4073123582
 C          2.0898179843        2.2185609664        0.4047084890
 H          0.7792160926        0.4130535856       -1.9607598129
 O          0.5858264618       -3.0156739795        0.0628247234
 C          3.1888153172        0.5390536218       -0.9769500591
 H         -0.0825092030        2.6835922381       -1.0788068130
 H         -1.2190734237        1.4734940199       -1.6489347515
 H         -0.7272951490        2.2509756731        1.2531635162
 H         -2.1996865078        2.3482910194        0.2971836181
 H         -2.3316213914        0.4021101439        1.7877239204
 H         -0.6740394191       -1.4399050466        1.5940177261
 H         -1.1709129551       -0.9177034083       -2.0305533871
 H         -1.2970234976       -2.1994138573       -0.8257098195
 H          0.8978436315        0.8693580632        1.7220443396
 H          1.9641319130       -1.5280337965        0.4398686899
 H          1.6269314561       -1.8548259906       -1.2874788248
 H         -3.9241030638       -0.9525556137       -1.4232236212
 H         -4.2986222792        0.1291831557        0.0057400890
 H          3.0699049695        2.5783135799        0.6717951041
 H          1.2711571369        2.7727093264        0.8278312310
 H          1.2820203310       -3.6511063682        0.2527167988
 H          3.5855401066       -0.2152224971       -0.2996863762
 H          2.9903269436        0.0641301106       -1.9339350999
 H          3.9640367781        1.2888983491       -1.1184880533
  35
        -46.13773076
 C          0.1132849453       -0.6894631930       -0.2580889261
 C          0.5950481899        0.6241947863       -0.9320937191
 C         -0.4928716118        1.7113731803       -0.8436127346
 C         -1.2260001213        1.7537462959        0.4947113313
 C         -1.6830301062        0.3460946582        0.8930506630
 C         -0.4421134465       -0.5126637198        1.1680441685
 C         -1.1791373658       -1.1458369617       -0.9653770649
 C         -2.2822124050       -0.3770861216       -0.2857290080
 O          0.4705037095       -0.0034031583        2.1076329001
 C          1.2135071927       -1.7598890686       -0.3389784816
 C         -3.5499646685       -0.3385155066       -0.6520746527
 C          1.9757004589        1.1110693793       -0.5354707514
 C          3.0237593245        0.7643120758       -1.2703807914
 H          0.6898518649        0.3638538662       -1.9943051007
 O          0.8197646340       -3.0130080229        0.1671617193
 C          2.1480563866        2.0226298917        0.6389301758
 H         -0.0484881528        2.6847450119       -1.0580126047
 H         -1.2331949059        1.5198976447       -1.6232964696
 H         -0.5771310828        2.1464809237        1.2786095314
 H         -2.0930356682        2.4117942260        0.4074276797
 H         -2.3629836051        0.3963983953        1.7489234492
 H         -0.7883656505       -1.5039453219        1.5148832365
 H         -1.1536181927       -0.9740486656       -2.0410667774
 H         -1.3127056788       -2.2195015792       -0.8060332523
 H         -0.0082518831        0.1768432733        2.9237030370
 H          2.1081640297       -1.3957159918        0.1786750476
 H          1.4644350441       -1.9354359007       -1.3878430944
 H         -3.9060088232       -0.8734299935       -1.5161514136
 H         -4.2826739314        0.2279499762       -0.1026599642
 H          4.0190968182        1.0997990422       -1.0320417726
 H          2.9392906902        0.1238017326       -2.1322873337
 H          0.7680964399       -2.9495308742        1.1264387045
 H          1.5742201455        2.9386216553        0.5098249294
 H          1.8086646741        1.5276075950        1.5435905496
 H          3.1956046645        2.2892432388        0.7556409456
  35
        -46.13755264
 C          0.1187357494       -0.7032473806       -0.2610172864
 C          0.6261949300        0.5995024268       -0.9416598992
 C         -0.4808953376        1.6699357229       -0.9186914458
 C         -1.2395794295        1.7661250111        0.4040396591
 C         -1.6608072778        0.3731151965        0.8831047275
 C         -0.4058777793       -0.4572706855        1.1691402049
 C         -1.1821483502       -1.1556551910       -0.9523904325
 C         -2.2801286055       -0.3977556809       -0.2526760754
 O          0.4624064837        0.1594021372        2.0825557760
 C          1.1858251774       -1.8094301391       -0.3213430298
 C         -3.5583821608       -0.3975363590       -0.5819812442
 C          1.9798277732        1.1027769278       -0.4692807192
 C          3.0877551264        0.6177715853       -1.0146562404
 H          0.7784364643        0.3248660095       -1.9939388682
 O          0.7308970616       -3.0691587259        0.1091122499
 C          2.0700536234        2.2028208079        0.5458069553
 H         -0.0528534901        2.6398227187       -1.1751010654
 H         -1.2037800539        1.4269572840       -1.7003299870
 H         -0.6301954096        2.2264391226        1.1794803355
 H         -2.1289647977        2.3823708179        0.2584648950
 H         -2.3121033225        0.4563546402        1.7544185062
 H         -0.7319293333       -1.4277757272        1.5904795446
 H         -1.1694945846       -0.9739813008       -2.0270922379
 H         -1.3131705373       -2.2314363864       -0.8053525067
 H          1.3091090434       -0.2994381665        2.0616096428
 H          2.0743760383       -1.5056939947        0.2522467290
 H          1.4900918125       -1.9607476461       -1.3593359660
 H         -3.9272750424       -0.9603142294       -1.4228638670
 H         -4.2865302864        0.1655617860       -0.0236955797
 H          4.0634717709        0.9609612562       -0.7135412515
 H          3.0744984937       -0.1375161091       -1.7820482122
 H          0.4635489831       -3.0141076249        1.0334638443
 H          3.1095693983        2.3794258362        0.8121738252
 H          1.6657358018        3.1284229800        0.1384886732
 H          1.5129275168        1.9597626913        1.4451307410
  35
        -46.13740205
 C          0.1136961350       -0.6945386783       -0.2835827704
 C          0.6013704778        0.6220849086       -0.9489927827
 C         -0.4958707304        1.6989775433       -0.8623873137
 C         -1.2251852024        1.7486986320        0.4788129193
 C         -1.6589285858        0.3412769185        0.9025881001
 C         -0.4113860791       -0.5072627966        1.1569456339
 C         -1.1906863376       -1.1438044768       -0.9701592926
 C         -2.2809361668       -0.3819115619       -0.2622481303
 O          0.4596751199        0.0667856007        2.0972532186
 C          1.1914264734       -1.7796285353       -0.3693507500
 C         -3.5546025704       -0.3449907200       -0.6073893976
 C          1.9710131157        1.1089961913       -0.5135148302
 C          3.0514000889        0.6899451781       -1.1595882750
 H          0.7161606351        0.3725395588       -2.0127322206
 O          0.7262632916       -2.9621630372        0.2512570129
 C          2.0995665147        2.1086417414        0.5939746645
 H         -0.0636123396        2.6744786735       -1.0908704132
 H         -1.2371865872        1.4911560893       -1.6371348744
 H         -0.5898283472        2.1607987655        1.2604382263
 H         -2.1054158242        2.3872668964        0.3793378512
 H         -2.3113904106        0.3951825349        1.7752820576
 H         -0.7250947544       -1.4994824351        1.5156210371
 H         -1.1859400702       -0.9664688867       -2.0460622580
 H         -1.3253768762       -2.2155213709       -0.8057066526
 H          1.1807877605       -0.5528175601        2.2455045719
 H          2.1105233859       -1.4294462388        0.1221030469
 H          1.4232898048       -1.9690202490       -1.4266233895
 H         -3.9254558800       -0.8753279639       -1.4685205293
 H         -4.2780418856        0.2171934397       -0.0420254602
 H          4.0397592432        1.0207403458       -0.8868481085
 H          3.0004200753        0.0001168492       -1.9858340533
 H          1.3744764360       -3.6590115138        0.1115756219
 H          1.5987154315        1.7560927582        1.4902248670
 H          3.1485182056        2.2869040378        0.8185879334
 H          1.6492566742        3.0569712018        0.3049950823
  35
        -46.13726266
 C          0.0123094191       -0.7483533058       -0.0183973386
 C          0.6152833069        0.4696746827       -0.7651492541
 C         -0.4213228533        1.6051383864       -0.8866718805
 C         -1.2988798579        1.8089801793        0.3469976899
 C         -1.8259778882        0.4671614604        0.8641453393
 C         -0.6304987605       -0.3780652831        1.3300794195
 C         -1.2375847034       -1.2279072077       -0.7871028346
 C         -2.3598990812       -0.3604095734       -0.2734845826
 O          0.2505731092        0.2355004257        2.2270822156
 C          1.0426745751       -1.8676733359        0.1688899953
 C         -3.5937677903       -0.3312730786       -0.7418136162
 C          1.9655174945        0.9395530455       -0.2579741342
 C          2.1501038024        1.8166570054        0.7144153355
 H          0.8076299129        0.1110895226       -1.7846023642
 O          1.5625430179       -2.3744829894       -1.0370490570
 C          3.1344512929        0.4151607518       -1.0434627552
 H          0.1031579483        2.5341400696       -1.1165562696
 H         -1.0797921581        1.3832484286       -1.7301337311
 H         -0.7350808913        2.2908453687        1.1458381461
 H         -2.1375999539        2.4577998664        0.0855165275
 H         -2.5669932574        0.6291646702        1.6521046310
 H         -1.0162273746       -1.3117128425        1.7822473589
 H         -1.1282778225       -1.1474756058       -1.8694000543
 H         -1.4510557620       -2.2748993482       -0.5466571254
 H         -0.2387382806        0.4711349058        3.0225497056
 H          0.5804444136       -2.6804684514        0.7507956737
 H          1.8920055687       -1.4848401178        0.7368562227
 H         -3.9011766432       -0.9439781737       -1.5726703861
 H         -4.3467111049        0.3084267656       -0.3142049958
 H          3.1428125306        2.1278022399        0.9962550075
 H          1.3491515365        2.2435577736        1.2853109019
 H          0.8314439800       -2.7109228519       -1.5668824403
 H          3.0639579779       -0.6604305274       -1.1821182302
 H          3.1430680504        0.8747543604       -2.0333636803
 H          4.0735104731        0.6507076154       -0.5495723828
  35
        -46.13725058
 C         -0.0737916007       -0.6823575023       -0.2746166633
 C          0.4649161858        0.7394599152       -0.6558545041
 C         -0.0050178292        1.8099274266        0.3384625898
 C         -1.4949194828        1.7110250067        0.6558805275
 C         -1.9300086636        0.2491564296        0.8752380155
 C         -0.7235555146       -0.6629353208        1.1292359389
 C         -1.3109679556       -1.0044104086       -1.1328022031
 C         -2.4477307371       -0.3119290681       -0.4249598014
 O          0.1052318639       -0.2836473747        2.1925222371
 C          0.9579023967       -1.8157198386       -0.3753234840
 C         -3.6840501094       -0.2028710925       -0.8746205016
 C          1.9663407859        0.7991257020       -0.8604059103
 C          2.4964549913        0.4415017541       -2.0232024378
 H          0.0176431625        0.9817042264       -1.6265004124
 O          1.9779025605       -1.7472587550        0.5951616369
 C          2.8402331128        1.3166265918        0.2488875911
 H          0.5356884589        1.7083271051        1.2755904207
 H          0.2134575778        2.7955306063       -0.0792961770
 H         -1.6966411668        2.2951112480        1.5542560882
 H         -2.0886663229        2.1336609235       -0.1579623344
 H         -2.6703319710        0.1899658749        1.6732183662
 H         -1.1090273194       -1.6799517704        1.3264389411
 H         -1.2084923802       -0.6812749749       -2.1689327010
 H         -1.4938259777       -2.0826910417       -1.1459954193
 H          0.8783205365       -0.8661446245        2.1475808838
 H          1.3849563541       -1.8535160982       -1.3847556527
 H          0.4494296310       -2.7661419096       -0.1854279457
 H         -3.9788427539       -0.6071813808       -1.8284040905
 H         -4.4504216736        0.2956572167       -0.3063962988
 H          3.5593039538        0.4702467254       -2.1992827262
 H          1.8914100256        0.1148195108       -2.8526106902
 H          2.5903387535       -1.0493135968        0.3338462238
 H          2.5606304050        0.9136411049        1.2201609351
 H          3.8856084295        1.0847485837        0.0519101343
 H          2.7464761385        2.4011129225        0.3085854822
  35
        -46.13716555
 C          0.0275355806       -0.7491834513       -0.0075998755
 C          0.6204264869        0.4681377638       -0.7666407035
 C         -0.4220388781        1.6022562345       -0.8797923141
 C         -1.3014234640        1.8009386344        0.3530480958
 C         -1.8193117313        0.4564279326        0.8727169809
 C         -0.6195013284       -0.3704927959        1.3437017705
 C         -1.2202810864       -1.2429565016       -0.7672009854
 C         -2.3467912176       -0.3788046944       -0.2622689478
 O          0.1584174680        0.3210436902        2.2804682330
 C          1.0614792458       -1.8698510415        0.1633542754
 C         -3.5770714183       -0.3501911832       -0.7399114480
 C          1.9731051929        0.9608701924       -0.2824550048
 C          2.1540898079        1.7821993219        0.7394807563
 H          0.7893413231        0.1180009494       -1.7950031255
 O          1.4120842759       -2.5095476593       -1.0379490715
 C          3.1473021233        0.5313162280       -1.1219111037
 H          0.0980791088        2.5337417011       -1.1113020004
 H         -1.0791657378        1.3749432635       -1.7225335676
 H         -0.7504114913        2.2844438575        1.1578834337
 H         -2.1448919631        2.4398900968        0.0847815540
 H         -2.5507651516        0.6175162414        1.6655952299
 H         -0.9907714420       -1.3052441550        1.8025210319
 H         -1.1081754895       -1.1838824672       -1.8498872838
 H         -1.4111421531       -2.2904226232       -0.5197707026
 H          0.9523259671       -0.1890800545        2.4667259964
 H          0.6425460056       -2.6615053361        0.7925989874
 H          1.9575401275       -1.4731962575        0.6670742729
 H         -3.8778074920       -0.9660856299       -1.5707628585
 H         -4.3331910591        0.2889807980       -0.3172719409
 H          3.1407135394        2.1247178577        1.0074319398
 H          1.3504934016        2.1301568769        1.3590940854
 H          1.7106737734       -1.8414990381       -1.6656637490
 H          3.3102285524       -0.5450117069       -1.0691417108
 H          2.9827424871        0.7939826863       -2.1674115017
 H          4.0574427762        1.0219789832       -0.7858751862
  35
        -46.13713083
 C          0.0115044868       -0.6543924639       -0.0067130988
 C          0.5312396313        0.6979914726       -0.5888363925
 C         -0.0676689223        1.9087526948        0.1417294480
 C         -1.5710187166        1.7791033920        0.3809622939
 C         -1.9598506100        0.3580971452        0.8388255214
 C         -0.7321377910       -0.4318703773        1.3238440730
 C         -1.1513563153       -1.1766128230       -0.8744983294
 C         -2.3676613656       -0.4557212474       -0.3626022648
 O          0.0574902676        0.1558816225        2.3279595949
 C          1.0974634630       -1.7349675569        0.1234308878
 C         -3.5824178389       -0.5148123187       -0.8761912494
 C          2.0401008864        0.8052941758       -0.6082338478
 C          2.7132590461        0.6553896930       -1.7424809272
 H          0.1951449850        0.7435977562       -1.6306693574
 O          1.5730357457       -2.2021843280       -1.1127524634
 C          2.7497403823        1.1173706396        0.6764610688
 H          0.4258518700        2.0260941692        1.1030391220
 H          0.1308803757        2.8057455743       -0.4494440907
 H         -1.8696197819        2.5103817271        1.1347518457
 H         -2.1208471147        2.0095186938       -0.5342292934
 H         -2.7539582961        0.4053771441        1.5883412120
 H         -1.0821726603       -1.4161964632        1.6820156933
 H         -0.9883636406       -1.0158184403       -1.9395105949
 H         -1.2670311021       -2.2537178275       -0.7298222381
 H         -0.5019011039        0.3225693592        3.0934186923
 H          0.6616955210       -2.6109437241        0.6142034035
 H          1.9207229967       -1.3764076332        0.7504015523
 H         -3.7976231435       -1.1020063836       -1.7526779338
 H         -4.4091921185        0.0217234481       -0.4423419325
 H          3.7878478941        0.7288553690       -1.7780429844
 H          2.2229332143        0.4800318564       -2.6869941142
 H          2.0405865816       -1.4742267376       -1.5457608010
 H          2.2078928362        0.7230069302        1.5315480773
 H          3.7583317883        0.7096586967        0.6660095598
 H          2.8305400198        2.1984221821        0.7959159769
  35
        -46.13710043
 C          0.1041140146       -0.6871897577       -0.2504800832
 C          0.6041681199        0.6388766516       -0.8940949776
 C         -0.5085225518        1.7084966826       -0.8393835414
 C         -1.2925499208        1.7642850169        0.4732350449
 C         -1.6894895937        0.3536818573        0.9184835595
 C         -0.4156926299       -0.4693503609        1.1876849139
 C         -1.1934357385       -1.1162040192       -0.9629634297
 C         -2.2965234668       -0.3781836590       -0.2459849196
 O          0.4887076245        0.0602682217        2.1075743458
 C          1.1936531653       -1.7741807415       -0.2752469510
 C         -3.5711050783       -0.3723906424       -0.5893976613
 C          1.9465156043        1.1643576156       -0.4159742193
 C          2.0965841260        2.1840173292        0.4206244852
 H          0.7565249464        0.4066281814       -1.9577447747
 O          0.7549988177       -3.0454867702        0.1323077774
 C          3.1756486930        0.5528589559       -1.0341511744
 H         -0.0713447560        2.6852270395       -1.0554265857
 H         -1.2227022175        1.4953765717       -1.6371897844
 H         -0.7216954246        2.2394593350        1.2724300001
 H         -2.1930386189        2.3624106876        0.3170897993
 H         -2.3494105565        0.4028381526        1.7859328579
 H         -0.6959059461       -1.4453047541        1.6025262173
 H         -1.1786675577       -0.9066979150       -2.0337951615
 H         -1.3633514929       -2.1890033380       -0.8382052904
 H          0.9185497985        0.8297706648        1.7135518082
 H          1.9622208331       -1.5068741821        0.4526965867
 H          1.6446059669       -1.8302474927       -1.2759966496
 H         -3.9310230016       -0.9081965822       -1.4519857165
 H         -4.3073524837        0.1679168436       -0.0196850769
 H          3.0793164572        2.5438518383        0.6768824011
 H          1.2837290607        2.7214804511        0.8755424083
 H          0.1624418686       -3.4101475365       -0.5338572417
 H          3.9688795558        1.2942088939       -1.0990425941
 H          3.5484962310       -0.2738698410       -0.4326849123
 H          2.9726434874        0.1771171062       -2.0340619721
  35
        -46.13699880
 C          0.0288357470       -0.7719138871       -0.0273719545
 C          0.6411980603        0.4214993706       -0.8132133971
 C         -0.4062620666        1.5349718737       -0.9874010056
 C         -1.2348813671        1.8063552178        0.2666289261
 C         -1.7829940553        0.4933563623        0.8378149581
 C         -0.6020926489       -0.3658855885        1.3161632249
 C         -1.2372407721       -1.2505064708       -0.7729785333
 C         -2.3455565733       -0.3617687325       -0.2647133997
 O          0.2841977058        0.2500854442        2.2102446868
 C          1.0416646719       -1.9084323587        0.1546978255
 C         -3.5883386830       -0.3394166146       -0.7090642399
 C          1.9902897745        0.9101611578       -0.3154819066
 C          3.0929656332        0.3209417671       -0.7569739131
 H          0.8466758022        0.0151221015       -1.8118089764
 O          1.4997847390       -2.4555261142       -1.0571108741
 C          2.0829047937        2.0770153965        0.6194733252
 H          0.0889456912        2.4508683838       -1.3128900260
 H         -1.0924358764        1.2461350143       -1.7869495422
 H         -0.6288080187        2.2923475613        1.0310013170
 H         -2.0644036710        2.4699369233        0.0129839997
 H         -2.5100206664        0.6974179364        1.6289052969
 H         -1.0019888475       -1.2837611066        1.7853809158
 H         -1.1383448392       -1.1939151507       -1.8576820935
 H         -1.4593047907       -2.2899931908       -0.5089004459
 H         -0.1971925188        0.4590677124        3.0178827949
 H          0.5848325578       -2.6940312732        0.7771817969
 H          1.9263550526       -1.5324629733        0.6703442205
 H         -3.9153362607       -0.9747772574       -1.5150492867
 H         -4.3292184567        0.3171687605       -0.2859846832
 H          4.0707768417        0.6409214065       -0.4366630980
 H          3.0669104574       -0.5175864577       -1.4313897672
 H          0.7400655034       -2.7846009015       -1.5503816921
 H          1.5927743765        2.9573893446        0.2078394131
 H          1.6150482053        1.8289535446        1.5674792145
 H          3.1263898296        2.3223058540        0.8017961363
  35
        -46.13690125
 C          0.1034406828       -0.6824726559       -0.2169118550
 C          0.5997869830        0.6189827512       -0.8967541659
 C         -0.4849513207        1.7157646642       -0.8473058728
 C         -1.2800057956        1.7734006082        0.4549985234
 C         -1.7182603944        0.3692384287        0.8803556030
 C         -0.4674123411       -0.4620008496        1.1963084448
 C         -1.1724375899       -1.1600504496       -0.9370252504
 C         -2.2911009444       -0.3854227175       -0.2915869692
 O          0.4419361682        0.0943148349        2.1076130210
 C          1.2089217634       -1.7499552000       -0.2425038454
 C         -3.5524038743       -0.3629817372       -0.6808705689
 C          1.9642123109        1.1161586216       -0.4582354684
 C          2.1952757179        1.8681639265        0.6048894179
 H          0.7198915040        0.3534890258       -1.9551419822
 O          0.8088224917       -2.9936091286        0.2808955966
 C          3.0795638015        0.7959095364       -1.4152324263
 H         -0.0147845191        2.6836457733       -1.0304560257
 H         -1.1921719996        1.5342286484       -1.6596876810
 H         -0.6807322514        2.2119931063        1.2536791917
 H         -2.1588920759        2.4047424558        0.3082732512
 H         -2.4126518306        0.4291739873        1.7239952517
 H         -0.8067243198       -1.4431382011        1.5801370798
 H         -1.1293867693       -1.0073397485       -2.0151751219
 H         -1.3033980429       -2.2312908363       -0.7599774623
 H         -0.0365858290        0.3259076399        2.9106480676
 H          2.0822359847       -1.3671106910        0.2987903388
 H          1.4879487210       -1.9537110010       -1.2797666833
 H         -3.8899775480       -0.9183653715       -1.5394614019
 H         -4.2978782845        0.2114091149       -0.1574649517
 H          3.1898646776        2.2147887498        0.8335319669
 H          1.4313508920        2.1493839550        1.3023020440
 H          0.7120042466       -2.9036364203        1.2345746585
 H          4.0377299580        1.1183228625       -1.0161982326
 H          3.1300509156       -0.2700824643       -1.6255360051
 H          2.9105319335        1.3121154127       -2.3612941304
  35
        -46.13656778
 C          0.1050056800       -0.6821052976       -0.2234563913
 C          0.5920061322        0.6230287120       -0.9019380356
 C         -0.4877247388        1.7231615464       -0.8168592108
 C         -1.2732608909        1.7573795726        0.4923286396
 C         -1.7138937739        0.3467404878        0.8958381964
 C         -0.4605526999       -0.4765503101        1.2002899777
 C         -1.1728751191       -1.1629599586       -0.9366359837
 C         -2.2873781075       -0.3852375262       -0.2874544097
 O          0.3603491016        0.1431432200        2.1529473842
 C          1.2081607452       -1.7445388527       -0.2596531436
 C         -3.5435085809       -0.3421836546       -0.6914845260
 C          1.9653007605        1.1116283720       -0.4815770174
 C          2.2239941817        1.7948477671        0.6216561398
 H          0.6915815246        0.3713028317       -1.9663218558
 O          0.7535886161       -2.9267245237        0.3663621621
 C          3.0508940531        0.8560181727       -1.4914093070
 H         -0.0143007817        2.6924888561       -0.9847833582
 H         -1.2010117018        1.5606092303       -1.6282153643
 H         -0.6714025045        2.1677958606        1.3014185874
 H         -2.1502694509        2.3942351776        0.3608238468
 H         -2.3974101167        0.3954064167        1.7446738290
 H         -0.7617948046       -1.4695310143        1.5699818202
 H         -1.1360105272       -1.0179401237       -2.0167929711
 H         -1.3071730445       -2.2299299252       -0.7431586050
 H          1.1393679099       -0.4063916156        2.2802162090
 H          2.1023422258       -1.3620624941        0.2554599958
 H          1.4747594121       -1.9488473365       -1.3069186521
 H         -3.8789742944       -0.8792787030       -1.5629272908
 H         -4.2876670323        0.2309010920       -0.1653356796
 H          3.2215782679        2.1428418329        0.8377689820
 H          1.4753747613        2.0184784362        1.3568163419
 H          1.4271467303       -3.6071621747        0.2728339645
 H          4.0209799648        1.1618715078       -1.1076094973
 H          3.0988978667       -0.1968314088       -1.7645659321
 H          2.8475619317        1.4229080437       -2.4006315059
  35
        -46.13632596
 C         -0.0631923215       -0.7862967036       -0.3583793270
 C          0.5364710573        0.5207446446       -0.9558402492
 C         -0.4741132499        1.6767548888       -0.8254207323
 C         -1.2096411399        1.7313079231        0.5130249850
 C         -1.7381155024        0.3437636306        0.8903408625
 C         -0.5458791211       -0.5999156706        1.0927982761
 C         -1.4039419673       -1.0741246642       -1.0642565512
 C         -2.4278167747       -0.2785633717       -0.2925210664
 O          0.3960637318       -0.1243852006        2.0153267536
 C          0.9018547404       -1.9800234243       -0.4815557766
 C         -3.7032470878       -0.1475397770       -0.6061449963
 C          1.9391774984        0.8766127611       -0.4924510212
 C          2.9903444201        0.3653851386       -1.1183042708
 H          0.6389955033        0.3117201637       -2.0293739325
 O          1.8889505442       -2.0247367469        0.5296256802
 C          2.1476708238        1.8966785717        0.5895326108
 H          0.0349390930        2.6237705386       -1.0082370813
 H         -1.2235321400        1.5633502643       -1.6120506135
 H         -0.5570958660        2.0782432164        1.3122972951
 H         -2.0458917490        2.4283507689        0.4298547441
 H         -2.3729812975        0.4094471997        1.7748684598
 H         -0.9310494233       -1.5755188589        1.4509376746
 H         -1.3858362735       -0.8114765327       -2.1221191612
 H         -1.6481005254       -2.1383675551       -0.9986320321
 H          1.2665515181       -0.4269088482        1.7184950475
 H          1.4427085475       -1.9282468288       -1.4285790294
 H          0.3237897340       -2.9132105384       -0.4755165494
 H         -4.1228297755       -0.6090908303       -1.4843468753
 H         -4.3786161124        0.4279157543        0.0032129496
 H          3.9963459656        0.6043852997       -0.8180404680
 H          2.9036797749       -0.3171161991       -1.9462748477
 H          1.5130537917       -2.4386074169        1.3143711938
 H          1.5356094192        1.7026033895        1.4636922490
 H          3.1925381168        1.9084330433        0.8901567695
 H          1.8961230761        2.8901740676        0.2176493415
  35
        -46.13611469
 C          0.1203313450       -0.6841378995       -0.2568823959
 C          0.5975277663        0.6307612835       -0.9296423019
 C         -0.4945532508        1.7126853750       -0.8285446677
 C         -1.2275891401        1.7424849194        0.5107077321
 C         -1.6808860968        0.3308065834        0.9018650352
 C         -0.4285543466       -0.5149633658        1.1709464161
 C         -1.1694928684       -1.1456174094       -0.9650850555
 C         -2.2748907419       -0.3841573058       -0.2825114666
 O          0.4820382203        0.0250104084        2.0970256129
 C          1.2183899702       -1.7482401099       -0.3065743862
 C         -3.5414560082       -0.3453600824       -0.6536145998
 C          1.9791681921        1.1140359644       -0.5341778161
 C          3.0280440278        0.7578362162       -1.2634881002
 H          0.6878566172        0.3768165080       -1.9942152702
 O          0.7043338214       -2.9828582019        0.1534118174
 C          2.1514786447        2.0328742365        0.6337741193
 H         -0.0552852388        2.6899818837       -1.0362052520
 H         -1.2350294272        1.5238200661       -1.6088579063
 H         -0.5780776974        2.1280521696        1.2971150161
 H         -2.0950861836        2.4006988370        0.4278658437
 H         -2.3611252044        0.3743732305        1.7570894276
 H         -0.7325379992       -1.5173787646        1.5100114745
 H         -1.1457711071       -0.9741224694       -2.0411163296
 H         -1.2997920451       -2.2170066408       -0.7979453896
 H          0.0654238181        0.0120777820        2.9646601302
 H          2.0526751912       -1.4177792032        0.3235047411
 H          1.5789894872       -1.8526674614       -1.3396557990
 H         -3.8938976279       -0.8734900278       -1.5235567527
 H         -4.2772292044        0.2158138867       -0.1028171844
 H          4.0246065603        1.0887518782       -1.0233704003
 H          2.9435903577        0.1176467993       -2.1260621949
 H          1.4301286053       -3.6113696691        0.2085533166
 H          1.5935985365        2.9560945767        0.4872851251
 H          1.7891391140        1.5518428621        1.5366489788
 H          3.2014108910        2.2842426742        0.7626437783
  35
        -46.13610761
 C          0.0330790767       -0.7774061172       -0.0267541364
 C          0.6488351715        0.4140926846       -0.8134233472
 C         -0.4020448784        1.5224605663       -0.9973409296
 C         -1.2447895681        1.8017834119        0.2462649377
 C         -1.7722295529        0.4914048427        0.8408265231
 C         -0.5872264338       -0.3524125853        1.3202981365
 C         -1.2325840659       -1.2588422777       -0.7637352786
 C         -2.3397094008       -0.3752971958       -0.2509585470
 O          0.2317114635        0.3353210072        2.2282698524
 C          1.0351772809       -1.9211072043        0.1424571896
 C         -3.5857908788       -0.3571305954       -0.6863099098
 C          1.9876844370        0.9097052123       -0.2969529424
 C          3.1001413373        0.3067216833       -0.6958529890
 H          0.8625746979       -0.0007987583       -1.8056405256
 O          1.3779722367       -2.4353074912       -1.1247447161
 C          2.0635700614        2.1097169690        0.5982588385
 H          0.0906052698        2.4381861731       -1.3271127502
 H         -1.0792790569        1.2212393334       -1.7993392737
 H         -0.6658884484        2.3164697985        1.0106365052
 H         -2.0880742934        2.4378447392       -0.0307581037
 H         -2.4838345137        0.7004907244        1.6409073032
 H         -0.9786314241       -1.2620350676        1.8121847611
 H         -1.1220149295       -1.2145601767       -1.8460010590
 H         -1.4386096979       -2.3002572827       -0.5035088109
 H          1.0013675237       -0.2087670665        2.4219773715
 H          0.5738873356       -2.7099940295        0.7591749311
 H          1.9337454078       -1.5585939336        0.6638821543
 H         -3.9155001633       -0.9955277415       -1.4886809356
 H         -4.3256752627        0.2974526781       -0.2582327778
 H          4.0732064487        0.6282352902       -0.3614400127
 H          3.0842202190       -0.5302518002       -1.3734823863
 H          2.0266167346       -3.1370155164       -1.0120784364
 H          1.4504858952        1.9776001254        1.4845539556
 H          3.0931123461        2.2821585893        0.9042597042
 H          1.7146533066        2.9985553936        0.0746833399
  35
        -46.13592434
 C          0.0125283148       -0.7922920467       -0.0110684504
 C          0.6569221376        0.3861016151       -0.8034587653
 C         -0.3839973025        1.4992466366       -1.0313947207
 C         -1.2712882872        1.8118448266        0.1763415201
 C         -1.7862321442        0.5201072728        0.8162760668
 C         -0.5961557925       -0.3178968472        1.3216747815
 C         -1.2506341790       -1.2626071939       -0.7568247005
 C         -2.3564206775       -0.3728014389       -0.2522198147
 O          0.2787739385        0.2948343327        2.2211871716
 C          0.9813474425       -1.9518366775        0.2177579976
 C         -3.6061866182       -0.3692754788       -0.6774551593
 C          1.9908787002        0.8926476576       -0.2770495110
 C          3.0946584108        0.1815129258       -0.4690455997
 H          0.8890801438       -0.0473418132       -1.7836417179
 O          1.4231666195       -2.4617341546       -1.0231150842
 C          2.1204371000        2.2708317379        0.3230230129
 H          0.1206178918        2.4069525762       -1.3653263575
 H         -1.0409357073        1.1866912418       -1.8451839455
 H         -0.7464345416        2.3937991330        0.9360103306
 H         -2.1206457099        2.4113259947       -0.1588975458
 H         -2.5002739685        0.7514613504        1.6086146904
 H         -0.9904228456       -1.1863295391        1.8654504519
 H         -1.1344493304       -1.2188495387       -1.8389672630
 H         -1.4673912499       -2.3019019454       -0.4989554554
 H          0.8546097308        0.8892192884        1.7280035391
 H          0.4547433260       -2.7341818013        0.7839160753
 H          1.8292916299       -1.6097709640        0.8266303378
 H         -3.9398474526       -1.0267570657       -1.4626012861
 H         -4.3461532285        0.2901160577       -0.2568406743
 H          4.0560267028        0.5271188119       -0.1258512656
 H          3.0837956311       -0.7599104851       -0.9883585323
 H          1.9878646901       -3.2232304149       -0.8591148241
 H          1.2494469536        2.6071343017        0.8762880447
 H          2.9856182045        2.3103808629        0.9819772039
 H          2.2888237638        2.9924027950       -0.4786678584
  35
        -46.13591024
 C          0.0186351141       -0.7517461317       -0.0200505868
 C          0.6212896579        0.4691328008       -0.7661308024
 C         -0.4248664744        1.5984185805       -0.8889427246
 C         -1.3053666504        1.8032328308        0.3424297728
 C         -1.8209391989        0.4604914199        0.8675196583
 C         -0.6174095194       -0.3755686898        1.3293551348
 C         -1.2315936580       -1.2293914714       -0.7862716049
 C         -2.3564212449       -0.3734788986       -0.2656074941
 O          0.2686116604        0.2515754709        2.2151292094
 C          1.0387966715       -1.8818223811        0.1615322206
 C         -3.5946389140       -0.3517892621       -0.7230568246
 C          1.9657739382        0.9640853562       -0.2632483395
 C          2.1262586355        1.8645306321        0.6922574526
 H          0.8020973833        0.1207911733       -1.7930467419
 O          1.4451014828       -2.4811907281       -1.0438383974
 C          3.1688044709        0.4491251626       -1.0101018644
 H          0.0918230410        2.5302009713       -1.1263490944
 H         -1.0822684487        1.3644229395       -1.7294761250
 H         -0.7501287678        2.2981501214        1.1394102705
 H         -2.1492208915        2.4417648255        0.0725376056
 H         -2.5576311717        0.6215968868        1.6596057645
 H         -0.9934452705       -1.3072991119        1.7901059118
 H         -1.1188522631       -1.1519049293       -1.8674234625
 H         -1.4242514468       -2.2806030544       -0.5576323926
 H         -0.2104662989        0.4672322813        3.0222731746
 H          0.5821418005       -2.6897996846        0.7401317392
 H          1.8952763217       -1.5008474193        0.7335130629
 H         -3.9037647547       -0.9674769725       -1.5507604491
 H         -4.3489250412        0.2821324254       -0.2887124364
 H          3.1093692902        2.2026454308        0.9761848576
 H          1.3115964752        2.2802102253        1.2507325497
 H          1.8355688424       -1.8017285677       -1.6049985050
 H          3.3647489701       -0.5990650028       -0.7874624111
 H          3.0258768966        0.5474409516       -2.0869137078
 H          4.0558899268        1.0128790314       -0.7318427915
  35
        -46.13563789
 C          0.0296006493       -0.7693134242       -0.0193563507
 C          0.6318129235        0.4280749306       -0.8056874399
 C         -0.4101420368        1.5503314050       -0.9555697013
 C         -1.2400405932        1.7994881098        0.3019387119
 C         -1.7912813896        0.4761755519        0.8452446150
 C         -0.6136270555       -0.3847478745        1.3240485659
 C         -1.2264479822       -1.2548851020       -0.7717333426
 C         -2.3383622955       -0.3678898882       -0.2755546743
 O          0.2575838165        0.2190256940        2.2442819463
 C          1.0562134137       -1.8877713874        0.1530968756
 C         -3.5754561873       -0.3345950463       -0.7355597712
 C          1.9914726175        0.9099964529       -0.3368534491
 C          3.0833055040        0.3787781811       -0.8700549023
 H          0.8122008820        0.0188534838       -1.8064873632
 O          1.4206157181       -2.3936587349       -1.1132798753
 C          2.1040198188        2.0077962184        0.6750977505
 H          0.0902967638        2.4707139050       -1.2610596609
 H         -1.0962575737        1.2790893856       -1.7607056600
 H         -0.6345273910        2.2698022619        1.0772515969
 H         -2.0673488898        2.4700828118        0.0596054010
 H         -2.5274744533        0.6659106964        1.6319434025
 H         -1.0147818101       -1.3112015029        1.7745105100
 H         -1.1029553912       -1.2139476347       -1.8523811279
 H         -1.4359264771       -2.2951163731       -0.5098056467
 H         -0.2506345482        0.4531025933        3.0285003752
 H          0.6122727896       -2.6891597717        0.7648840213
 H          1.9287137587       -1.4913196456        0.6862630332
 H         -3.8929558045       -0.9609889186       -1.5519864513
 H         -4.3195259507        0.3217481501       -0.3168733347
 H          4.0711150053        0.6939967495       -0.5757354387
 H          3.0352464362       -0.4003194860       -1.6120300515
 H          2.1436391554       -3.0174190431       -0.9973180808
 H          1.5998346277        2.9098434100        0.3330993785
 H          1.6547010102        1.6941022353        1.6123997638
 H          3.1500457897        2.2477315615        0.8510483260
  35
        -46.13562479
 C          0.1087812644       -0.6894105603       -0.2580795709
 C          0.5859157403        0.6305074056       -0.9244626674
 C         -0.4959042624        1.7218702385       -0.8063281200
 C         -1.2236465360        1.7413618673        0.5358382589
 C         -1.6902794890        0.3289287719        0.9081766465
 C         -0.4415306032       -0.5265455058        1.1713889360
 C         -1.1842854948       -1.1319095124       -0.9759690176
 C         -2.2854858569       -0.3637333790       -0.2873537166
 O          0.4702659813        0.0054323164        2.0970479996
 C          1.2289841641       -1.7410341014       -0.3018666540
 C         -3.5491895748       -0.3126065725       -0.6660085266
 C          1.9735410337        1.1074981129       -0.5417100245
 C          3.0078525662        0.7808455325       -1.3046369343
 H          0.6654248199        0.3849121241       -1.9920665496
 O          0.8531101149       -3.0048500657        0.1890814191
 C          2.1648438847        1.9927941787        0.6486726435
 H         -0.0460381623        2.6967369309       -1.0013395224
 H         -1.2406776066        1.5532473013       -1.5875920518
 H         -0.5661314302        2.1055773782        1.3254063526
 H         -2.0838835344        2.4103363523        0.4663828474
 H         -2.3734927937        0.3666045456        1.7607985196
 H         -0.7490122617       -1.5298591670        1.5079930137
 H         -1.1566865956       -0.9462936622       -2.0500915523
 H         -1.3617166031       -2.2016940554       -0.8289784289
 H          0.1020736940       -0.0988741110        2.9798117223
 H          2.0403122019       -1.4061832327        0.3469387395
 H          1.6133846263       -1.8255825566       -1.3270484513
 H         -3.9008264385       -0.8267892900       -1.5448638141
 H         -4.2833287576        0.2483591419       -0.1134375736
 H          4.0071252937        1.1107563478       -1.0757951284
 H          2.9097907949        0.1648999116       -2.1832172426
 H          0.2319626334       -3.4095947107       -0.4262445782
 H          1.6090582600        2.9219746428        0.5349734373
 H          1.8127687521        1.4896749158        1.5431959180
 H          3.2172774274        2.2366664882        0.7696076372
  35
        -46.13556580
 C         -0.0516100144       -0.7098444762       -0.2321022054
 C          0.4355752105        0.7323103042       -0.6076422117
 C          0.0452141475        1.7548014669        0.4639364173
 C         -1.4455858297        1.6793263149        0.8002673569
 C         -1.9353695792        0.2193806385        0.8680141455
 C         -0.7593601420       -0.7267916333        1.1414356862
 C         -1.2643710637       -1.0429600502       -1.1207324413
 C         -2.3847477931       -0.2536195349       -0.4947777859
 O          0.0733692873       -0.4162692398        2.2377952030
 C          1.0189851748       -1.8040213471       -0.3111947472
 C         -3.5594241255       -0.0022981784       -1.0422549239
 C          1.9051744542        0.8168162811       -0.9665424876
 C          2.2945279217        0.5654843864       -2.2080303783
 H         -0.1133332641        1.0086541443       -1.5149164055
 O          2.0350828804       -1.6789824633        0.6448788377
 C          2.8900412958        1.2227237284        0.0853114047
 H          0.6275914729        1.5796844653        1.3656335181
 H          0.2801805772        2.7564614333        0.0978924517
 H         -1.6214190241        2.1769962142        1.7563878112
 H         -2.0307810271        2.2055104718        0.0432595523
 H         -2.7365373703        0.1264702073        1.6067634705
 H         -1.1616573861       -1.7448396940        1.2951953882
 H         -1.1063076031       -0.7953403217       -2.1691591778
 H         -1.4951662703       -2.1115220237       -1.0680808725
 H         -0.4796117988       -0.2826279672        3.0139962132
 H          1.5066548952       -1.7947871520       -1.2890608747
 H          0.5135747892       -2.7784970952       -0.1890314498
 H         -3.8098907361       -0.3516205316       -2.0293699870
 H         -4.3177334292        0.5611590695       -0.5254269670
 H          3.3300328664        0.6116572649       -2.4992320594
 H          1.5983465955        0.2931102416       -2.9848290944
 H          1.6190222386       -1.3935845498        1.4711304080
 H          2.7475181954        2.2681692497        0.3582607766
 H          2.7732397088        0.6135827298        0.9770151746
 H          3.9036613278        1.0999833744       -0.2864330361
  35
        -46.13545399
 C         -0.0045026418       -0.6877503212        0.1148456087
 C          0.5387826972        0.6061652392       -0.5717766190
 C         -0.0653151811        1.8801086164        0.0419198067
 C         -1.5802007596        1.7999687705        0.2248775839
 C         -2.0203627518        0.4082372630        0.7196017052
 C         -0.8431751027       -0.3442617516        1.3614798880
 C         -1.1050370590       -1.2924626486       -0.7780960635
 C         -2.3291187054       -0.4769581627       -0.4626802194
 O         -0.1196380550        0.3244710575        2.3633759338
 C          1.0661588901       -1.7336962977        0.4587200215
 C         -3.4785072019       -0.5159363794       -1.1112834961
 C          2.0461736086        0.7556983898       -0.5774585846
 C          2.7574159992        0.8706882759        0.5345091166
 H          0.2140020502        0.5667313400       -1.6166453158
 O          1.8025616713       -2.1837914984       -0.6489898112
 C          2.6759641153        0.8598278070       -1.9382294870
 H          0.4047179923        2.0554588859        1.0071759312
 H          0.1787971935        2.7271276554       -0.6034798800
 H         -1.8885803074        2.5663894707        0.9386941236
 H         -2.0879301283        2.0075164600       -0.7196351690
 H         -2.8793269577        0.5012796488        1.3894412642
 H         -1.2282982936       -1.2922074677        1.7777371348
 H         -0.8498937782       -1.2789888801       -1.8368507600
 H         -1.2778458096       -2.3366214703       -0.5040151675
 H         -0.7320001719        0.5733408820        3.0632471764
 H          0.5683286422       -2.6221149939        0.8584576529
 H          1.7286138033       -1.3396505853        1.2370364490
 H         -3.6252303743       -1.1564442997       -1.9642850168
 H         -4.3184271706        0.0897986976       -0.8155703713
 H          3.8270542685        1.0008189363        0.5118488588
 H          2.2988801332        0.8401129600        1.5075400555
 H          2.3726042153       -1.4602941734       -0.9356495518
 H          2.3514075562        1.7841679840       -2.4180148308
 H          3.7613287529        0.8746375706       -1.8698625105
 H          2.3723973800        0.0357039015       -2.5837825651
  35
        -46.13537056
 C          0.0163403385       -0.6584789353        0.0077910663
 C          0.5159620617        0.7036631199       -0.5728049278
 C         -0.0592709353        1.9012144130        0.1965568433
 C         -1.5630250505        1.7818700715        0.4308331006
 C         -1.9594730036        0.3523671931        0.8478710695
 C         -0.7446186983       -0.4458345415        1.3393136794
 C         -1.1391476704       -1.1897780828       -0.8609475597
 C         -2.3497621989       -0.4395030223       -0.3747367267
 O         -0.0420436176        0.1638901271        2.3938897571
 C          1.1160433009       -1.7242098382        0.1445040790
 C         -3.5476027499       -0.4578776819       -0.9294074904
 C          2.0228956799        0.8091454812       -0.6562235960
 C          2.6513093602        0.6123008576       -1.8090034475
 H          0.1382043525        0.7659565696       -1.5994842124
 O          1.5726078137       -2.2276664467       -1.0833328652
 C          2.7880630771        1.1821529133        0.5801935272
 H          0.4249107649        1.9825733043        1.1659495707
 H          0.1538778332        2.8123627383       -0.3672627298
 H         -1.8500189096        2.4870753089        1.2113588060
 H         -2.1128899068        2.0440144290       -0.4757489231
 H         -2.7584909444        0.3848593030        1.5894361340
 H         -1.1083161842       -1.4309286225        1.6755234004
 H         -0.9646483777       -1.0570721465       -1.9280903201
 H         -1.2699038963       -2.2617293953       -0.6901200931
 H          0.5489984907       -0.4865914906        2.7845941747
 H          0.7023218316       -2.5919849673        0.6705791615
 H          1.9574453498       -1.3398478928        0.7365681548
 H         -3.7504853455       -1.0287745864       -1.8196917405
 H         -4.3721971255        0.0969978478       -0.5154595049
 H          3.7235335295        0.6837791050       -1.8907683410
 H          2.1232067038        0.4021770031       -2.7254786963
 H          2.0022520261       -1.5043811061       -1.5616620512
 H          2.2999226705        0.8213100649        1.4812486248
 H          3.8022189795        0.7902066801        0.5375262940
 H          2.8533642576        2.2682723330        0.6518455494
  35
        -46.13534686
 C          0.0987966028       -0.5703049538       -0.1976393929
 C          0.5229945909        0.8531562627       -0.6754438603
 C         -0.0715419410        1.9579129987        0.2097641362
 C         -1.5496324293        1.7363632056        0.5263506307
 C         -1.8480394831        0.2620403843        0.8684842929
 C         -0.5619835120       -0.5138993142        1.1944483159
 C         -1.0979890902       -1.0671894394       -1.0316531030
 C         -2.3048515868       -0.4562066053       -0.3766255664
 O          0.2697091727       -0.0015639528        2.2077401097
 C          1.2559051122       -1.5814960009       -0.2820101109
 C         -3.5493210452       -0.5229644544       -0.8122851005
 C          2.0203168834        1.0321279362       -0.7936495892
 C          2.6127168241        0.9984842094       -1.9778543975
 H          0.1106774493        0.9794165509       -1.6819695731
 O          0.8708481394       -2.8963020095        0.0459416627
 C          2.8070071431        1.2853164984        0.4597348132
 H          0.4812601916        2.0040961905        1.1446508990
 H          0.0521514504        2.9164991409       -0.2989238535
 H         -1.8308020776        2.3801195417        1.3625616813
 H         -2.1657754982        2.0238699592       -0.3283210811
 H         -2.5902068316        0.2012146308        1.6693027867
 H         -0.8651795328       -1.5395550288        1.4756960778
 H         -1.0156134152       -0.8021516534       -2.0852992027
 H         -1.1490153549       -2.1580955189       -0.9724549860
 H         -0.2753101512        0.1945875318        2.9763807512
 H          2.0845349929       -1.2617755756        0.3562305876
 H          1.6094959231       -1.6287084962       -1.3144229984
 H         -3.8018927141       -1.0361103265       -1.7244718419
 H         -4.3641385755       -0.0662010863       -0.2763834835
 H          3.6769485828        1.1263136907       -2.0840989433
 H          2.0631058525        0.8423255830       -2.8909064049
 H          0.6984888090       -2.9347099619        0.9926219569
 H          2.3608144409        0.7801670967        1.3118655197
 H          3.8342430787        0.9494745884        0.3385938216
 H          2.8294774096        2.3543346857        0.6740992726
  35
        -46.13489504
 C          0.0152686520       -0.7482237899       -0.0084466250
 C          0.6134921110        0.4663545842       -0.7633456560
 C         -0.4224577842        1.6014427455       -0.8884739069
 C         -1.3008503726        1.8076578875        0.3437977592
 C         -1.8275662545        0.4654293671        0.8597991856
 C         -0.6343674969       -0.3757691097        1.3356233497
 C         -1.2273767028       -1.2383357135       -0.7769086312
 C         -2.3516383127       -0.3676597575       -0.2800810570
 O          0.2388533051        0.2398374946        2.2415919084
 C          1.0500301573       -1.8561488658        0.1843536794
 C         -3.5826391227       -0.3366601644       -0.7564161035
 C          1.9644435336        0.9395826489       -0.2647568683
 C          2.1585495142        1.7992274696        0.7214188713
 H          0.7984009615        0.0943258139       -1.7777787006
 O          1.4715764452       -2.3503793535       -1.0706813147
 C          3.1269567989        0.4404032706       -1.0774510132
 H          0.1017108985        2.5303001499       -1.1206661485
 H         -1.0798768646        1.3752814330       -1.7310464292
 H         -0.7378512934        2.2918587970        1.1422393866
 H         -2.1396480878        2.4558520104        0.0807750659
 H         -2.5739627677        0.6269231996        1.6432777377
 H         -1.0217557629       -1.3086132104        1.7877554860
 H         -1.0962650294       -1.1812285578       -1.8561542760
 H         -1.4305685890       -2.2835251759       -0.5293380119
 H         -0.2680818508        0.5079204061        3.0156830411
 H          0.5926770251       -2.6663323517        0.7723938980
 H          1.8953860169       -1.4536022932        0.7571979974
 H         -3.8844571831       -0.9524300936       -1.5867963048
 H         -4.3375725597        0.3067047696       -0.3371075700
 H          3.1533083678        2.1123027575        0.9950904893
 H          1.3622765714        2.2092240805        1.3106605960
 H          2.0829982006       -3.0785308923       -0.9231859772
 H          4.0683166296        0.5935984933       -0.5553416669
 H          3.0122219677       -0.6134569862       -1.3160031417
 H          3.1674902742        0.9850881233       -2.0222945264
  35
        -46.13478397
 C         -0.0078879968       -0.7200149970       -0.1363842816
 C          0.4644530263        0.6984737836       -0.5969021120
 C         -0.0163390396        1.7937123904        0.3615580645
 C         -1.5244335558        1.7053583547        0.6048640713
 C         -1.9871808779        0.2414328921        0.7461497570
 C         -0.8141857787       -0.6472501324        1.1802376820
 C         -1.1448164293       -1.1621240832       -1.0765622285
 C         -2.3212306225       -0.3468695387       -0.6049182374
 O         -0.0732674277       -0.2220563106        2.3028949394
 C          1.0954340366       -1.7819342612       -0.0454309943
 C         -3.4515968316       -0.1619708855       -1.2613601522
 C          1.9525765362        0.8014944420       -0.8596680860
 C          2.8544899481        1.0344249938        0.0786521349
 H         -0.0317579323        0.8931249546       -1.5545038670
 O          2.0202287733       -1.5777447620        0.9865990407
 C          2.3400489187        0.6689848265       -2.3046187332
 H          0.5106366620        1.7064799601        1.3083375790
 H          0.2301377321        2.7672467597       -0.0668076719
 H         -1.7744813395        2.2643677427        1.5089044006
 H         -2.0685530232        2.1611769321       -0.2249339102
 H         -2.8405231139        0.1830067463        1.4277905999
 H         -1.2022186935       -1.6608484271        1.3886916979
 H         -0.9165760869       -1.0039073441       -2.1296730003
 H         -1.3602231635       -2.2271425596       -0.9446269512
 H         -0.6823478475       -0.0714234147        3.0327090990
 H          1.6673680155       -1.8278033978       -0.9759983259
 H          0.6033920437       -2.7618000071        0.0945174839
 H         -3.6185698835       -0.5929890527       -2.2337999034
 H         -4.2553986047        0.4267161203       -0.8527234036
 H          3.9022675708        1.1055709146       -0.1588736219
 H          2.6022044185        1.1383133245        1.1178768623
 H          1.5502944644       -1.1581094594        1.7207226236
 H          1.9528085353        1.5161501449       -2.8727769964
 H          3.4203526425        0.6420714780       -2.4179403713
 H          1.9195893345       -0.2377748345       -2.7379780811
  35
        -46.13473803
 C         -0.0583342562       -0.6930508766       -0.2543281539
 C          0.4380957446        0.7472654529       -0.6223201262
 C          0.0223917218        1.7742104943        0.4371655583
 C         -1.4631752748        1.6779778057        0.7841976397
 C         -1.9270664531        0.2122760324        0.8848897439
 C         -0.7318333236       -0.7148087473        1.1385227004
 C         -1.2823630156       -1.0196963462       -1.1290667258
 C         -2.4063193148       -0.2702634361       -0.4612773188
 O          0.0526066003       -0.3570575234        2.2398484937
 C          1.0031935593       -1.7889206889       -0.3842352644
 C         -3.6045992204       -0.0590782240       -0.9736928312
 C          1.9179481941        0.8316103886       -0.9314930020
 C          2.3508850744        0.6256762263       -2.1676930406
 H         -0.0820129240        1.0191401480       -1.5478362534
 O          1.9535383491       -1.6915355458        0.6607114784
 C          2.8710717168        1.1790839912        0.1707174711
 H          0.5949210582        1.6174728464        1.3475799221
 H          0.2434390475        2.7753444540        0.0596311862
 H         -1.6313288068        2.1806737724        1.7369679235
 H         -2.0664740764        2.1824708177        0.0260469741
 H         -2.6976590816        0.1161185551        1.6505547115
 H         -1.1167357044       -1.7400026346        1.2978210378
 H         -1.1501816433       -0.7398580691       -2.1739422699
 H         -1.4972025487       -2.0925047391       -1.1021957231
 H          0.8989576211       -0.8107192425        2.1279274176
 H          1.4948105370       -1.7132889200       -1.3613823953
 H          0.5028007284       -2.7683343499       -0.3248130551
 H         -3.8728477438       -0.4116069219       -1.9554879836
 H         -4.3656409509        0.4743779249       -0.4303802651
 H          3.3969110176        0.6762651391       -2.4214699322
 H          1.6804742567        0.4001215132       -2.9813024556
 H          2.6868574840       -2.2843679524        0.4735807897
 H          2.6874166453        0.5652303472        1.0482159544
 H          3.8974202190        1.0299626736       -0.1566444169
 H          2.7523105431        2.2240809527        0.4545336408
  35
        -46.13467612
 C          0.1107929371       -0.6780280236       -0.2227193968
 C          0.6044686946        0.6271518267       -0.8954345780
 C         -0.4870462762        1.7166769188       -0.8304607246
 C         -1.2809113891        1.7593984750        0.4739756962
 C         -1.7127666501        0.3502017929        0.8912162389
 C         -0.4483578179       -0.4672874657        1.1949569680
 C         -1.1652983381       -1.1549798399       -0.9426728830
 C         -2.2847869282       -0.3927826448       -0.2861325700
 O          0.4611334322        0.1230950000        2.0867696276
 C          1.2053385412       -1.7471939461       -0.2277977473
 C         -3.5468021616       -0.3714462261       -0.6738602382
 C          1.9675536565        1.1243603693       -0.4539327359
 C          2.1928152159        1.8926362126        0.5985953052
 H          0.7227901575        0.3727010113       -1.9572856006
 O          0.6848429681       -2.9620136145        0.2752674076
 C          3.0912277598        0.7865649046       -1.3957861652
 H         -0.0228964767        2.6890317808       -1.0061069105
 H         -1.1949854621        1.5384830131       -1.6430959049
 H         -0.6815839164        2.1901740777        1.2763187843
 H         -2.1613917896        2.3899951766        0.3326770819
 H         -2.4040025319        0.4011720241        1.7372594955
 H         -0.7418426657       -1.4596845733        1.5726893990
 H         -1.1270184855       -0.9957751012       -2.0203746375
 H         -1.2922250263       -2.2249273830       -0.7639173143
 H          0.0448085039        0.1647955090        2.9537259087
 H          2.0346650624       -1.3943841141        0.3969122434
 H          1.5655844209       -1.8985926546       -1.2565068549
 H         -3.8837401119       -0.9171535306       -1.5391179766
 H         -4.2945696569        0.1914309663       -0.1412579319
 H          3.1869971294        2.2388111863        0.8305078540
 H          1.4232873410        2.1849858256        1.2847372871
 H          1.4119783812       -3.5806139122        0.3913084092
 H          3.1436387765       -0.2827064726       -1.5882247413
 H          2.9320289067        1.2867196053       -2.3521285015
 H          4.0461375358        1.1144558492       -0.9933182363
