      -----------------------------------------------------------      
     |                   =====================                   |     
     |                           x T B                           |     
     |                   =====================                   |     
     |                         S. Grimme                         |     
     |          Mulliken Center for Theoretical Chemistry        |     
     |                    University of Bonn                     |     
      -----------------------------------------------------------      

   * xtb version 6.7.1 (edcfbbe) compiled by 'albert@albert-system' on 2024-07-22

   xtb is free software: you can redistribute it and/or modify it under
   the terms of the GNU Lesser General Public License as published by
   the Free Software Foundation, either version 3 of the License, or
   (at your option) any later version.
   
   xtb is distributed in the hope that it will be useful,
   but WITHOUT ANY WARRANTY; without even the implied warranty of
   MERCHANTABILITY or FITNESS FOR A PARTICULAR PURPOSE.  See the
   GNU Lesser General Public License for more details.
   
   Cite this work as:
   * C. Bannwarth, E. Caldeweyher, S. Ehlert, A. Hansen, P. Pracht,
     J. Seibert, S. Spicher, S. Grimme, WIREs Comput. Mol. Sci., 2020, 11,
     e01493. DOI: 10.1002/wcms.1493
   
   for GFN2-xTB:
   * C. Bannwarth, S. Ehlert and S. Grimme., J. Chem. Theory Comput., 2019,
     15, 1652-1671. DOI: 10.1021/acs.jctc.8b01176
   for GFN1-xTB:
   * S. Grimme, C. Bannwarth, P. Shushkov, J. Chem. Theory Comput., 2017,
     13, 1989-2009. DOI: 10.1021/acs.jctc.7b00118
   for GFN0-xTB:
   * P. Pracht, E. Caldeweyher, S. Ehlert, S. Grimme, ChemRxiv, 2019, preprint.
     DOI: 10.26434/chemrxiv.8326202.v1
   for GFN-FF:
   * S. Spicher and S. Grimme, Angew. Chem. Int. Ed., 2020, 59, 15665-15673.
     DOI: 10.1002/anie.202004239
   
   for ALPB and GBSA implicit solvation:
   * S. Ehlert, M. Stahn, S. Spicher, S. Grimme, J. Chem. Theory Comput.,
     2021, 17, 4250-4261. DOI: 10.1021/acs.jctc.1c00471
   
   for ddCOSMO and CPCM-X implicit solvation:
   * M. Stahn, S. Ehlert, S. Grimme, J. Phys. Chem. A,
     2023, XX, XXXX-XXXX. DOI: 10.1021/acs.jpca.3c04382
   
   for DFT-D4:
   * E. Caldeweyher, C. Bannwarth and S. Grimme, J. Chem. Phys., 2017,
     147, 034112. DOI: 10.1063/1.4993215
   * E. Caldeweyher, S. Ehlert, A. Hansen, H. Neugebauer, S. Spicher,
     C. Bannwarth and S. Grimme, J. Chem. Phys., 2019, 150, 154122.
     DOI: 10.1063/1.5090222
   * E. Caldeweyher, J.-M. Mewes, S. Ehlert and S. Grimme, Phys. Chem. Chem. Phys.
     2020, 22, 8499-8512. DOI: 10.1039/D0CP00502A
   
   for sTDA-xTB:
   * S. Grimme and C. Bannwarth, J. Chem. Phys., 2016, 145, 054103.
     DOI: 10.1063/1.4959605
   
   in the mass-spec context:
   * V. Asgeirsson, C. Bauer and S. Grimme, Chem. Sci., 2017, 8, 4879.
     DOI: 10.1039/c7sc00601b
   * J. Koopman and S. Grimme, ACS Omega 2019, 4, 12, 15120-15133.
     DOI: 10.1021/acsomega.9b02011
   
   for metadynamics refer to:
   * S. Grimme, J. Chem. Theory Comput., 2019, 155, 2847-2862
     DOI: 10.1021/acs.jctc.9b00143
   
   for SPH calculations refer to:
   * S. Spicher and S. Grimme, J. Chem. Theory Comput., 2021, 17, 1701-1714
     DOI: 10.1021/acs.jctc.0c01306
   
   for ONIOM refer to:
   * C. Plett, A. Katbashev, S. Ehlert, S. Grimme, M. Bursch,
     Phys. Chem. Chem. Phys., 2023, 25, 17860-17868. DOI: 10.1039/D3CP02178E
   
   for DIPRO refer to:
   * J. Kohn, N. Gildemeister, S. Grimme, D. Fazzi, A. Hansen,
     J. Chem. Phys., 2023, just accepted.
   
   for PTB refer to:
   * S. Grimme, M. Mueller, A. Hansen, J. Chem. Phys., 2023, 158, 124111.
     DOI: 10.1063/5.0137838
   
   with help from (in alphabetical order)
   P. Atkinson, C. Bannwarth, F. Bohle, G. Brandenburg, E. Caldeweyher
   M. Checinski, S. Dohm, S. Ehlert, S. Ehrlich, I. Gerasimov, C. Hölzer
   A. Katbashev, J. Kohn, J. Koopman, C. Lavigne, S. Lehtola, F. März, M. Müller,
   F. Musil, H. Neugebauer, J. Pisarek, C. Plett, P. Pracht, F. Pultar,
   J. Seibert, P. Shushkov, S. Spicher, M. Stahn, M. Steiner, T. Strunk,
   J. Stückrath, T. Rose, and J. Unsleber
   
 * started run on 2026/08/09 at 18:20:17.344     
   ID    Z sym.   atoms
    1    6 c      1-8, 10-13, 16
    2    8 o      9, 15
    3    1 h      14, 17-35

           -------------------------------------------------
          |                Calculation Setup                |
           -------------------------------------------------

          program call               : /home/dinglab/software/xtb_6.7.1/xtb_dist/bin/xtb coord --gfn2 --ohess vtight --alpb chcl3 --chrg 0 --enso --norestart -I xcontrol-inp --parallel 12
          hostname                   : localhost
          coordinate file            : coord
          omp threads                :                    12


           -------------------------------------------------
          |                 G F N 2 - x T B                 |
           -------------------------------------------------

        Reference                      10.1021/acs.jctc.8b01176
      * Hamiltonian:
        H0-scaling (s, p, d)           1.850000    2.230000    2.230000
        zeta-weighting                 0.500000
      * Dispersion:
        s8                             2.700000
        a1                             0.520000
        a2                             5.000000
        s9                             5.000000
      * Repulsion:
        kExp                           1.500000    1.000000
        rExp                           1.000000
      * Coulomb:
        alpha                          2.000000
        third order                    shell-resolved
        anisotropic                    true
        a3                             3.000000
        a5                             4.000000
        cn-shift                       1.200000
        cn-exp                         4.000000
        max-rad                        5.000000

      * Solvation model:               ALPB
        Solvent                        chcl3
        Parameter file                 internal GFN2-xTB/ALPB
        Dielectric constant                4.8100E+00
        Reference state                gsolv [1 M gas/solution]
        Free energy shift                  3.8910E-03 Eh       2.4417E+00 kcal/mol
        Temperature                        2.9815E+02 K
        Density                            1.4900E+00 kg/L
        Solvent mass                       1.1938E+02 g/mol
        Interaction kernel             P16
        Born radius scaling (c1)           1.3274E+00
        Born radii integrator          GBOBC
        Born offset                        0.0000E+00 a0       0.0000E+00 AA
        H-bond correction              false
        Ion screening                  false
        Surface tension                    1.0000E-05 Eh       1.5569E+01 dyn/cm
        Grid points                               974 per atom

          ...................................................
          :                      SETUP                      :
          :.................................................:
          :  # basis functions                  80          :
          :  # atomic orbitals                  80          :
          :  # shells                           50          :
          :  # electrons                        84          :
          :  max. iterations                   250          :
          :  Hamiltonian                  GFN2-xTB          :
          :  restarted?                      false          :
          :  GBSA solvation                   true          :
          :  PC potential                    false          :
          :  electronic temp.          300.0000000     K    :
          :  accuracy                    1.0000000          :
          :  -> integral cutoff          0.2500000E+02      :
          :  -> integral neglect         0.1000000E-07      :
          :  -> SCF convergence          0.1000000E-05 Eh   :
          :  -> wf. convergence          0.1000000E-03 e    :
          :  Broyden damping             0.4000000          :
          :  net charge                          0          :
          :  unpaired electrons                  0          :
          ...................................................

 iter      E             dE          RMSdq      gap      omega  full diag
   1    -46.6621193 -0.466621E+02  0.354E+00    4.97       0.0  T
   2    -46.7051948 -0.430755E-01  0.199E+00    4.86       1.0  T
   3    -46.7012652  0.392959E-02  0.760E-01    4.83       1.0  T
   4    -46.7061013 -0.483611E-02  0.376E-01    4.78       1.0  T
   5    -46.7089644 -0.286306E-02  0.797E-02    4.80       1.0  T
   6    -46.7090146 -0.502517E-04  0.450E-02    4.80       1.0  T
   7    -46.7090206 -0.591386E-05  0.158E-02    4.80       1.1  T
   8    -46.7090233 -0.274482E-05  0.666E-03    4.80       2.5  T
   9    -46.7090241 -0.796952E-06  0.274E-03    4.80       6.2  T
  10    -46.7090241 -0.373648E-07  0.112E-03    4.80      15.1  T
  11    -46.7090241 -0.544905E-08  0.479E-04    4.80      35.3  T
  12    -46.7090241 -0.159062E-08  0.142E-04    4.80     119.1  T

   *** convergence criteria satisfied after 12 iterations ***

         #    Occupation            Energy/Eh            Energy/eV
      -------------------------------------------------------------
         1        2.0000           -0.6977056             -18.9855
       ...           ...                  ...                  ...
        36        2.0000           -0.4307111             -11.7202
        37        2.0000           -0.4236213             -11.5273
        38        2.0000           -0.4150133             -11.2931
        39        2.0000           -0.4101692             -11.1613
        40        2.0000           -0.4018780             -10.9357
        41        2.0000           -0.3920593             -10.6685
        42        2.0000           -0.3890269             -10.5860 (HOMO)
        43                         -0.2125025              -5.7825 (LUMO)
        44                         -0.2060662              -5.6073
        45                         -0.0237697              -0.6468
        46                          0.0066994               0.1823
        47                          0.0191134               0.5201
       ...                                ...                  ...
        80                          0.5962438              16.2246
      -------------------------------------------------------------
                  HL-Gap            0.1765244 Eh            4.8035 eV
             Fermi-level           -0.3007647 Eh           -8.1842 eV

 SCC (total)                   0 d,  0 h,  0 min,  0.061 sec
 SCC setup                      ...        0 min,  0.001 sec (  1.340%)
 Dispersion                     ...        0 min,  0.001 sec (  0.848%)
 classical contributions        ...        0 min,  0.000 sec (  0.055%)
 integral evaluation            ...        0 min,  0.002 sec (  2.956%)
 iterations                     ...        0 min,  0.054 sec ( 87.872%)
 molecular gradient             ...        0 min,  0.004 sec (  6.481%)
 printout                       ...        0 min,  0.000 sec (  0.358%)

         :::::::::::::::::::::::::::::::::::::::::::::::::::::
         ::                     SUMMARY                     ::
         :::::::::::::::::::::::::::::::::::::::::::::::::::::
         :: total energy             -46.153840887243 Eh    ::
         :: total w/o Gsasa/hb       -46.141708872560 Eh    ::
         :: gradient norm              0.051602638364 Eh/a0 ::
         :: HOMO-LUMO gap              4.803473421571 eV    ::
         ::.................................................::
         :: SCC energy               -46.708355538515 Eh    ::
         :: -> isotropic ES            0.061377303835 Eh    ::
         :: -> anisotropic ES          0.005533256438 Eh    ::
         :: -> anisotropic XC          0.019558409224 Eh    ::
         :: -> dispersion             -0.036139747040 Eh    ::
         :: -> Gsolv                  -0.019401932180 Eh    ::
         ::    -> Gelec               -0.007269917497 Eh    ::
         ::    -> Gsasa               -0.016023033927 Eh    ::
         ::    -> Ghb                  0.000000000000 Eh    ::
         ::    -> Gshift               0.003891019244 Eh    ::
         :: repulsion energy           0.554514651273 Eh    ::
         :: add. restraining           0.000000000000 Eh    ::
         :: total charge              -0.000000000000 e     ::
         :::::::::::::::::::::::::::::::::::::::::::::::::::::

      ----------------------------------------------------------- 
     |                   =====================                   |
     |                        A N C O P T                        |
     |                   =====================                   |
     |               Approximate Normal Coordinate               |
     |                Rational Function Optimizer                |
      ----------------------------------------------------------- 
      ----------------------------------------------------------- 
     |                   =====================                   |
     |                        A N C O P T                        |
     |                   =====================                   |
     |               Approximate Normal Coordinate               |
     |                Rational Function Optimizer                |
      ----------------------------------------------------------- 

          ...................................................
          :                      SETUP                      :
          :.................................................:
          :   optimization level         verytight          :
          :   max. optcycles                   700          :
          :   ANC micro-cycles                  20          :
          :   degrees of freedom                99          :
          :.................................................:
          :   RF solver                   davidson          :
          :   write xtbopt.log                true          :
          :   linear?                        false          :
          :   energy convergence         0.1000000E-06 Eh   :
          :   grad. convergence          0.2000000E-03 Eh/α :
          :   maxmium RF displ.          1.0000000          :
          :   Hlow (freq-cutoff)         0.1000000E-01      :
          :   Hmax (freq-cutoff)         5.0000000          :
          :   S6 in model hess.         20.0000000          :
          ...................................................

generating ANC from exact Hessian ...
Using Lindh-Hessian (1995)
 Shifting diagonal of input Hessian by   9.189349224569191E-003
 Lowest  eigenvalues of input Hessian
    0.000000    0.000000    0.000000    0.000000    0.000000    0.000000
    0.010000    0.010477    0.010525    0.011612    0.013538    0.013648
    0.015866    0.016209    0.016721    0.017460    0.018647    0.019041
 Highest eigenvalues
    1.374471    1.394927    1.406081    1.446461    1.774780    1.858402
 

........................................................................
.............................. CYCLE    1 ..............................
........................................................................

 iter      E             dE          RMSdq      gap      omega  full diag
   1    -46.7090241 -0.467090E+02  0.729E-05    4.80       0.0  T
   2    -46.7090241 -0.125127E-10  0.468E-05    4.80     361.4  T
   3    -46.7090241  0.339639E-11  0.268E-05    4.80     630.3  T
     SCC iter.                  ...        0 min,  0.008 sec
     gradient                   ...        0 min,  0.004 sec
 * total energy  :   -46.1538409 Eh     change       -0.9082157E-10 Eh
   gradient norm :     0.0516025 Eh/α   predicted     0.0000000E+00 (-100.00%)
   displ. norm   :     0.3230046 α      lambda       -0.1008344E-01
   maximum displ.:     0.1016917 α      in ANC's #39, #1, #29, ...

........................................................................
.............................. CYCLE    2 ..............................
........................................................................

 iter      E             dE          RMSdq      gap      omega  full diag
   1    -46.7599468 -0.467599E+02  0.157E-01    4.95       0.0  T
   2    -46.7599823 -0.355100E-04  0.970E-02    4.94       1.0  T
   3    -46.7599642  0.180826E-04  0.641E-02    4.94       1.0  T
   4    -46.7600268 -0.626169E-04  0.708E-03    4.94       2.4  T
   5    -46.7600273 -0.441007E-06  0.340E-03    4.94       5.0  T
   6    -46.7600273  0.102863E-07  0.159E-03    4.94      10.7  T
   7    -46.7600273 -0.327571E-07  0.593E-04    4.94      28.5  T
   8    -46.7600273 -0.470965E-08  0.283E-04    4.94      59.8  T
     SCC iter.                  ...        0 min,  0.015 sec
     gradient                   ...        0 min,  0.004 sec
 * total energy  :   -46.1603684 Eh     change       -0.6527562E-02 Eh
   gradient norm :     0.0158926 Eh/α   predicted    -0.5568174E-02 ( -14.70%)
   displ. norm   :     0.2623796 α      lambda       -0.1883973E-02
   maximum displ.:     0.1238387 α      in ANC's #1, #5, #4, ...

........................................................................
.............................. CYCLE    3 ..............................
........................................................................

 iter      E             dE          RMSdq      gap      omega  full diag
   1    -46.7792528 -0.467793E+02  0.869E-02    4.99       0.0  T
   2    -46.7792632 -0.103813E-04  0.541E-02    4.98       1.0  T
   3    -46.7792557  0.745017E-05  0.343E-02    4.99       1.0  T
   4    -46.7792747 -0.189358E-04  0.396E-03    4.98       4.3  T
   5    -46.7792748 -0.143368E-06  0.175E-03    4.98       9.7  T
   6    -46.7792748 -0.289163E-08  0.780E-04    4.98      21.7  T
   7    -46.7792748 -0.474580E-08  0.383E-04    4.98      44.1  T
     SCC iter.                  ...        0 min,  0.013 sec
     gradient                   ...        0 min,  0.004 sec
 * total energy  :   -46.1613892 Eh     change       -0.1020796E-02 Eh
   gradient norm :     0.0058944 Eh/α   predicted    -0.1007617E-02 (  -1.29%)
   displ. norm   :     0.1528736 α      lambda       -0.3511135E-03
   maximum displ.:     0.0781403 α      in ANC's #1, #5, #4, ...

........................................................................
.............................. CYCLE    4 ..............................
........................................................................

 iter      E             dE          RMSdq      gap      omega  full diag
   1    -46.7798109 -0.467798E+02  0.524E-02    4.97       0.0  T
   2    -46.7798123 -0.138401E-05  0.316E-02    4.97       1.0  T
   3    -46.7798072  0.506204E-05  0.161E-02    4.97       1.1  T
   4    -46.7798135 -0.627091E-05  0.202E-03    4.97       8.4  T
   5    -46.7798135 -0.252668E-07  0.956E-04    4.97      17.7  T
   6    -46.7798135 -0.396047E-08  0.357E-04    4.97      47.3  T
     SCC iter.                  ...        0 min,  0.012 sec
     gradient                   ...        0 min,  0.004 sec
 * total energy  :   -46.1615635 Eh     change       -0.1742599E-03 Eh
   gradient norm :     0.0035574 Eh/α   predicted    -0.1796601E-03 (   3.10%)
   displ. norm   :     0.1252361 α      lambda       -0.1847652E-03
   maximum displ.:     0.0706986 α      in ANC's #5, #4, #1, ...

........................................................................
.............................. CYCLE    5 ..............................
........................................................................

 iter      E             dE          RMSdq      gap      omega  full diag
   1    -46.7775016 -0.467775E+02  0.417E-02    4.96       0.0  T
   2    -46.7775020 -0.398125E-06  0.248E-02    4.96       1.0  T
   3    -46.7775013  0.742518E-06  0.603E-03    4.96       2.8  T
   4    -46.7775022 -0.941353E-06  0.114E-03    4.96      14.8  T
   5    -46.7775022 -0.702402E-08  0.623E-04    4.96      27.1  T
   6    -46.7775022 -0.260030E-08  0.165E-04    4.96     102.7  T
     SCC iter.                  ...        0 min,  0.012 sec
     gradient                   ...        0 min,  0.004 sec
 * total energy  :   -46.1616782 Eh     change       -0.1147375E-03 Eh
   gradient norm :     0.0027406 Eh/α   predicted    -0.9387226E-04 ( -18.19%)
   displ. norm   :     0.0827945 α      lambda       -0.6291608E-04
   maximum displ.:     0.0387411 α      in ANC's #5, #4, #2, ...

........................................................................
.............................. CYCLE    6 ..............................
........................................................................

 iter      E             dE          RMSdq      gap      omega  full diag
   1    -46.7764441 -0.467764E+02  0.270E-02    4.96       0.0  T
   2    -46.7764443 -0.153677E-06  0.161E-02    4.96       1.0  T
   3    -46.7764437  0.611935E-06  0.508E-03    4.96       3.3  T
   4    -46.7764444 -0.710712E-06  0.664E-04    4.96      25.5  T
   5    -46.7764444 -0.429076E-08  0.350E-04    4.96      48.3  T
     SCC iter.                  ...        0 min,  0.010 sec
     gradient                   ...        0 min,  0.004 sec
 * total energy  :   -46.1617167 Eh     change       -0.3848552E-04 Eh
   gradient norm :     0.0023816 Eh/α   predicted    -0.3167398E-04 ( -17.70%)
   displ. norm   :     0.0645449 α      lambda       -0.2970613E-04
   maximum displ.:     0.0336687 α      in ANC's #3, #5, #4, ...

........................................................................
.............................. CYCLE    7 ..............................
........................................................................

 iter      E             dE          RMSdq      gap      omega  full diag
   1    -46.7766145 -0.467766E+02  0.194E-02    4.96       0.0  T
   2    -46.7766146 -0.650784E-07  0.115E-02    4.96       1.5  T
   3    -46.7766142  0.445849E-06  0.437E-03    4.96       3.9  T
   4    -46.7766147 -0.518494E-06  0.419E-04    4.96      40.4  T
   5    -46.7766147 -0.459650E-09  0.209E-04    4.96      80.7  T
     SCC iter.                  ...        0 min,  0.010 sec
     gradient                   ...        0 min,  0.004 sec
 * total energy  :   -46.1617343 Eh     change       -0.1756965E-04 Eh
   gradient norm :     0.0014259 Eh/α   predicted    -0.1491775E-04 ( -15.09%)
   displ. norm   :     0.0751800 α      lambda       -0.1667682E-04
   maximum displ.:     0.0391556 α      in ANC's #3, #4, #5, ...

........................................................................
.............................. CYCLE    8 ..............................
........................................................................

 iter      E             dE          RMSdq      gap      omega  full diag
   1    -46.7775721 -0.467776E+02  0.237E-02    4.97       0.0  T
   2    -46.7775722 -0.878319E-07  0.141E-02    4.97       1.2  T
   3    -46.7775721  0.120267E-06  0.244E-03    4.97       6.9  T
   4    -46.7775723 -0.160182E-06  0.523E-04    4.97      32.3  T
   5    -46.7775723 -0.187259E-08  0.265E-04    4.97      63.8  T
     SCC iter.                  ...        0 min,  0.010 sec
     gradient                   ...        0 min,  0.004 sec
 * total energy  :   -46.1617441 Eh     change       -0.9787455E-05 Eh
   gradient norm :     0.0014857 Eh/α   predicted    -0.8360462E-05 ( -14.58%)
   displ. norm   :     0.0280599 α      lambda       -0.8062161E-05
   maximum displ.:     0.0116273 α      in ANC's #6, #3, #10, ...

........................................................................
.............................. CYCLE    9 ..............................
........................................................................

 iter      E             dE          RMSdq      gap      omega  full diag
   1    -46.7777922 -0.467778E+02  0.117E-02    4.97       0.0  T
   2    -46.7777922 -0.251585E-07  0.696E-03    4.97       2.4  T
   3    -46.7777921  0.148166E-06  0.247E-03    4.97       6.8  T
   4    -46.7777923 -0.170763E-06  0.219E-04    4.97      77.1  T
   5    -46.7777923 -0.408086E-09  0.117E-04    4.97     145.0  T
     SCC iter.                  ...        0 min,  0.010 sec
     gradient                   ...        0 min,  0.004 sec
 * total energy  :   -46.1617499 Eh     change       -0.5829872E-05 Eh
   gradient norm :     0.0008436 Eh/α   predicted    -0.4032831E-05 ( -30.82%)
   displ. norm   :     0.0167718 α      lambda       -0.2787969E-05
   maximum displ.:     0.0099649 α      in ANC's #6, #13, #4, ...

........................................................................
.............................. CYCLE   10 ..............................
........................................................................

 iter      E             dE          RMSdq      gap      omega  full diag
   1    -46.7773957 -0.467774E+02  0.710E-03    4.96       0.0  T
   2    -46.7773958 -0.133726E-07  0.417E-03    4.96       4.1  T
   3    -46.7773958  0.119184E-07  0.775E-04    4.96      21.8  T
   4    -46.7773958 -0.147012E-07  0.200E-04    4.96      84.6  T
     SCC iter.                  ...        0 min,  0.008 sec
     gradient                   ...        0 min,  0.004 sec
 * total energy  :   -46.1617521 Eh     change       -0.2168328E-05 Eh
   gradient norm :     0.0004098 Eh/α   predicted    -0.1395273E-05 ( -35.65%)
   displ. norm   :     0.0162098 α      lambda       -0.1015180E-05
   maximum displ.:     0.0087471 α      in ANC's #6, #4, #2, ...

........................................................................
.............................. CYCLE   11 ..............................
........................................................................

 iter      E             dE          RMSdq      gap      omega  full diag
   1    -46.7773137 -0.467773E+02  0.610E-03    4.96       0.0  T
   2    -46.7773137 -0.560210E-08  0.357E-03    4.96       4.7  T
   3    -46.7773136  0.470783E-07  0.145E-03    4.96      11.7  T
   4    -46.7773137 -0.542345E-07  0.946E-05    4.96     178.7  T
   5    -46.7773137 -0.265317E-10  0.547E-05    4.96     309.0  T
     SCC iter.                  ...        0 min,  0.010 sec
     gradient                   ...        0 min,  0.004 sec
 * total energy  :   -46.1617531 Eh     change       -0.9901892E-06 Eh
   gradient norm :     0.0002559 Eh/α   predicted    -0.5086649E-06 ( -48.63%)
   displ. norm   :     0.0154072 α      lambda        0.1384912E-06
   maximum displ.:     0.0082984 α      in ANC's #6, #4, #2, ...

........................................................................
.............................. CYCLE   12 ..............................
........................................................................

 iter      E             dE          RMSdq      gap      omega  full diag
   1    -46.7772267 -0.467772E+02  0.583E-03    4.96       0.0  T
   2    -46.7772267 -0.507113E-08  0.341E-03    4.96       5.0  T
   3    -46.7772267  0.408047E-07  0.135E-03    4.96      12.6  T
   4    -46.7772267 -0.469553E-07  0.906E-05    4.96     186.6  T
   5    -46.7772267 -0.255369E-10  0.525E-05    4.96     322.0  T
     SCC iter.                  ...        0 min,  0.010 sec
     gradient                   ...        0 min,  0.004 sec
 * total energy  :   -46.1617530 Eh     change        0.8806271E-07 Eh
   gradient norm :     0.0004837 Eh/α   predicted     0.6870137E-07 ( -21.99%)
   displ. norm   :     0.0054101 α      lambda       -0.7417293E-06
   maximum displ.:     0.0024833 α      in ANC's #2, #9, #4, ...

........................................................................
.............................. CYCLE   13 ..............................
........................................................................

 iter      E             dE          RMSdq      gap      omega  full diag
   1    -46.7774482 -0.467774E+02  0.295E-03    4.96       0.0  T
   2    -46.7774482 -0.297936E-08  0.175E-03    4.96       9.7  T
   3    -46.7774482  0.107660E-07  0.697E-04    4.96      24.2  T
   4    -46.7774483 -0.125320E-07  0.813E-05    4.96     207.9  T
     SCC iter.                  ...        0 min,  0.007 sec
     gradient                   ...        0 min,  0.004 sec
 * total energy  :   -46.1617536 Eh     change       -0.5887111E-06 Eh
   gradient norm :     0.0001737 Eh/α   predicted    -0.3738894E-06 ( -36.49%)
   displ. norm   :     0.0040395 α      lambda       -0.1318918E-06
   maximum displ.:     0.0020526 α      in ANC's #2, #6, #7, ...

........................................................................
.............................. CYCLE   14 ..............................
........................................................................

 iter      E             dE          RMSdq      gap      omega  full diag
   1    -46.7774500 -0.467775E+02  0.141E-03    4.96       0.0  T
   2    -46.7774500 -0.529162E-09  0.833E-04    4.96      20.3  T
   3    -46.7774500  0.270415E-08  0.351E-04    4.96      48.2  T
     SCC iter.                  ...        0 min,  0.006 sec
     gradient                   ...        0 min,  0.004 sec
 * total energy  :   -46.1617537 Eh     change       -0.1064475E-06 Eh
   gradient norm :     0.0001015 Eh/α   predicted    -0.6722432E-07 ( -36.85%)
   displ. norm   :     0.0039882 α      lambda       -0.6462511E-07
   maximum displ.:     0.0022231 α      in ANC's #6, #2, #7, ...

........................................................................
.............................. CYCLE   15 ..............................
........................................................................

 iter      E             dE          RMSdq      gap      omega  full diag
   1    -46.7774332 -0.467774E+02  0.116E-03    4.96       0.0  T
   2    -46.7774332 -0.405976E-09  0.693E-04    4.96      24.4  T
   3    -46.7774332  0.255052E-08  0.355E-04    4.96      47.7  T
     SCC iter.                  ...        0 min,  0.006 sec
     gradient                   ...        0 min,  0.004 sec
 * total energy  :   -46.1617537 Eh     change       -0.6131006E-07 Eh
   gradient norm :     0.0000708 Eh/α   predicted    -0.3459627E-07 ( -43.57%)
   displ. norm   :     0.0051991 α      lambda        0.3779439E-07
   maximum displ.:     0.0028624 α      in ANC's #6, #2, #4, ...

   *** GEOMETRY OPTIMIZATION CONVERGED AFTER 15 ITERATIONS ***

------------------------------------------------------------------------
 total energy gain   :        -0.0079129 Eh       -4.9654 kcal/mol
 total RMSD          :         0.1448755 a0        0.0767 Å
 total power (kW/mol):        -1.3850132 (step)  -61.0987 (real)
------------------------------------------------------------------------

 ANCopt (total)                0 d,  0 h,  0 min,  0.340 sec
 optimizer setup                ...        0 min,  0.000 sec (  0.063%)
 model hessian                  ...        0 min,  0.095 sec ( 27.804%)
 ANC generation                 ...        0 min,  0.002 sec (  0.694%)
 coordinate transformation      ...        0 min,  0.000 sec (  0.095%)
 single point calculation       ...        0 min,  0.236 sec ( 69.543%)
 optimization log               ...        0 min,  0.003 sec (  0.911%)
 hessian update                 ...        0 min,  0.000 sec (  0.089%)
 rational function              ...        0 min,  0.002 sec (  0.464%)

================
 final structure:
================
$coord
       -0.13490398460152       -1.48626826125533       -0.66155734314314      c
        0.98259207879469        0.99001901697751       -1.78937672683623      c
       -0.89818592829475        3.19130808733650       -1.47671541143219      c
       -2.25750463185511        3.24576096980921        1.06942973583308      c
       -3.31179759152852        0.62363831619020        1.70599293084582      c
       -1.10634887111312       -1.20962437686642        2.07617916808050      c
       -2.65930176559501       -2.02800999380576       -2.01411219117924      c
       -4.59536884859431       -0.50673545505627       -0.57030210357879      c
        0.64677793863644       -0.42550849558720        3.91168890997693      o
        1.70649378336177       -3.72022579752761       -0.87693235715639      c
       -6.99327936019093       -0.21723086322249       -1.19699157099243      c
        3.65399688171731        1.65357286530671       -0.98157903134254      c
        5.59923159060364        0.83127323082440       -2.34627206109025      c
        1.12431857203926        0.61267258030993       -3.82528943884621      h
        3.69411301310357       -3.63424624916732        0.90979038536954      o
        4.09638682114675        3.33181615471391        1.25391497917693      c
        0.08196673439701        4.97727944553899       -1.79199411988243      h
       -2.33153222807230        3.02381204410927       -2.95167569541016      h
       -0.99093014343068        3.81670501415762        2.58755297151381      h
       -3.80573788684183        4.60569243431042        0.97330480786215      h
       -4.53427346400345        0.72856877261218        3.36285328935448      h
       -1.87000384058396       -3.06503714192363        2.65147012695039      h
       -2.61411562584361       -1.53766801680166       -4.01362689232579      h
       -3.12107030744010       -4.03677200095361       -1.87934874070791      h
        2.03538365251405       -1.62178034405906        3.82610463713390      h
        2.46942733181539       -3.84017943696164       -2.80070988602362      h
        0.70076707462603       -5.48010885775873       -0.46889168461889      h
       -7.77294620005275       -1.06403680478060       -2.87634796048952      h
       -8.27164815970962        0.87866450545117       -0.05495447523359      h
        7.52292794435534        1.28402256253136       -1.85131351072805      h
        5.36360520989923       -0.30509818861070       -4.02104191204768      h
        4.78245999079000       -2.22522811455304        0.45161198461559      h
        3.09692072298290        2.63861332178582        2.90678932899666      h
        6.10433996296866        3.44312796992034        1.67933186506278      h
        3.42117612320189        5.23485705439507        0.85692531215054      h
$end
 
 Bond Distances (Angstroems)
 ---------------------------
C1-C2=1.5566         C1-C6=1.5442         C1-C7=1.5424         C1-C10=1.5362        C2-C1=1.5566         C2-C3=1.5411         
C2-C12=1.5180        C2-H14=1.0983        C3-C2=1.5411         C3-C4=1.5276         C3-H17=1.0909        C3-H18=1.0920        
C4-C3=1.5276         C4-C5=1.5330         C4-H19=1.0890        C4-H20=1.0917        C5-C4=1.5330         C5-C6=1.5302         
C5-C8=1.5067         C5-H21=1.0910        C6-C1=1.5442         C6-C5=1.5302         C6-O9=1.4058         C6-H22=1.1045        
C7-C1=1.5424         C7-C8=1.5104         C7-H23=1.0897        C7-H24=1.0930        C8-C5=1.5067         C8-C7=1.5104         
C8-C11=1.3205        O9-C6=1.4058         O9-H25=0.9710        C10-C1=1.5362        C10-O15=1.4150       C10-H26=1.0970       
C10-H27=1.0942       C11-C8=1.3205        C11-H28=1.0774       C11-H29=1.0766       C12-C2=1.5180        C12-C13=1.3306       
C12-C16=1.4976       C13-C12=1.3306       C13-H30=1.0781       C13-H31=1.0782       H14-C2=1.0983        O15-C10=1.4150       
O15-H32=0.9728       C16-C12=1.4976       C16-H33=1.0860       C16-H34=1.0877       C16-H35=1.0890       H17-C3=1.0909        
H18-C3=1.0920        H19-C4=1.0890        H20-C4=1.0917        H21-C5=1.0910        H22-C6=1.1045        H23-C7=1.0897        
H24-C7=1.0930        H25-O9=0.9710        H26-C10=1.0970       H27-C10=1.0942       H28-C11=1.0774       H29-C11=1.0766       
H30-C13=1.0781       H31-C13=1.0782       H32-O15=0.9728       H33-C16=1.0860       H34-C16=1.0877       H35-C16=1.0890       
 C  H  Rav=1.0891 sigma=0.0074  Rmin=1.0766  Rmax=1.1045    18
 C  C  Rav=1.4997 sigma=0.0728  Rmin=1.3205  Rmax=1.5566    14
 O  H  Rav=0.9719 sigma=0.0009  Rmin=0.9710  Rmax=0.9728     2
 O  C  Rav=1.4104 sigma=0.0046  Rmin=1.4058  Rmax=1.4150     2
 
 selected bond angles (degree)
 --------------------
C6-C1-C2=113.98                C7-C1-C2=107.91                C7-C1-C6= 99.48                C10-C1-C2=112.23               
C10-C1-C6=110.71               C10-C1-C7=111.83               C3-C2-C1=110.48                C12-C2-C1=116.14               
C12-C2-C3=113.35               H14-C2-C1=104.42               H14-C2-C3=106.67               H14-C2-C12=104.76              
C4-C3-C2=114.40                H17-C3-C2=109.35               H17-C3-C4=110.02               H18-C3-C2=108.09               
H18-C3-C4=107.75               H18-C3-H17=106.93              C5-C4-C3=110.37                H19-C4-C3=111.47               
H19-C4-C5=108.24               H20-C4-C3=108.95               H20-C4-C5=109.50               H20-C4-H19=108.26              
C6-C5-C4=108.93                C8-C5-C4=110.35                C8-C5-C6=101.21                H21-C5-C4=110.26               
H21-C5-C6=112.43               H21-C5-C8=113.29               C5-C6-C1=101.18                O9-C6-C1=117.16                
O9-C6-C5=113.87                H22-C6-C1=107.22               H22-C6-C5=108.65               H22-C6-O9=108.26               
C8-C7-C1=104.69                H23-C7-C1=112.79               H23-C7-C8=112.28               H24-C7-C1=110.13               
H24-C7-C8=109.49               H24-C7-H23=107.45              C7-C8-C5=108.07                C11-C8-C5=126.01               
C11-C8-C7=125.92               H25-O9-C6=105.95               O15-C10-C1=113.40              H26-C10-C1=110.29              
H26-C10-O15=110.39             H27-C10-C1=109.38              H27-C10-O15=104.90             H27-C10-H26=108.23             
 
 selected dihedral angles (degree)
 ---------------------------------
C3-C2-C1-C6=308.22            C3-C2-C1-C7= 57.68            C3-C2-C1-C10=181.35           C12-C2-C1-C6= 79.10           
C12-C2-C1-C7=188.56           C12-C2-C1-C10=312.23          H14-C2-C1-C6=193.88           H14-C2-C1-C7=303.34           
H14-C2-C1-C10= 67.00          C4-C3-C2-C1= 40.82            C4-C3-C2-C12=268.49           C4-C3-C2-H14=153.73           
H17-C3-C2-C1=164.72           H17-C3-C2-C12= 32.39          H17-C3-C2-H14=277.63          H18-C3-C2-C1=280.79           
H18-C3-C2-C12=148.47          H18-C3-C2-H14= 33.70          C5-C4-C3-C2=311.83            C5-C4-C3-H17=188.28           
C5-C4-C3-H18= 72.04           H19-C4-C3-C2= 72.15           H19-C4-C3-H17=308.60          H19-C4-C3-H18=192.36          
H20-C4-C3-C2=191.56           H20-C4-C3-H17= 68.02          H20-C4-C3-H18=311.78          C6-C5-C4-C3= 65.26            
C6-C5-C4-H19=303.02           C6-C5-C4-H20=185.19           C8-C5-C4-C3=314.99            C8-C5-C4-H19=192.74           
C8-C5-C4-H20= 74.92           H21-C5-C4-C3=189.08           H21-C5-C4-H19= 66.84          H21-C5-C4-H20=309.02          
C5-C6-C1-C2= 65.49            C5-C6-C1-C7=310.94            C5-C6-C1-C10=193.15           O9-C6-C1-C2=301.09            
O9-C6-C1-C7=186.54            O9-C6-C1-C10= 68.75           H22-C6-C1-C2=179.23           H22-C6-C1-C7= 64.68           
H22-C6-C1-C10=306.89          C1-C6-C5-C4=289.15            C1-C6-C5-C8= 45.43            C1-C6-C5-H21=166.62           
O9-C6-C5-C4= 55.76            O9-C6-C5-C8=172.04            O9-C6-C5-H21=293.23           H22-C6-C5-C4=176.49           
H22-C6-C5-C8=292.77           H22-C6-C5-H21= 53.96          C8-C7-C1-C2=274.68            C8-C7-C1-C6= 33.82            
C8-C7-C1-C10=150.77           H23-C7-C1-C2= 37.04           H23-C7-C1-C6=156.18           H23-C7-C1-C10=273.13          
H24-C7-C1-C2=157.06           H24-C7-C1-C6=276.20           H24-C7-C1-C10= 33.15          C7-C8-C5-C4= 91.06            
C7-C8-C5-C6=335.83            C7-C8-C5-H21=215.24           C11-C8-C5-C4=271.13           C11-C8-C5-C6=155.90           
C11-C8-C5-H21= 35.31          C5-C8-C7-C1=353.64            C5-C8-C7-H23=230.95           C5-C8-C7-H24=111.69           
C11-C8-C7-C1=173.58           C11-C8-C7-H23= 50.88          C11-C8-C7-H24=291.63          H25-O9-C6-C1=304.37           
H25-O9-C6-C5=186.64           H25-O9-C6-H22= 65.69          O15-C10-C1-C2= 76.14          O15-C10-C1-C6=307.53          
O15-C10-C1-C7=197.59          H26-C10-C1-C2=311.75          H26-C10-C1-C6=183.15          H26-C10-C1-C7= 73.20          
H27-C10-C1-C2=192.82          H27-C10-C1-C6= 64.22          H27-C10-C1-C7=314.27          
           -------------------------------------------------
          |                Final Singlepoint                |
           -------------------------------------------------

          ...................................................
          :                      SETUP                      :
          :.................................................:
          :  # basis functions                  80          :
          :  # atomic orbitals                  80          :
          :  # shells                           50          :
          :  # electrons                        84          :
          :  max. iterations                   250          :
          :  Hamiltonian                  GFN2-xTB          :
          :  restarted?                      false          :
          :  GBSA solvation                   true          :
          :  PC potential                    false          :
          :  electronic temp.          300.0000000     K    :
          :  accuracy                    1.0000000          :
          :  -> integral cutoff          0.2500000E+02      :
          :  -> integral neglect         0.1000000E-07      :
          :  -> SCF convergence          0.1000000E-05 Eh   :
          :  -> wf. convergence          0.1000000E-03 e    :
          :  Broyden damping             0.4000000          :
          :  net charge                          0          :
          :  unpaired electrons                  0          :
          ...................................................

 iter      E             dE          RMSdq      gap      omega  full diag
   1    -46.7774333 -0.467774E+02  0.306E-05    4.96       0.0  T
   2    -46.7774333 -0.360956E-11  0.182E-05    4.96     926.9  T
   3    -46.7774333  0.497380E-13  0.104E-05    4.96    1618.4  T

   *** convergence criteria satisfied after 3 iterations ***

         #    Occupation            Energy/Eh            Energy/eV
      -------------------------------------------------------------
         1        2.0000           -0.7004206             -19.0594
       ...           ...                  ...                  ...
        36        2.0000           -0.4289760             -11.6730
        37        2.0000           -0.4233063             -11.5188
        38        2.0000           -0.4144454             -11.2776
        39        2.0000           -0.4090501             -11.1308
        40        2.0000           -0.3994244             -10.8689
        41        2.0000           -0.3927501             -10.6873
        42        2.0000           -0.3897684             -10.6061 (HOMO)
        43                         -0.2073819              -5.6431 (LUMO)
        44                         -0.2008121              -5.4644
        45                         -0.0017944              -0.0488
        46                          0.0335205               0.9121
        47                          0.0390481               1.0626
       ...                                ...                  ...
        80                          0.6478156              17.6280
      -------------------------------------------------------------
                  HL-Gap            0.1823864 Eh            4.9630 eV
             Fermi-level           -0.2985752 Eh           -8.1246 eV

 SCC (total)                   0 d,  0 h,  0 min,  0.012 sec
 SCC setup                      ...        0 min,  0.001 sec (  5.996%)
 Dispersion                     ...        0 min,  0.000 sec (  1.756%)
 classical contributions        ...        0 min,  0.000 sec (  0.192%)
 integral evaluation            ...        0 min,  0.001 sec (  9.975%)
 iterations                     ...        0 min,  0.006 sec ( 49.033%)
 molecular gradient             ...        0 min,  0.004 sec ( 31.201%)
 printout                       ...        0 min,  0.000 sec (  1.427%)

         :::::::::::::::::::::::::::::::::::::::::::::::::::::
         ::                     SUMMARY                     ::
         :::::::::::::::::::::::::::::::::::::::::::::::::::::
         :: total energy             -46.161753745457 Eh    ::
         :: total w/o Gsasa/hb       -46.149973930892 Eh    ::
         :: gradient norm              0.000071234650 Eh/a0 ::
         :: HOMO-LUMO gap              4.962987656611 eV    ::
         ::.................................................::
         :: SCC energy               -46.776777813748 Eh    ::
         :: -> isotropic ES            0.060862027233 Eh    ::
         :: -> anisotropic ES          0.003244285900 Eh    ::
         :: -> anisotropic XC          0.017156225861 Eh    ::
         :: -> dispersion             -0.037037292187 Eh    ::
         :: -> Gsolv                  -0.018516528766 Eh    ::
         ::    -> Gelec               -0.006736714201 Eh    ::
         ::    -> Gsasa               -0.015670833809 Eh    ::
         ::    -> Ghb                  0.000000000000 Eh    ::
         ::    -> Gshift               0.003891019244 Eh    ::
         :: repulsion energy           0.615024068291 Eh    ::
         :: add. restraining           0.000000000000 Eh    ::
         :: total charge              -0.000000000000 e     ::
         :::::::::::::::::::::::::::::::::::::::::::::::::::::

           ------------------------------------------------- 
          |                Numerical Hessian                |
           ------------------------------------------------- 
step length          :   0.00500
SCC accuracy         :   0.30000
Hessian scale factor :   1.00000
frozen atoms in %    :   0.00000    0
RMS gradient         :   0.00007
estimated CPU  time      2.05 min
estimated wall time      0.20 min

writing file <hessian>.

 projected vibrational frequencies (cm⁻¹)
eigval :       -0.00    -0.00     0.00     0.00     0.00     0.00
eigval :       62.87    99.33   117.40   163.99   180.64   190.32
eigval :      213.26   224.48   253.12   276.25   294.35   311.93
eigval :      319.92   360.26   364.33   411.97   431.21   460.55
eigval :      469.86   512.36   521.84   544.89   552.15   608.63
eigval :      660.65   681.55   702.99   722.43   797.50   817.03
eigval :      871.63   889.61   896.57   901.49   914.44   931.60
eigval :      944.92   954.71   970.49   998.68  1016.26  1038.26
eigval :     1041.58  1056.17  1077.83  1090.14  1091.93  1121.67
eigval :     1130.12  1137.06  1152.32  1157.93  1173.82  1216.50
eigval :     1233.81  1251.11  1264.13  1267.78  1279.24  1284.34
eigval :     1302.12  1313.07  1323.15  1334.67  1342.35  1351.82
eigval :     1355.15  1373.69  1398.23  1409.55  1428.43  1461.63
eigval :     1464.97  1474.27  1476.26  1489.36  1501.56  1689.02
eigval :     1739.41  2810.99  2892.77  2901.53  2949.60  2959.62
eigval :     2967.61  2970.44  2976.99  2990.82  2993.51  3011.24
eigval :     3017.60  3034.72  3061.92  3089.63  3099.12  3107.30
eigval :     3121.88  3354.44  3412.57
           -------------------------------------------------
          |                Property Printout                |
           -------------------------------------------------

    * Orbital Energies and Occupations

         #    Occupation            Energy/Eh            Energy/eV
      -------------------------------------------------------------
         1        2.0000           -0.7004207             -19.0594
       ...           ...                  ...                  ...
        30        2.0000           -0.4631799             -12.6038
        31        2.0000           -0.4599139             -12.5149
        32        2.0000           -0.4540543             -12.3554
        33        2.0000           -0.4457886             -12.1305
        34        2.0000           -0.4419738             -12.0267
        35        2.0000           -0.4410152             -12.0006
        36        2.0000           -0.4289760             -11.6730
        37        2.0000           -0.4233063             -11.5188
        38        2.0000           -0.4144453             -11.2776
        39        2.0000           -0.4090501             -11.1308
        40        2.0000           -0.3994244             -10.8689
        41        2.0000           -0.3927501             -10.6873
        42        2.0000           -0.3897684             -10.6061 (HOMO)
        43                         -0.2073819              -5.6431 (LUMO)
        44                         -0.2008121              -5.4644
        45                         -0.0017944              -0.0488
        46                          0.0335205               0.9121
        47                          0.0390481               1.0626
        48                          0.0563145               1.5324
        49                          0.0685130               1.8643
        50                          0.0753282               2.0498
        51                          0.0829335               2.2567
        52                          0.0904665               2.4617
        53                          0.1027751               2.7967
       ...                                ...                  ...
        80                          0.6478156              17.6280
      -------------------------------------------------------------
                  HL-Gap            0.1823865 Eh            4.9630 eV
             Fermi-level           -0.2985752 Eh           -8.1246 eV

     #   Z          covCN         q      C6AA      α(0)
     1   6 c        3.931    -0.010    20.692     6.464
     2   6 c        3.858    -0.026    21.005     6.518
     3   6 c        3.804    -0.058    21.622     6.620
     4   6 c        3.808    -0.057    21.594     6.615
     5   6 c        3.888    -0.030    21.060     6.524
     6   6 c        3.790     0.124    18.578     6.139
     7   6 c        3.845    -0.076    21.917     6.659
     8   6 c        2.983     0.011    27.775     8.645
     9   8 o        1.655    -0.483    22.537     6.409
    10   6 c        3.677     0.078    19.500     6.327
    11   6 c        2.838    -0.112    30.834     9.100
    12   6 c        2.936     0.018    27.612     8.618
    13   6 c        2.847    -0.120    31.051     9.133
    14   1 h        0.923     0.041     2.436     2.441
    15   8 o        1.654    -0.491    22.696     6.431
    16   6 c        3.760    -0.120    22.846     6.814
    17   1 h        0.924     0.039     2.456     2.451
    18   1 h        0.924     0.038     2.478     2.462
    19   1 h        0.925     0.055     2.258     2.350
    20   1 h        0.924     0.035     2.517     2.481
    21   1 h        0.924     0.039     2.460     2.453
    22   1 h        0.923     0.006     2.957     2.689
    23   1 h        0.925     0.054     2.274     2.358
    24   1 h        0.924     0.047     2.357     2.401
    25   1 h        0.804     0.321     0.661     1.277
    26   1 h        0.924     0.026     2.642     2.542
    27   1 h        0.924     0.043     2.409     2.427
    28   1 h        0.926     0.037     2.490     2.467
    29   1 h        0.926     0.039     2.466     2.456
    30   1 h        0.926     0.030     2.586     2.515
    31   1 h        0.926     0.026     2.641     2.541
    32   1 h        0.804     0.313     0.683     1.299
    33   1 h        0.925     0.075     2.027     2.227
    34   1 h        0.925     0.039     2.468     2.457
    35   1 h        0.925     0.052     2.296     2.369

 Mol. C6AA /au·bohr⁶  :      10398.914758
 Mol. C8AA /au·bohr⁸  :     233753.836124
 Mol. α(0) /au        :        153.677038


Wiberg/Mayer (AO) data.
largest (>0.10) Wiberg bond orders for each atom

 ---------------------------------------------------------------------------
     #   Z sym  total        # sym  WBO       # sym  WBO       # sym  WBO
 ---------------------------------------------------------------------------
     1   6 c    3.988 --     7 c    0.980    10 c    0.979     6 c    0.959
                             2 c    0.958
     2   6 c    3.993 --    12 c    0.998     3 c    0.988    14 h    0.959
                             1 c    0.958
     3   6 c    3.997 --     4 c    1.010     2 c    0.988    18 h    0.976
                            17 h    0.974
     4   6 c    3.995 --     3 c    1.010     5 c    0.979    20 h    0.976
                            19 h    0.970
     5   6 c    3.995 --     8 c    0.995     4 c    0.979     6 c    0.976
                            21 h    0.965
     6   6 c    3.953 --     9 o    0.990     5 c    0.976     1 c    0.959
                            22 h    0.958
     7   6 c    3.995 --     8 c    1.004     1 c    0.980    23 h    0.965
                            24 h    0.959
     8   6 c    3.986 --    11 c    1.938     7 c    1.004     5 c    0.995
     9   8 o    1.950 --     6 c    0.990    25 h    0.862
    10   6 c    3.950 --    15 o    0.991     1 c    0.979    27 h    0.970
                            26 h    0.969
    11   6 c    3.987 --     8 c    1.938    28 h    0.975    29 h    0.974
    12   6 c    3.985 --    13 c    1.896    16 c    1.031     2 c    0.998
    13   6 c    3.987 --    12 c    1.896    30 h    0.975    31 h    0.975
    14   1 h    0.998 --     2 c    0.959
    15   8 o    1.950 --    10 c    0.991    32 h    0.857
    16   6 c    3.994 --    12 c    1.031    34 h    0.983    35 h    0.962
                            33 h    0.957
    17   1 h    0.998 --     3 c    0.974
    18   1 h    0.998 --     3 c    0.976
    19   1 h    0.997 --     4 c    0.970
    20   1 h    0.998 --     4 c    0.976
    21   1 h    0.998 --     5 c    0.965
    22   1 h    1.000 --     6 c    0.958
    23   1 h    0.997 --     7 c    0.965
    24   1 h    0.998 --     7 c    0.959
    25   1 h    0.896 --     9 o    0.862
    26   1 h    0.999 --    10 c    0.969
    27   1 h    0.998 --    10 c    0.970
    28   1 h    0.998 --    11 c    0.975
    29   1 h    0.998 --    11 c    0.974
    30   1 h    0.998 --    13 c    0.975
    31   1 h    0.999 --    13 c    0.975
    32   1 h    0.902 --    15 o    0.857
    33   1 h    0.994 --    16 c    0.957
    34   1 h    0.998 --    16 c    0.983
    35   1 h    0.997 --    16 c    0.962
 ---------------------------------------------------------------------------

Topologies differ in total number of bonds
Writing topology from bond orders to xtbtopo.mol

molecular dipole:
                 x           y           z       tot (Debye)
 q only:       -0.087       0.373      -0.708
   full:        0.041       0.250      -0.935       2.463
molecular quadrupole (traceless):
                xx          xy          yy          xz          yz          zz
 q only:        1.220       2.799       0.523       1.013       2.493      -1.743
  q+dip:        2.710       3.277      -0.372      -0.983       3.280      -2.338
   full:        2.293       3.484       0.233      -0.250       2.623      -2.526

           -------------------------------------------------
          |                Geometry Summary                 |
           -------------------------------------------------

      molecular mass/u    :      208.2971915
   center of mass at/Å    :       -0.0005733      -0.0009641       0.0002079
  moments of inertia/u·Å² :        0.5207997E+03   0.9144823E+03   0.1020929E+04
rotational constants/cm⁻¹ :        0.3236874E-01   0.1843407E-01   0.1651206E-01

 * 30 selected distances

     #   Z          #   Z                                           value/Å
     3   6 c        4   6 c                                       1.5276246
     4   6 c        5   6 c                                       1.5329959
     1   6 c        6   6 c                                       1.5442040 (max)
     5   6 c        6   6 c                                       1.5302187
     1   6 c        7   6 c                                       1.5423927
     6   6 c        9   8 o                                       1.4057987
     1   6 c       10   6 c                                       1.5362280
     8   6 c       11   6 c                                       1.3204566
    12   6 c       13   6 c                                       1.3305943
     2   6 c       14   1 h                                       1.0982713
    10   6 c       15   8 o                                       1.4150323
     3   6 c       17   1 h                                       1.0909004
     3   6 c       18   1 h                                       1.0919588
     4   6 c       19   1 h                                       1.0889854
     4   6 c       20   1 h                                       1.0916556
     5   6 c       21   1 h                                       1.0910095
     6   6 c       22   1 h                                       1.1045344
     7   6 c       23   1 h                                       1.0897116
     7   6 c       24   1 h                                       1.0930446
     9   8 o       25   1 h                                       0.9709526 (min)
    10   6 c       26   1 h                                       1.0969905
    10   6 c       27   1 h                                       1.0941528
    11   6 c       28   1 h                                       1.0773922
    11   6 c       29   1 h                                       1.0766465
    13   6 c       30   1 h                                       1.0780905
    13   6 c       31   1 h                                       1.0782386
    15   8 o       32   1 h                                       0.9728458
    16   6 c       33   1 h                                       1.0859687
    16   6 c       34   1 h                                       1.0877452
    16   6 c       35   1 h                                       1.0890096

 * 4 distinct bonds (by element types)

   Z      Z             #   av. dist./Å        max./Å        min./Å
   1 H    6 C          18     1.0891281     1.1045344     1.0766465
   6 C    6 C           8     1.4830893     1.5442040     1.3204566
   1 H    8 O           2     0.9718992     0.9728458     0.9709526
   6 C    8 O           2     1.4104155     1.4150323     1.4057987

           -------------------------------------------------
          |               Frequency Printout                |
           -------------------------------------------------
 projected vibrational frequencies (cm⁻¹)
eigval :       -0.00    -0.00     0.00     0.00     0.00     0.00
eigval :       62.87    99.33   117.40   163.99   180.64   190.32
eigval :      213.26   224.48   253.12   276.25   294.35   311.93
eigval :      319.92   360.26   364.33   411.97   431.21   460.55
eigval :      469.86   512.36   521.84   544.89   552.15   608.63
eigval :      660.65   681.55   702.99   722.43   797.50   817.03
eigval :      871.63   889.61   896.57   901.49   914.44   931.60
eigval :      944.92   954.71   970.49   998.68  1016.26  1038.26
eigval :     1041.58  1056.17  1077.83  1090.14  1091.93  1121.67
eigval :     1130.12  1137.06  1152.32  1157.93  1173.82  1216.50
eigval :     1233.81  1251.11  1264.13  1267.78  1279.24  1284.34
eigval :     1302.12  1313.07  1323.15  1334.67  1342.35  1351.82
eigval :     1355.15  1373.69  1398.23  1409.55  1428.43  1461.63
eigval :     1464.97  1474.27  1476.26  1489.36  1501.56  1689.02
eigval :     1739.41  2810.99  2892.77  2901.53  2949.60  2959.62
eigval :     2967.61  2970.44  2976.99  2990.82  2993.51  3011.24
eigval :     3017.60  3034.72  3061.92  3089.63  3099.12  3107.30
eigval :     3121.88  3354.44  3412.57
 reduced masses (amu)
   1: 11.37   2: 10.74   3: 10.97   4: 11.79   5: 11.94   6: 10.55   7: 10.33   8:  9.56
   9:  9.56  10: 10.81  11: 12.56  12:  6.70  13:  8.69  14: 10.34  15: 10.52  16:  8.57
  17:  8.83  18:  9.45  19:  8.29  20:  7.93  21:  9.45  22:  5.61  23:  8.15  24:  9.31
  25:  7.66  26: 10.42  27:  9.39  28:  6.14  29:  6.33  30: 10.19  31:  9.30  32:  8.33
  33:  2.33  34:  3.75  35:  8.02  36:  9.03  37:  7.83  38:  4.61  39:  3.82  40:  7.49
  41:  7.07  42:  6.24  43:  6.39  44:  5.84  45:  6.50  46:  6.76  47:  5.05  48:  7.02
  49:  4.96  50:  9.84  51:  8.65  52:  8.19  53:  5.77  54:  5.60  55:  6.59  56:  7.97
  57:  5.39  58:  3.57  59:  5.11  60:  4.97  61:  5.47  62:  8.06  63:  8.01  64:  5.19
  65:  5.54  66:  6.13  67:  7.37  68:  4.19  69:  5.33  70:  4.59  71:  3.05  72:  3.45
  73:  4.26  74:  3.37  75:  3.04  76:  2.36  77:  2.62  78:  1.75  79:  1.87  80:  1.84
  81:  1.74  82:  1.75  83:  1.85  84: 11.15  85: 11.59  86:  1.71  87:  1.75  88:  1.77
  89:  1.85  90:  1.66  91:  1.89  92:  1.81  93:  1.82  94:  1.62  95:  1.54  96:  1.82
  97:  1.67  98:  1.63  99:  1.67 100:  1.52 101:  1.53 102:  2.07 103:  2.07 104:  1.88
 105:  1.88
 IR intensities (km·mol⁻¹)
   1:  0.21   2:  0.03   3:  0.08   4:  0.03   5:  0.05   6:  0.40   7:  0.53   8:  0.09
   9:  1.92  10:  3.19  11:  8.83  12:  0.30  13: 11.23  14:  2.75  15: 10.63  16:  3.91
  17:  3.57  18:  1.20  19:  0.56  20: 10.69  21:  9.75  22:136.69  23: 73.00  24: 12.01
  25:  4.47  26:  5.85  27:  1.22  28: 69.89  29:102.11  30:  2.47  31:  7.57  32:  3.41
  33:  0.20  34:  3.67  35: 10.16  36:  6.00  37:  6.69  38: 29.19  39: 35.83  40:  9.32
  41:  0.89  42: 11.16  43:  2.44  44:  4.13  45:  9.43  46:  3.13  47: 16.31  48: 25.77
  49:  6.62  50: 51.21  51: 43.18  52: 33.81  53:  2.42  54: 58.22  55: 37.03  56: 63.78
  57: 32.00  58: 18.87  59:  7.29  60: 21.18  61:  5.96  62: 19.20  63: 69.69  64:  3.79
  65:  7.29  66: 13.49  67: 27.10  68: 21.48  69: 28.80  70: 15.44  71: 15.04  72: 37.26
  73:  7.37  74: 28.32  75: 12.19  76:  6.57  77:  8.99  78:  5.43  79:  4.84  80:  0.63
  81:  4.37  82:  2.40  83:  1.60  84: 34.39  85: 29.93  86:145.56  87: 46.86  88:111.23
  89: 29.56  90: 81.53  91: 38.66  92: 54.89  93:105.70  94: 52.04  95: 76.77  96: 42.21
  97: 50.04  98: 52.21  99:  9.14 100: 46.58 101: 40.17 102: 83.90 103: 57.48 104:244.95
 105:152.93
 Raman intensities (Ä⁴*amu⁻¹)
   1:  0.00   2:  0.00   3:  0.00   4:  0.00   5:  0.00   6:  0.00   7:  0.00   8:  0.00
   9:  0.00  10:  0.00  11:  0.00  12:  0.00  13:  0.00  14:  0.00  15:  0.00  16:  0.00
  17:  0.00  18:  0.00  19:  0.00  20:  0.00  21:  0.00  22:  0.00  23:  0.00  24:  0.00
  25:  0.00  26:  0.00  27:  0.00  28:  0.00  29:  0.00  30:  0.00  31:  0.00  32:  0.00
  33:  0.00  34:  0.00  35:  0.00  36:  0.00  37:  0.00  38:  0.00  39:  0.00  40:  0.00
  41:  0.00  42:  0.00  43:  0.00  44:  0.00  45:  0.00  46:  0.00  47:  0.00  48:  0.00
  49:  0.00  50:  0.00  51:  0.00  52:  0.00  53:  0.00  54:  0.00  55:  0.00  56:  0.00
  57:  0.00  58:  0.00  59:  0.00  60:  0.00  61:  0.00  62:  0.00  63:  0.00  64:  0.00
  65:  0.00  66:  0.00  67:  0.00  68:  0.00  69:  0.00  70:  0.00  71:  0.00  72:  0.00
  73:  0.00  74:  0.00  75:  0.00  76:  0.00  77:  0.00  78:  0.00  79:  0.00  80:  0.00
  81:  0.00  82:  0.00  83:  0.00  84:  0.00  85:  0.00  86:  0.00  87:  0.00  88:  0.00
  89:  0.00  90:  0.00  91:  0.00  92:  0.00  93:  0.00  94:  0.00  95:  0.00  96:  0.00
  97:  0.00  98:  0.00  99:  0.00 100:  0.00 101:  0.00 102:  0.00 103:  0.00 104:  0.00
 105:  0.00
 output can be read by thermo (or use thermo option).
 writing <g98.out> molden fake output.
 recommended (thermochemical) frequency scaling factor: 1.0
           -------------------------------------------------
          |             Thermodynamic Functions             |
           -------------------------------------------------

Molecule has no symmetry elements
It seems to be the C1 point group
c1  symmetry found (for desy threshold:  0.10E+00) used in thermo

          ...................................................
          :                      SETUP                      :
          :.................................................:
          :  # frequencies                          99      :
          :  # imaginary freq.                       0      :
          :  linear?                             false      :
          :  only rotor calc.                    false      :
          :  symmetry                               c1      :
          :  rotational number                       1      :
          :  scaling factor                  1.0000000      :
          :  rotor cutoff                   50.0000000 cm⁻¹ :
          :  imag. cutoff                  -50.0000000 cm⁻¹ :
          :.................................................:

    mode    ω/cm⁻¹     T·S(HO)/kcal·mol⁻¹    T·S(FR)/kcal·mol⁻¹   T·S(vib)
   ------------------------------------------------------------------------
       1     62.87    -1.30143 ( 71.43%)    -0.98860 ( 28.57%)    -1.21204
       2     99.33    -1.03383 ( 93.97%)    -0.85315 (  6.03%)    -1.02293
       3    117.40    -0.93700 ( 96.81%)    -0.80363 (  3.19%)    -0.93275
       4    163.99    -0.74636 ( 99.14%)    -0.70465 (  0.86%)    -0.74600
       5    180.64    -0.69223 ( 99.42%)    -0.67599 (  0.58%)    -0.69213
       6    190.32    -0.66328 ( 99.53%)    -0.66053 (  0.47%)    -0.66327
       7    213.26    -0.60095 ( 99.70%)    -0.62683 (  0.30%)    -0.60103
       8    224.48    -0.57325 ( 99.75%)    -0.61164 (  0.25%)    -0.57334
       9    253.12    -0.50946 ( 99.85%)    -0.57606 (  0.15%)    -0.50956
      10    276.25    -0.46416 ( 99.89%)    -0.55017 (  0.11%)    -0.46425
      11    294.35    -0.43197 ( 99.92%)    -0.53137 (  0.08%)    -0.43205
   ------------------------------------------------------------------------

   temp. (K)  partition function   enthalpy   heat capacity  entropy
                                   cal/mol     cal/K/mol   cal/K/mol   J/K/mol
 298.15  VIB  0.628E+04             7319.426     53.581     41.580
         ROT  0.168E+07              888.752      2.981     31.472
         INT  0.106E+11             8208.179     56.562     73.053
         TR   0.291E+28             1481.254      4.968     41.886
         TOT                        9689.4324    61.5300   114.9388   480.9041

       T/K    H(0)-H(T)+PV         H(T)/Eh          T*S/Eh         G(T)/Eh
   ------------------------------------------------------------------------
    298.15    0.154411E-01    0.317611E+00    0.546112E-01    0.263000E+00
   ------------------------------------------------------------------------

         :::::::::::::::::::::::::::::::::::::::::::::::::::::
         ::                  THERMODYNAMIC                  ::
         :::::::::::::::::::::::::::::::::::::::::::::::::::::
         :: total free energy         -45.898753983457 Eh   ::
         ::.................................................::
         :: total energy              -46.161753745369 Eh   ::
         :: zero point energy           0.302169820912 Eh   ::
         :: G(RRHO) w/o ZPVE           -0.039170059000 Eh   ::
         :: G(RRHO) contrib.            0.262999761912 Eh   ::
         :::::::::::::::::::::::::::::::::::::::::::::::::::::

optimized geometry written to: xtbopt.coord


           -------------------------------------------------
          | TOTAL ENERGY              -46.161753745369 Eh   |
          | TOTAL ENTHALPY            -45.844142830984 Eh   |
          | TOTAL FREE ENERGY         -45.898753983457 Eh   |
          | GRADIENT NORM               0.000071262440 Eh/α |
          | HOMO-LUMO GAP               4.962988981424 eV   |
           -------------------------------------------------

------------------------------------------------------------------------
 * finished run on 2026/08/09 at 18:20:18.861     
------------------------------------------------------------------------
 total:
 * wall-time:     0 d,  0 h,  0 min,  1.516 sec
 *  cpu-time:     0 d,  0 h,  0 min, 16.032 sec
 * ratio c/w:    10.574 speedup
 SCF:
 * wall-time:     0 d,  0 h,  0 min,  0.062 sec
 *  cpu-time:     0 d,  0 h,  0 min,  0.696 sec
 * ratio c/w:    11.250 speedup
 ANC optimizer:
 * wall-time:     0 d,  0 h,  0 min,  0.354 sec
 *  cpu-time:     0 d,  0 h,  0 min,  4.237 sec
 * ratio c/w:    11.968 speedup
 analytical hessian:
 * wall-time:     0 d,  0 h,  0 min,  1.068 sec
 *  cpu-time:     0 d,  0 h,  0 min, 10.787 sec
 * ratio c/w:    10.104 speedup

normal termination of xtb
