      -----------------------------------------------------------      
     |                   =====================                   |     
     |                           x T B                           |     
     |                   =====================                   |     
     |                         S. Grimme                         |     
     |          Mulliken Center for Theoretical Chemistry        |     
     |                    University of Bonn                     |     
      -----------------------------------------------------------      

   * xtb version 6.7.1 (edcfbbe) compiled by 'albert@albert-system' on 2024-07-22

   xtb is free software: you can redistribute it and/or modify it under
   the terms of the GNU Lesser General Public License as published by
   the Free Software Foundation, either version 3 of the License, or
   (at your option) any later version.
   
   xtb is distributed in the hope that it will be useful,
   but WITHOUT ANY WARRANTY; without even the implied warranty of
   MERCHANTABILITY or FITNESS FOR A PARTICULAR PURPOSE.  See the
   GNU Lesser General Public License for more details.
   
   Cite this work as:
   * C. Bannwarth, E. Caldeweyher, S. Ehlert, A. Hansen, P. Pracht,
     J. Seibert, S. Spicher, S. Grimme, WIREs Comput. Mol. Sci., 2020, 11,
     e01493. DOI: 10.1002/wcms.1493
   
   for GFN2-xTB:
   * C. Bannwarth, S. Ehlert and S. Grimme., J. Chem. Theory Comput., 2019,
     15, 1652-1671. DOI: 10.1021/acs.jctc.8b01176
   for GFN1-xTB:
   * S. Grimme, C. Bannwarth, P. Shushkov, J. Chem. Theory Comput., 2017,
     13, 1989-2009. DOI: 10.1021/acs.jctc.7b00118
   for GFN0-xTB:
   * P. Pracht, E. Caldeweyher, S. Ehlert, S. Grimme, ChemRxiv, 2019, preprint.
     DOI: 10.26434/chemrxiv.8326202.v1
   for GFN-FF:
   * S. Spicher and S. Grimme, Angew. Chem. Int. Ed., 2020, 59, 15665-15673.
     DOI: 10.1002/anie.202004239
   
   for ALPB and GBSA implicit solvation:
   * S. Ehlert, M. Stahn, S. Spicher, S. Grimme, J. Chem. Theory Comput.,
     2021, 17, 4250-4261. DOI: 10.1021/acs.jctc.1c00471
   
   for ddCOSMO and CPCM-X implicit solvation:
   * M. Stahn, S. Ehlert, S. Grimme, J. Phys. Chem. A,
     2023, XX, XXXX-XXXX. DOI: 10.1021/acs.jpca.3c04382
   
   for DFT-D4:
   * E. Caldeweyher, C. Bannwarth and S. Grimme, J. Chem. Phys., 2017,
     147, 034112. DOI: 10.1063/1.4993215
   * E. Caldeweyher, S. Ehlert, A. Hansen, H. Neugebauer, S. Spicher,
     C. Bannwarth and S. Grimme, J. Chem. Phys., 2019, 150, 154122.
     DOI: 10.1063/1.5090222
   * E. Caldeweyher, J.-M. Mewes, S. Ehlert and S. Grimme, Phys. Chem. Chem. Phys.
     2020, 22, 8499-8512. DOI: 10.1039/D0CP00502A
   
   for sTDA-xTB:
   * S. Grimme and C. Bannwarth, J. Chem. Phys., 2016, 145, 054103.
     DOI: 10.1063/1.4959605
   
   in the mass-spec context:
   * V. Asgeirsson, C. Bauer and S. Grimme, Chem. Sci., 2017, 8, 4879.
     DOI: 10.1039/c7sc00601b
   * J. Koopman and S. Grimme, ACS Omega 2019, 4, 12, 15120-15133.
     DOI: 10.1021/acsomega.9b02011
   
   for metadynamics refer to:
   * S. Grimme, J. Chem. Theory Comput., 2019, 155, 2847-2862
     DOI: 10.1021/acs.jctc.9b00143
   
   for SPH calculations refer to:
   * S. Spicher and S. Grimme, J. Chem. Theory Comput., 2021, 17, 1701-1714
     DOI: 10.1021/acs.jctc.0c01306
   
   for ONIOM refer to:
   * C. Plett, A. Katbashev, S. Ehlert, S. Grimme, M. Bursch,
     Phys. Chem. Chem. Phys., 2023, 25, 17860-17868. DOI: 10.1039/D3CP02178E
   
   for DIPRO refer to:
   * J. Kohn, N. Gildemeister, S. Grimme, D. Fazzi, A. Hansen,
     J. Chem. Phys., 2023, just accepted.
   
   for PTB refer to:
   * S. Grimme, M. Mueller, A. Hansen, J. Chem. Phys., 2023, 158, 124111.
     DOI: 10.1063/5.0137838
   
   with help from (in alphabetical order)
   P. Atkinson, C. Bannwarth, F. Bohle, G. Brandenburg, E. Caldeweyher
   M. Checinski, S. Dohm, S. Ehlert, S. Ehrlich, I. Gerasimov, C. Hölzer
   A. Katbashev, J. Kohn, J. Koopman, C. Lavigne, S. Lehtola, F. März, M. Müller,
   F. Musil, H. Neugebauer, J. Pisarek, C. Plett, P. Pracht, F. Pultar,
   J. Seibert, P. Shushkov, S. Spicher, M. Stahn, M. Steiner, T. Strunk,
   J. Stückrath, T. Rose, and J. Unsleber
   
 * started run on 2026/08/09 at 21:57:29.935     
   ID    Z sym.   atoms
    1    6 c      1-8, 10-18, 20, 21, 24, 27
    2    7 n      9, 19
    3    8 o      22, 25, 26
    4    1 h      23, 28-50

           -------------------------------------------------
          |                Calculation Setup                |
           -------------------------------------------------

          program call               : /home/dinglab/software/xtb_6.7.1/xtb_dist/bin/xtb coord --gfn2 --ohess vtight --alpb chcl3 --chrg 0 --enso --norestart -I xcontrol-inp --parallel 12
          hostname                   : localhost
          coordinate file            : coord
          omp threads                :                    12


           -------------------------------------------------
          |                 G F N 2 - x T B                 |
           -------------------------------------------------

        Reference                      10.1021/acs.jctc.8b01176
      * Hamiltonian:
        H0-scaling (s, p, d)           1.850000    2.230000    2.230000
        zeta-weighting                 0.500000
      * Dispersion:
        s8                             2.700000
        a1                             0.520000
        a2                             5.000000
        s9                             5.000000
      * Repulsion:
        kExp                           1.500000    1.000000
        rExp                           1.000000
      * Coulomb:
        alpha                          2.000000
        third order                    shell-resolved
        anisotropic                    true
        a3                             3.000000
        a5                             4.000000
        cn-shift                       1.200000
        cn-exp                         4.000000
        max-rad                        5.000000

      * Solvation model:               ALPB
        Solvent                        chcl3
        Parameter file                 internal GFN2-xTB/ALPB
        Dielectric constant                4.8100E+00
        Reference state                gsolv [1 M gas/solution]
        Free energy shift                  3.8910E-03 Eh       2.4417E+00 kcal/mol
        Temperature                        2.9815E+02 K
        Density                            1.4900E+00 kg/L
        Solvent mass                       1.1938E+02 g/mol
        Interaction kernel             P16
        Born radius scaling (c1)           1.3274E+00
        Born radii integrator          GBOBC
        Born offset                        0.0000E+00 a0       0.0000E+00 AA
        H-bond correction              false
        Ion screening                  false
        Surface tension                    1.0000E-05 Eh       1.5569E+01 dyn/cm
        Grid points                               974 per atom

          ...................................................
          :                      SETUP                      :
          :.................................................:
          :  # basis functions                 128          :
          :  # atomic orbitals                 128          :
          :  # shells                           76          :
          :  # electrons                       136          :
          :  max. iterations                   250          :
          :  Hamiltonian                  GFN2-xTB          :
          :  restarted?                      false          :
          :  GBSA solvation                   true          :
          :  PC potential                    false          :
          :  electronic temp.          300.0000000     K    :
          :  accuracy                    1.0000000          :
          :  -> integral cutoff          0.2500000E+02      :
          :  -> integral neglect         0.1000000E-07      :
          :  -> SCF convergence          0.1000000E-05 Eh   :
          :  -> wf. convergence          0.1000000E-03 e    :
          :  Broyden damping             0.4000000          :
          :  net charge                          0          :
          :  unpaired electrons                  0          :
          ...................................................

 iter      E             dE          RMSdq      gap      omega  full diag
   1    -76.0915450 -0.760915E+02  0.392E+00    3.32       0.0  T
   2    -76.2489376 -0.157393E+00  0.217E+00    2.86       1.0  T
   3    -76.2533545 -0.441688E-02  0.105E+00    3.30       1.0  T
   4    -76.2568539 -0.349949E-02  0.331E-01    2.84       1.0  T
   5    -76.2596157 -0.276173E-02  0.115E-01    2.95       1.0  T
   6    -76.2598439 -0.228226E-03  0.562E-02    3.02       1.0  T
   7    -76.2598865 -0.426132E-04  0.231E-02    3.04       1.0  T
   8    -76.2598939 -0.734553E-05  0.103E-02    3.04       1.4  T
   9    -76.2598951 -0.127557E-05  0.318E-03    3.04       4.4  T
  10    -76.2598952 -0.963900E-07  0.145E-03    3.04       9.7  T
  11    -76.2598952 -0.161654E-07  0.710E-04    3.04      19.9  T
  12    -76.2598953 -0.367901E-08  0.240E-04    3.04      59.0  T

   *** convergence criteria satisfied after 12 iterations ***

         #    Occupation            Energy/Eh            Energy/eV
      -------------------------------------------------------------
         1        2.0000           -0.7508123             -20.4306
       ...           ...                  ...                  ...
        62        2.0000           -0.4170286             -11.3479
        63        2.0000           -0.4114159             -11.1952
        64        2.0000           -0.4015231             -10.9260
        65        2.0000           -0.3952529             -10.7554
        66        2.0000           -0.3575077              -9.7283
        67        2.0000           -0.3538821              -9.6296
        68        2.0000           -0.3500070              -9.5242 (HOMO)
        69                         -0.2383267              -6.4852 (LUMO)
        70                         -0.2204690              -5.9993
        71                         -0.2149572              -5.8493
        72                         -0.2062807              -5.6132
        73                         -0.0908938              -2.4733
       ...                                ...                  ...
       128                          0.6687713              18.1982
      -------------------------------------------------------------
                  HL-Gap            0.1116803 Eh            3.0390 eV
             Fermi-level           -0.2941668 Eh           -8.0047 eV

 SCC (total)                   0 d,  0 h,  0 min,  0.105 sec
 SCC setup                      ...        0 min,  0.001 sec (  0.966%)
 Dispersion                     ...        0 min,  0.001 sec (  0.737%)
 classical contributions        ...        0 min,  0.000 sec (  0.040%)
 integral evaluation            ...        0 min,  0.003 sec (  2.802%)
 iterations                     ...        0 min,  0.094 sec ( 89.337%)
 molecular gradient             ...        0 min,  0.006 sec (  5.918%)
 printout                       ...        0 min,  0.000 sec (  0.168%)

         :::::::::::::::::::::::::::::::::::::::::::::::::::::
         ::                     SUMMARY                     ::
         :::::::::::::::::::::::::::::::::::::::::::::::::::::
         :: total energy             -75.270673686881 Eh    ::
         :: total w/o Gsasa/hb       -75.251880840417 Eh    ::
         :: gradient norm              0.027556961198 Eh/a0 ::
         :: HOMO-LUMO gap              3.038975536463 eV    ::
         ::.................................................::
         :: SCC energy               -76.257800703491 Eh    ::
         :: -> isotropic ES            0.143704880858 Eh    ::
         :: -> anisotropic ES          0.005100263034 Eh    ::
         :: -> anisotropic XC          0.021532969383 Eh    ::
         :: -> dispersion             -0.067014536707 Eh    ::
         :: -> Gsolv                  -0.043037731832 Eh    ::
         ::    -> Gelec               -0.024244885368 Eh    ::
         ::    -> Gsasa               -0.022683865708 Eh    ::
         ::    -> Ghb                  0.000000000000 Eh    ::
         ::    -> Gshift               0.003891019244 Eh    ::
         :: repulsion energy           0.987127016610 Eh    ::
         :: add. restraining           0.000000000000 Eh    ::
         :: total charge               0.000000000000 e     ::
         :::::::::::::::::::::::::::::::::::::::::::::::::::::

      ----------------------------------------------------------- 
     |                   =====================                   |
     |                        A N C O P T                        |
     |                   =====================                   |
     |               Approximate Normal Coordinate               |
     |                Rational Function Optimizer                |
      ----------------------------------------------------------- 
      ----------------------------------------------------------- 
     |                   =====================                   |
     |                        A N C O P T                        |
     |                   =====================                   |
     |               Approximate Normal Coordinate               |
     |                Rational Function Optimizer                |
      ----------------------------------------------------------- 

          ...................................................
          :                      SETUP                      :
          :.................................................:
          :   optimization level         verytight          :
          :   max. optcycles                  1000          :
          :   ANC micro-cycles                  20          :
          :   degrees of freedom               144          :
          :.................................................:
          :   RF solver                   davidson          :
          :   write xtbopt.log                true          :
          :   linear?                        false          :
          :   energy convergence         0.1000000E-06 Eh   :
          :   grad. convergence          0.2000000E-03 Eh/α :
          :   maxmium RF displ.          1.0000000          :
          :   Hlow (freq-cutoff)         0.1000000E-01      :
          :   Hmax (freq-cutoff)         5.0000000          :
          :   S6 in model hess.         20.0000000          :
          ...................................................

generating ANC from exact Hessian ...
Using Lindh-Hessian (1995)
 Shifting diagonal of input Hessian by   9.278550194937549E-003
 Lowest  eigenvalues of input Hessian
    0.000000    0.000000    0.000000    0.000000    0.000000    0.000000
    0.010000    0.010341    0.011115    0.011554    0.012766    0.013552
    0.014655    0.016331    0.017791    0.019502    0.020192    0.022203
 Highest eigenvalues
    1.818011    1.913618    1.914091    2.035495    2.112028    2.356172
 

........................................................................
.............................. CYCLE    1 ..............................
........................................................................

 iter      E             dE          RMSdq      gap      omega  full diag
   1    -76.2598953 -0.762599E+02  0.910E-05    3.04       0.0  T
   2    -76.2598953 -0.627267E-10  0.579E-05    3.04     244.4  T
   3    -76.2598953 -0.105729E-10  0.355E-05    3.04     397.9  T
     SCC iter.                  ...        0 min,  0.010 sec
     gradient                   ...        0 min,  0.006 sec
 * total energy  :   -75.2706737 Eh     change       -0.7580638E-09 Eh
   gradient norm :     0.0275556 Eh/α   predicted     0.0000000E+00 (-100.00%)
   displ. norm   :     0.0781452 α      lambda       -0.6603613E-03
   maximum displ.:     0.0330367 α      in ANC's #15, #23, #25, ...

........................................................................
.............................. CYCLE    2 ..............................
........................................................................

 iter      E             dE          RMSdq      gap      omega  full diag
   1    -76.2584628 -0.762585E+02  0.340E-02    3.03       0.0  T
   2    -76.2584797 -0.168983E-04  0.182E-02    3.03       1.0  T
   3    -76.2584804 -0.782120E-06  0.943E-03    3.02       1.5  T
   4    -76.2584805 -0.805535E-07  0.293E-03    3.02       4.8  T
   5    -76.2584807 -0.149895E-06  0.134E-03    3.02      10.6  T
   6    -76.2584807 -0.309472E-07  0.681E-04    3.02      20.8  T
   7    -76.2584807 -0.503212E-08  0.284E-04    3.02      49.9  T
     SCC iter.                  ...        0 min,  0.022 sec
     gradient                   ...        0 min,  0.006 sec
 * total energy  :   -75.2711335 Eh     change       -0.4598490E-03 Eh
   gradient norm :     0.0137721 Eh/α   predicted    -0.3321995E-03 ( -27.76%)
   displ. norm   :     0.0649705 α      lambda       -0.2860859E-03
   maximum displ.:     0.0235075 α      in ANC's #15, #7, #20, ...

........................................................................
.............................. CYCLE    3 ..............................
........................................................................

 iter      E             dE          RMSdq      gap      omega  full diag
   1    -76.2581096 -0.762581E+02  0.328E-02    3.02       0.0  T
   2    -76.2581234 -0.137497E-04  0.171E-02    3.02       1.0  T
   3    -76.2581240 -0.609621E-06  0.877E-03    3.01       1.6  T
   4    -76.2581241 -0.137836E-06  0.237E-03    3.01       6.0  T
   5    -76.2581242 -0.848127E-07  0.103E-03    3.01      13.7  T
   6    -76.2581242 -0.638636E-08  0.617E-04    3.01      22.9  T
   7    -76.2581242 -0.434341E-08  0.259E-04    3.01      54.7  T
     SCC iter.                  ...        0 min,  0.023 sec
     gradient                   ...        0 min,  0.006 sec
 * total energy  :   -75.2712945 Eh     change       -0.1610129E-03 Eh
   gradient norm :     0.0039395 Eh/α   predicted    -0.1438431E-03 ( -10.66%)
   displ. norm   :     0.0233880 α      lambda       -0.2415801E-04
   maximum displ.:     0.0075672 α      in ANC's #20, #12, #1, ...

........................................................................
.............................. CYCLE    4 ..............................
........................................................................

 iter      E             dE          RMSdq      gap      omega  full diag
   1    -76.2584652 -0.762585E+02  0.904E-03    3.02       0.0  T
   2    -76.2584656 -0.446313E-06  0.519E-03    3.02       2.7  T
   3    -76.2584657 -0.169751E-07  0.203E-03    3.02       7.0  T
   4    -76.2584657 -0.248507E-07  0.436E-04    3.02      32.4  T
   5    -76.2584657 -0.234662E-08  0.227E-04    3.02      62.3  T
     SCC iter.                  ...        0 min,  0.017 sec
     gradient                   ...        0 min,  0.006 sec
 * total energy  :   -75.2713112 Eh     change       -0.1669600E-04 Eh
   gradient norm :     0.0020638 Eh/α   predicted    -0.1209416E-04 ( -27.56%)
   displ. norm   :     0.0250483 α      lambda       -0.1224213E-04
   maximum displ.:     0.0092940 α      in ANC's #1, #3, #20, ...

........................................................................
.............................. CYCLE    5 ..............................
........................................................................

 iter      E             dE          RMSdq      gap      omega  full diag
   1    -76.2587329 -0.762587E+02  0.874E-03    3.02       0.0  T
   2    -76.2587331 -0.122774E-06  0.525E-03    3.02       2.7  T
   3    -76.2587331  0.116621E-07  0.107E-03    3.02      13.2  T
   4    -76.2587331 -0.261835E-07  0.282E-04    3.02      50.1  T
   5    -76.2587331 -0.916884E-09  0.173E-04    3.02      81.8  T
     SCC iter.                  ...        0 min,  0.016 sec
     gradient                   ...        0 min,  0.006 sec
 * total energy  :   -75.2713189 Eh     change       -0.7619975E-05 Eh
   gradient norm :     0.0008619 Eh/α   predicted    -0.6139722E-05 ( -19.43%)
   displ. norm   :     0.0235077 α      lambda       -0.3042786E-05
   maximum displ.:     0.0095424 α      in ANC's #1, #3, #8, ...

........................................................................
.............................. CYCLE    6 ..............................
........................................................................

 iter      E             dE          RMSdq      gap      omega  full diag
   1    -76.2587911 -0.762588E+02  0.709E-03    3.02       0.0  T
   2    -76.2587912 -0.762064E-07  0.421E-03    3.02       3.4  T
   3    -76.2587912  0.142735E-08  0.651E-04    3.02      21.7  T
   4    -76.2587912 -0.571907E-08  0.223E-04    3.02      63.4  T
     SCC iter.                  ...        0 min,  0.013 sec
     gradient                   ...        0 min,  0.006 sec
 * total energy  :   -75.2713213 Eh     change       -0.2451551E-05 Eh
   gradient norm :     0.0007135 Eh/α   predicted    -0.1522430E-05 ( -37.90%)
   displ. norm   :     0.0140003 α      lambda       -0.1177547E-05
   maximum displ.:     0.0067356 α      in ANC's #1, #3, #8, ...

........................................................................
.............................. CYCLE    7 ..............................
........................................................................

 iter      E             dE          RMSdq      gap      omega  full diag
   1    -76.2587113 -0.762587E+02  0.370E-03    3.02       0.0  T
   2    -76.2587113 -0.147135E-07  0.218E-03    3.02       6.5  T
   3    -76.2587113  0.206751E-08  0.425E-04    3.02      33.3  T
   4    -76.2587113 -0.417374E-08  0.968E-05    3.02     146.1  T
     SCC iter.                  ...        0 min,  0.013 sec
     gradient                   ...        0 min,  0.006 sec
 * total energy  :   -75.2713226 Eh     change       -0.1248142E-05 Eh
   gradient norm :     0.0004508 Eh/α   predicted    -0.5932371E-06 ( -52.47%)
   displ. norm   :     0.0233046 α      lambda       -0.1216940E-05
   maximum displ.:     0.0109126 α      in ANC's #1, #3, #8, ...

........................................................................
.............................. CYCLE    8 ..............................
........................................................................

 iter      E             dE          RMSdq      gap      omega  full diag
   1    -76.2586480 -0.762586E+02  0.563E-03    3.02       0.0  T
   2    -76.2586480 -0.125692E-07  0.333E-03    3.02       4.2  T
   3    -76.2586480  0.433333E-08  0.437E-04    3.02      32.4  T
   4    -76.2586480 -0.680457E-08  0.149E-04    3.02      94.8  T
     SCC iter.                  ...        0 min,  0.013 sec
     gradient                   ...        0 min,  0.007 sec
 * total energy  :   -75.2713236 Eh     change       -0.1066821E-05 Eh
   gradient norm :     0.0003851 Eh/α   predicted    -0.6111183E-06 ( -42.72%)
   displ. norm   :     0.0172308 α      lambda       -0.5564886E-06
   maximum displ.:     0.0089536 α      in ANC's #1, #3, #8, ...

........................................................................
.............................. CYCLE    9 ..............................
........................................................................

 iter      E             dE          RMSdq      gap      omega  full diag
   1    -76.2586777 -0.762587E+02  0.411E-03    3.02       0.0  T
   2    -76.2586777 -0.614617E-08  0.243E-03    3.02       5.8  T
   3    -76.2586777  0.684069E-08  0.450E-04    3.02      31.5  T
   4    -76.2586777 -0.781502E-08  0.121E-04    3.02     117.0  T
     SCC iter.                  ...        0 min,  0.012 sec
     gradient                   ...        0 min,  0.007 sec
 * total energy  :   -75.2713242 Eh     change       -0.5213358E-06 Eh
   gradient norm :     0.0002346 Eh/α   predicted    -0.2827577E-06 ( -45.76%)
   displ. norm   :     0.0110072 α      lambda       -0.2745910E-06
   maximum displ.:     0.0058880 α      in ANC's #1, #6, #3, ...

........................................................................
.............................. CYCLE   10 ..............................
........................................................................

 iter      E             dE          RMSdq      gap      omega  full diag
   1    -76.2587188 -0.762587E+02  0.244E-03    3.02       0.0  T
   2    -76.2587188 -0.221473E-08  0.145E-03    3.02       9.8  T
   3    -76.2587188  0.295243E-08  0.299E-04    3.02      47.4  T
   4    -76.2587188 -0.344014E-08  0.702E-05    3.02     201.6  T
     SCC iter.                  ...        0 min,  0.012 sec
     gradient                   ...        0 min,  0.007 sec
 * total energy  :   -75.2713245 Eh     change       -0.3158096E-06 Eh
   gradient norm :     0.0001187 Eh/α   predicted    -0.1396811E-06 ( -55.77%)
   displ. norm   :     0.0168478 α      lambda       -0.3260993E-06
   maximum displ.:     0.0110017 α      in ANC's #6, #1, #3, ...

........................................................................
.............................. CYCLE   11 ..............................
........................................................................

 iter      E             dE          RMSdq      gap      omega  full diag
   1    -76.2587541 -0.762588E+02  0.346E-03    3.02       0.0  T
   2    -76.2587541 -0.463153E-08  0.204E-03    3.02       6.9  T
   3    -76.2587541  0.176108E-08  0.286E-04    3.02      49.5  T
   4    -76.2587541 -0.263735E-08  0.103E-04    3.02     137.6  T
     SCC iter.                  ...        0 min,  0.013 sec
     gradient                   ...        0 min,  0.007 sec
 * total energy  :   -75.2713248 Eh     change       -0.3542472E-06 Eh
   gradient norm :     0.0002004 Eh/α   predicted    -0.1658562E-06 ( -53.18%)
   displ. norm   :     0.0124989 α      lambda       -0.2111193E-06
   maximum displ.:     0.0085666 α      in ANC's #6, #1, #4, ...

........................................................................
.............................. CYCLE   12 ..............................
........................................................................

 iter      E             dE          RMSdq      gap      omega  full diag
   1    -76.2587584 -0.762588E+02  0.247E-03    3.02       0.0  T
   2    -76.2587584 -0.193826E-08  0.146E-03    3.02       9.7  T
   3    -76.2587584 -0.743086E-10  0.133E-04    3.02     106.5  T
   4    -76.2587584 -0.360174E-09  0.729E-05    3.02     194.0  T
     SCC iter.                  ...        0 min,  0.013 sec
     gradient                   ...        0 min,  0.007 sec
 * total energy  :   -75.2713251 Eh     change       -0.2638569E-06 Eh
   gradient norm :     0.0002016 Eh/α   predicted    -0.1071387E-06 ( -59.40%)
   displ. norm   :     0.0143825 α      lambda       -0.2441581E-06
   maximum displ.:     0.0099038 α      in ANC's #6, #1, #4, ...

........................................................................
.............................. CYCLE   13 ..............................
........................................................................

 iter      E             dE          RMSdq      gap      omega  full diag
   1    -76.2587413 -0.762587E+02  0.279E-03    3.02       0.0  T
   2    -76.2587413 -0.221006E-08  0.164E-03    3.02       8.6  T
   3    -76.2587413 -0.271811E-09  0.130E-04    3.02     108.5  T
   4    -76.2587413 -0.338900E-09  0.730E-05    3.02     193.8  T
     SCC iter.                  ...        0 min,  0.012 sec
     gradient                   ...        0 min,  0.007 sec
 * total energy  :   -75.2713254 Eh     change       -0.3049939E-06 Eh
   gradient norm :     0.0001080 Eh/α   predicted    -0.1236903E-06 ( -59.44%)
   displ. norm   :     0.0139646 α      lambda       -0.1841961E-06
   maximum displ.:     0.0098599 α      in ANC's #6, #1, #4, ...

........................................................................
.............................. CYCLE   14 ..............................
........................................................................

 iter      E             dE          RMSdq      gap      omega  full diag
   1    -76.2587192 -0.762587E+02  0.251E-03    3.02       0.0  T
   2    -76.2587192 -0.165474E-08  0.148E-03    3.02       9.6  T
   3    -76.2587192  0.886828E-09  0.209E-04    3.02      67.7  T
   4    -76.2587192 -0.148474E-08  0.736E-05    3.02     192.1  T
     SCC iter.                  ...        0 min,  0.012 sec
     gradient                   ...        0 min,  0.007 sec
 * total energy  :   -75.2713256 Eh     change       -0.2291553E-06 Eh
   gradient norm :     0.0000690 Eh/α   predicted    -0.9581344E-07 ( -58.19%)
   displ. norm   :     0.0121211 α      lambda       -0.1341679E-06
   maximum displ.:     0.0087043 α      in ANC's #6, #1, #4, ...

........................................................................
.............................. CYCLE   15 ..............................
........................................................................

 iter      E             dE          RMSdq      gap      omega  full diag
   1    -76.2587075 -0.762587E+02  0.205E-03    3.02       0.0  T
   2    -76.2587075 -0.120758E-08  0.121E-03    3.02      11.7  T
   3    -76.2587075  0.599130E-09  0.173E-04    3.02      81.9  T
   4    -76.2587075 -0.990255E-09  0.594E-05    3.02     238.2  T
     SCC iter.                  ...        0 min,  0.012 sec
     gradient                   ...        0 min,  0.007 sec
 * total energy  :   -75.2713258 Eh     change       -0.1726421E-06 Eh
   gradient norm :     0.0000970 Eh/α   predicted    -0.6750440E-07 ( -60.90%)
   displ. norm   :     0.0126290 α      lambda       -0.1363589E-06
   maximum displ.:     0.0092242 α      in ANC's #6, #1, #4, ...

........................................................................
.............................. CYCLE   16 ..............................
........................................................................

 iter      E             dE          RMSdq      gap      omega  full diag
   1    -76.2587048 -0.762587E+02  0.205E-03    3.02       0.0  T
   2    -76.2587048 -0.111635E-08  0.121E-03    3.02      11.7  T
   3    -76.2587048  0.701078E-09  0.178E-04    3.02      79.4  T
   4    -76.2587048 -0.107546E-08  0.538E-05    3.02     263.0  T
     SCC iter.                  ...        0 min,  0.012 sec
     gradient                   ...        0 min,  0.007 sec
 * total energy  :   -75.2713260 Eh     change       -0.1832766E-06 Eh
   gradient norm :     0.0000990 Eh/α   predicted    -0.7156868E-07 ( -60.95%)
   displ. norm   :     0.0156469 α      lambda       -0.1742673E-06
   maximum displ.:     0.0114391 α      in ANC's #6, #1, #2, ...

........................................................................
.............................. CYCLE   17 ..............................
........................................................................

 iter      E             dE          RMSdq      gap      omega  full diag
   1    -76.2586993 -0.762587E+02  0.247E-03    3.02       0.0  T
   2    -76.2586993 -0.131179E-08  0.147E-03    3.02       9.7  T
   3    -76.2586993  0.474415E-09  0.168E-04    3.02      84.0  T
   4    -76.2586993 -0.910376E-09  0.550E-05    3.02     257.0  T
     SCC iter.                  ...        0 min,  0.013 sec
     gradient                   ...        0 min,  0.007 sec
 * total energy  :   -75.2713262 Eh     change       -0.2315559E-06 Eh
   gradient norm :     0.0000836 Eh/α   predicted    -0.8795402E-07 ( -62.02%)
   displ. norm   :     0.0192862 α      lambda       -0.2023855E-06
   maximum displ.:     0.0143217 α      in ANC's #6, #1, #2, ...

........................................................................
.............................. CYCLE   18 ..............................
........................................................................

 iter      E             dE          RMSdq      gap      omega  full diag
   1    -76.2587021 -0.762587E+02  0.300E-03    3.02       0.0  T
   2    -76.2587021 -0.155293E-08  0.178E-03    3.02       8.0  T
   3    -76.2587021  0.972591E-10  0.147E-04    3.02      96.0  T
   4    -76.2587021 -0.612815E-09  0.585E-05    3.02     241.6  T
     SCC iter.                  ...        0 min,  0.013 sec
     gradient                   ...        0 min,  0.007 sec
 * total energy  :   -75.2713265 Eh     change       -0.2631913E-06 Eh
   gradient norm :     0.0000645 Eh/α   predicted    -0.1045431E-06 ( -60.28%)
   displ. norm   :     0.0184875 α      lambda       -0.1789304E-06
   maximum displ.:     0.0139982 α      in ANC's #6, #1, #2, ...

........................................................................
.............................. CYCLE   19 ..............................
........................................................................

 iter      E             dE          RMSdq      gap      omega  full diag
   1    -76.2587057 -0.762587E+02  0.290E-03    3.02       0.0  T
   2    -76.2587057 -0.124497E-08  0.172E-03    3.02       8.2  T
   3    -76.2587057 -0.199094E-09  0.102E-04    3.02     138.8  T
   4    -76.2587057 -0.198071E-09  0.549E-05    3.02     257.8  T
     SCC iter.                  ...        0 min,  0.013 sec
     gradient                   ...        0 min,  0.007 sec
 * total energy  :   -75.2713267 Eh     change       -0.2371502E-06 Eh
   gradient norm :     0.0000642 Eh/α   predicted    -0.9226008E-07 ( -61.10%)
   displ. norm   :     0.0149870 α      lambda       -0.1449906E-06
   maximum displ.:     0.0116203 α      in ANC's #6, #1, #2, ...

........................................................................
.............................. CYCLE   20 ..............................
........................................................................

 iter      E             dE          RMSdq      gap      omega  full diag
   1    -76.2587087 -0.762587E+02  0.242E-03    3.02       0.0  T
   2    -76.2587087 -0.878387E-09  0.144E-03    3.02       9.8  T
   3    -76.2587087  0.656641E-09  0.165E-04    3.02      85.6  T
   4    -76.2587087 -0.982538E-09  0.536E-05    3.02     263.8  T
     SCC iter.                  ...        0 min,  0.013 sec
     gradient                   ...        0 min,  0.007 sec
 * total energy  :   -75.2713269 Eh     change       -0.1946740E-06 Eh
   gradient norm :     0.0000616 Eh/α   predicted    -0.7564183E-07 ( -61.14%)
   displ. norm   :     0.0109636 α      lambda       -0.1167776E-06
   maximum displ.:     0.0086291 α      in ANC's #6, #2, #4, ...
 * RMSD in coord.:     0.0410775 α      energy gain  -0.6532171E-03 Eh

generating ANC from exact Hessian ...
Using Lindh-Hessian (1995)
 Shifting diagonal of input Hessian by   9.272939101874281E-003
 Lowest  eigenvalues of input Hessian
    0.000000    0.000000    0.000000    0.000000    0.000000    0.000000
    0.010000    0.010337    0.011107    0.011508    0.012726    0.013477
    0.014569    0.016233    0.017750    0.019494    0.020185    0.022126
 Highest eigenvalues
    1.817164    1.911161    1.912581    2.032072    2.109614    2.333262
 

........................................................................
.............................. CYCLE   21 ..............................
........................................................................

 iter      E             dE          RMSdq      gap      omega  full diag
   1    -76.2587178 -0.762587E+02  0.194E-03    3.02       0.0  T
   2    -76.2587178 -0.614946E-09  0.115E-03    3.02      12.3  T
   3    -76.2587178  0.235900E-09  0.115E-04    3.02     123.3  T
   4    -76.2587178 -0.420158E-09  0.440E-05    3.02     321.5  T
     SCC iter.                  ...        0 min,  0.014 sec
     gradient                   ...        0 min,  0.007 sec
 * total energy  :   -75.2713271 Eh     change       -0.1567505E-06 Eh
   gradient norm :     0.0000542 Eh/α   predicted     0.0000000E+00 (-100.00%)
   displ. norm   :     0.0000813 α      lambda        0.0000000E+00
   maximum displ.:     0.0000266 α      in ANC's #6, #136, #130, ...

........................................................................
.............................. CYCLE   22 ..............................
........................................................................

 iter      E             dE          RMSdq      gap      omega  full diag
   1    -76.2587137 -0.762587E+02  0.840E-05    3.02       0.0  T
   2    -76.2587137 -0.507754E-10  0.500E-05    3.02     283.1  T
   3    -76.2587137 -0.369482E-12  0.256E-05    3.02     552.3  T
     SCC iter.                  ...        0 min,  0.010 sec
     gradient                   ...        0 min,  0.007 sec
 * total energy  :   -75.2713271 Eh     change       -0.2960590E-08 Eh
   gradient norm :     0.0000308 Eh/α   predicted    -0.1700614E-08 ( -42.56%)
   displ. norm   :     0.0000813 α      lambda        0.0000000E+00
   maximum displ.:     0.0000266 α      in ANC's #6, #136, #130, ...

   *** GEOMETRY OPTIMIZATION CONVERGED AFTER 22 ITERATIONS ***

------------------------------------------------------------------------
 total energy gain   :        -0.0006534 Eh       -0.4100 kcal/mol
 total RMSD          :         0.0410780 a0        0.0217 Å
 total power (kW/mol):        -0.0779746 (step)   -2.5118 (real)
------------------------------------------------------------------------

 ANCopt (total)                0 d,  0 h,  0 min,  0.683 sec
 optimizer setup                ...        0 min,  0.000 sec (  0.025%)
 model hessian                  ...        0 min,  0.139 sec ( 20.288%)
 ANC generation                 ...        0 min,  0.006 sec (  0.861%)
 coordinate transformation      ...        0 min,  0.000 sec (  0.072%)
 single point calculation       ...        0 min,  0.531 sec ( 77.742%)
 optimization log               ...        0 min,  0.004 sec (  0.556%)
 hessian update                 ...        0 min,  0.000 sec (  0.062%)
 rational function              ...        0 min,  0.001 sec (  0.215%)

================
 final structure:
================
$coord
       -0.82438243441836       -1.06328288005131       -5.12656027012447      c
        1.32952479644447        0.80892077604584       -4.64700589035148      c
       -4.63619029393234        6.25456413728524        1.05056740587753      c
       -6.67794698281217        5.41290579225365       -0.35468221118378      c
       -6.60560041414894        3.04002660466117       -1.42201380492012      c
       -4.51201781258595        1.46281815904947       -1.09272229136926      c
       -2.47117320303891        2.26551283310584        0.38688283002504      c
       -2.58104624368223        4.68035853607540        1.41409416781242      c
       -4.50896706491044       -0.89422148668820       -2.16486187808390      n
       -2.15450242082705       -2.11551702400695       -2.73268968486778      c
       -0.38687276146639       -2.07884234555066       -0.39643382090424      c
       -0.23374571466295        0.55811146602880        0.92866355862566      c
        2.27471044689138       -2.59113908351318       -1.45390947288801      c
        3.00913339416873        0.06641346156789       -2.37498689634972      c
        2.25038590445024        1.63066718314822       -0.10172290275672      c
        5.76338156590169        0.54421125359252       -2.86154976080451      c
        7.19334216599230        1.93879783631778       -1.34574018836531      c
        6.31846548827948        3.00652341256854        1.14640524450511      c
        4.17929059523844        1.42100572615635        1.98376133295569      n
        2.63947278244183        2.20009239287420        4.17818622891933      c
        0.30597706844048        0.51673547936853        3.81999756867025      c
        5.12177100336008       -0.89278552484379        2.50940348064999      o
        2.10608180996746        3.63990835600153       -0.53852747080758      h
       -1.38058683705075       -4.12195496502685        1.33832199469906      c
       -3.01611479661779       -3.83398307896686        2.91234917142866      o
       -0.34166465454397       -6.35521334359934        0.83305813328068      o
       -1.19812020104439       -8.46262690179208        2.28334328382461      c
       -0.08780043230053       -2.65881107427103       -6.20204282437412      h
       -2.25009174618538       -0.14672587344615       -6.30400371394445      h
        2.48266512408972        0.91414683380917       -6.35434821969226      h
        0.54921879173427        2.69006753647155       -4.31900946529807      h
       -4.64821584552887        8.11979818392391        1.87693472883843      h
       -8.30777263648801        6.61006905263928       -0.63054374801940      h
       -8.17713089545035        2.36125914461350       -2.53690453639711      h
       -1.03635360333004        5.37221795475714        2.54688202338938      h
       -5.92817253942657       -1.23556172243363       -3.39219538759325      h
       -2.60760951791097       -4.10429132979738       -3.11496749344906      h
        3.56360293978822       -3.15758580881171        0.04881043267185      h
        2.27612991717025       -4.02108259566914       -2.92469530832834      h
        6.55002255178734       -0.26773859957529       -4.56093687596210      h
        9.15588468943138        2.27595891449368       -1.79213671406290      h
        5.76233323360612        4.99207999931475        0.99634731696722      h
        7.82080387302592        2.81152639008440        2.54777540512232      h
        3.66903768226619        1.75220178815691        5.90300798070901      h
        2.21925583496009        4.21319578810485        4.09328029692948      h
       -1.31196673192091        1.15099290296003        4.91545697414036      h
        0.81326037024751       -1.38377512888649        4.42504616904276      h
       -0.36996185742579      -10.12248370046093        1.40362312020056      h
       -0.56057169939150       -8.28050621006061        4.23576220142497      h
       -3.25854216025446       -8.55353240548919        2.25597323275590      h
$end
 
 Bond Distances (Angstroems)
 ---------------------------
C1-C2=1.5314         C1-C10=1.5525        C1-H28=1.0903        C1-H29=1.0921        C2-C1=1.5314         C2-C14=1.5459        
C2-H30=1.0917        C2-H31=1.0916        C3-C4=1.3852         C3-C8=1.3834         C3-H32=1.0796        C4-C3=1.3852         
C4-C5=1.3774         C4-H33=1.0800        C5-C4=1.3774         C5-C6=1.3980         C5-H34=1.0811        C6-C5=1.3980         
C6-C7=1.3999         C6-N9=1.3703         C7-C6=1.3999         C7-C8=1.3899         C7-C12=1.5167        C8-C3=1.3834         
C8-C7=1.3899         C8-H35=1.0778        N9-C6=1.3703         N9-C10=1.4354        N9-H36=1.0092        C10-C1=1.5525        
C10-N9=1.4354        C10-C11=1.5504       C10-H37=1.0982       C11-C10=1.5504       C11-C12=1.5638       C11-C13=1.5396       
C11-C24=1.5127       C12-C7=1.5167        C12-C11=1.5638       C12-C15=1.5321       C12-C21=1.5566       C13-C11=1.5396       
C13-C14=1.5383       C13-H38=1.0897       C13-H39=1.0855       C14-C2=1.5459        C14-C13=1.5383       C14-C15=1.5144       
C14-C16=1.5015       C15-C12=1.5321       C15-C14=1.5144       C15-N19=1.5074       C15-H23=1.0908       C16-C14=1.5015       
C16-C17=1.3269       C16-H40=1.0801       C17-C16=1.3269       C17-C18=1.5076       C17-H41=1.0799       C18-C17=1.5076       
C18-N19=1.4771       C18-H42=1.0940       C18-H43=1.0921       N19-C15=1.5074       N19-C18=1.4771       N19-C20=1.4773       
N19-O22=1.3510       C20-N19=1.4773       C20-C21=1.5344       C20-H44=1.0891       C20-H45=1.0892       C21-C12=1.5566       
C21-C20=1.5344       C21-H46=1.0871       C21-H47=1.0890       O22-N19=1.3510       H23-C15=1.0908       C24-C11=1.5127       
C24-O25=1.2108       C24-O26=1.3306       O25-C24=1.2108       O26-C24=1.3306       O26-C27=1.4276       C27-O26=1.4276       
C27-H48=1.0864       C27-H49=1.0911       C27-H50=1.0915       H28-C1=1.0903        H29-C1=1.0921        H30-C2=1.0917        
H31-C2=1.0916        H32-C3=1.0796        H33-C4=1.0800        H34-C5=1.0811        H35-C8=1.0778        H36-N9=1.0092        
H37-C10=1.0982       H38-C13=1.0897       H39-C13=1.0855       H40-C16=1.0801       H41-C17=1.0799       H42-C18=1.0940       
H43-C18=1.0921       H44-C20=1.0891       H45-C20=1.0892       H46-C21=1.0871       H47-C21=1.0890       H48-C27=1.0864       
H49-C27=1.0911       H50-C27=1.0915       
 C  H  Rav=1.0877 sigma=0.0054  Rmin=1.0778  Rmax=1.0982    23
 C  C  Rav=1.4845 sigma=0.0741  Rmin=1.3269  Rmax=1.5638    22
 N  H  Rav=1.0092 sigma=0.0000  Rmin=1.0092  Rmax=1.0092     1
 N  C  Rav=1.4535 sigma=0.0475  Rmin=1.3703  Rmax=1.5074     5
 O  C  Rav=1.3230 sigma=0.0887  Rmin=1.2108  Rmax=1.4276     3
 O  N  Rav=1.3510 sigma=0.0000  Rmin=1.3510  Rmax=1.3510     1
 
 selected bond angles (degree)
 --------------------
C10-C1-C2=115.74               H28-C1-C2=108.75               H28-C1-C10=108.08              H29-C1-C2=108.75               
H29-C1-C10=108.16              H29-C1-H28=107.04              C14-C2-C1=113.10               H30-C2-C1=108.17               
H30-C2-C14=109.59              H31-C2-C1=109.56               H31-C2-C14=109.00              H31-C2-H30=107.25              
C8-C3-C4=119.62                H32-C3-C4=120.45               H32-C3-C8=119.92               C5-C4-C3=119.44                
H33-C4-C3=120.45               H33-C4-C5=120.10               C6-C5-C4=121.01                H34-C5-C4=120.35               
H34-C5-C6=118.64               C7-C6-C5=119.99                N9-C6-C5=119.52                N9-C6-C7=120.45                
C8-C7-C6=117.74                C12-C7-C6=121.82               C12-C7-C8=120.43               C7-C8-C3=122.15                
H35-C8-C3=117.97               H35-C8-C7=119.88               C10-N9-C6=119.84               H36-N9-C6=115.37               
H36-N9-C10=115.51              N9-C10-C1=113.76               C11-C10-C1=111.88              C11-C10-N9=110.56              
H37-C10-C1=107.00              H37-C10-N9=106.29              H37-C10-C11=106.89             
 
 selected dihedral angles (degree)
 ---------------------------------
C14-C2-C1-C10= 39.92          C14-C2-C1-H28=278.09          C14-C2-C1-H29=161.85          H30-C2-C1-C10=161.49          
H30-C2-C1-H28= 39.66          H30-C2-C1-H29=283.43          H31-C2-C1-C10=278.10          H31-C2-C1-H28=156.27          
H31-C2-C1-H29= 40.03          C5-C4-C3-C8=358.44            C5-C4-C3-H32=179.06           H33-C4-C3-C8=179.06           
H33-C4-C3-H32=359.68          C6-C5-C4-C3=  0.48            C6-C5-C4-H33=179.86           H34-C5-C4-C3=180.51           
H34-C5-C4-H33=359.89          C7-C6-C5-C4=  1.44            C7-C6-C5-H34=181.41           N9-C6-C5-C4=179.52            
N9-C6-C5-H34=359.49           C8-C7-C6-C5=357.80            C8-C7-C6-N9=179.74            C12-C7-C6-C5=176.18           
C12-C7-C6-N9=358.11           C7-C8-C3-C4=  0.75            C7-C8-C3-H32=180.13           H35-C8-C3-C4=181.21           
H35-C8-C3-H32=  0.59          C3-C8-C7-C6=  1.13            C3-C8-C7-C12=182.73           H35-C8-C7-C6=180.66           
H35-C8-C7-C12=  2.27          C10-N9-C6-C5=155.24           C10-N9-C6-C7=333.31           H36-N9-C6-C5= 10.01           
H36-N9-C6-C7=188.08           N9-C10-C1-C2=100.14           N9-C10-C1-H28=222.33          N9-C10-C1-H29=337.89          
C11-C10-C1-C2=333.97          C11-C10-C1-H28= 96.16         C11-C10-C1-H29=211.72         H37-C10-C1-C2=217.21          
H37-C10-C1-H28=339.40         H37-C10-C1-H29= 94.96         C1-C10-N9-C6=283.74           C1-C10-N9-H36= 68.93          
C11-C10-N9-C6= 50.60          C11-C10-N9-H36=195.79         H37-C10-N9-C6=166.25          H37-C10-N9-H36=311.44         
           -------------------------------------------------
          |                Final Singlepoint                |
           -------------------------------------------------

          ...................................................
          :                      SETUP                      :
          :.................................................:
          :  # basis functions                 128          :
          :  # atomic orbitals                 128          :
          :  # shells                           76          :
          :  # electrons                       136          :
          :  max. iterations                   250          :
          :  Hamiltonian                  GFN2-xTB          :
          :  restarted?                      false          :
          :  GBSA solvation                   true          :
          :  PC potential                    false          :
          :  electronic temp.          300.0000000     K    :
          :  accuracy                    1.0000000          :
          :  -> integral cutoff          0.2500000E+02      :
          :  -> integral neglect         0.1000000E-07      :
          :  -> SCF convergence          0.1000000E-05 Eh   :
          :  -> wf. convergence          0.1000000E-03 e    :
          :  Broyden damping             0.4000000          :
          :  net charge                          0          :
          :  unpaired electrons                  0          :
          ...................................................

 iter      E             dE          RMSdq      gap      omega  full diag
   1    -76.2587137 -0.762587E+02  0.872E-06    3.02       0.0  T
   2    -76.2587137 -0.525802E-12  0.701E-06    3.02    2016.2  T
   3    -76.2587137 -0.181899E-11  0.247E-06    3.02    5730.4  T

   *** convergence criteria satisfied after 3 iterations ***

         #    Occupation            Energy/Eh            Energy/eV
      -------------------------------------------------------------
         1        2.0000           -0.7511322             -20.4393
       ...           ...                  ...                  ...
        62        2.0000           -0.4172277             -11.3533
        63        2.0000           -0.4117126             -11.2033
        64        2.0000           -0.4017636             -10.9325
        65        2.0000           -0.3953694             -10.7586
        66        2.0000           -0.3558241              -9.6825
        67        2.0000           -0.3540254              -9.6335
        68        2.0000           -0.3500050              -9.5241 (HOMO)
        69                         -0.2391424              -6.5074 (LUMO)
        70                         -0.2206820              -6.0051
        71                         -0.2152620              -5.8576
        72                         -0.2065272              -5.6199
        73                         -0.0913796              -2.4866
       ...                                ...                  ...
       128                          0.6675089              18.1638
      -------------------------------------------------------------
                  HL-Gap            0.1108626 Eh            3.0167 eV
             Fermi-level           -0.2945737 Eh           -8.0158 eV

 SCC (total)                   0 d,  0 h,  0 min,  0.020 sec
 SCC setup                      ...        0 min,  0.001 sec (  4.679%)
 Dispersion                     ...        0 min,  0.000 sec (  1.677%)
 classical contributions        ...        0 min,  0.000 sec (  0.142%)
 integral evaluation            ...        0 min,  0.002 sec ( 11.719%)
 iterations                     ...        0 min,  0.010 sec ( 46.664%)
 molecular gradient             ...        0 min,  0.007 sec ( 34.220%)
 printout                       ...        0 min,  0.000 sec (  0.733%)

         :::::::::::::::::::::::::::::::::::::::::::::::::::::
         ::                     SUMMARY                     ::
         :::::::::::::::::::::::::::::::::::::::::::::::::::::
         :: total energy             -75.271327063667 Eh    ::
         :: total w/o Gsasa/hb       -75.252511766541 Eh    ::
         :: gradient norm              0.000030833512 Eh/a0 ::
         :: HOMO-LUMO gap              3.016725152583 eV    ::
         ::.................................................::
         :: SCC energy               -76.256622371856 Eh    ::
         :: -> isotropic ES            0.148406191226 Eh    ::
         :: -> anisotropic ES          0.004894688367 Eh    ::
         :: -> anisotropic XC          0.022005055582 Eh    ::
         :: -> dispersion             -0.066920906747 Eh    ::
         :: -> Gsolv                  -0.044608797078 Eh    ::
         ::    -> Gelec               -0.025793499953 Eh    ::
         ::    -> Gsasa               -0.022706316369 Eh    ::
         ::    -> Ghb                  0.000000000000 Eh    ::
         ::    -> Gshift               0.003891019244 Eh    ::
         :: repulsion energy           0.985295308189 Eh    ::
         :: add. restraining           0.000000000000 Eh    ::
         :: total charge              -0.000000000000 e     ::
         :::::::::::::::::::::::::::::::::::::::::::::::::::::

           ------------------------------------------------- 
          |                Numerical Hessian                |
           ------------------------------------------------- 
step length          :   0.00500
SCC accuracy         :   0.30000
Hessian scale factor :   1.00000
frozen atoms in %    :   0.00000    0
RMS gradient         :   0.00003
estimated CPU  time      4.82 min
estimated wall time      0.40 min

writing file <hessian>.

 projected vibrational frequencies (cm⁻¹)
eigval :       -0.00    -0.00    -0.00    -0.00     0.00     0.00
eigval :       36.16    44.93    49.05    68.74    88.97   106.10
eigval :      129.68   145.74   187.59   197.29   214.90   230.79
eigval :      244.39   258.65   272.54   296.47   311.35   323.34
eigval :      326.15   364.57   375.20   403.30   417.42   430.28
eigval :      448.64   464.09   472.93   482.01   500.01   505.42
eigval :      516.27   552.37   564.36   571.88   592.89   604.79
eigval :      648.75   677.76   685.72   704.20   715.97   751.20
eigval :      761.74   771.05   793.55   804.93   831.30   838.88
eigval :      856.25   858.53   872.70   896.52   902.56   908.40
eigval :      915.91   931.10   954.82   962.41   971.00   984.06
eigval :      989.68  1002.91  1008.45  1020.74  1039.63  1050.68
eigval :     1055.91  1071.37  1089.12  1101.36  1109.98  1110.99
eigval :     1113.70  1123.92  1124.38  1136.81  1141.42  1150.61
eigval :     1157.13  1159.98  1167.90  1177.81  1180.72  1182.89
eigval :     1186.49  1199.98  1206.20  1222.53  1236.51  1245.32
eigval :     1258.25  1264.19  1278.52  1282.31  1293.11  1304.07
eigval :     1307.05  1315.80  1321.77  1327.50  1331.57  1343.25
eigval :     1344.12  1352.66  1376.24  1386.17  1427.01  1429.61
eigval :     1441.16  1452.59  1456.55  1459.53  1466.90  1482.80
eigval :     1494.60  1500.54  1582.31  1599.49  1697.32  1710.27
eigval :     2893.86  2919.32  2962.98  2965.72  2975.08  2977.08
eigval :     2980.53  2981.82  2986.72  2990.72  2995.44  3008.78
eigval :     3012.37  3019.83  3031.32  3038.39  3045.63  3063.44
eigval :     3070.81  3075.39  3085.58  3087.26  3110.71  3435.65
           -------------------------------------------------
          |                Property Printout                |
           -------------------------------------------------

    * Orbital Energies and Occupations

         #    Occupation            Energy/Eh            Energy/eV
      -------------------------------------------------------------
         1        2.0000           -0.7511322             -20.4393
       ...           ...                  ...                  ...
        56        2.0000           -0.4458623             -12.1325
        57        2.0000           -0.4439613             -12.0808
        58        2.0000           -0.4349196             -11.8348
        59        2.0000           -0.4305329             -11.7154
        60        2.0000           -0.4287952             -11.6681
        61        2.0000           -0.4231725             -11.5151
        62        2.0000           -0.4172277             -11.3533
        63        2.0000           -0.4117126             -11.2033
        64        2.0000           -0.4017636             -10.9325
        65        2.0000           -0.3953694             -10.7585
        66        2.0000           -0.3558241              -9.6825
        67        2.0000           -0.3540254              -9.6335
        68        2.0000           -0.3500050              -9.5241 (HOMO)
        69                         -0.2391424              -6.5074 (LUMO)
        70                         -0.2206820              -6.0051
        71                         -0.2152620              -5.8576
        72                         -0.2065272              -5.6199
        73                         -0.0913796              -2.4866
        74                         -0.0519596              -1.4139
        75                         -0.0223410              -0.6079
        76                         -0.0107419              -0.2923
        77                         -0.0004394              -0.0120
        78                          0.0129320               0.3519
        79                          0.0246936               0.6719
       ...                                ...                  ...
       128                          0.6675089              18.1638
      -------------------------------------------------------------
                  HL-Gap            0.1108626 Eh            3.0167 eV
             Fermi-level           -0.2945737 Eh           -8.0158 eV

     #   Z          covCN         q      C6AA      α(0)
     1   6 c        3.799    -0.070    21.844     6.655
     2   6 c        3.806    -0.066    21.762     6.641
     3   6 c        2.918    -0.053    29.319     8.879
     4   6 c        2.918    -0.036    28.903     8.816
     5   6 c        2.925    -0.066    29.639     8.928
     6   6 c        2.916     0.072    26.393     8.424
     7   6 c        2.972    -0.024    28.595     8.771
     8   6 c        2.927    -0.046    29.148     8.854
     9   7 n        2.694    -0.201    25.373     7.481
    10   6 c        3.807     0.052    19.698     6.318
    11   6 c        3.938    -0.008    20.658     6.459
    12   6 c        3.923     0.014    20.271     6.399
    13   6 c        3.849    -0.070    21.802     6.641
    14   6 c        3.938     0.023    20.116     6.374
    15   6 c        3.945     0.006    20.403     6.419
    16   6 c        2.900    -0.039    28.957     8.823
    17   6 c        2.895    -0.039    28.965     8.824
    18   6 c        3.766    -0.021    20.982     6.529
    19   7 n        3.664     0.288    16.662     6.063
    20   6 c        3.802    -0.022    20.964     6.519
    21   6 c        3.837    -0.053    21.497     6.596
    22   8 o        0.929    -0.725    29.358     7.266
    23   1 h        0.924     0.052     2.301     2.372
    24   6 c        2.729     0.362    20.856     7.476
    25   8 o        0.856    -0.461    22.945     6.422
    26   8 o        1.704    -0.265    18.398     5.791
    27   6 c        3.652     0.027    20.419     6.489
    28   1 h        0.924     0.049     2.333     2.388
    29   1 h        0.924     0.051     2.312     2.378
    30   1 h        0.924     0.052     2.291     2.367
    31   1 h        0.924     0.040     2.447     2.446
    32   1 h        0.926     0.027     2.622     2.532
    33   1 h        0.926     0.031     2.573     2.508
    34   1 h        0.926     0.028     2.608     2.525
    35   1 h        0.926     0.031     2.570     2.507
    36   1 h        0.860     0.170     1.272     1.767
    37   1 h        0.923     0.040     2.449     2.447
    38   1 h        0.925     0.085     1.925     2.170
    39   1 h        0.925     0.051     2.304     2.374
    40   1 h        0.926     0.053     2.284     2.363
    41   1 h        0.926     0.056     2.251     2.346
    42   1 h        0.924     0.059     2.216     2.328
    43   1 h        0.924     0.075     2.027     2.226
    44   1 h        0.925     0.071     2.078     2.254
    45   1 h        0.925     0.053     2.282     2.362
    46   1 h        0.925     0.060     2.199     2.319
    47   1 h        0.925     0.055     2.260     2.351
    48   1 h        0.925     0.088     1.895     2.153
    49   1 h        0.924     0.070     2.086     2.259
    50   1 h        0.924     0.072     2.065     2.247

 Mol. C6AA /au·bohr⁶  :      26027.334580
 Mol. C8AA /au·bohr⁸  :     609620.506999
 Mol. α(0) /au        :        244.849247


Wiberg/Mayer (AO) data.
largest (>0.10) Wiberg bond orders for each atom

 ---------------------------------------------------------------------------
     #   Z sym  total        # sym  WBO       # sym  WBO       # sym  WBO
 ---------------------------------------------------------------------------
     1   6 c    3.992 --     2 c    1.008    28 h    0.978    29 h    0.973
                            10 c    0.968
     2   6 c    3.994 --     1 c    1.008    31 h    0.976    30 h    0.974
                            14 c    0.966
     3   6 c    3.987 --     8 c    1.439     4 c    1.414    32 h    0.972
     4   6 c    3.991 --     5 c    1.471     3 c    1.414    33 h    0.971
     5   6 c    3.985 --     4 c    1.471     6 c    1.336    34 h    0.967
                             8 c    0.101
     6   6 c    3.972 --     5 c    1.336     7 c    1.324     9 n    1.155
     7   6 c    3.981 --     8 c    1.422     6 c    1.324    12 c    0.990
     8   6 c    3.991 --     3 c    1.439     7 c    1.422    35 h    0.960
                             5 c    0.101
     9   7 n    3.329 --     6 c    1.155    10 c    1.006    36 h    0.939
    10   6 c    3.977 --     9 n    1.006     1 c    0.968    37 h    0.963
                            11 c    0.940
    11   6 c    3.985 --    13 c    0.976    12 c    0.954    24 c    0.954
                            10 c    0.940
    12   6 c    3.986 --     7 c    0.990    21 c    0.966    15 c    0.964
                            11 c    0.954
    13   6 c    3.984 --    11 c    0.976    39 h    0.973    14 c    0.966
                            38 h    0.952
    14   6 c    3.988 --    16 c    1.004    15 c    0.979    13 c    0.966
                             2 c    0.966
    15   6 c    3.965 --    14 c    0.979    12 c    0.964    23 h    0.958
                            19 n    0.901
    16   6 c    3.988 --    17 c    1.930    14 c    1.004    40 h    0.963
    17   6 c    3.984 --    16 c    1.930    18 c    1.015    41 h    0.964
    18   6 c    3.966 --    17 c    1.015    43 h    0.964    42 h    0.955
                            19 n    0.943
    19   7 n    3.867 --    22 o    1.020    18 c    0.943    20 c    0.942
                            15 c    0.901
    20   6 c    3.966 --    21 c    1.004    44 h    0.973    45 h    0.964
                            19 n    0.942
    21   6 c    3.990 --    20 c    1.004    46 h    0.974    47 h    0.973
                            12 c    0.966
    22   8 o    1.214 --    19 n    1.020
    23   1 h    0.997 --    15 c    0.958
    24   6 c    3.907 --    25 o    1.710    26 o    1.155    11 c    0.954
    25   8 o    1.993 --    24 c    1.710    26 o    0.170
    26   8 o    2.314 --    24 c    1.155    27 c    0.941    25 o    0.170
    27   6 c    3.909 --    48 h    0.979    50 h    0.977    49 h    0.976
                            26 o    0.941
    28   1 h    0.997 --     1 c    0.978
    29   1 h    0.996 --     1 c    0.973
    30   1 h    0.997 --     2 c    0.974
    31   1 h    0.998 --     2 c    0.976
    32   1 h    0.999 --     3 c    0.972
    33   1 h    0.998 --     4 c    0.971
    34   1 h    0.999 --     5 c    0.967
    35   1 h    0.999 --     8 c    0.960
    36   1 h    0.970 --     9 n    0.939
    37   1 h    0.998 --    10 c    0.963
    38   1 h    0.992 --    13 c    0.952
    39   1 h    0.997 --    13 c    0.973
    40   1 h    0.997 --    16 c    0.963
    41   1 h    0.996 --    17 c    0.964
    42   1 h    0.996 --    18 c    0.955
    43   1 h    0.994 --    18 c    0.964
    44   1 h    0.994 --    20 c    0.973
    45   1 h    0.997 --    20 c    0.964
    46   1 h    0.996 --    21 c    0.974
    47   1 h    0.997 --    21 c    0.973
    48   1 h    0.992 --    27 c    0.979
    49   1 h    0.995 --    27 c    0.976
    50   1 h    0.995 --    27 c    0.977
 ---------------------------------------------------------------------------

Topologies differ in total number of bonds
Writing topology from bond orders to xtbtopo.mol

molecular dipole:
                 x           y           z       tot (Debye)
 q only:       -0.178       0.855      -1.801
   full:       -0.219       1.067      -1.818       5.386
molecular quadrupole (traceless):
                xx          xy          yy          xz          yz          zz
 q only:      -13.350      14.461      13.192      -0.499       7.334       0.157
  q+dip:      -12.990      15.472      13.396       5.408      11.808      -0.407
   full:      -13.496      16.146      12.974       4.267       9.890       0.522

           -------------------------------------------------
          |                Geometry Summary                 |
           -------------------------------------------------

      molecular mass/u    :      352.4276531
   center of mass at/Å    :        0.0017042       0.0009875       0.0024243
  moments of inertia/u·Å² :        0.1777520E+04   0.2091243E+04   0.2672487E+04
rotational constants/cm⁻¹ :        0.9483791E-02   0.8061059E-02   0.6307845E-02

 * 45 selected distances

     #   Z          #   Z                                           value/Å
     1   6 c        2   6 c                                       1.5313658
     3   6 c        4   6 c                                       1.3851800
     4   6 c        5   6 c                                       1.3773851
     5   6 c        6   6 c                                       1.3979805
     6   6 c        7   6 c                                       1.3999311
     3   6 c        8   6 c                                       1.3833601
     7   6 c        8   6 c                                       1.3899055
     6   6 c        9   7 n                                       1.3702655
     9   7 n       10   6 c                                       1.4353776
    11   6 c       13   6 c                                       1.5395992 (max)
    13   6 c       14   6 c                                       1.5382907
    12   6 c       15   6 c                                       1.5321470
    14   6 c       15   6 c                                       1.5144381
    16   6 c       17   6 c                                       1.3268889
    15   6 c       19   7 n                                       1.5073543
    18   6 c       19   7 n                                       1.4770683
    19   7 n       20   6 c                                       1.4772972
    20   6 c       21   6 c                                       1.5343578
    15   6 c       23   1 h                                       1.0907564
    24   6 c       25   8 o                                       1.2108151
    24   6 c       26   8 o                                       1.3305514
    26   8 o       27   6 c                                       1.4276056
     1   6 c       28   1 h                                       1.0902755
     1   6 c       29   1 h                                       1.0920938
     2   6 c       30   1 h                                       1.0916740
     2   6 c       31   1 h                                       1.0915905
     3   6 c       32   1 h                                       1.0795898
     4   6 c       33   1 h                                       1.0800443
     5   6 c       34   1 h                                       1.0810529
     8   6 c       35   1 h                                       1.0777502
     9   7 n       36   1 h                                       1.0091904 (min)
    10   6 c       37   1 h                                       1.0981755
    13   6 c       38   1 h                                       1.0896777
    13   6 c       39   1 h                                       1.0855168
    16   6 c       40   1 h                                       1.0800900
    17   6 c       41   1 h                                       1.0799003
    18   6 c       42   1 h                                       1.0940329
    18   6 c       43   1 h                                       1.0920663
    20   6 c       44   1 h                                       1.0890797
    20   6 c       45   1 h                                       1.0891770
    21   6 c       46   1 h                                       1.0870769
    21   6 c       47   1 h                                       1.0890464
    27   6 c       48   1 h                                       1.0864099
    27   6 c       49   1 h                                       1.0911291
    27   6 c       50   1 h                                       1.0914852

 * 5 distinct bonds (by element types)

   Z      Z             #   av. dist./Å        max./Å        min./Å
   1 H    6 C          23     1.0877257     1.0981755     1.0777502
   6 C    6 C          13     1.4500638     1.5395992     1.3268889
   1 H    7 N           1     1.0091904     1.0091904     1.0091904
   6 C    7 N           5     1.4534726     1.5073543     1.3702655
   6 C    8 O           3     1.3229907     1.4276056     1.2108151

           -------------------------------------------------
          |               Frequency Printout                |
           -------------------------------------------------
 projected vibrational frequencies (cm⁻¹)
eigval :       -0.00    -0.00    -0.00    -0.00     0.00     0.00
eigval :       36.16    44.93    49.05    68.74    88.97   106.10
eigval :      129.68   145.74   187.59   197.29   214.90   230.79
eigval :      244.39   258.65   272.54   296.47   311.35   323.34
eigval :      326.15   364.57   375.20   403.30   417.42   430.28
eigval :      448.64   464.09   472.93   482.01   500.01   505.42
eigval :      516.27   552.37   564.36   571.88   592.89   604.79
eigval :      648.75   677.76   685.72   704.20   715.97   751.20
eigval :      761.74   771.05   793.55   804.93   831.30   838.88
eigval :      856.25   858.53   872.70   896.52   902.56   908.40
eigval :      915.91   931.10   954.82   962.41   971.00   984.06
eigval :      989.68  1002.91  1008.45  1020.74  1039.63  1050.68
eigval :     1055.91  1071.37  1089.12  1101.36  1109.98  1110.99
eigval :     1113.70  1123.92  1124.38  1136.81  1141.42  1150.61
eigval :     1157.13  1159.98  1167.90  1177.81  1180.72  1182.89
eigval :     1186.49  1199.98  1206.20  1222.53  1236.51  1245.32
eigval :     1258.25  1264.19  1278.52  1282.31  1293.11  1304.07
eigval :     1307.05  1315.80  1321.77  1327.50  1331.57  1343.25
eigval :     1344.12  1352.66  1376.24  1386.17  1427.01  1429.61
eigval :     1441.16  1452.59  1456.55  1459.53  1466.90  1482.80
eigval :     1494.60  1500.54  1582.31  1599.49  1697.32  1710.27
eigval :     2893.86  2919.32  2962.98  2965.72  2975.08  2977.08
eigval :     2980.53  2981.82  2986.72  2990.72  2995.44  3008.78
eigval :     3012.37  3019.83  3031.32  3038.39  3045.63  3063.44
eigval :     3070.81  3075.39  3085.58  3087.26  3110.71  3435.65
 reduced masses (amu)
   1: 11.81   2: 11.29   3: 11.53   4: 11.57   5: 12.13   6: 11.78   7: 11.67   8:  4.52
   9:  9.23  10: 10.31  11: 11.34  12: 11.51  13: 10.36  14:  8.93  15: 11.24  16: 10.97
  17: 10.71  18: 11.15  19: 11.47  20: 10.63  21: 10.76  22: 10.77  23: 11.31  24: 10.86
  25: 10.18  26: 11.37  27: 10.87  28:  9.61  29:  9.94  30: 10.63  31:  8.72  32:  8.76
  33:  7.68  34:  9.60  35: 10.17  36: 10.11  37:  8.99  38:  9.89  39: 10.74  40: 10.24
  41:  9.86  42: 10.23  43: 10.18  44: 10.36  45: 11.43  46: 11.45  47:  9.84  48:  4.72
  49: 10.88  50:  3.95  51: 10.09  52:  7.66  53:  9.45  54:  8.79  55:  6.18  56:  7.33
  57: 10.21  58:  5.60  59:  7.85  60:  3.32  61:  3.16  62:  8.67  63: 10.13  64:  9.27
  65:  8.16  66:  8.20  67:  7.81  68:  9.12  69:  8.08  70:  6.89  71:  9.46  72:  9.86
  73:  8.41  74:  8.33  75:  6.65  76:  7.70  77:  8.40  78:  7.22  79:  4.65  80:  8.19
  81:  9.02  82:  7.00  83:  7.15  84:  6.60  85:  8.04  86:  7.27  87:  6.85  88:  7.90
  89:  6.29  90:  2.83  91:  4.67  92:  5.98  93:  4.24  94:  6.08  95:  5.34  96:  5.95
  97:  6.20  98:  4.91  99:  5.87 100:  5.69 101:  4.80 102:  5.16 103:  4.53 104:  4.32
 105:  7.46 106:  4.43 107:  5.61 108: 10.46 109:  4.65 110:  4.33 111:  2.58 112:  6.73
 113:  1.97 114:  1.54 115:  2.40 116:  1.59 117:  2.04 118:  9.12 119:  1.95 120:  1.95
 121:  1.93 122: 10.18 123: 11.58 124: 11.51 125: 11.64 126: 13.40 127:  1.75 128:  1.76
 129:  1.81 130:  1.93 131:  1.88 132:  1.73 133:  1.94 134:  1.70 135:  1.58 136:  1.41
 137:  1.56 138:  1.74 139:  1.73 140:  1.92 141:  1.61 142:  1.76 143:  1.79 144:  1.78
 145:  1.76 146:  1.80 147:  1.90 148:  1.88 149:  1.84 150:  1.83
 IR intensities (km·mol⁻¹)
   1:  0.53   2:  0.25   3:  0.09   4:  0.25   5:  0.16   6:  0.04   7:  3.97   8:  0.73
   9:  1.20  10:  0.76  11:  3.05  12:  1.05  13:  3.16  14:  0.85  15:  1.40  16:  1.82
  17: 10.49  18:  4.52  19:  4.98  20:  7.32  21: 15.03  22: 12.55  23:  1.35  24: 16.41
  25:  6.18  26:  2.00  27:  8.19  28:  7.88  29: 10.02  30: 10.72  31: 14.11  32: 27.28
  33: 14.50  34: 11.87  35: 18.72  36:  0.88  37: 26.16  38: 21.49  39: 25.23  40: 23.26
  41: 13.96  42:  2.13  43: 11.18  44:  1.07  45:  9.58  46: 21.01  47: 10.10  48: 22.69
  49: 18.06  50: 19.79  51:  8.46  52:  8.65  53:  3.64  54:  7.84  55:  1.97  56:  1.66
  57:  3.54  58:  0.96  59:  6.68  60:  3.39  61:  0.07  62:  4.86  63: 57.38  64:  8.31
  65: 19.26  66: 20.57  67: 27.53  68: 39.85  69: 27.36  70:  2.57  71:  2.60  72:  7.24
  73:  3.43  74: 11.58  75: 11.67  76: 21.15  77:  3.87  78: 30.38  79:  4.65  80: 11.22
  81: 33.87  82:  6.38  83:  0.08  84:  7.55  85: 25.19  86: 35.13  87:  2.27  88:253.51
  89:  2.75  90:  5.03  91: 65.68  92: 73.13  93: 17.08  94: 68.41  95: 11.04  96:  2.83
  97:  2.66  98:  5.39  99:  9.77 100: 15.33 101:  5.10 102: 54.40 103:  4.60 104: 13.76
 105:  2.58 106: 51.95 107:  7.38 108: 15.23 109: 24.93 110:  0.91 111: 13.90 112: 56.97
 113:  2.44 114:  9.82 115:  4.67 116:  3.03 117:  1.99 118:114.86 119:  4.68 120:  6.32
 121:  9.08 122:207.85 123: 27.57 124:151.15 125: 16.19 126:567.06 127: 74.72 128: 40.49
 129: 28.88 130: 18.43 131: 41.28 132: 57.89 133: 12.63 134: 20.05 135: 78.49 136: 16.55
 137: 71.25 138: 13.68 139: 21.33 140: 37.13 141: 28.18 142: 64.25 143:  5.49 144: 49.43
 145: 18.80 146: 56.92 147: 95.98 148:119.39 149: 79.87 150:  1.88
 Raman intensities (Ä⁴*amu⁻¹)
   1:  0.00   2:  0.00   3:  0.00   4:  0.00   5:  0.00   6:  0.00   7:  0.00   8:  0.00
   9:  0.00  10:  0.00  11:  0.00  12:  0.00  13:  0.00  14:  0.00  15:  0.00  16:  0.00
  17:  0.00  18:  0.00  19:  0.00  20:  0.00  21:  0.00  22:  0.00  23:  0.00  24:  0.00
  25:  0.00  26:  0.00  27:  0.00  28:  0.00  29:  0.00  30:  0.00  31:  0.00  32:  0.00
  33:  0.00  34:  0.00  35:  0.00  36:  0.00  37:  0.00  38:  0.00  39:  0.00  40:  0.00
  41:  0.00  42:  0.00  43:  0.00  44:  0.00  45:  0.00  46:  0.00  47:  0.00  48:  0.00
  49:  0.00  50:  0.00  51:  0.00  52:  0.00  53:  0.00  54:  0.00  55:  0.00  56:  0.00
  57:  0.00  58:  0.00  59:  0.00  60:  0.00  61:  0.00  62:  0.00  63:  0.00  64:  0.00
  65:  0.00  66:  0.00  67:  0.00  68:  0.00  69:  0.00  70:  0.00  71:  0.00  72:  0.00
  73:  0.00  74:  0.00  75:  0.00  76:  0.00  77:  0.00  78:  0.00  79:  0.00  80:  0.00
  81:  0.00  82:  0.00  83:  0.00  84:  0.00  85:  0.00  86:  0.00  87:  0.00  88:  0.00
  89:  0.00  90:  0.00  91:  0.00  92:  0.00  93:  0.00  94:  0.00  95:  0.00  96:  0.00
  97:  0.00  98:  0.00  99:  0.00 100:  0.00 101:  0.00 102:  0.00 103:  0.00 104:  0.00
 105:  0.00 106:  0.00 107:  0.00 108:  0.00 109:  0.00 110:  0.00 111:  0.00 112:  0.00
 113:  0.00 114:  0.00 115:  0.00 116:  0.00 117:  0.00 118:  0.00 119:  0.00 120:  0.00
 121:  0.00 122:  0.00 123:  0.00 124:  0.00 125:  0.00 126:  0.00 127:  0.00 128:  0.00
 129:  0.00 130:  0.00 131:  0.00 132:  0.00 133:  0.00 134:  0.00 135:  0.00 136:  0.00
 137:  0.00 138:  0.00 139:  0.00 140:  0.00 141:  0.00 142:  0.00 143:  0.00 144:  0.00
 145:  0.00 146:  0.00 147:  0.00 148:  0.00 149:  0.00 150:  0.00
 output can be read by thermo (or use thermo option).
 writing <g98.out> molden fake output.
 recommended (thermochemical) frequency scaling factor: 1.0
           -------------------------------------------------
          |             Thermodynamic Functions             |
           -------------------------------------------------

Molecule has no symmetry elements
It seems to be the C1 point group
c1  symmetry found (for desy threshold:  0.10E+00) used in thermo

          ...................................................
          :                      SETUP                      :
          :.................................................:
          :  # frequencies                         144      :
          :  # imaginary freq.                       0      :
          :  linear?                             false      :
          :  only rotor calc.                    false      :
          :  symmetry                               c1      :
          :  rotational number                       1      :
          :  scaling factor                  1.0000000      :
          :  rotor cutoff                   50.0000000 cm⁻¹ :
          :  imag. cutoff                  -50.0000000 cm⁻¹ :
          :.................................................:

    mode    ω/cm⁻¹     T·S(HO)/kcal·mol⁻¹    T·S(FR)/kcal·mol⁻¹   T·S(vib)
   ------------------------------------------------------------------------
       1     36.16    -1.62763 ( 21.48%)    -1.15249 ( 78.52%)    -1.25455
       2     44.93    -1.49938 ( 39.47%)    -1.08818 ( 60.53%)    -1.25047
       3     49.05    -1.44761 ( 48.08%)    -1.06218 ( 51.92%)    -1.24751
       4     68.74    -1.24902 ( 78.13%)    -0.96224 ( 21.87%)    -1.18629
       5     88.97    -1.09797 ( 90.93%)    -0.88581 (  9.07%)    -1.07873
       6    106.10    -0.99556 ( 95.30%)    -0.83366 (  4.70%)    -0.98795
       7    129.68    -0.87978 ( 97.84%)    -0.77420 (  2.16%)    -0.87750
       8    145.74    -0.81307 ( 98.63%)    -0.73960 (  1.37%)    -0.81207
       9    187.59    -0.67128 ( 99.50%)    -0.66483 (  0.50%)    -0.67125
      10    197.29    -0.64347 ( 99.59%)    -0.64990 (  0.41%)    -0.64350
      11    214.90    -0.59680 ( 99.71%)    -0.62458 (  0.29%)    -0.59688
      12    230.79    -0.55837 ( 99.78%)    -0.60344 (  0.22%)    -0.55847
      13    244.39    -0.52793 ( 99.83%)    -0.58648 (  0.17%)    -0.52803
      14    258.65    -0.49816 ( 99.86%)    -0.56968 (  0.14%)    -0.49826
      15    272.54    -0.47109 ( 99.89%)    -0.55419 (  0.11%)    -0.47119
      16    296.47    -0.42836 ( 99.92%)    -0.52925 (  0.08%)    -0.42844
   ------------------------------------------------------------------------

   temp. (K)  partition function   enthalpy   heat capacity  entropy
                                   cal/mol     cal/K/mol   cal/K/mol   J/K/mol
 298.15  VIB  0.943E+07            11407.070     80.154     67.110
         ROT  0.761E+07              888.752      2.981     34.470
         INT  0.718E+14            12295.822     83.134    101.580
         TR   0.640E+28             1481.254      4.968     43.453
         TOT                       13777.0758    88.1026   145.0329   606.8175

       T/K    H(0)-H(T)+PV         H(T)/Eh          T*S/Eh         G(T)/Eh
   ------------------------------------------------------------------------
    298.15    0.219552E-01    0.433313E+00    0.689098E-01    0.364404E+00
   ------------------------------------------------------------------------

         :::::::::::::::::::::::::::::::::::::::::::::::::::::
         ::                  THERMODYNAMIC                  ::
         :::::::::::::::::::::::::::::::::::::::::::::::::::::
         :: total free energy         -74.906923495092 Eh   ::
         ::.................................................::
         :: total energy              -75.271327063713 Eh   ::
         :: zero point energy           0.411358189153 Eh   ::
         :: G(RRHO) w/o ZPVE           -0.046954620532 Eh   ::
         :: G(RRHO) contrib.            0.364403568621 Eh   ::
         :::::::::::::::::::::::::::::::::::::::::::::::::::::

optimized geometry written to: xtbopt.coord


           -------------------------------------------------
          | TOTAL ENERGY              -75.271327063713 Eh   |
          | TOTAL ENTHALPY            -74.838013706718 Eh   |
          | TOTAL FREE ENERGY         -74.906923495092 Eh   |
          | GRADIENT NORM               0.000030848718 Eh/α |
          | HOMO-LUMO GAP               3.016725035001 eV   |
           -------------------------------------------------

------------------------------------------------------------------------
 * finished run on 2026/08/09 at 21:57:33.068     
------------------------------------------------------------------------
 total:
 * wall-time:     0 d,  0 h,  0 min,  3.132 sec
 *  cpu-time:     0 d,  0 h,  0 min, 36.526 sec
 * ratio c/w:    11.663 speedup
 SCF:
 * wall-time:     0 d,  0 h,  0 min,  0.106 sec
 *  cpu-time:     0 d,  0 h,  0 min,  1.139 sec
 * ratio c/w:    10.770 speedup
 ANC optimizer:
 * wall-time:     0 d,  0 h,  0 min,  0.705 sec
 *  cpu-time:     0 d,  0 h,  0 min,  8.435 sec
 * ratio c/w:    11.971 speedup
 analytical hessian:
 * wall-time:     0 d,  0 h,  0 min,  2.273 sec
 *  cpu-time:     0 d,  0 h,  0 min, 26.579 sec
 * ratio c/w:    11.695 speedup

normal termination of xtb
