 Entering Gaussian System
 *********************************************
 Gaussian 98:
 frequency output generated by the xtb code
 *********************************************
                         Standard orientation:
 --------------------------------------------------------------------
  Center     Atomic     Atomic              Coordinates (Angstroms)
  Number     Number      Type              X           Y           Z
 --------------------------------------------------------------------
    1          6             0        0.097569   -0.700554   -0.295437
    2          6             0        0.596400    0.620972   -0.948993
    3          6             0       -0.492133    1.707176   -0.853699
    4          6             0       -1.219806    1.752430    0.488785
    5          6             0       -1.665806    0.345380    0.902547
    6          6             0       -0.426145   -0.518726    1.146538
    7          6             0       -1.212608   -1.117995   -0.995889
    8          6             0       -2.298081   -0.365050   -0.265161
    9          8             0        0.456180    0.034604    2.092123
   10          6             0        1.183519   -1.785162   -0.381664
   11          6             0       -3.576595   -0.335983   -0.594148
   12          6             0        1.971291    1.100127   -0.516910
   13          6             0        3.044600    0.689619   -1.181028
   14          1             0        0.708600    0.377805   -2.013877
   15          8             0        0.868247   -2.972030    0.317066
   16          6             0        2.113398    2.090111    0.598607
   17          1             0       -0.050285    2.680141   -1.071835
   18          1             0       -1.235545    1.515311   -1.630352
   19          1             0       -0.579974    2.152035    1.273602
   20          1             0       -2.094831    2.398852    0.397148
   21          1             0       -2.314854    0.397619    1.778168
   22          1             0       -0.750590   -1.507891    1.510341
   23          1             0       -1.203495   -0.899398   -2.063931
   24          1             0       -1.386992   -2.192151   -0.883605
   25          1             0        1.182662   -0.588474    2.213966
   26          1             0        2.105647   -1.421682    0.077655
   27          1             0        1.392791   -2.009514   -1.435829
   28          1             0       -3.953709   -0.859407   -1.457229
   29          1             0       -4.296980    0.215775   -0.014775
   30          1             0        4.035786    1.018364   -0.915638
   31          1             0        2.985300    0.007174   -2.012811
   32          1             0        0.103737   -3.387381   -0.102406
   33          1             0        1.618417    1.734966    1.497180
   34          1             0        3.165088    2.259459    0.817301
   35          1             0        1.667160    3.043882    0.321262
 --------------------------------------------------------------------
     1 basis functions        1 primitive gaussians
     1 alpha electrons        1 beta electrons
 
 Harmonic frequencies (cm**-1), IR intensities (km*mol⁻¹),
 Raman scattering activities (A**4/amu), Raman depolarization ratios,
 reduced masses (AMU), force constants (mDyne/A) and normal coordinates:
                      1                      2                      3
                        a                      a                      a 
 Frequencies --    55.0513                96.4578                99.0000
 Red. masses --    10.2627                 9.5840                11.1066
 Frc consts  --     0.0000                 0.0000                 0.0000
 IR Inten    --     1.2003                 0.1533                 3.6243
 Raman Activ --     0.0000                 0.0000                 0.0000
 Depolar     --     0.0000                 0.0000                 0.0000
 Atom AN      X      Y      Z        X      Y      Z        X      Y      Z
   1   6    -0.01  -0.01   0.07    -0.00   0.08  -0.05     0.04   0.02   0.14
   2   6    -0.05  -0.02   0.01     0.10   0.05  -0.03     0.02  -0.02   0.05
   3   6    -0.00   0.03   0.08     0.13   0.09  -0.08     0.02  -0.01   0.01
   4   6     0.00  -0.01   0.09     0.03   0.08  -0.13    -0.04   0.02  -0.02
   5   6    -0.06  -0.02  -0.01    -0.02   0.11  -0.10    -0.04   0.03   0.02
   6   6    -0.09  -0.04   0.05    -0.07   0.06  -0.06    -0.01   0.09   0.11
   7   6     0.03  -0.07   0.05     0.01   0.16  -0.13     0.08  -0.06   0.12
   8   6     0.01   0.03  -0.08    -0.04  -0.04   0.01     0.03  -0.05   0.02
   9   8    -0.17  -0.11   0.16    -0.12  -0.05   0.04    -0.13   0.27   0.14
  10   6     0.07   0.07   0.14    -0.05   0.03  -0.00     0.09   0.07   0.23
  11   6     0.06   0.17  -0.25    -0.14  -0.52   0.33     0.05  -0.13  -0.03
  12   6    -0.00  -0.03  -0.15     0.11  -0.02   0.01     0.04  -0.00  -0.04
  13   6    -0.12   0.23  -0.49     0.08   0.12  -0.12    -0.00   0.03  -0.13
  14   1    -0.05  -0.01   0.00     0.04   0.01  -0.01    -0.01  -0.02   0.02
  15   8     0.18   0.09   0.22    -0.12   0.11   0.09    -0.27  -0.28  -0.52
  16   6     0.13  -0.30   0.08     0.14  -0.22   0.18     0.09  -0.00  -0.05
  17   1     0.01   0.00   0.04     0.05   0.02  -0.00     0.01  -0.00   0.00
  18   1    -0.00   0.03   0.02     0.05   0.04  -0.04     0.01  -0.01  -0.00
  19   1     0.01  -0.03   0.03    -0.00   0.03  -0.03    -0.02   0.02  -0.00
  20   1     0.01   0.01   0.04     0.01   0.03  -0.06    -0.01   0.00  -0.02
  21   1    -0.04  -0.01  -0.02    -0.00   0.05  -0.03    -0.02   0.02  -0.00
  22   1    -0.04  -0.01  -0.00    -0.04   0.02  -0.04     0.01   0.02   0.04
  23   1     0.02  -0.05   0.01     0.00   0.11  -0.02     0.03  -0.04   0.03
  24   1     0.00  -0.02   0.05     0.02   0.04  -0.11     0.02  -0.01   0.06
  25   1    -0.06  -0.05   0.07    -0.05  -0.03   0.03    -0.03   0.08   0.08
  26   1     0.01   0.05   0.04    -0.01   0.01  -0.01    -0.04  -0.03   0.24
  27   1     0.03   0.01   0.04    -0.02  -0.01   0.00     0.18   0.15   0.07
  28   1     0.03   0.06  -0.09    -0.05  -0.21   0.13     0.03  -0.06  -0.01
  29   1     0.01   0.07  -0.10    -0.05  -0.20   0.13    -0.00  -0.04  -0.03
  30   1    -0.02   0.07  -0.18     0.03   0.02  -0.03     0.00   0.01  -0.06
  31   1    -0.07   0.12  -0.19     0.01   0.08  -0.07    -0.01   0.01  -0.04
  32   1     0.06  -0.01   0.05    -0.05   0.04   0.04     0.02  -0.04  -0.32
  33   1     0.04  -0.14   0.01     0.01  -0.09   0.03     0.00   0.02  -0.02
  34   1     0.05  -0.12   0.01     0.04  -0.10   0.08     0.03  -0.03  -0.00
  35   1     0.05  -0.06   0.09     0.07  -0.04   0.09     0.06   0.01  -0.03
                      4                      5                      6
                        a                      a                      a 
 Frequencies --   119.5763               159.8814               180.3352
 Red. masses --     9.4495                11.7933                 7.0920
 Frc consts  --     0.0000                 0.0000                 0.0000
 IR Inten    --     0.7107                 0.3103                 1.1913
 Raman Activ --     0.0000                 0.0000                 0.0000
 Depolar     --     0.0000                 0.0000                 0.0000
 Atom AN      X      Y      Z        X      Y      Z        X      Y      Z
   1   6    -0.00   0.07  -0.03    -0.05   0.04   0.02    -0.02  -0.07   0.01
   2   6    -0.05   0.14   0.07    -0.08   0.01  -0.06     0.04  -0.07   0.06
   3   6    -0.02   0.16   0.30    -0.03   0.05  -0.13     0.04  -0.05   0.00
   4   6    -0.14  -0.07   0.25    -0.03   0.11  -0.13    -0.16  -0.04  -0.10
   5   6    -0.12  -0.15   0.01    -0.02   0.13  -0.03    -0.01  -0.06   0.02
   6   6    -0.02  -0.00  -0.02    -0.06   0.07   0.01     0.07   0.05   0.02
   7   6     0.05   0.06  -0.11    -0.08  -0.06   0.12    -0.05  -0.07   0.06
   8   6    -0.02  -0.08  -0.09    -0.06   0.05   0.05    -0.04  -0.05   0.05
   9   8    -0.07   0.22  -0.10    -0.14  -0.01   0.12     0.09   0.37  -0.17
  10   6     0.01   0.08  -0.02     0.12   0.22  -0.09    -0.09  -0.14  -0.17
  11   6    -0.01  -0.19  -0.14    -0.07   0.05   0.11    -0.02   0.12  -0.00
  12   6     0.06  -0.06  -0.04    -0.05  -0.14   0.02     0.02  -0.05   0.12
  13   6    -0.05  -0.39  -0.01    -0.04  -0.33   0.15     0.02   0.22  -0.04
  14   1    -0.05   0.08   0.01    -0.02  -0.01  -0.01     0.03  -0.02   0.02
  15   8     0.05   0.15   0.09     0.56   0.08  -0.24     0.06  -0.11  -0.04
  16   6     0.28   0.04  -0.16    -0.03  -0.22   0.08     0.03  -0.14   0.22
  17   1     0.00   0.06   0.16     0.00   0.01  -0.04     0.03  -0.02   0.03
  18   1     0.01   0.10   0.06    -0.01   0.01  -0.04     0.04  -0.00  -0.03
  19   1    -0.06  -0.05   0.10    -0.01   0.05  -0.05    -0.11   0.06  -0.02
  20   1    -0.04  -0.02   0.08    -0.01   0.02  -0.05    -0.08  -0.06  -0.09
  21   1    -0.05  -0.09  -0.00     0.00   0.06  -0.00     0.01  -0.01   0.02
  22   1     0.04  -0.01   0.01    -0.04   0.02  -0.01     0.06   0.02   0.06
  23   1     0.02   0.05  -0.03    -0.04  -0.06   0.02    -0.02  -0.03   0.02
  24   1     0.03   0.01  -0.07    -0.02  -0.01   0.09    -0.01  -0.02   0.03
  25   1     0.02   0.10  -0.03    -0.04  -0.01   0.04     0.10   0.18  -0.10
  26   1     0.01   0.03  -0.02     0.02   0.11  -0.03     0.02  -0.05  -0.13
  27   1    -0.01   0.00  -0.00     0.03   0.11  -0.04    -0.11  -0.06  -0.06
  28   1     0.03  -0.05  -0.06    -0.04  -0.01   0.05    -0.02   0.06  -0.01
  29   1    -0.03  -0.09  -0.04    -0.01   0.04   0.03     0.01   0.05   0.00
  30   1     0.01  -0.17  -0.02    -0.01  -0.14   0.08    -0.00   0.08  -0.01
  31   1    -0.06  -0.13   0.02    -0.01  -0.08   0.03     0.02   0.11  -0.05
  32   1    -0.01   0.04   0.05     0.17  -0.03  -0.06    -0.05  -0.00   0.09
  33   1    -0.00   0.10  -0.06    -0.06  -0.05  -0.00    -0.26   0.11  -0.03
  34   1     0.09  -0.10  -0.01    -0.01  -0.12   0.07     0.00  -0.28   0.27
  35   1     0.20   0.05  -0.11     0.05  -0.04   0.01     0.30   0.06  -0.06
                      7                      8                      9
                        a                      a                      a 
 Frequencies --   209.3193               219.5650               244.8554
 Red. masses --     8.4036                 9.1824                 9.5258
 Frc consts  --     0.0000                 0.0000                 0.0000
 IR Inten    --     9.2721                 4.3046                10.7363
 Raman Activ --     0.0000                 0.0000                 0.0000
 Depolar     --     0.0000                 0.0000                 0.0000
 Atom AN      X      Y      Z        X      Y      Z        X      Y      Z
   1   6    -0.04  -0.06   0.08    -0.00  -0.02   0.07    -0.14  -0.11  -0.05
   2   6     0.08  -0.08   0.11     0.10  -0.06   0.03     0.04  -0.09   0.09
   3   6     0.08  -0.08   0.05     0.13  -0.03   0.04     0.11  -0.03   0.08
   4   6     0.10  -0.04   0.05     0.07  -0.02   0.01     0.06  -0.04   0.05
   5   6    -0.09  -0.01  -0.02    -0.03   0.01   0.01    -0.11  -0.02  -0.07
   6   6    -0.08   0.01   0.07    -0.11  -0.10   0.05    -0.15  -0.07  -0.10
   7   6    -0.06   0.02   0.03    -0.02   0.10  -0.02    -0.16   0.00  -0.13
   8   6    -0.09   0.02  -0.02    -0.04   0.05   0.00    -0.15   0.04  -0.08
   9   8    -0.28   0.33   0.07    -0.30  -0.28   0.31     0.05   0.02  -0.42
  10   6    -0.12  -0.13  -0.26    -0.03  -0.05  -0.04     0.08   0.06   0.29
  11   6    -0.09  -0.04  -0.03    -0.06   0.04   0.08    -0.22   0.11   0.17
  12   6     0.09  -0.00   0.06     0.10   0.04  -0.10     0.05  -0.04   0.10
  13   6     0.07   0.08  -0.03     0.15   0.09  -0.06     0.06   0.13   0.00
  14   1     0.03  -0.03   0.03     0.01  -0.04   0.01     0.03  -0.01   0.02
  15   8     0.26  -0.15  -0.13     0.13  -0.09  -0.03     0.21  -0.11   0.09
  16   6     0.15   0.08  -0.02    -0.05   0.29  -0.31     0.11   0.09  -0.01
  17   1     0.02  -0.03  -0.00     0.04  -0.01   0.02     0.05  -0.02   0.04
  18   1     0.02  -0.04   0.02     0.04   0.01   0.00     0.04   0.01   0.01
  19   1     0.06  -0.06   0.02     0.00  -0.00   0.01     0.02  -0.05   0.03
  20   1     0.06   0.03   0.03     0.03  -0.00  -0.02     0.04   0.02   0.02
  21   1    -0.03   0.01  -0.01    -0.01   0.02  -0.00    -0.03  -0.00  -0.02
  22   1    -0.00   0.01   0.05    -0.07  -0.04  -0.03    -0.04  -0.01   0.00
  23   1     0.00   0.01   0.01     0.01   0.06  -0.00    -0.04   0.02  -0.03
  24   1    -0.02   0.01  -0.00    -0.01   0.03  -0.05    -0.06   0.00  -0.05
  25   1    -0.06   0.11   0.08    -0.05  -0.05   0.05     0.03   0.01  -0.15
  26   1     0.03  -0.04  -0.20     0.01  -0.01  -0.05    -0.06   0.09   0.20
  27   1    -0.18  -0.05  -0.10    -0.05  -0.01  -0.02     0.18   0.06   0.11
  28   1    -0.02  -0.02  -0.01    -0.03   0.02   0.02    -0.13   0.05   0.07
  29   1    -0.03  -0.01  -0.02    -0.01   0.00   0.04    -0.01   0.04   0.10
  30   1     0.02   0.06  -0.04     0.03   0.08  -0.03     0.01   0.08  -0.02
  31   1     0.02   0.01   0.01     0.07  -0.02   0.02     0.03   0.03   0.01
  32   1    -0.05   0.01   0.13    -0.01  -0.00   0.05     0.23  -0.16  -0.16
  33   1     0.30  -0.08   0.09    -0.26   0.24  -0.16     0.06   0.06   0.03
  34   1     0.05   0.24  -0.22    -0.03  -0.08   0.11     0.04   0.04  -0.04
  35   1    -0.22  -0.07   0.10     0.22   0.14  -0.27     0.02   0.01  -0.02
                     10                     11                     12
                        a                      a                      a 
 Frequencies --   266.7951               281.0560               311.4119
 Red. masses --     9.1711                 9.5059                 9.4401
 Frc consts  --     0.0000                 0.0000                 0.0000
 IR Inten    --     2.7352                 7.1061                17.7091
 Raman Activ --     0.0000                 0.0000                 0.0000
 Depolar     --     0.0000                 0.0000                 0.0000
 Atom AN      X      Y      Z        X      Y      Z        X      Y      Z
   1   6     0.09   0.07  -0.08    -0.04   0.03   0.11     0.08  -0.10   0.06
   2   6     0.09   0.04  -0.10     0.05   0.04   0.18    -0.09  -0.02   0.10
   3   6    -0.07  -0.12  -0.06    -0.05  -0.04  -0.11    -0.11  -0.04  -0.07
   4   6    -0.22  -0.25  -0.11    -0.38   0.02  -0.28     0.00   0.08  -0.03
   5   6     0.01  -0.27   0.06    -0.08   0.02   0.05     0.09   0.05  -0.07
   6   6     0.10  -0.07  -0.03    -0.06   0.00   0.08     0.01  -0.01   0.02
   7   6     0.04   0.12  -0.14    -0.02   0.05   0.07     0.16   0.22  -0.28
   8   6    -0.02  -0.14   0.05    -0.07  -0.06   0.09     0.17   0.10  -0.14
   9   8    -0.21   0.15   0.13     0.21  -0.33   0.04    -0.04   0.06   0.03
  10   6     0.09   0.08   0.03    -0.05   0.04   0.01     0.09  -0.15   0.12
  11   6    -0.05   0.33   0.24    -0.03   0.03  -0.10     0.10   0.07   0.15
  12   6     0.11   0.00  -0.10     0.09   0.07   0.12    -0.18   0.05   0.11
  13   6     0.16  -0.05   0.00    -0.04  -0.02  -0.05    -0.37  -0.11  -0.08
  14   1     0.03   0.01  -0.03     0.04  -0.01   0.06    -0.00  -0.01   0.03
  15   8    -0.09   0.15   0.04     0.05  -0.02  -0.06     0.18  -0.30  -0.01
  16   6     0.03  -0.10  -0.01     0.38   0.17   0.01    -0.03   0.06   0.08
  17   1    -0.06  -0.01   0.02    -0.02  -0.00  -0.01    -0.02  -0.02  -0.06
  18   1     0.01  -0.05  -0.04     0.05  -0.04  -0.08    -0.04  -0.03  -0.00
  19   1    -0.11  -0.00  -0.03    -0.18   0.13  -0.08     0.02   0.04  -0.03
  20   1    -0.11  -0.14  -0.08    -0.17  -0.09  -0.18    -0.01   0.01   0.01
  21   1     0.02  -0.08   0.03    -0.01   0.03   0.02     0.00  -0.00  -0.04
  22   1     0.09  -0.05  -0.03    -0.06   0.01   0.01    -0.02   0.01   0.02
  23   1     0.00   0.11  -0.02    -0.00   0.04   0.02     0.11   0.20  -0.05
  24   1     0.04   0.02  -0.12     0.01   0.01  -0.01    -0.00   0.05  -0.24
  25   1    -0.07   0.04   0.17     0.06  -0.10  -0.12     0.00   0.03   0.02
  26   1     0.00   0.02   0.05    -0.00   0.00  -0.02     0.02  -0.05   0.05
  27   1     0.08   0.01   0.02    -0.04   0.03  -0.01     0.04  -0.03   0.03
  28   1    -0.13   0.21   0.05     0.03   0.02  -0.05    -0.03   0.05   0.05
  29   1     0.07   0.10   0.18    -0.03  -0.00  -0.05     0.07  -0.00   0.12
  30   1     0.04  -0.02   0.03     0.01  -0.02  -0.08    -0.07  -0.09  -0.09
  31   1     0.06  -0.01  -0.00    -0.07  -0.02   0.00    -0.20  -0.03  -0.02
  32   1     0.00   0.03  -0.03    -0.04   0.03   0.04    -0.12   0.08   0.15
  33   1     0.05  -0.10  -0.00     0.20   0.05   0.06    -0.01   0.05   0.03
  34   1     0.00   0.04  -0.03     0.13   0.08  -0.11     0.00  -0.02   0.01
  35   1    -0.07  -0.05   0.05     0.05   0.03   0.03     0.03   0.03   0.01
                     13                     14                     15
                        a                      a                      a 
 Frequencies --   317.8163               328.1290               344.9811
 Red. masses --     8.1179                 6.1762                 5.2875
 Frc consts  --     0.0000                 0.0000                 0.0000
 IR Inten    --    11.4406                39.8677                57.5990
 Raman Activ --     0.0000                 0.0000                 0.0000
 Depolar     --     0.0000                 0.0000                 0.0000
 Atom AN      X      Y      Z        X      Y      Z        X      Y      Z
   1   6     0.01   0.02  -0.07     0.07  -0.06  -0.08     0.02  -0.04  -0.01
   2   6    -0.03   0.06  -0.02    -0.04   0.08   0.04    -0.03   0.01   0.02
   3   6    -0.20  -0.15  -0.21     0.11   0.25   0.13     0.14   0.16   0.07
   4   6     0.26  -0.10  -0.00    -0.19   0.14  -0.04    -0.00   0.03  -0.01
   5   6     0.04  -0.06  -0.06     0.08   0.04  -0.15     0.01  -0.01  -0.16
   6   6     0.00  -0.08  -0.06     0.05   0.02  -0.10    -0.05  -0.04  -0.06
   7   6    -0.01  -0.17   0.05     0.05  -0.23   0.03     0.04  -0.35   0.07
   8   6    -0.00  -0.06  -0.04     0.11  -0.02  -0.11     0.06  -0.11  -0.13
   9   8    -0.16  -0.01   0.03    -0.06  -0.00   0.01    -0.14  -0.09  -0.01
  10   6     0.00   0.04  -0.09    -0.02  -0.21  -0.13     0.11   0.08   0.06
  11   6    -0.02   0.03   0.05     0.05   0.04   0.17    -0.01   0.09   0.19
  12   6    -0.07   0.16   0.15    -0.03   0.07   0.04    -0.01  -0.02   0.03
  13   6    -0.16   0.03   0.08    -0.10  -0.00  -0.02    -0.01   0.02   0.00
  14   1     0.05   0.01   0.00    -0.02   0.06   0.00    -0.02   0.01   0.00
  15   8    -0.14   0.17   0.03    -0.06  -0.11   0.13    -0.05   0.07  -0.13
  16   6     0.39   0.16   0.13     0.03   0.11   0.00     0.01   0.04  -0.01
  17   1    -0.13  -0.03  -0.15     0.10   0.06   0.11     0.09   0.04   0.08
  18   1    -0.10  -0.15   0.01     0.07   0.16  -0.02     0.06   0.11  -0.01
  19   1     0.20  -0.13  -0.05    -0.14   0.10   0.03    -0.03  -0.01   0.03
  20   1     0.12   0.05   0.13    -0.10  -0.03  -0.08    -0.01   0.00  -0.01
  21   1     0.01  -0.00  -0.02     0.01  -0.02  -0.04    -0.02  -0.01  -0.06
  22   1     0.01  -0.03  -0.03    -0.01   0.01  -0.04    -0.04  -0.01  -0.01
  23   1    -0.02  -0.13  -0.00     0.01  -0.16  -0.01     0.01  -0.21  -0.00
  24   1     0.01  -0.04   0.10     0.02  -0.05   0.13     0.01  -0.09   0.13
  25   1    -0.05  -0.00   0.07    -0.20  -0.15   0.29     0.13   0.12  -0.24
  26   1     0.00   0.01  -0.03     0.02  -0.06  -0.09     0.02  -0.00   0.06
  27   1    -0.00  -0.01  -0.02    -0.06  -0.11  -0.04     0.07   0.04   0.02
  28   1    -0.05   0.01   0.04    -0.08   0.00   0.10    -0.13   0.02   0.11
  29   1     0.03   0.04   0.03     0.08   0.07   0.08     0.10   0.11   0.10
  30   1    -0.03  -0.04   0.00    -0.02  -0.01  -0.03    -0.01   0.02  -0.01
  31   1    -0.09   0.02   0.02    -0.06  -0.01   0.01    -0.00  -0.00   0.01
  32   1     0.06  -0.03  -0.08     0.24  -0.27  -0.19    -0.37   0.36   0.28
  33   1     0.07   0.15   0.05     0.04   0.01   0.01     0.05   0.01   0.02
  34   1     0.14  -0.12   0.02     0.01   0.05  -0.03     0.01   0.05  -0.05
  35   1     0.26   0.11   0.01    -0.02   0.02   0.02    -0.04  -0.01   0.01
                     16                     17                     18
                        a                      a                      a 
 Frequencies --   354.6953               400.0107               428.6870
 Red. masses --     3.2818                 9.7378                 9.3938
 Frc consts  --     0.0000                 0.0000                 0.0000
 IR Inten    --   253.5770                 7.7286                 7.1806
 Raman Activ --     0.0000                 0.0000                 0.0000
 Depolar     --     0.0000                 0.0000                 0.0000
 Atom AN      X      Y      Z        X      Y      Z        X      Y      Z
   1   6    -0.05  -0.05  -0.01     0.08   0.02  -0.07     0.01  -0.02   0.10
   2   6    -0.01  -0.05   0.03    -0.04   0.16  -0.12     0.06  -0.10   0.24
   3   6     0.02  -0.04   0.03    -0.35  -0.04   0.05    -0.15  -0.29   0.13
   4   6     0.01  -0.01   0.02    -0.18   0.16   0.16    -0.13   0.13   0.13
   5   6    -0.03   0.00   0.01    -0.06   0.11   0.00    -0.06   0.10  -0.06
   6   6    -0.00   0.02  -0.00    -0.03   0.10  -0.12    -0.11   0.04   0.04
   7   6    -0.07  -0.04   0.01     0.02  -0.02   0.04     0.15  -0.03  -0.05
   8   6    -0.06  -0.03   0.02     0.02   0.13  -0.07     0.17   0.17  -0.25
   9   8     0.22   0.07  -0.22    -0.05  -0.06  -0.05     0.05  -0.01  -0.09
  10   6     0.04   0.08   0.05     0.02  -0.18   0.10     0.01   0.11  -0.14
  11   6    -0.05  -0.01  -0.05    -0.01  -0.01   0.05     0.08  -0.02   0.13
  12   6    -0.00  -0.04   0.03     0.07   0.17  -0.25     0.14  -0.25   0.13
  13   6     0.03   0.05   0.03     0.29   0.06   0.14     0.09  -0.01  -0.11
  14   1     0.00  -0.01   0.01    -0.05   0.07  -0.05     0.01  -0.02   0.06
  15   8     0.07   0.01  -0.12     0.11  -0.34   0.03    -0.11   0.28  -0.05
  16   6     0.02   0.02  -0.02     0.17  -0.10  -0.03    -0.08  -0.05  -0.05
  17   1     0.01  -0.01   0.01    -0.18   0.01  -0.09    -0.13  -0.08  -0.13
  18   1     0.00  -0.01   0.01    -0.14  -0.12   0.08    -0.07  -0.26   0.10
  19   1     0.01  -0.02   0.01    -0.03   0.05   0.02    -0.06   0.07   0.03
  20   1     0.01   0.01   0.01    -0.05   0.04   0.06    -0.04   0.02  -0.02
  21   1    -0.01   0.00   0.00    -0.02  -0.03   0.00    -0.08  -0.03  -0.06
  22   1    -0.01   0.02   0.03    -0.03   0.03  -0.05    -0.06   0.03   0.03
  23   1    -0.02  -0.00   0.00    -0.00  -0.09  -0.01     0.10  -0.09  -0.03
  24   1    -0.03  -0.01  -0.02    -0.01   0.00   0.09     0.00   0.00   0.06
  25   1    -0.39  -0.37   0.58    -0.01  -0.02  -0.05    -0.03  -0.05  -0.01
  26   1    -0.02   0.04   0.06     0.00  -0.06   0.04     0.03   0.01  -0.09
  27   1     0.06   0.05   0.02     0.02  -0.05   0.03    -0.06   0.03  -0.05
  28   1     0.00  -0.01  -0.01    -0.02  -0.03   0.03    -0.06  -0.01   0.08
  29   1    -0.02   0.01  -0.03     0.00   0.00   0.02     0.08   0.01   0.10
  30   1    -0.00   0.04   0.01     0.05   0.03   0.15     0.02   0.03  -0.07
  31   1     0.03   0.00   0.01     0.18   0.02   0.03     0.02   0.00  -0.04
  32   1    -0.26   0.26   0.22    -0.09   0.01   0.12     0.05   0.01  -0.09
  33   1    -0.04   0.03  -0.02     0.04  -0.09  -0.04    -0.06   0.03  -0.02
  34   1     0.01  -0.04   0.03     0.05  -0.08   0.01    -0.04   0.06   0.02
  35   1     0.07   0.02  -0.04     0.07   0.01   0.08    -0.06  -0.06  -0.12
                     19                     20                     21
                        a                      a                      a 
 Frequencies --   468.3851               474.4095               515.3203
 Red. masses --     9.1742                 8.4792                10.2834
 Frc consts  --     0.0000                 0.0000                 0.0000
 IR Inten    --     6.3270                 4.9746                 1.6692
 Raman Activ --     0.0000                 0.0000                 0.0000
 Depolar     --     0.0000                 0.0000                 0.0000
 Atom AN      X      Y      Z        X      Y      Z        X      Y      Z
   1   6    -0.10   0.06   0.27    -0.11  -0.15  -0.07    -0.05   0.01   0.07
   2   6    -0.12  -0.00   0.00    -0.24  -0.16  -0.04     0.02   0.06   0.09
   3   6    -0.02   0.11  -0.09    -0.06   0.06   0.01    -0.02   0.05  -0.01
   4   6     0.06  -0.11  -0.05    -0.06   0.12   0.01     0.05   0.13   0.01
   5   6    -0.15  -0.08  -0.15     0.14   0.06   0.05    -0.06   0.13   0.06
   6   6    -0.09   0.08   0.30     0.03  -0.05   0.01    -0.26  -0.02  -0.03
   7   6     0.16  -0.05  -0.10    -0.06  -0.03  -0.14     0.11  -0.11  -0.01
   8   6     0.03  -0.17  -0.26     0.15  -0.00   0.10     0.14  -0.45   0.36
   9   8     0.33   0.02   0.12    -0.11   0.02   0.09    -0.20  -0.03  -0.33
  10   6    -0.19   0.06   0.01     0.02   0.03  -0.04    -0.09   0.02  -0.01
  11   6    -0.05   0.04   0.05     0.20  -0.02   0.00     0.28   0.10   0.02
  12   6    -0.10   0.09  -0.19    -0.24  -0.32   0.07     0.09   0.09  -0.07
  13   6     0.07   0.05   0.12     0.04   0.24   0.20     0.06  -0.05  -0.04
  14   1    -0.05  -0.08   0.02    -0.06  -0.03  -0.02    -0.01   0.00   0.03
  15   8     0.01  -0.01  -0.03    -0.03   0.11   0.00    -0.00  -0.00  -0.02
  16   6     0.04  -0.09  -0.07     0.21  -0.10  -0.19    -0.04   0.00   0.02
  17   1     0.03   0.03   0.04     0.06  -0.01   0.03    -0.03   0.01  -0.05
  18   1    -0.00   0.10  -0.05    -0.02   0.09  -0.01    -0.02  -0.03   0.02
  19   1     0.08  -0.14  -0.01    -0.04   0.09  -0.01     0.04  -0.00  -0.00
  20   1     0.07   0.05   0.07    -0.06  -0.02  -0.01     0.04   0.07   0.03
  21   1    -0.14   0.01  -0.11     0.04   0.01   0.02    -0.01   0.08   0.02
  22   1    -0.02   0.03   0.12    -0.01  -0.00   0.01    -0.11   0.00  -0.01
  23   1     0.14   0.03  -0.02    -0.02   0.12  -0.02    -0.03   0.18   0.04
  24   1     0.07  -0.02  -0.09    -0.05  -0.01  -0.16     0.13  -0.07  -0.21
  25   1     0.02  -0.07  -0.00     0.02   0.05   0.01    -0.08  -0.04  -0.05
  26   1    -0.00  -0.01  -0.08    -0.02   0.04   0.02     0.00  -0.01  -0.04
  27   1    -0.16   0.05  -0.02     0.05   0.01  -0.00    -0.08   0.02  -0.02
  28   1    -0.15   0.07   0.04     0.10  -0.03  -0.00     0.05  -0.01   0.05
  29   1     0.09   0.05   0.12     0.03  -0.01  -0.04     0.12   0.15  -0.06
  30   1    -0.01   0.06   0.11    -0.06   0.20   0.17     0.03  -0.02  -0.03
  31   1     0.12  -0.00   0.04     0.20   0.09   0.03    -0.00  -0.03   0.00
  32   1     0.06  -0.07  -0.04     0.02   0.01  -0.03     0.03  -0.04  -0.02
  33   1     0.02  -0.06  -0.03     0.16   0.10   0.05    -0.05  -0.05  -0.03
  34   1     0.02  -0.09  -0.02     0.10  -0.06  -0.21    -0.03   0.01   0.06
  35   1     0.05   0.02   0.06     0.09  -0.03  -0.09    -0.02   0.00   0.03
                     22                     23                     24
                        a                      a                      a 
 Frequencies --   528.5137               566.9021               593.9846
 Red. masses --     9.9539                 9.3711                 9.9553
 Frc consts  --     0.0000                 0.0000                 0.0000
 IR Inten    --    11.9675                11.4874                 1.4612
 Raman Activ --     0.0000                 0.0000                 0.0000
 Depolar     --     0.0000                 0.0000                 0.0000
 Atom AN      X      Y      Z        X      Y      Z        X      Y      Z
   1   6     0.00   0.09  -0.14     0.07  -0.20  -0.05     0.34   0.03   0.17
   2   6     0.03   0.15  -0.03     0.03  -0.23   0.04    -0.04   0.00   0.00
   3   6    -0.12   0.09   0.01     0.12  -0.24   0.21    -0.03   0.06  -0.04
   4   6     0.01   0.11   0.06    -0.02   0.19   0.09    -0.02  -0.01  -0.04
   5   6    -0.03   0.04  -0.15    -0.01   0.14  -0.12    -0.17   0.03  -0.01
   6   6     0.16   0.26  -0.08     0.08   0.15  -0.03    -0.09   0.01  -0.05
   7   6    -0.04  -0.10  -0.10    -0.09  -0.09  -0.09     0.24   0.20   0.26
   8   6    -0.16  -0.34   0.04    -0.17  -0.16   0.03    -0.19  -0.04   0.07
   9   8     0.15  -0.02   0.30     0.09   0.02   0.20    -0.04  -0.06  -0.20
  10   6    -0.03  -0.04   0.04     0.24  -0.05  -0.11     0.42  -0.16  -0.10
  11   6    -0.15   0.06  -0.08    -0.17   0.03  -0.08    -0.20   0.05  -0.02
  12   6     0.13  -0.32   0.27    -0.09   0.28  -0.20    -0.13  -0.16   0.06
  13   6     0.04   0.04  -0.11    -0.06  -0.05   0.07    -0.07   0.07   0.05
  14   1     0.03   0.11  -0.02    -0.02  -0.04   0.00    -0.02  -0.02   0.01
  15   8     0.05  -0.13   0.02    -0.08   0.17  -0.01    -0.09   0.03   0.03
  16   6    -0.04   0.01  -0.01     0.03   0.03   0.04    -0.00  -0.08  -0.10
  17   1    -0.10   0.04  -0.08     0.06  -0.10  -0.02     0.03   0.01   0.04
  18   1    -0.06  -0.07   0.05    -0.00  -0.08   0.10     0.01   0.07  -0.04
  19   1     0.05  -0.07   0.03    -0.07   0.07   0.07     0.05  -0.09  -0.01
  20   1     0.05   0.10   0.09     0.01   0.06  -0.07     0.04   0.07   0.05
  21   1     0.01  -0.01  -0.03     0.01   0.01  -0.02    -0.01   0.03   0.02
  22   1     0.04   0.06  -0.05    -0.02   0.06   0.02    -0.04   0.00  -0.03
  23   1    -0.05   0.07  -0.01    -0.03   0.14   0.01     0.09   0.08   0.08
  24   1     0.08  -0.05  -0.13    -0.02  -0.04  -0.20     0.08   0.05   0.04
  25   1     0.04  -0.02   0.00     0.04   0.01  -0.03    -0.05  -0.05  -0.04
  26   1    -0.02  -0.01   0.03     0.06  -0.00  -0.02     0.19  -0.14  -0.10
  27   1     0.02  -0.02   0.02     0.09  -0.04  -0.02     0.01  -0.07  -0.04
  28   1    -0.10  -0.01   0.02    -0.08  -0.08   0.05    -0.08   0.05  -0.02
  29   1     0.01   0.11  -0.05    -0.02   0.12  -0.09    -0.05   0.00   0.02
  30   1     0.03  -0.04  -0.02    -0.02   0.06  -0.05    -0.04   0.00   0.11
  31   1    -0.02   0.09  -0.10    -0.01  -0.12   0.11     0.04   0.09  -0.05
  32   1    -0.00  -0.03   0.03     0.02   0.04  -0.07     0.00   0.04  -0.07
  33   1    -0.02   0.13   0.04     0.01  -0.10  -0.03     0.03   0.06   0.02
  34   1    -0.03   0.10  -0.01     0.02  -0.08   0.02     0.01  -0.02  -0.09
  35   1    -0.05  -0.07  -0.18     0.05   0.07   0.17     0.01  -0.03  -0.09
                     25                     26                     27
                        a                      a                      a 
 Frequencies --   613.1089               696.8125               702.2889
 Red. masses --    10.0921                 5.9744                 4.1696
 Frc consts  --     0.0000                 0.0000                 0.0000
 IR Inten    --     1.5895                 3.6969                 1.0710
 Raman Activ --     0.0000                 0.0000                 0.0000
 Depolar     --     0.0000                 0.0000                 0.0000
 Atom AN      X      Y      Z        X      Y      Z        X      Y      Z
   1   6     0.03   0.20  -0.13     0.04   0.19   0.13     0.04   0.16   0.00
   2   6     0.13  -0.16  -0.35     0.05   0.03   0.00    -0.02  -0.01   0.19
   3   6     0.20  -0.31   0.15     0.11  -0.09   0.10     0.01   0.04   0.01
   4   6    -0.05  -0.13   0.07     0.08  -0.02   0.04     0.04   0.07  -0.02
   5   6    -0.26   0.06   0.12     0.23  -0.07  -0.13     0.11  -0.04  -0.08
   6   6    -0.07   0.37  -0.15     0.13  -0.15  -0.08     0.14   0.05  -0.19
   7   6     0.12   0.05   0.01     0.12   0.11   0.14     0.12   0.09   0.06
   8   6     0.12  -0.04   0.04    -0.09   0.01  -0.07    -0.07  -0.13   0.03
   9   8    -0.00  -0.06   0.02    -0.07  -0.03  -0.11    -0.07  -0.03  -0.04
  10   6    -0.16   0.05   0.05    -0.25   0.12   0.12    -0.15   0.06   0.06
  11   6     0.16   0.01   0.06    -0.13   0.00  -0.04    -0.07   0.01  -0.04
  12   6    -0.16  -0.02   0.05    -0.12   0.00  -0.03    -0.08  -0.09   0.04
  13   6    -0.17   0.05   0.06    -0.09   0.04   0.06    -0.07   0.01   0.04
  14   1     0.05  -0.01  -0.10    -0.01  -0.02   0.00    -0.00   0.02   0.05
  15   8     0.05  -0.06  -0.03     0.04  -0.05  -0.02     0.03  -0.04  -0.01
  16   6     0.02   0.03   0.00     0.00  -0.07  -0.08    -0.01  -0.09  -0.09
  17   1     0.08  -0.08   0.11    -0.03  -0.02  -0.07    -0.02  -0.00  -0.08
  18   1     0.05   0.00   0.03    -0.01  -0.11   0.09    -0.00  -0.07   0.03
  19   1    -0.05  -0.05   0.06    -0.11   0.13   0.05     0.01   0.00   0.00
  20   1     0.05   0.03  -0.09    -0.07  -0.14  -0.12     0.00   0.01   0.02
  21   1    -0.09  -0.03   0.02     0.09  -0.04  -0.02     0.10  -0.01   0.03
  22   1    -0.00   0.07  -0.11     0.06  -0.06  -0.06     0.05  -0.01  -0.09
  23   1    -0.01  -0.06  -0.01     0.06   0.07   0.05     0.04  -0.06   0.00
  24   1     0.08   0.01   0.09     0.12   0.01  -0.02     0.10   0.02   0.10
  25   1    -0.05  -0.08  -0.07     0.00   0.03   0.04    -0.00   0.01  -0.00
  26   1    -0.03   0.01  -0.00    -0.05   0.02   0.00    -0.03   0.00   0.02
  27   1    -0.06   0.03   0.01    -0.11   0.07   0.02    -0.05   0.03   0.01
  28   1     0.02   0.07  -0.02    -0.12  -0.33   0.22    -0.01   0.17  -0.12
  29   1     0.06  -0.04   0.08     0.04   0.33  -0.23    -0.04  -0.15   0.12
  30   1    -0.04  -0.03   0.04    -0.03  -0.07   0.13    -0.09   0.45  -0.28
  31   1    -0.06   0.05  -0.01     0.00   0.11  -0.06     0.08  -0.37   0.31
  32   1    -0.00  -0.03   0.04     0.00  -0.04   0.04    -0.01  -0.03   0.04
  33   1     0.06   0.06   0.05     0.03   0.02   0.01    -0.00  -0.10  -0.05
  34   1     0.03  -0.04  -0.09     0.01  -0.04  -0.08     0.00  -0.09  -0.00
  35   1     0.05   0.03   0.00     0.01  -0.02  -0.03     0.02   0.01   0.07
                     28                     29                     30
                        a                      a                      a 
 Frequencies --   721.0360               793.5138               814.9329
 Red. masses --     3.8681                 7.8292                 9.1022
 Frc consts  --     0.0000                 0.0000                 0.0000
 IR Inten    --     3.3441                 8.5854                 2.7159
 Raman Activ --     0.0000                 0.0000                 0.0000
 Depolar     --     0.0000                 0.0000                 0.0000
 Atom AN      X      Y      Z        X      Y      Z        X      Y      Z
   1   6    -0.02  -0.01   0.05     0.00  -0.07   0.07     0.02  -0.06   0.15
   2   6     0.03   0.02   0.06    -0.11  -0.18   0.39    -0.11  -0.29  -0.44
   3   6     0.15  -0.02   0.10    -0.14  -0.13   0.03    -0.15   0.01  -0.08
   4   6     0.12   0.24   0.03    -0.14  -0.08  -0.09    -0.07   0.21   0.17
   5   6     0.14   0.01  -0.04     0.12   0.02  -0.20     0.12   0.00   0.03
   6   6     0.02  -0.10   0.04     0.21   0.22  -0.33     0.08  -0.08  -0.02
   7   6     0.04  -0.05  -0.06    -0.02   0.05   0.10     0.15  -0.05   0.13
   8   6    -0.09  -0.20   0.02     0.02   0.02   0.04    -0.06  -0.01  -0.08
   9   8    -0.03   0.00  -0.04    -0.07  -0.05   0.01    -0.06  -0.03  -0.08
  10   6    -0.07   0.04   0.03    -0.15   0.06   0.05    -0.12   0.08   0.09
  11   6    -0.11   0.00  -0.06     0.05   0.01   0.02    -0.12  -0.02  -0.05
  12   6    -0.08   0.09  -0.09     0.04   0.09  -0.10     0.13  -0.08   0.04
  13   6    -0.05   0.02   0.04     0.07  -0.04  -0.01     0.15  -0.04  -0.09
  14   1    -0.02  -0.01   0.02    -0.03  -0.08   0.11    -0.04  -0.12  -0.11
  15   8     0.00   0.00  -0.01     0.02   0.05  -0.03     0.01   0.05  -0.03
  16   6     0.00  -0.03  -0.05    -0.01   0.02  -0.01     0.04   0.21   0.26
  17   1    -0.01  -0.02  -0.17     0.12  -0.07   0.18     0.11  -0.05   0.05
  18   1    -0.03  -0.15   0.13     0.07   0.14  -0.13    -0.10   0.19  -0.02
  19   1    -0.09   0.15   0.06     0.15  -0.20  -0.08    -0.01   0.10   0.02
  20   1    -0.02  -0.02  -0.11     0.05   0.11   0.18    -0.05   0.02   0.07
  21   1     0.07   0.05   0.01     0.14  -0.06   0.02     0.07  -0.06   0.04
  22   1    -0.01  -0.02   0.02    -0.00   0.07  -0.10     0.01  -0.03  -0.02
  23   1     0.04  -0.09  -0.03     0.02   0.04   0.03     0.16   0.10   0.06
  24   1     0.03  -0.01   0.05    -0.03   0.02   0.01     0.01  -0.02  -0.11
  25   1     0.01   0.02   0.03    -0.01  -0.01  -0.02     0.00   0.02   0.03
  26   1    -0.02   0.01  -0.00    -0.05   0.04   0.01     0.00   0.01  -0.04
  27   1    -0.02   0.02   0.00    -0.04   0.05   0.01    -0.11   0.05  -0.00
  28   1     0.01   0.37  -0.26     0.05   0.02  -0.02    -0.07   0.08  -0.05
  29   1    -0.08  -0.34   0.25    -0.01  -0.05   0.02    -0.02  -0.05   0.05
  30   1     0.01  -0.24   0.24     0.03  -0.15   0.14     0.08  -0.02  -0.13
  31   1    -0.02   0.24  -0.18     0.02   0.16  -0.15    -0.03  -0.06   0.01
  32   1    -0.00  -0.01   0.01     0.01  -0.01   0.01     0.01   0.00  -0.02
  33   1     0.02   0.03   0.01    -0.02  -0.02  -0.02     0.01   0.08   0.08
  34   1     0.01  -0.01  -0.06    -0.02   0.03   0.03     0.01   0.08   0.08
  35   1     0.00  -0.02  -0.04    -0.01   0.00   0.00     0.00   0.05   0.04
                     31                     32                     33
                        a                      a                      a 
 Frequencies --   870.7589               883.6232               892.4482
 Red. masses --     6.9313                 7.5242                 4.8718
 Frc consts  --     0.0000                 0.0000                 0.0000
 IR Inten    --    12.3699                16.2571                 9.1775
 Raman Activ --     0.0000                 0.0000                 0.0000
 Depolar     --     0.0000                 0.0000                 0.0000
 Atom AN      X      Y      Z        X      Y      Z        X      Y      Z
   1   6    -0.00  -0.03   0.18     0.02   0.07   0.05    -0.01  -0.06  -0.03
   2   6    -0.04   0.12  -0.11     0.05   0.04   0.13     0.03  -0.01  -0.04
   3   6     0.01   0.05   0.12     0.02  -0.00  -0.11     0.05   0.05   0.02
   4   6     0.12  -0.32  -0.03     0.04   0.04   0.03    -0.05   0.05  -0.01
   5   6     0.19  -0.02  -0.28    -0.01   0.01   0.43    -0.07  -0.06  -0.20
   6   6    -0.05   0.26  -0.06     0.03   0.12  -0.11     0.03  -0.07   0.01
   7   6    -0.20  -0.16   0.11     0.06  -0.31  -0.28    -0.05   0.13   0.26
   8   6     0.03   0.11   0.01    -0.05   0.13  -0.09     0.06   0.04  -0.04
   9   8    -0.04  -0.02  -0.03    -0.04  -0.01  -0.01     0.01  -0.01   0.00
  10   6     0.12   0.06   0.14     0.06   0.07   0.14    -0.07  -0.05  -0.10
  11   6     0.04   0.02   0.09    -0.19  -0.19   0.11     0.04  -0.34   0.22
  12   6     0.01  -0.03   0.02    -0.01   0.03   0.01    -0.01   0.00  -0.00
  13   6     0.01   0.01  -0.02    -0.04   0.02   0.02    -0.00   0.00   0.01
  14   1    -0.04   0.04  -0.03     0.05  -0.01   0.05    -0.00   0.01  -0.02
  15   8    -0.02  -0.04  -0.00    -0.01  -0.05  -0.01     0.01   0.04  -0.00
  16   6     0.01   0.02   0.04    -0.01  -0.06  -0.08    -0.00   0.00   0.01
  17   1    -0.14   0.06  -0.02     0.03   0.00   0.03    -0.03   0.01  -0.09
  18   1    -0.07  -0.08   0.12     0.06   0.03  -0.09    -0.02  -0.06   0.05
  19   1    -0.12  -0.02   0.08     0.07   0.11  -0.09    -0.03  -0.08   0.06
  20   1    -0.05  -0.21  -0.10     0.00  -0.00   0.01     0.02   0.06   0.01
  21   1     0.05   0.04  -0.08     0.09  -0.05   0.19    -0.08  -0.02  -0.10
  22   1    -0.09   0.10  -0.01     0.05  -0.00  -0.08     0.01  -0.01   0.02
  23   1     0.02   0.17   0.07     0.09  -0.04  -0.07    -0.03   0.12   0.09
  24   1    -0.17  -0.04  -0.19     0.01  -0.09  -0.12    -0.02   0.03  -0.03
  25   1    -0.07  -0.09  -0.09    -0.02  -0.01  -0.01     0.02   0.02   0.01
  26   1     0.16  -0.07  -0.16     0.13  -0.06  -0.13    -0.10   0.05   0.11
  27   1    -0.21   0.02  -0.01    -0.20   0.01  -0.01     0.14  -0.00   0.01
  28   1     0.16   0.07  -0.08     0.01   0.21  -0.16     0.08   0.45  -0.30
  29   1    -0.09  -0.11  -0.00    -0.02   0.26  -0.22     0.15   0.39  -0.22
  30   1     0.00   0.03  -0.03    -0.01  -0.01   0.03     0.00  -0.00  -0.01
  31   1     0.01  -0.04   0.03    -0.01   0.01   0.00    -0.01   0.00   0.00
  32   1     0.01   0.07  -0.11     0.01   0.05  -0.07     0.00  -0.04   0.06
  33   1     0.00   0.02   0.02    -0.01  -0.04  -0.04     0.00   0.01   0.01
  34   1     0.00   0.01   0.01    -0.01  -0.02  -0.01     0.00  -0.01  -0.01
  35   1    -0.00  -0.00  -0.01    -0.00  -0.01  -0.01     0.00   0.00   0.00
                     34                     35                     36
                        a                      a                      a 
 Frequencies --   895.0618               917.9091               930.9489
 Red. masses --     3.7668                 7.3662                 6.6482
 Frc consts  --     0.0000                 0.0000                 0.0000
 IR Inten    --    30.7572                 1.9534                 8.8120
 Raman Activ --     0.0000                 0.0000                 0.0000
 Depolar     --     0.0000                 0.0000                 0.0000
 Atom AN      X      Y      Z        X      Y      Z        X      Y      Z
   1   6    -0.00   0.02   0.00    -0.02   0.02  -0.09    -0.01  -0.20  -0.03
   2   6    -0.00  -0.02  -0.01    -0.25   0.04   0.04     0.13   0.15  -0.00
   3   6     0.01   0.04  -0.02    -0.15  -0.15   0.18     0.00   0.04  -0.01
   4   6     0.00  -0.00   0.01     0.22  -0.23  -0.11     0.02  -0.12  -0.01
   5   6    -0.01  -0.02   0.01     0.22   0.18   0.03    -0.02   0.08   0.16
   6   6     0.00   0.01  -0.01    -0.16   0.11   0.11     0.01   0.09  -0.04
   7   6    -0.01   0.01  -0.02     0.22   0.08  -0.13     0.20  -0.27   0.26
   8   6     0.00  -0.00   0.00    -0.07  -0.06   0.02    -0.02   0.16  -0.09
   9   8     0.00  -0.00   0.00    -0.01   0.02   0.00    -0.03  -0.01  -0.01
  10   6     0.02   0.01   0.01    -0.01  -0.07  -0.14    -0.19  -0.10  -0.18
  11   6     0.00  -0.00   0.00    -0.13  -0.07   0.02    -0.08   0.05  -0.07
  12   6    -0.01   0.09  -0.09     0.02  -0.07  -0.04     0.00   0.07   0.04
  13   6     0.05  -0.38   0.29     0.06  -0.08  -0.09    -0.03   0.04   0.09
  14   1    -0.02  -0.02  -0.00    -0.11   0.08  -0.01     0.07   0.09  -0.01
  15   8    -0.01  -0.02   0.01     0.00   0.01   0.01     0.02   0.12  -0.03
  16   6    -0.01  -0.01   0.04     0.03   0.11   0.13    -0.01  -0.12  -0.13
  17   1    -0.02   0.01  -0.03     0.02  -0.04   0.19    -0.09   0.07   0.04
  18   1    -0.01  -0.01   0.01    -0.04   0.10   0.02     0.03  -0.03  -0.02
  19   1    -0.01   0.00   0.01    -0.01   0.12  -0.06     0.02   0.02  -0.04
  20   1    -0.01  -0.01  -0.00    -0.02  -0.19  -0.13     0.00  -0.04  -0.02
  21   1    -0.01  -0.01   0.00     0.11   0.20   0.04     0.05   0.02   0.09
  22   1     0.01  -0.00  -0.01    -0.13   0.07   0.07    -0.04   0.04   0.01
  23   1    -0.01  -0.01  -0.01     0.05  -0.13  -0.07     0.25   0.21   0.13
  24   1    -0.00   0.00   0.01     0.16   0.02   0.12    -0.02  -0.09  -0.27
  25   1    -0.01  -0.01   0.00    -0.04  -0.04  -0.06    -0.01  -0.01  -0.03
  26   1     0.02  -0.00  -0.02    -0.09   0.02   0.10    -0.20   0.07   0.20
  27   1    -0.01   0.00  -0.00     0.17  -0.01  -0.00     0.24   0.03   0.00
  28   1     0.00  -0.00   0.00    -0.02   0.09  -0.07    -0.07  -0.03   0.03
  29   1     0.00   0.01  -0.01    -0.02   0.12  -0.10    -0.04  -0.14   0.11
  30   1    -0.05   0.47  -0.38    -0.02   0.05   0.03     0.01   0.01  -0.06
  31   1    -0.05   0.46  -0.38     0.13  -0.01  -0.04    -0.10   0.03   0.02
  32   1    -0.00   0.01  -0.01    -0.01  -0.06   0.08     0.01  -0.12   0.12
  33   1     0.01   0.07   0.05    -0.01   0.02   0.03    -0.01  -0.03  -0.04
  34   1     0.00   0.03  -0.02    -0.01   0.08   0.08    -0.00  -0.04  -0.05
  35   1    -0.01  -0.03  -0.07    -0.01   0.01   0.01    -0.00  -0.03  -0.04
                     37                     38                     39
                        a                      a                      a 
 Frequencies --   942.7146               956.9948               963.0319
 Red. masses --     6.8582                 5.6384                 6.8421
 Frc consts  --     0.0000                 0.0000                 0.0000
 IR Inten    --     7.7756                 9.4476                17.8148
 Raman Activ --     0.0000                 0.0000                 0.0000
 Depolar     --     0.0000                 0.0000                 0.0000
 Atom AN      X      Y      Z        X      Y      Z        X      Y      Z
   1   6    -0.08  -0.01  -0.00    -0.01   0.02  -0.00    -0.06  -0.07   0.08
   2   6    -0.19  -0.04   0.16     0.05   0.08  -0.04     0.06  -0.24   0.04
   3   6     0.11   0.14  -0.13    -0.14  -0.15   0.10    -0.00   0.26  -0.22
   4   6     0.18  -0.05   0.04     0.04  -0.02  -0.03     0.01  -0.08   0.22
   5   6    -0.16  -0.11   0.23     0.17   0.14   0.04     0.14  -0.13   0.01
   6   6     0.06   0.18  -0.16    -0.02  -0.04   0.07    -0.11   0.30  -0.01
   7   6    -0.11   0.07   0.16    -0.21   0.11   0.09     0.03   0.17  -0.12
   8   6     0.06  -0.01  -0.11     0.03  -0.09  -0.09    -0.02  -0.09   0.03
   9   8    -0.02  -0.02   0.01    -0.02   0.00  -0.02    -0.04   0.01   0.00
  10   6     0.07  -0.04  -0.05     0.06   0.04   0.06     0.02  -0.11  -0.08
  11   6     0.10  -0.12  -0.20     0.08  -0.20  -0.25    -0.01  -0.00   0.01
  12   6    -0.02  -0.06  -0.08     0.04   0.07   0.08     0.03   0.06   0.04
  13   6    -0.02  -0.10  -0.14     0.06   0.11   0.14     0.08   0.11   0.11
  14   1    -0.05  -0.06   0.05     0.01   0.06  -0.02     0.05  -0.21   0.05
  15   8    -0.01  -0.01   0.02    -0.01  -0.05   0.02     0.01   0.08  -0.03
  16   6     0.06   0.15   0.14    -0.04  -0.15  -0.15    -0.05  -0.07  -0.10
  17   1     0.00   0.01  -0.19     0.00  -0.02   0.20    -0.02   0.05  -0.16
  18   1    -0.04  -0.06   0.06     0.02   0.10  -0.06    -0.07  -0.00   0.02
  19   1    -0.08   0.11   0.05     0.06   0.08  -0.09    -0.09   0.04   0.10
  20   1    -0.01  -0.11  -0.12    -0.01  -0.03  -0.00    -0.13  -0.19   0.10
  21   1    -0.01  -0.06   0.09     0.09   0.08   0.04     0.09  -0.10   0.05
  22   1     0.10   0.01  -0.08    -0.05   0.01   0.03    -0.10   0.12   0.05
  23   1    -0.03   0.09   0.06    -0.15   0.04   0.03    -0.00  -0.14  -0.07
  24   1    -0.08   0.02  -0.03    -0.08   0.03   0.02     0.04   0.06   0.16
  25   1    -0.03  -0.04  -0.04     0.01   0.02   0.01    -0.09  -0.12  -0.13
  26   1    -0.00   0.01   0.01     0.06  -0.00  -0.07    -0.05   0.01   0.07
  27   1     0.04  -0.01  -0.00    -0.08  -0.02   0.00     0.11  -0.00  -0.01
  28   1    -0.29   0.00   0.07    -0.36   0.12   0.01     0.01  -0.03   0.01
  29   1     0.27   0.03   0.19     0.33   0.07   0.21    -0.00   0.07  -0.06
  30   1    -0.08   0.05   0.16     0.10  -0.08  -0.17     0.12  -0.16  -0.13
  31   1     0.23  -0.01  -0.07    -0.24   0.01   0.07    -0.23   0.02   0.05
  32   1    -0.00   0.01  -0.00    -0.00   0.06  -0.06     0.00  -0.02   0.03
  33   1    -0.03  -0.01  -0.01     0.01  -0.01  -0.02     0.02  -0.01  -0.00
  34   1    -0.01   0.09   0.12     0.00  -0.06  -0.09     0.01  -0.09  -0.09
  35   1    -0.02   0.03   0.05     0.01  -0.03  -0.05     0.03   0.01   0.01
                     40                     41                     42
                        a                      a                      a 
 Frequencies --   996.8292              1014.4446              1033.6195
 Red. masses --     6.6079                 5.2287                 6.4551
 Frc consts  --     0.0000                 0.0000                 0.0000
 IR Inten    --     3.5801                 5.0538                15.2294
 Raman Activ --     0.0000                 0.0000                 0.0000
 Depolar     --     0.0000                 0.0000                 0.0000
 Atom AN      X      Y      Z        X      Y      Z        X      Y      Z
   1   6     0.03  -0.08   0.05    -0.03  -0.17   0.04    -0.03  -0.34  -0.05
   2   6     0.40   0.04  -0.13     0.04   0.02  -0.03    -0.08  -0.05  -0.11
   3   6     0.01   0.02  -0.06     0.13   0.15   0.16     0.02   0.12   0.06
   4   6    -0.20   0.01   0.15    -0.15  -0.08  -0.20    -0.01  -0.09  -0.10
   5   6     0.27   0.05  -0.04    -0.00   0.06   0.10    -0.13   0.08   0.02
   6   6    -0.10   0.05   0.14     0.06  -0.02  -0.03     0.03  -0.07  -0.14
   7   6    -0.08   0.04  -0.03     0.07   0.04  -0.10     0.18   0.14  -0.06
   8   6    -0.01  -0.05  -0.01    -0.02   0.02   0.04    -0.03  -0.03   0.11
   9   8    -0.03   0.01  -0.03    -0.01  -0.02  -0.01     0.05   0.01   0.06
  10   6    -0.04  -0.04   0.02    -0.04  -0.02   0.07    -0.11  -0.06   0.21
  11   6    -0.01  -0.06  -0.08     0.00  -0.04  -0.06     0.01  -0.02  -0.01
  12   6    -0.06  -0.00   0.00    -0.06  -0.07  -0.14     0.02   0.07   0.07
  13   6    -0.26  -0.13  -0.12     0.13  -0.04  -0.09    -0.08   0.07   0.10
  14   1     0.19  -0.04  -0.01    -0.12   0.03  -0.03    -0.01   0.07  -0.04
  15   8     0.01   0.06  -0.03     0.01   0.05  -0.03     0.04   0.11  -0.08
  16   6     0.06   0.03   0.03    -0.24   0.07   0.20     0.25  -0.06  -0.09
  17   1    -0.08   0.06   0.08    -0.18   0.11  -0.08    -0.07   0.05  -0.06
  18   1     0.09  -0.02  -0.09     0.06  -0.22   0.08    -0.07  -0.03   0.10
  19   1     0.06  -0.07  -0.01     0.06  -0.20  -0.04    -0.07  -0.12   0.08
  20   1    -0.07   0.01   0.22     0.06   0.13   0.05     0.05   0.05  -0.07
  21   1     0.15  -0.06   0.05     0.17   0.09   0.15     0.09   0.12   0.09
  22   1    -0.17   0.09   0.11    -0.06   0.03   0.03    -0.03   0.02   0.03
  23   1    -0.05  -0.03  -0.02     0.11  -0.09  -0.04     0.17  -0.11  -0.04
  24   1    -0.04   0.01   0.04    -0.08   0.03   0.06    -0.12   0.07   0.12
  25   1    -0.03  -0.04  -0.05     0.02   0.03   0.04     0.06   0.06   0.07
  26   1    -0.01  -0.01   0.01    -0.00   0.02  -0.03     0.01   0.07  -0.09
  27   1     0.00   0.01   0.00    -0.05   0.00   0.01    -0.15  -0.03   0.03
  28   1    -0.10   0.03  -0.00    -0.09  -0.02   0.03    -0.04  -0.01   0.02
  29   1     0.07   0.03   0.04     0.08   0.06   0.01     0.05   0.07  -0.02
  30   1    -0.21   0.19   0.24     0.05  -0.04  -0.04    -0.02   0.01   0.00
  31   1     0.30  -0.02  -0.06     0.04  -0.06   0.01    -0.09   0.03   0.03
  32   1     0.01   0.00  -0.01     0.01   0.04  -0.04     0.01   0.12  -0.12
  33   1    -0.04  -0.03  -0.04     0.16   0.23   0.26    -0.14  -0.14  -0.19
  34   1    -0.01   0.08   0.09     0.04  -0.19  -0.26    -0.03   0.21   0.25
  35   1    -0.04  -0.02  -0.02     0.14   0.12   0.07    -0.14  -0.14  -0.12
                     43                     44                     45
                        a                      a                      a 
 Frequencies --  1041.6893              1057.1106              1071.8901
 Red. masses --     4.5157                10.4411                 7.1058
 Frc consts  --     0.0000                 0.0000                 0.0000
 IR Inten    --     1.0839                98.7514                55.4149
 Raman Activ --     0.0000                 0.0000                 0.0000
 Depolar     --     0.0000                 0.0000                 0.0000
 Atom AN      X      Y      Z        X      Y      Z        X      Y      Z
   1   6    -0.03  -0.02  -0.08    -0.22   0.01  -0.06     0.06   0.21   0.30
   2   6     0.02  -0.01  -0.03    -0.08  -0.01  -0.05    -0.18   0.06  -0.15
   3   6    -0.02   0.03   0.02     0.15  -0.03   0.01     0.16  -0.06   0.13
   4   6    -0.03  -0.03  -0.02    -0.14   0.02  -0.03    -0.13   0.06  -0.17
   5   6     0.02   0.03  -0.01     0.11  -0.06   0.02     0.10  -0.11   0.08
   6   6    -0.05  -0.04  -0.00    -0.01   0.06   0.08     0.11   0.09   0.15
   7   6     0.06   0.01   0.04     0.11   0.02   0.07    -0.20  -0.04  -0.15
   8   6    -0.01   0.02   0.01    -0.01   0.02  -0.02     0.02   0.00  -0.05
   9   8     0.02   0.03   0.03    -0.04  -0.01  -0.02    -0.11  -0.07  -0.13
  10   6     0.01   0.05   0.02     0.19   0.42  -0.31     0.04  -0.12  -0.08
  11   6    -0.01  -0.01  -0.01    -0.02   0.00  -0.00     0.02  -0.01  -0.02
  12   6     0.02  -0.27   0.20    -0.00   0.04  -0.01    -0.01  -0.08   0.04
  13   6     0.03  -0.03   0.01    -0.00   0.03   0.03     0.01   0.06   0.08
  14   1     0.03   0.06  -0.02    -0.03   0.03  -0.02    -0.15   0.01  -0.05
  15   8    -0.01  -0.05   0.02    -0.13  -0.44   0.27     0.01   0.11  -0.04
  16   6    -0.07   0.31  -0.25     0.08  -0.03   0.00     0.13   0.05  -0.04
  17   1    -0.02   0.01  -0.02     0.03  -0.03  -0.09     0.01  -0.02  -0.08
  18   1     0.00  -0.04   0.01     0.04  -0.08   0.01     0.03  -0.10   0.06
  19   1     0.01  -0.03  -0.00     0.02  -0.13   0.01     0.05  -0.15  -0.03
  20   1    -0.02  -0.01   0.04     0.02   0.09   0.08     0.10   0.19  -0.00
  21   1     0.03   0.05   0.01     0.13  -0.07   0.08     0.13  -0.08   0.10
  22   1    -0.01  -0.00   0.01    -0.06   0.04   0.05     0.00   0.01   0.01
  23   1     0.03   0.01   0.01     0.16   0.01   0.02     0.01  -0.05  -0.05
  24   1     0.01   0.00  -0.00     0.03   0.01  -0.00    -0.08  -0.00  -0.01
  25   1     0.01   0.01  -0.01    -0.03  -0.03  -0.05    -0.04  -0.03  -0.04
  26   1     0.02   0.03  -0.04    -0.01   0.26  -0.10     0.01  -0.25   0.16
  27   1    -0.03  -0.01   0.00     0.07  -0.03  -0.03     0.11   0.13  -0.04
  28   1    -0.02   0.01  -0.00    -0.00  -0.02   0.01    -0.01  -0.03   0.02
  29   1     0.01   0.00   0.01    -0.00   0.01  -0.01     0.02   0.02  -0.00
  30   1     0.01  -0.03   0.00     0.01  -0.02  -0.01     0.03  -0.02  -0.06
  31   1    -0.02   0.19  -0.16    -0.04  -0.01   0.03    -0.10   0.03   0.01
  32   1    -0.00   0.04  -0.04    -0.05   0.07  -0.08     0.01  -0.21   0.20
  33   1     0.03  -0.39  -0.22    -0.04  -0.00  -0.03    -0.06  -0.12  -0.12
  34   1     0.01  -0.24   0.05    -0.01   0.08   0.07    -0.02   0.09   0.17
  35   1     0.06   0.28   0.51    -0.04  -0.06  -0.07    -0.06  -0.02   0.02
                     46                     47                     48
                        a                      a                      a 
 Frequencies --  1079.7015              1094.9655              1120.0883
 Red. masses --     6.4184                 6.5109                 8.1212
 Frc consts  --     0.0000                 0.0000                 0.0000
 IR Inten    --     8.4916                34.0968                54.5551
 Raman Activ --     0.0000                 0.0000                 0.0000
 Depolar     --     0.0000                 0.0000                 0.0000
 Atom AN      X      Y      Z        X      Y      Z        X      Y      Z
   1   6     0.03   0.22   0.06    -0.08  -0.08   0.29    -0.17   0.10  -0.11
   2   6     0.07  -0.26   0.01     0.16   0.07  -0.06     0.04  -0.20   0.01
   3   6    -0.03   0.17  -0.00    -0.16  -0.00   0.00    -0.00   0.11   0.13
   4   6    -0.10  -0.23   0.05     0.15   0.02   0.04    -0.04  -0.03  -0.09
   5   6    -0.07   0.35  -0.02    -0.14   0.09  -0.02     0.10   0.02   0.10
   6   6     0.06  -0.16  -0.10     0.28   0.07  -0.04     0.30   0.22   0.32
   7   6    -0.02  -0.15  -0.09    -0.12   0.09  -0.12     0.03   0.00   0.05
   8   6     0.00   0.12   0.02    -0.01  -0.19   0.06     0.02  -0.01  -0.08
   9   8     0.06  -0.01   0.01    -0.10  -0.11  -0.11    -0.22  -0.18  -0.22
  10   6     0.07   0.11  -0.12     0.06   0.10  -0.18     0.01  -0.20   0.08
  11   6     0.01  -0.04  -0.04     0.03   0.02   0.04    -0.06   0.02  -0.00
  12   6    -0.01   0.01  -0.01     0.02  -0.01   0.05    -0.03   0.00  -0.03
  13   6    -0.03   0.02   0.02    -0.04  -0.03  -0.03    -0.02   0.02   0.02
  14   1     0.04  -0.30   0.06     0.11  -0.14   0.03    -0.02  -0.03  -0.01
  15   8    -0.04  -0.09   0.05    -0.05  -0.10   0.10     0.06   0.06  -0.04
  16   6     0.06  -0.00   0.01    -0.04   0.01  -0.03     0.05   0.02   0.00
  17   1    -0.13   0.09  -0.01    -0.16   0.11   0.24    -0.13   0.08   0.01
  18   1    -0.06  -0.03   0.06    -0.04   0.09  -0.02     0.05  -0.10   0.01
  19   1    -0.11  -0.16   0.13    -0.03   0.13   0.00     0.11   0.03  -0.13
  20   1    -0.04  -0.06   0.06     0.07   0.02  -0.20    -0.03  -0.02   0.11
  21   1     0.04   0.33   0.02    -0.14  -0.01  -0.08    -0.26   0.12  -0.19
  22   1    -0.00  -0.05  -0.10     0.08  -0.00  -0.04     0.15  -0.02  -0.02
  23   1    -0.17   0.03  -0.01     0.33  -0.14  -0.06    -0.03   0.03   0.02
  24   1     0.17  -0.07  -0.07    -0.29   0.07   0.09     0.16  -0.03  -0.03
  25   1     0.12   0.16   0.17     0.06   0.09   0.09     0.00   0.03   0.03
  26   1     0.02  -0.07   0.05    -0.04   0.05   0.05    -0.03   0.13  -0.07
  27   1     0.05   0.06  -0.03     0.09   0.08  -0.04     0.02  -0.20   0.05
  28   1    -0.06   0.05  -0.02     0.05  -0.01  -0.00    -0.01   0.00  -0.00
  29   1     0.04  -0.03   0.06    -0.00   0.04  -0.04    -0.05  -0.03  -0.02
  30   1    -0.00  -0.03   0.01    -0.03   0.03   0.02     0.00  -0.02   0.01
  31   1    -0.02   0.00   0.01     0.05   0.00  -0.02    -0.03   0.01   0.00
  32   1    -0.01  -0.11   0.11    -0.01  -0.03   0.03     0.00   0.20  -0.17
  33   1    -0.03  -0.01  -0.03     0.02  -0.02  -0.00    -0.02  -0.03  -0.03
  34   1    -0.00   0.04   0.05     0.01  -0.05  -0.05    -0.01   0.05   0.06
  35   1    -0.03  -0.03  -0.02     0.02   0.03   0.05    -0.02  -0.01  -0.01
                     49                     50                     51
                        a                      a                      a 
 Frequencies --  1135.3096              1141.0408              1151.4105
 Red. masses --     6.5409                 6.6481                 4.8265
 Frc consts  --     0.0000                 0.0000                 0.0000
 IR Inten    --    58.0474                 8.3383                38.7535
 Raman Activ --     0.0000                 0.0000                 0.0000
 Depolar     --     0.0000                 0.0000                 0.0000
 Atom AN      X      Y      Z        X      Y      Z        X      Y      Z
   1   6    -0.01   0.05  -0.04     0.39  -0.23  -0.12     0.19  -0.28  -0.00
   2   6    -0.14   0.24   0.06     0.08  -0.18   0.04    -0.04   0.09   0.02
   3   6     0.13  -0.18  -0.27    -0.08   0.13   0.08    -0.02   0.02  -0.10
   4   6    -0.13  -0.14   0.24     0.02   0.00  -0.10     0.06  -0.04   0.02
   5   6     0.02   0.19  -0.02    -0.03  -0.07   0.05    -0.06  -0.01   0.04
   6   6     0.20   0.06   0.17     0.07   0.10   0.16     0.23   0.11   0.15
   7   6    -0.01  -0.03  -0.05     0.03  -0.01  -0.06     0.09   0.00  -0.04
   8   6    -0.02  -0.00   0.08    -0.02   0.03   0.09     0.02   0.08  -0.05
   9   8    -0.10  -0.13  -0.14    -0.08  -0.02  -0.06    -0.11  -0.12  -0.12
  10   6    -0.02  -0.08   0.04    -0.10   0.32  -0.03    -0.08   0.16   0.01
  11   6    -0.01  -0.02  -0.04    -0.03  -0.02  -0.04    -0.05   0.01  -0.00
  12   6     0.03   0.01   0.02     0.01   0.04   0.00     0.00  -0.03   0.02
  13   6     0.04  -0.02  -0.03    -0.03  -0.01  -0.01     0.02  -0.00  -0.01
  14   1     0.05   0.16   0.00    -0.03   0.22  -0.06    -0.01  -0.04   0.02
  15   8     0.03   0.04  -0.02    -0.06  -0.09   0.04    -0.03  -0.04   0.02
  16   6    -0.06  -0.02  -0.02    -0.01  -0.02  -0.01    -0.01   0.01  -0.01
  17   1     0.33  -0.21  -0.19     0.11  -0.06  -0.13    -0.07   0.05   0.05
  18   1    -0.02   0.08  -0.05    -0.04   0.01   0.05    -0.06   0.06   0.02
  19   1    -0.17  -0.18   0.25     0.04   0.01  -0.06    -0.10  -0.03   0.11
  20   1    -0.05  -0.07   0.08    -0.11  -0.13   0.16     0.16   0.15  -0.27
  21   1    -0.05   0.16  -0.05    -0.17   0.24  -0.13     0.00  -0.26   0.04
  22   1    -0.07   0.04   0.02     0.16  -0.04   0.00    -0.23   0.17   0.19
  23   1     0.17  -0.04  -0.02    -0.06  -0.02  -0.02    -0.47   0.04  -0.01
  24   1    -0.13   0.01  -0.00    -0.21   0.04   0.02     0.24  -0.03   0.02
  25   1     0.09   0.13   0.14    -0.09  -0.12  -0.13     0.06   0.09   0.09
  26   1    -0.00  -0.02   0.00     0.02  -0.08   0.02    -0.01   0.06  -0.03
  27   1     0.01  -0.05   0.02    -0.08   0.21  -0.04    -0.06   0.06  -0.01
  28   1    -0.05   0.02  -0.00    -0.07   0.00   0.01    -0.02   0.00  -0.00
  29   1     0.03   0.02   0.01     0.02   0.02  -0.00    -0.04  -0.03  -0.00
  30   1     0.01   0.02  -0.01    -0.02   0.00   0.03     0.01   0.00  -0.01
  31   1     0.03  -0.01  -0.01     0.02  -0.00  -0.00     0.00  -0.00  -0.00
  32   1     0.01   0.03  -0.04    -0.00  -0.19   0.16    -0.00  -0.03   0.02
  33   1     0.02   0.03   0.03     0.00   0.01   0.00     0.00  -0.01  -0.01
  34   1     0.01  -0.05  -0.07    -0.00  -0.00  -0.01     0.00  -0.02  -0.01
  35   1     0.02   0.02   0.03     0.00  -0.01  -0.02     0.00   0.01   0.03
                     52                     53                     54
                        a                      a                      a 
 Frequencies --  1168.0573              1197.8029              1212.1764
 Red. masses --     4.0114                 6.2737                 5.0274
 Frc consts  --     0.0000                 0.0000                 0.0000
 IR Inten    --     2.7916                28.5018                26.1104
 Raman Activ --     0.0000                 0.0000                 0.0000
 Depolar     --     0.0000                 0.0000                 0.0000
 Atom AN      X      Y      Z        X      Y      Z        X      Y      Z
   1   6    -0.06  -0.15  -0.00     0.48   0.08   0.21     0.06   0.06   0.11
   2   6    -0.12   0.08  -0.03    -0.07   0.11  -0.02     0.12  -0.11  -0.04
   3   6     0.22  -0.03  -0.06     0.08  -0.03  -0.02    -0.10   0.10   0.16
   4   6    -0.04  -0.10   0.16    -0.01  -0.04   0.07     0.07  -0.02  -0.15
   5   6     0.03   0.18   0.03    -0.05   0.09  -0.01    -0.13  -0.07   0.09
   6   6    -0.02  -0.01  -0.17    -0.05  -0.04  -0.03    -0.09   0.09  -0.05
   7   6     0.03   0.09   0.03    -0.03  -0.09  -0.11    -0.14   0.05   0.07
   8   6    -0.01  -0.08   0.03     0.00  -0.04   0.01     0.06  -0.16  -0.28
   9   8     0.05  -0.03   0.02     0.03   0.04   0.01     0.05  -0.11  -0.05
  10   6     0.06   0.08   0.02    -0.25  -0.03  -0.11    -0.00  -0.03  -0.05
  11   6    -0.03   0.00  -0.00    -0.01   0.00   0.00     0.02   0.06   0.09
  12   6    -0.08  -0.09  -0.09    -0.08  -0.13  -0.05     0.07   0.07   0.07
  13   6     0.04   0.04   0.04     0.03   0.03   0.04    -0.05  -0.02  -0.02
  14   1    -0.14   0.07  -0.03    -0.16  -0.15   0.02    -0.02   0.18  -0.06
  15   8    -0.04   0.00  -0.01     0.06  -0.06   0.07     0.00  -0.02   0.04
  16   6     0.06   0.05   0.05     0.05   0.05   0.03    -0.03  -0.03  -0.03
  17   1    -0.11   0.07   0.01    -0.01   0.01  -0.01     0.20  -0.13  -0.19
  18   1     0.25  -0.20  -0.15     0.10  -0.08  -0.06    -0.13   0.07   0.13
  19   1     0.18   0.18  -0.22     0.05   0.06  -0.06     0.09   0.08  -0.15
  20   1    -0.13  -0.17   0.19    -0.05  -0.07   0.07    -0.09  -0.13   0.12
  21   1    -0.27  -0.20  -0.18    -0.00  -0.01   0.01     0.15   0.00   0.15
  22   1    -0.17   0.07  -0.01    -0.01  -0.03  -0.06    -0.25   0.09  -0.04
  23   1     0.00  -0.02  -0.00    -0.16  -0.02  -0.03    -0.03   0.02   0.02
  24   1     0.03   0.02   0.03    -0.25   0.01  -0.03     0.01   0.00   0.01
  25   1     0.14   0.17   0.18    -0.02  -0.04  -0.05     0.23   0.29   0.31
  26   1     0.06  -0.13   0.02    -0.20   0.33  -0.01    -0.04   0.06   0.01
  27   1    -0.07   0.15  -0.04     0.14  -0.18   0.05     0.03   0.02  -0.01
  28   1    -0.01   0.03  -0.02    -0.00   0.01  -0.01     0.13  -0.05   0.00
  29   1    -0.02  -0.01  -0.01    -0.02  -0.00  -0.01    -0.06  -0.02  -0.04
  30   1     0.04  -0.04  -0.05     0.03  -0.01  -0.04    -0.04   0.03   0.05
  31   1    -0.07   0.00   0.02    -0.07   0.00   0.02     0.04   0.00  -0.01
  32   1     0.00  -0.14   0.12    -0.00   0.26  -0.23     0.00   0.06  -0.06
  33   1    -0.02  -0.01  -0.01    -0.01  -0.02  -0.01     0.00  -0.00  -0.00
  34   1    -0.01   0.07   0.07    -0.01   0.04   0.07     0.01  -0.03  -0.05
  35   1    -0.02  -0.01  -0.00    -0.02   0.00   0.02     0.01   0.00  -0.00
                     55                     56                     57
                        a                      a                      a 
 Frequencies --  1221.0364              1242.2694              1260.3565
 Red. masses --     5.9298                 6.5694                 8.8966
 Frc consts  --     0.0000                 0.0000                 0.0000
 IR Inten    --    10.3519                 5.1074                46.2433
 Raman Activ --     0.0000                 0.0000                 0.0000
 Depolar     --     0.0000                 0.0000                 0.0000
 Atom AN      X      Y      Z        X      Y      Z        X      Y      Z
   1   6     0.21   0.27  -0.32    -0.06  -0.03   0.26    -0.17   0.10  -0.01
   2   6    -0.04  -0.24   0.12     0.04   0.06  -0.10     0.08   0.00  -0.00
   3   6    -0.05   0.11   0.01    -0.03   0.03   0.12    -0.05  -0.04   0.05
   4   6     0.00  -0.05  -0.07    -0.03  -0.03  -0.18     0.14   0.14  -0.02
   5   6     0.19  -0.01   0.05     0.16  -0.03   0.07    -0.24  -0.23  -0.33
   6   6    -0.17   0.00   0.13    -0.03  -0.02  -0.21    -0.00   0.14   0.13
   7   6     0.00  -0.07   0.04     0.02  -0.08  -0.14     0.30  -0.14  -0.11
   8   6    -0.03   0.01   0.13    -0.07   0.24   0.33    -0.09   0.27   0.34
   9   8     0.05  -0.00  -0.02     0.04   0.05   0.05    -0.01  -0.12  -0.07
  10   6    -0.07   0.08   0.04     0.00  -0.10  -0.08     0.02  -0.04  -0.04
  11   6    -0.03  -0.03  -0.05    -0.01  -0.08  -0.12     0.04  -0.06  -0.07
  12   6    -0.00   0.02  -0.03     0.11   0.09   0.13    -0.04  -0.04  -0.05
  13   6     0.01   0.00   0.00    -0.05  -0.03  -0.03     0.00   0.01   0.02
  14   1     0.06  -0.05   0.03    -0.03  -0.01  -0.02    -0.02  -0.02  -0.00
  15   8     0.03  -0.01  -0.03     0.00  -0.01   0.06     0.02   0.00   0.02
  16   6     0.01  -0.00   0.01    -0.04  -0.04  -0.05     0.02   0.02   0.02
  17   1    -0.08   0.06   0.02     0.16  -0.10  -0.13    -0.01  -0.00   0.06
  18   1    -0.07   0.01   0.06    -0.16   0.09   0.16     0.07  -0.03  -0.06
  19   1    -0.03  -0.06   0.03     0.03  -0.07  -0.05     0.03   0.08  -0.04
  20   1     0.12   0.12  -0.16    -0.01  -0.00   0.03    -0.12  -0.16   0.10
  21   1    -0.12  -0.34  -0.09    -0.33  -0.22  -0.25     0.20  -0.07   0.11
  22   1    -0.28   0.05  -0.05    -0.07   0.02  -0.05     0.04   0.02   0.04
  23   1     0.23   0.01   0.01     0.01  -0.05  -0.04    -0.13   0.03  -0.01
  24   1    -0.32   0.03  -0.04     0.21  -0.05   0.00    -0.19   0.01   0.00
  25   1     0.09   0.12   0.12    -0.00  -0.00  -0.01     0.11   0.14   0.16
  26   1     0.04  -0.10  -0.00    -0.07   0.11   0.02     0.01  -0.08   0.04
  27   1     0.02  -0.16   0.05     0.03   0.10  -0.04     0.01   0.01  -0.01
  28   1    -0.07   0.01   0.00    -0.17   0.05   0.01    -0.09   0.02   0.01
  29   1     0.02   0.02   0.00     0.08   0.01   0.06     0.11   0.03   0.07
  30   1     0.01  -0.02   0.01    -0.04   0.04   0.04     0.00  -0.01  -0.01
  31   1    -0.00   0.01  -0.01     0.05  -0.01  -0.01    -0.03   0.00   0.01
  32   1     0.01  -0.04   0.02    -0.01   0.11  -0.08     0.01   0.03  -0.03
  33   1    -0.01   0.01   0.00     0.01  -0.01  -0.00    -0.00  -0.00  -0.00
  34   1     0.00   0.01  -0.00     0.00  -0.05  -0.05    -0.00   0.02   0.02
  35   1    -0.00  -0.00   0.00     0.01  -0.00  -0.01    -0.00   0.00   0.00
                     58                     59                     60
                        a                      a                      a 
 Frequencies --  1268.1758              1277.2383              1281.9970
 Red. masses --     5.5631                 3.6931                 8.0748
 Frc consts  --     0.0000                 0.0000                 0.0000
 IR Inten    --     2.5000                 2.5285                 3.2710
 Raman Activ --     0.0000                 0.0000                 0.0000
 Depolar     --     0.0000                 0.0000                 0.0000
 Atom AN      X      Y      Z        X      Y      Z        X      Y      Z
   1   6    -0.18  -0.01  -0.03    -0.03   0.02   0.11    -0.01   0.08   0.00
   2   6    -0.12   0.14  -0.06     0.04  -0.23   0.07    -0.25  -0.16  -0.07
   3   6     0.08  -0.06   0.05    -0.04   0.03  -0.15     0.12   0.06   0.01
   4   6    -0.09   0.02  -0.04     0.01  -0.02   0.06    -0.05  -0.18   0.06
   5   6     0.18  -0.04   0.14     0.14   0.10   0.00    -0.18   0.35  -0.16
   6   6    -0.07   0.04  -0.08    -0.17   0.05   0.07     0.14  -0.12   0.13
   7   6     0.37   0.01   0.07     0.06   0.01  -0.01     0.04  -0.01  -0.03
   8   6     0.06  -0.14  -0.15     0.01  -0.03  -0.03    -0.01  -0.03   0.02
   9   8     0.02   0.00   0.02     0.04  -0.00  -0.01    -0.04   0.02  -0.01
  10   6     0.03  -0.05  -0.03    -0.00  -0.17  -0.10    -0.02   0.00   0.01
  11   6    -0.09   0.04   0.03    -0.03   0.00   0.00     0.02   0.00   0.01
  12   6     0.11   0.11   0.13    -0.01   0.01  -0.03     0.27   0.26   0.26
  13   6    -0.02  -0.03  -0.03    -0.00   0.00   0.00    -0.06  -0.06  -0.07
  14   1     0.08  -0.29   0.07    -0.08   0.47  -0.11     0.01   0.09  -0.04
  15   8     0.01   0.00   0.03     0.03  -0.02   0.13     0.01   0.01  -0.01
  16   6    -0.04  -0.04  -0.05     0.01   0.00   0.01    -0.08  -0.09  -0.09
  17   1    -0.01  -0.01  -0.01    -0.11   0.08   0.08    -0.04   0.03  -0.06
  18   1    -0.07   0.03   0.09     0.08  -0.03  -0.12    -0.01  -0.04   0.06
  19   1     0.03  -0.04  -0.02    -0.12  -0.10   0.16     0.12   0.14  -0.19
  20   1     0.02   0.06   0.03     0.08   0.08  -0.12    -0.02  -0.05   0.02
  21   1    -0.10   0.13  -0.08     0.03  -0.12   0.01     0.14  -0.33   0.13
  22   1     0.04  -0.02  -0.07     0.18  -0.16  -0.27     0.13  -0.05   0.06
  23   1    -0.37   0.10   0.03    -0.13   0.00  -0.00    -0.04   0.00  -0.01
  24   1    -0.45   0.09   0.06    -0.04   0.01   0.01    -0.05   0.01   0.01
  25   1     0.03   0.04   0.04     0.04   0.05   0.06    -0.09  -0.11  -0.12
  26   1     0.01  -0.08   0.05    -0.07   0.01   0.07     0.01  -0.04   0.00
  27   1    -0.02   0.11  -0.04    -0.03   0.38  -0.12     0.02  -0.05   0.02
  28   1    -0.03  -0.00   0.01    -0.02   0.01  -0.00     0.03   0.02  -0.02
  29   1    -0.12  -0.02  -0.09    -0.03  -0.01  -0.02     0.01  -0.01   0.01
  30   1    -0.02   0.02   0.01     0.00  -0.02   0.01    -0.05   0.04   0.08
  31   1     0.07  -0.01  -0.01    -0.00   0.01  -0.00     0.13  -0.00  -0.03
  32   1     0.01   0.01  -0.01    -0.00   0.19  -0.14     0.00   0.00  -0.00
  33   1     0.01  -0.01  -0.00    -0.01   0.01  -0.00     0.02  -0.04  -0.01
  34   1     0.01  -0.05  -0.06     0.00   0.00  -0.01     0.01  -0.09  -0.12
  35   1     0.01  -0.00  -0.01    -0.01  -0.00   0.01     0.03  -0.01  -0.05
                     61                     62                     63
                        a                      a                      a 
 Frequencies --  1300.5274              1306.9759              1323.0168
 Red. masses --     7.3843                 4.1261                 4.5696
 Frc consts  --     0.0000                 0.0000                 0.0000
 IR Inten    --    35.0130                32.9440                13.4835
 Raman Activ --     0.0000                 0.0000                 0.0000
 Depolar     --     0.0000                 0.0000                 0.0000
 Atom AN      X      Y      Z        X      Y      Z        X      Y      Z
   1   6    -0.18   0.07  -0.05     0.05   0.17  -0.14     0.17  -0.18  -0.14
   2   6     0.32   0.07   0.09    -0.10  -0.10   0.00    -0.20   0.16  -0.01
   3   6    -0.11   0.08   0.06     0.02   0.01  -0.01     0.10  -0.01   0.08
   4   6    -0.03  -0.17  -0.05    -0.00   0.03   0.08    -0.07  -0.04  -0.00
   5   6    -0.06   0.30  -0.00    -0.09  -0.18   0.02     0.02   0.02  -0.08
   6   6     0.16  -0.14   0.01     0.21  -0.13  -0.10    -0.18   0.13   0.16
   7   6     0.10  -0.02   0.03    -0.04  -0.02   0.02    -0.13   0.04   0.02
   8   6     0.02  -0.08  -0.05    -0.01   0.03   0.01    -0.03   0.03   0.02
   9   8    -0.04   0.05   0.02    -0.02   0.04   0.03     0.01  -0.06  -0.04
  10   6     0.01  -0.03  -0.03    -0.11  -0.09  -0.09    -0.09  -0.02  -0.03
  11   6    -0.02   0.02   0.02     0.02  -0.00   0.00     0.02  -0.01  -0.01
  12   6    -0.24  -0.23  -0.26     0.05   0.06   0.05    -0.11  -0.03  -0.04
  13   6     0.04   0.06   0.06    -0.01  -0.01  -0.01     0.06   0.00  -0.00
  14   1     0.03   0.00   0.02     0.02  -0.01  -0.00     0.49  -0.23   0.11
  15   8     0.03  -0.01   0.06     0.09  -0.04   0.18     0.04  -0.02   0.10
  16   6     0.07   0.07   0.07    -0.01  -0.01  -0.01     0.01   0.00   0.01
  17   1     0.23  -0.13  -0.15    -0.06   0.04   0.03     0.01  -0.00  -0.02
  18   1    -0.17   0.11   0.13     0.08  -0.05  -0.06    -0.09   0.01   0.13
  19   1     0.04   0.03  -0.09     0.03   0.09  -0.04     0.10   0.05  -0.13
  20   1     0.02  -0.01  -0.03     0.02   0.04  -0.02    -0.00   0.01   0.01
  21   1     0.01  -0.26   0.04    -0.04   0.25  -0.03     0.09  -0.06   0.04
  22   1     0.03   0.01   0.12    -0.33   0.21   0.29     0.23  -0.12  -0.13
  23   1    -0.06   0.04   0.02     0.10   0.01   0.01     0.13  -0.04  -0.01
  24   1    -0.14   0.02   0.02     0.02  -0.01  -0.01     0.18  -0.03  -0.00
  25   1    -0.10  -0.13  -0.13    -0.07  -0.09  -0.10     0.07   0.08   0.09
  26   1     0.03  -0.15   0.06    -0.01  -0.26   0.12    -0.01  -0.11   0.05
  27   1    -0.01   0.12  -0.04    -0.01   0.36  -0.10    -0.04   0.25  -0.07
  28   1     0.01   0.02  -0.01     0.02  -0.01   0.00     0.04  -0.01  -0.01
  29   1    -0.04  -0.02  -0.02     0.02   0.01   0.01     0.05   0.01   0.03
  30   1     0.04  -0.03  -0.05    -0.00  -0.01   0.00     0.07  -0.07  -0.12
  31   1    -0.12   0.00   0.03     0.03   0.00  -0.01     0.07  -0.01  -0.01
  32   1     0.01   0.08  -0.07     0.02   0.29  -0.25     0.00   0.15  -0.12
  33   1    -0.01   0.04   0.02     0.00  -0.02  -0.00    -0.01   0.00   0.00
  34   1    -0.02   0.09   0.12     0.00  -0.02  -0.02    -0.01   0.02   0.02
  35   1    -0.02   0.01   0.04     0.01  -0.00  -0.02    -0.00   0.00   0.00
                     64                     65                     66
                        a                      a                      a 
 Frequencies --  1332.2375              1339.4704              1346.5362
 Red. masses --     4.2211                 4.1391                 3.5720
 Frc consts  --     0.0000                 0.0000                 0.0000
 IR Inten    --    26.6141                22.9746                 7.6021
 Raman Activ --     0.0000                 0.0000                 0.0000
 Depolar     --     0.0000                 0.0000                 0.0000
 Atom AN      X      Y      Z        X      Y      Z        X      Y      Z
   1   6    -0.02   0.09   0.06     0.07   0.17  -0.07     0.06  -0.02  -0.28
   2   6    -0.02  -0.05  -0.01    -0.10  -0.03   0.02     0.15   0.11   0.00
   3   6    -0.07   0.13   0.05     0.08  -0.09  -0.00    -0.08   0.02   0.02
   4   6    -0.16  -0.20   0.27     0.11   0.15  -0.20    -0.01  -0.05   0.04
   5   6     0.03  -0.14  -0.12    -0.08   0.07   0.06     0.01   0.05  -0.04
   6   6     0.03  -0.01   0.01     0.11  -0.09   0.01    -0.08   0.06   0.12
   7   6     0.06  -0.04  -0.04    -0.01  -0.03   0.00    -0.06   0.02   0.06
   8   6    -0.03   0.06   0.07     0.02  -0.03  -0.03    -0.02  -0.01  -0.00
   9   8     0.01   0.02   0.00    -0.02   0.02   0.00    -0.01  -0.04  -0.02
  10   6     0.13  -0.14   0.07     0.15  -0.24   0.10     0.06  -0.14   0.07
  11   6     0.01  -0.01  -0.02    -0.00   0.01   0.01     0.01   0.00   0.00
  12   6    -0.06  -0.02  -0.04    -0.07  -0.01  -0.02     0.14   0.03   0.09
  13   6     0.02   0.00   0.00     0.03   0.00  -0.00    -0.06  -0.00   0.00
  14   1     0.21   0.10  -0.01     0.23   0.02   0.03    -0.56  -0.39   0.03
  15   8    -0.08   0.01  -0.07    -0.09   0.01  -0.04    -0.03  -0.00   0.02
  16   6     0.00   0.01   0.01     0.01   0.00   0.00    -0.01   0.00  -0.01
  17   1     0.13  -0.07  -0.16    -0.11   0.07   0.13     0.09  -0.06  -0.07
  18   1     0.07  -0.05  -0.06    -0.07   0.02   0.08     0.06  -0.01  -0.07
  19   1     0.16   0.24  -0.24    -0.08  -0.12   0.12     0.01   0.01  -0.01
  20   1     0.20   0.23  -0.28    -0.15  -0.17   0.22     0.04   0.02  -0.07
  21   1     0.03   0.22  -0.03    -0.02  -0.13   0.03     0.06  -0.06   0.03
  22   1    -0.12   0.01  -0.08    -0.11   0.07   0.12     0.12  -0.04   0.02
  23   1    -0.05   0.01  -0.00     0.02   0.02   0.01     0.15  -0.05  -0.00
  24   1    -0.08   0.01   0.01    -0.08   0.01   0.00     0.02  -0.01  -0.08
  25   1    -0.00  -0.00  -0.01    -0.04  -0.05  -0.05     0.03   0.04   0.04
  26   1    -0.06   0.35  -0.11    -0.09   0.46  -0.13    -0.03   0.17  -0.06
  27   1    -0.06   0.10  -0.03    -0.12   0.32  -0.09    -0.11   0.35  -0.10
  28   1     0.00  -0.00  -0.00    -0.01   0.00   0.00     0.04  -0.01  -0.01
  29   1     0.04   0.01   0.03    -0.02  -0.01  -0.02     0.03   0.01   0.02
  30   1     0.03  -0.03  -0.04     0.05  -0.05  -0.07    -0.07   0.08   0.10
  31   1     0.02  -0.00  -0.01     0.05  -0.00  -0.01    -0.07  -0.00   0.02
  32   1    -0.01  -0.16   0.14    -0.01  -0.15   0.13    -0.01  -0.02   0.02
  33   1    -0.00  -0.01  -0.00    -0.01   0.02  -0.00     0.01  -0.04  -0.01
  34   1    -0.00   0.02   0.01    -0.00   0.01   0.01     0.01  -0.04  -0.03
  35   1     0.01   0.00  -0.00    -0.01  -0.00   0.02     0.00  -0.01  -0.03
                     67                     68                     69
                        a                      a                      a 
 Frequencies --  1354.9846              1374.7174              1395.4978
 Red. masses --     4.2947                 3.3158                 3.1085
 Frc consts  --     0.0000                 0.0000                 0.0000
 IR Inten    --     8.9873                13.1019                12.4622
 Raman Activ --     0.0000                 0.0000                 0.0000
 Depolar     --     0.0000                 0.0000                 0.0000
 Atom AN      X      Y      Z        X      Y      Z        X      Y      Z
   1   6     0.01   0.01  -0.02     0.08   0.12   0.04     0.02   0.01  -0.00
   2   6     0.09  -0.01   0.13    -0.01  -0.07   0.01    -0.06  -0.02  -0.02
   3   6     0.32  -0.16  -0.28     0.01   0.02  -0.02    -0.01   0.02   0.00
   4   6    -0.17  -0.01   0.09    -0.05  -0.04   0.04    -0.00   0.01   0.02
   5   6    -0.00  -0.09  -0.07     0.12   0.03   0.03     0.01  -0.00  -0.00
   6   6    -0.01   0.02   0.02    -0.23   0.06  -0.25    -0.03   0.01  -0.02
   7   6    -0.00  -0.02  -0.01    -0.02  -0.03  -0.01    -0.01   0.00   0.00
   8   6    -0.02   0.03   0.03     0.01  -0.01   0.00     0.00  -0.00   0.00
   9   8     0.01  -0.00  -0.00    -0.04  -0.16  -0.01    -0.00  -0.02  -0.00
  10   6     0.01  -0.01   0.01     0.00  -0.01  -0.01     0.01  -0.01  -0.00
  11   6     0.01  -0.01  -0.01     0.00  -0.00  -0.00     0.00  -0.00   0.00
  12   6     0.01  -0.05  -0.04    -0.02  -0.01  -0.01     0.12   0.02   0.00
  13   6    -0.00   0.01   0.01     0.00   0.00   0.00     0.02  -0.02  -0.03
  14   1    -0.23   0.12  -0.02     0.03   0.10  -0.02     0.05  -0.01   0.00
  15   8    -0.00   0.00  -0.00    -0.00  -0.01  -0.01    -0.00  -0.00   0.00
  16   6    -0.00   0.01   0.00     0.00   0.03   0.04    -0.03  -0.26  -0.31
  17   1    -0.21   0.14   0.17    -0.01   0.01  -0.01     0.01   0.00   0.03
  18   1    -0.46   0.28   0.37    -0.01   0.00   0.00     0.02  -0.06  -0.00
  19   1     0.12   0.14  -0.18     0.02  -0.01  -0.02     0.02  -0.01  -0.01
  20   1    -0.00   0.06   0.06     0.04   0.06  -0.06    -0.00  -0.01  -0.03
  21   1     0.03   0.13  -0.00    -0.03   0.00  -0.04     0.00   0.00  -0.00
  22   1    -0.02  -0.00  -0.03     0.46   0.13   0.70     0.05   0.01   0.08
  23   1     0.02   0.01   0.00     0.02   0.06   0.01     0.01   0.00   0.00
  24   1     0.01  -0.00   0.02    -0.03   0.01   0.03     0.00  -0.00   0.00
  25   1     0.01   0.02   0.02     0.08   0.10   0.13     0.01   0.01   0.02
  26   1    -0.01   0.03  -0.01    -0.02   0.06  -0.01    -0.02   0.02   0.02
  27   1    -0.01   0.01  -0.00     0.01  -0.03   0.01    -0.03   0.01  -0.01
  28   1     0.02  -0.01  -0.00    -0.04   0.02   0.00    -0.00   0.00   0.00
  29   1     0.04   0.01   0.03    -0.03  -0.01  -0.02    -0.00  -0.00  -0.00
  30   1    -0.03   0.04   0.05     0.01  -0.02  -0.02    -0.09   0.12   0.17
  31   1    -0.08   0.00   0.01     0.02   0.00  -0.00    -0.20  -0.00   0.02
  32   1    -0.00  -0.01   0.01     0.00  -0.02   0.01     0.00   0.00  -0.00
  33   1     0.02  -0.00   0.01    -0.02  -0.05  -0.02     0.11   0.46   0.22
  34   1    -0.01   0.02   0.02     0.01  -0.02  -0.05    -0.12   0.26   0.34
  35   1     0.02   0.01   0.01     0.00  -0.01  -0.05     0.07   0.15   0.45
                     70                     71                     72
                        a                      a                      a 
 Frequencies --  1410.8191              1430.0018              1461.0345
 Red. masses --     2.3603                 2.5662                 1.8796
 Frc consts  --     0.0000                 0.0000                 0.0000
 IR Inten    --     5.7689                 9.3886                 3.9364
 Raman Activ --     0.0000                 0.0000                 0.0000
 Depolar     --     0.0000                 0.0000                 0.0000
 Atom AN      X      Y      Z        X      Y      Z        X      Y      Z
   1   6     0.00  -0.01  -0.02    -0.02   0.01  -0.01     0.02  -0.03  -0.02
   2   6     0.00   0.01   0.00     0.12  -0.00   0.01     0.01   0.00   0.00
   3   6     0.01  -0.00  -0.00     0.00  -0.01  -0.03     0.01  -0.04   0.05
   4   6    -0.01   0.00   0.03    -0.01  -0.03   0.01    -0.01   0.08   0.07
   5   6    -0.08  -0.04  -0.08    -0.00  -0.01  -0.01     0.00   0.02   0.01
   6   6    -0.00   0.00   0.02    -0.01   0.00  -0.00     0.00   0.00   0.02
   7   6    -0.09   0.03   0.02     0.00   0.01   0.02    -0.06  -0.14  -0.16
   8   6     0.25   0.01   0.08     0.00   0.00   0.01    -0.00  -0.02  -0.02
   9   8     0.01   0.00  -0.00    -0.00  -0.00   0.00     0.00   0.01  -0.00
  10   6    -0.00  -0.00   0.00    -0.02   0.01   0.01     0.00   0.00  -0.00
  11   6     0.16  -0.01   0.04     0.01  -0.00   0.00    -0.00  -0.00   0.00
  12   6     0.01  -0.00  -0.00    -0.19   0.11   0.17    -0.01   0.02   0.01
  13   6    -0.00   0.00   0.00    -0.09   0.02   0.04    -0.02   0.01   0.01
  14   1    -0.01  -0.01   0.00    -0.24  -0.01  -0.02    -0.06  -0.02  -0.00
  15   8     0.00  -0.00   0.00     0.00   0.00  -0.00     0.00   0.00  -0.00
  16   6    -0.00   0.00   0.00     0.08  -0.12  -0.13    -0.01   0.06  -0.07
  17   1    -0.01   0.00  -0.00    -0.00   0.00   0.00    -0.11   0.02  -0.15
  18   1    -0.01   0.01   0.01    -0.02   0.02   0.01     0.05   0.15  -0.09
  19   1     0.04   0.02  -0.03    -0.02   0.06  -0.02     0.16  -0.19  -0.03
  20   1    -0.00  -0.01  -0.03     0.03   0.04   0.03    -0.09  -0.14  -0.19
  21   1     0.07   0.02   0.04     0.01   0.01   0.00    -0.00  -0.00   0.00
  22   1    -0.02  -0.01  -0.03     0.01   0.00   0.01    -0.02  -0.02  -0.05
  23   1     0.06  -0.03  -0.00     0.00  -0.04  -0.01     0.11   0.52   0.10
  24   1     0.05  -0.01  -0.02    -0.01  -0.00  -0.04     0.05   0.04   0.52
  25   1     0.00   0.00  -0.00    -0.00  -0.00   0.00    -0.00   0.00  -0.00
  26   1     0.00  -0.00  -0.01     0.03  -0.02  -0.04    -0.01   0.01   0.02
  27   1     0.00   0.01  -0.00     0.05  -0.01   0.01    -0.02   0.00  -0.00
  28   1    -0.61   0.22   0.13    -0.01   0.01   0.00    -0.00   0.00   0.00
  29   1    -0.47  -0.19  -0.41    -0.01  -0.00  -0.01    -0.00   0.00  -0.00
  30   1    -0.01   0.01   0.01     0.22  -0.31  -0.41     0.02  -0.03  -0.04
  31   1    -0.01  -0.00   0.00     0.58   0.01  -0.06     0.06   0.00  -0.00
  32   1    -0.00   0.01  -0.00     0.00  -0.00   0.00    -0.01   0.01   0.00
  33   1     0.01  -0.01   0.00    -0.12   0.23   0.01     0.19   0.01   0.10
  34   1    -0.00  -0.00   0.00    -0.02   0.05   0.06    -0.02  -0.18   0.22
  35   1     0.01   0.00  -0.01    -0.12  -0.01   0.22    -0.12  -0.07  -0.07
                     73                     74                     75
                        a                      a                      a 
 Frequencies --  1464.6639              1476.2926              1478.3519
 Red. masses --     1.8324                 1.7363                 1.7591
 Frc consts  --     0.0000                 0.0000                 0.0000
 IR Inten    --     5.1701                 0.9719                 2.4610
 Raman Activ --     0.0000                 0.0000                 0.0000
 Depolar     --     0.0000                 0.0000                 0.0000
 Atom AN      X      Y      Z        X      Y      Z        X      Y      Z
   1   6     0.02  -0.02  -0.01    -0.02  -0.01   0.01    -0.02   0.00   0.01
   2   6    -0.01   0.02  -0.01     0.01   0.01  -0.01    -0.02  -0.00   0.00
   3   6    -0.01   0.00  -0.01    -0.02   0.04  -0.04     0.01  -0.03   0.04
   4   6     0.04  -0.13  -0.10    -0.02   0.06   0.04     0.02  -0.08  -0.06
   5   6     0.00  -0.01  -0.01     0.00   0.01   0.01     0.00  -0.01  -0.01
   6   6    -0.01   0.01   0.02     0.01  -0.00  -0.00    -0.01   0.00  -0.01
   7   6    -0.04  -0.10  -0.12    -0.00  -0.03  -0.03     0.01   0.00   0.00
   8   6    -0.00  -0.00   0.00     0.00  -0.01  -0.01    -0.00   0.00   0.01
   9   8     0.00   0.01  -0.00     0.00   0.00   0.00     0.00  -0.01  -0.00
  10   6     0.02   0.00  -0.01    -0.15  -0.02   0.08    -0.17  -0.02   0.08
  11   6     0.01  -0.00   0.00    -0.01   0.00   0.00     0.00  -0.00  -0.00
  12   6     0.02  -0.02   0.01    -0.00  -0.01   0.02     0.02   0.00  -0.03
  13   6     0.02  -0.01  -0.01    -0.03   0.01   0.02     0.04  -0.01  -0.03
  14   1    -0.03  -0.03   0.00    -0.03   0.00  -0.01     0.05   0.01   0.00
  15   8     0.00   0.00  -0.00    -0.02  -0.01   0.01    -0.02  -0.01   0.02
  16   6     0.06  -0.07   0.08    -0.09  -0.11   0.05     0.06   0.09  -0.04
  17   1     0.04  -0.01   0.04     0.07  -0.01   0.09    -0.06   0.01  -0.08
  18   1     0.02  -0.07  -0.00    -0.03  -0.11   0.05     0.03   0.09  -0.04
  19   1    -0.26   0.29   0.05     0.11  -0.14  -0.01    -0.15   0.18   0.03
  20   1     0.14   0.22   0.31    -0.06  -0.10  -0.13     0.08   0.13   0.18
  21   1     0.01  -0.01  -0.00    -0.00   0.00   0.00     0.00  -0.01  -0.00
  22   1    -0.00  -0.01  -0.04    -0.01  -0.00  -0.02     0.01   0.00   0.01
  23   1     0.08   0.37   0.07     0.01   0.11   0.02    -0.01  -0.01  -0.00
  24   1     0.04   0.03   0.37     0.01   0.01   0.11    -0.01   0.00  -0.01
  25   1    -0.01  -0.01  -0.00     0.00   0.00   0.01     0.00   0.01   0.02
  26   1    -0.04   0.01   0.07     0.21  -0.03  -0.40     0.23  -0.04  -0.44
  27   1    -0.07  -0.02  -0.01     0.42   0.15   0.05     0.47   0.17   0.06
  28   1    -0.03   0.01   0.01     0.01  -0.00  -0.00    -0.01   0.00   0.00
  29   1    -0.02  -0.01  -0.01     0.00   0.00   0.00    -0.00  -0.00  -0.00
  30   1    -0.03   0.04   0.05     0.02  -0.03  -0.04    -0.04   0.06   0.08
  31   1    -0.06   0.00   0.00     0.05  -0.00   0.00    -0.11  -0.02   0.01
  32   1    -0.01   0.01  -0.00    -0.01  -0.01   0.01    -0.00  -0.01   0.01
  33   1    -0.32   0.07  -0.14    -0.01  -0.17  -0.06     0.02   0.15   0.06
  34   1     0.04   0.17  -0.31    -0.05   0.40  -0.12     0.03  -0.32   0.11
  35   1     0.04   0.06   0.16     0.41   0.17  -0.04    -0.32  -0.14   0.04
                     76                     77                     78
                        a                      a                      a 
 Frequencies --  1490.9936              1503.1682              1702.1894
 Red. masses --     1.7259                 1.8505                11.2017
 Frc consts  --     0.0000                 0.0000                 0.0000
 IR Inten    --     2.3536                 1.0945                30.0150
 Raman Activ --     0.0000                 0.0000                 0.0000
 Depolar     --     0.0000                 0.0000                 0.0000
 Atom AN      X      Y      Z        X      Y      Z        X      Y      Z
   1   6    -0.00   0.01   0.00    -0.00  -0.01   0.00     0.00   0.01  -0.00
   2   6    -0.01  -0.00   0.01    -0.01   0.00  -0.02     0.07  -0.01  -0.01
   3   6     0.03  -0.04   0.06    -0.05   0.16  -0.18     0.01   0.00   0.00
   4   6    -0.03   0.11   0.09    -0.02   0.05   0.04    -0.00  -0.00   0.00
   5   6    -0.00   0.01   0.00    -0.00  -0.01   0.00     0.00   0.00   0.00
   6   6     0.01  -0.01   0.00     0.00   0.00   0.00     0.00  -0.00   0.00
   7   6     0.00   0.01   0.01    -0.01  -0.02  -0.02    -0.00  -0.00  -0.00
   8   6     0.00  -0.00  -0.00     0.01  -0.00  -0.01    -0.00   0.00  -0.00
   9   8    -0.00   0.00   0.00    -0.00   0.00   0.00    -0.00  -0.00  -0.00
  10   6    -0.01  -0.00   0.01    -0.00   0.00   0.00    -0.00   0.00  -0.00
  11   6    -0.01  -0.00  -0.00    -0.00   0.00   0.00     0.00  -0.00   0.00
  12   6     0.01  -0.02  -0.00     0.01   0.02   0.01    -0.57   0.24   0.38
  13   6     0.06  -0.02  -0.04     0.01  -0.01  -0.01     0.51  -0.19  -0.31
  14   1     0.03   0.00   0.00    -0.02  -0.00  -0.01    -0.07  -0.01  -0.01
  15   8    -0.00  -0.00   0.00     0.00   0.00   0.00     0.00   0.00   0.00
  16   6     0.15  -0.03   0.09     0.07   0.06  -0.00     0.02  -0.05  -0.06
  17   1    -0.12   0.03  -0.14     0.36  -0.06   0.48     0.00   0.00   0.00
  18   1     0.02   0.18  -0.06    -0.11  -0.53   0.24     0.00  -0.01   0.00
  19   1     0.25  -0.25  -0.07     0.11  -0.09  -0.04     0.00  -0.00  -0.00
  20   1    -0.12  -0.19  -0.26    -0.04  -0.07  -0.11    -0.00  -0.00  -0.00
  21   1    -0.00   0.01   0.00     0.00   0.01   0.00     0.00  -0.00  -0.00
  22   1    -0.00   0.00   0.00    -0.01  -0.00  -0.01    -0.00   0.00   0.00
  23   1    -0.01  -0.05  -0.01     0.01   0.09   0.02     0.00   0.00   0.00
  24   1    -0.01  -0.00  -0.05     0.01   0.01   0.08    -0.00  -0.00   0.00
  25   1    -0.01  -0.02  -0.01    -0.00  -0.00  -0.00     0.00   0.00  -0.00
  26   1     0.02  -0.00  -0.03     0.01  -0.00  -0.01    -0.00  -0.01   0.01
  27   1     0.04   0.01   0.00     0.01   0.00   0.00    -0.00  -0.00  -0.00
  28   1     0.01  -0.00  -0.00    -0.00  -0.00   0.00    -0.00   0.00   0.00
  29   1     0.01   0.00   0.01    -0.00  -0.00  -0.00    -0.00  -0.00  -0.00
  30   1    -0.04   0.07   0.09    -0.01   0.02   0.03     0.04   0.11   0.12
  31   1    -0.11  -0.01   0.00    -0.02  -0.00   0.00    -0.13  -0.07  -0.06
  32   1     0.00  -0.00  -0.00    -0.00   0.00   0.00    -0.00   0.00  -0.00
  33   1    -0.49   0.23  -0.18    -0.07   0.10  -0.01     0.02  -0.07  -0.02
  34   1     0.09  -0.01  -0.37     0.04  -0.22  -0.01    -0.02   0.04   0.05
  35   1    -0.21  -0.03   0.27    -0.26  -0.11   0.02     0.02  -0.01  -0.06
                     79                     80                     81
                        a                      a                      a 
 Frequencies --  1739.5737              2835.7802              2889.5460
 Red. masses --    11.5856                 1.7203                 1.7462
 Frc consts  --     0.0000                 0.0000                 0.0000
 IR Inten    --    29.4985               111.3151                16.6854
 Raman Activ --     0.0000                 0.0000                 0.0000
 Depolar     --     0.0000                 0.0000                 0.0000
 Atom AN      X      Y      Z        X      Y      Z        X      Y      Z
   1   6    -0.02   0.01   0.00    -0.00  -0.01   0.01     0.00  -0.00  -0.00
   2   6     0.00   0.00  -0.00    -0.00   0.00   0.00    -0.01   0.03   0.12
   3   6     0.00  -0.00   0.00     0.00   0.00  -0.00    -0.01  -0.00  -0.00
   4   6    -0.00  -0.01   0.00     0.00   0.00  -0.00    -0.00   0.00  -0.00
   5   6    -0.06  -0.02  -0.05     0.00  -0.01  -0.00     0.00   0.00  -0.00
   6   6    -0.01  -0.01  -0.01    -0.07  -0.23   0.09     0.00   0.00  -0.00
   7   6    -0.08   0.03   0.01     0.00   0.01  -0.00     0.00   0.00   0.00
   8   6     0.73  -0.02   0.19     0.00  -0.00  -0.00    -0.00   0.00  -0.00
   9   8     0.00   0.00   0.00    -0.01  -0.01  -0.01     0.00   0.00  -0.00
  10   6     0.00  -0.00  -0.00     0.00  -0.00  -0.00     0.02  -0.06  -0.22
  11   6    -0.60   0.01  -0.15     0.00   0.00   0.00     0.00   0.00   0.00
  12   6    -0.00   0.00   0.00     0.00  -0.00   0.00     0.00   0.00   0.00
  13   6     0.00  -0.00  -0.00    -0.00   0.00   0.00    -0.00   0.00   0.00
  14   1    -0.00  -0.00  -0.00     0.00  -0.00  -0.01     0.05  -0.10  -0.43
  15   8     0.00  -0.00   0.00     0.00   0.00  -0.00     0.00   0.01  -0.01
  16   6     0.00  -0.00  -0.00     0.00   0.00  -0.00     0.00  -0.00  -0.00
  17   1    -0.00  -0.00  -0.00    -0.00  -0.00   0.00    -0.00   0.00  -0.00
  18   1     0.00  -0.00  -0.00    -0.00   0.00  -0.00     0.02   0.01   0.02
  19   1    -0.00   0.01  -0.01    -0.00   0.00  -0.00     0.00   0.00   0.00
  20   1     0.00   0.00   0.01    -0.00  -0.00   0.00    -0.00  -0.00   0.00
  21   1     0.03   0.01   0.02    -0.01   0.00   0.02    -0.00  -0.00   0.00
  22   1     0.00  -0.00  -0.00     0.28   0.87  -0.32    -0.00  -0.01   0.00
  23   1     0.02   0.00   0.00     0.00   0.00   0.00     0.00   0.00  -0.00
  24   1     0.01  -0.00   0.01    -0.00  -0.02   0.00    -0.00  -0.01   0.00
  25   1    -0.00  -0.00  -0.00     0.00   0.00  -0.00     0.00   0.00   0.00
  26   1    -0.00   0.00   0.00     0.00  -0.00   0.00     0.06   0.01  -0.01
  27   1     0.00  -0.00  -0.00    -0.00   0.00   0.00    -0.15   0.18   0.82
  28   1     0.05  -0.08  -0.10    -0.00  -0.00  -0.00     0.00  -0.00  -0.00
  29   1    -0.00   0.08   0.11    -0.00  -0.00  -0.00     0.00  -0.00  -0.00
  30   1     0.00   0.00   0.00     0.00   0.00   0.00    -0.00  -0.00  -0.00
  31   1    -0.00  -0.00  -0.00     0.00  -0.00  -0.00    -0.00  -0.00  -0.00
  32   1    -0.00   0.00  -0.00    -0.00   0.00  -0.00    -0.00   0.00   0.00
  33   1    -0.00  -0.00  -0.00    -0.00  -0.00   0.00    -0.00  -0.00   0.00
  34   1    -0.00   0.00   0.00     0.00   0.00   0.00    -0.00   0.00  -0.00
  35   1    -0.00  -0.00  -0.00     0.00  -0.00   0.00     0.00   0.00   0.00
                     82                     83                     84
                        a                      a                      a 
 Frequencies --  2894.3298              2933.2399              2966.1443
 Red. masses --     1.7508                 1.8340                 1.8491
 Frc consts  --     0.0000                 0.0000                 0.0000
 IR Inten    --   147.1357                59.4070                35.3127
 Raman Activ --     0.0000                 0.0000                 0.0000
 Depolar     --     0.0000                 0.0000                 0.0000
 Atom AN      X      Y      Z        X      Y      Z        X      Y      Z
   1   6     0.00  -0.00  -0.01    -0.00  -0.01   0.00     0.00   0.00  -0.00
   2   6     0.02  -0.05  -0.22    -0.00   0.00   0.00    -0.00  -0.00  -0.01
   3   6     0.01   0.00   0.01    -0.00  -0.00  -0.00    -0.14  -0.10  -0.10
   4   6     0.00  -0.00   0.00    -0.00   0.00  -0.00     0.10  -0.06   0.03
   5   6    -0.00   0.00   0.00     0.00  -0.00  -0.00    -0.08   0.01   0.11
   6   6    -0.00  -0.00   0.00    -0.00  -0.00   0.00    -0.00  -0.00   0.00
   7   6    -0.00  -0.00   0.01    -0.04  -0.26   0.09     0.00   0.00   0.01
   8   6    -0.00  -0.00  -0.00     0.00  -0.01   0.00    -0.00   0.00   0.00
   9   8    -0.00  -0.00  -0.00    -0.00   0.00  -0.00     0.00  -0.00  -0.00
  10   6     0.01  -0.03  -0.12     0.00  -0.00  -0.00    -0.00  -0.00   0.00
  11   6     0.00   0.00   0.00    -0.00   0.00   0.00     0.00  -0.00  -0.00
  12   6    -0.00  -0.00  -0.01     0.00  -0.00   0.00     0.00   0.00  -0.00
  13   6     0.00   0.00   0.01    -0.00  -0.00  -0.00     0.00   0.00   0.00
  14   1    -0.09   0.19   0.83     0.00  -0.00  -0.01    -0.00   0.01   0.04
  15   8     0.00   0.00  -0.01     0.00   0.00  -0.00     0.00   0.00  -0.00
  16   6    -0.00   0.00   0.00    -0.00   0.00  -0.00    -0.00   0.00  -0.00
  17   1     0.00   0.00   0.00    -0.00  -0.00  -0.00     0.10   0.24  -0.07
  18   1    -0.04  -0.01  -0.04     0.01   0.00   0.01     0.43   0.12   0.45
  19   1    -0.00  -0.00  -0.00    -0.00   0.00  -0.00    -0.04  -0.04  -0.06
  20   1    -0.00   0.00  -0.00     0.00  -0.00   0.00    -0.35   0.25  -0.04
  21   1     0.00  -0.00  -0.00    -0.01   0.00   0.01     0.30  -0.03  -0.41
  22   1     0.00   0.01  -0.00     0.01   0.02  -0.01     0.00   0.01  -0.00
  23   1     0.00   0.01  -0.02    -0.00   0.01  -0.20     0.00   0.01  -0.02
  24   1     0.00  -0.00   0.00     0.15   0.92  -0.10    -0.00  -0.01   0.00
  25   1    -0.00   0.00   0.00    -0.00  -0.00  -0.00    -0.00   0.00  -0.00
  26   1     0.04   0.01   0.00    -0.00  -0.00  -0.00     0.00   0.00   0.00
  27   1    -0.08   0.10   0.43    -0.00   0.00   0.01    -0.00   0.00  -0.00
  28   1    -0.00  -0.00  -0.00    -0.00  -0.00  -0.00     0.00   0.00   0.00
  29   1     0.00  -0.00  -0.00    -0.00   0.00   0.00    -0.00   0.00   0.00
  30   1    -0.00  -0.00   0.00     0.00   0.00   0.00    -0.00  -0.00   0.00
  31   1    -0.00  -0.01  -0.01     0.00  -0.00  -0.00    -0.00  -0.00  -0.00
  32   1    -0.00   0.00   0.00     0.00   0.01   0.00    -0.00  -0.00   0.00
  33   1     0.00   0.00  -0.00     0.00   0.00  -0.00     0.00   0.00  -0.00
  34   1     0.01  -0.00   0.00     0.00   0.00   0.00    -0.00   0.00  -0.00
  35   1     0.00  -0.00   0.00     0.00  -0.00   0.00     0.01  -0.01   0.00
                     85                     86                     87
                        a                      a                      a 
 Frequencies --  2968.5936              2976.2539              2980.7424
 Red. masses --     1.8291                 1.8241                 1.6829
 Frc consts  --     0.0000                 0.0000                 0.0000
 IR Inten    --    66.0411               102.7732                33.0978
 Raman Activ --     0.0000                 0.0000                 0.0000
 Depolar     --     0.0000                 0.0000                 0.0000
 Atom AN      X      Y      Z        X      Y      Z        X      Y      Z
   1   6    -0.00   0.00  -0.00    -0.00  -0.00   0.00     0.01  -0.00   0.00
   2   6     0.00   0.01   0.01     0.00   0.00   0.00     0.00  -0.00  -0.00
   3   6     0.13   0.10   0.08     0.07   0.08   0.02     0.00   0.00   0.00
   4   6     0.01  -0.02  -0.00     0.20  -0.12   0.04     0.01  -0.01   0.00
   5   6    -0.12   0.01   0.16     0.06  -0.01  -0.07     0.00  -0.00  -0.00
   6   6    -0.00  -0.00   0.01     0.00   0.00  -0.00     0.00   0.00   0.00
   7   6    -0.00  -0.00  -0.01    -0.00  -0.00  -0.01    -0.00   0.00  -0.01
   8   6    -0.00  -0.00   0.00     0.00  -0.00  -0.00     0.00   0.00  -0.00
   9   8    -0.00  -0.00  -0.00    -0.00   0.00   0.00    -0.00  -0.00  -0.00
  10   6     0.00   0.00   0.00    -0.01  -0.00  -0.00     0.21   0.08   0.10
  11   6     0.00  -0.00  -0.00    -0.00   0.00   0.00     0.00  -0.00  -0.00
  12   6    -0.00  -0.00   0.00    -0.00  -0.00   0.00    -0.00   0.00  -0.00
  13   6    -0.00  -0.00  -0.00     0.00  -0.00  -0.00     0.00   0.00   0.00
  14   1     0.00  -0.01  -0.04     0.00  -0.00  -0.01    -0.00   0.00   0.01
  15   8    -0.00   0.00  -0.00    -0.00  -0.00   0.00     0.00   0.01  -0.00
  16   6     0.00  -0.01   0.00     0.01  -0.01   0.00     0.00  -0.00   0.00
  17   1    -0.11  -0.26   0.07    -0.12  -0.26   0.06    -0.00  -0.00   0.00
  18   1    -0.35  -0.09  -0.37    -0.12  -0.02  -0.13    -0.00  -0.00  -0.00
  19   1     0.04   0.02   0.05    -0.03  -0.05  -0.06     0.00  -0.00   0.00
  20   1    -0.08   0.05  -0.01    -0.67   0.48  -0.08    -0.03   0.02  -0.00
  21   1     0.44  -0.04  -0.60    -0.20   0.02   0.27    -0.01   0.00   0.01
  22   1     0.00   0.02  -0.01    -0.00  -0.01   0.00     0.00  -0.00   0.00
  23   1    -0.00  -0.01   0.05    -0.00  -0.01   0.03    -0.00  -0.01   0.04
  24   1     0.00   0.03  -0.01     0.00   0.01  -0.00    -0.00   0.00  -0.00
  25   1    -0.00   0.00  -0.00     0.00  -0.00  -0.00    -0.00  -0.00  -0.00
  26   1    -0.00  -0.00  -0.00     0.03   0.01   0.02    -0.80  -0.33  -0.42
  27   1    -0.00  -0.00  -0.00    -0.00  -0.00  -0.00     0.02   0.03   0.09
  28   1     0.00  -0.00  -0.00    -0.00  -0.00  -0.00    -0.00  -0.00  -0.00
  29   1    -0.00   0.00   0.00     0.00  -0.00  -0.00    -0.00   0.00   0.00
  30   1     0.00   0.00  -0.00    -0.00  -0.00  -0.00    -0.01  -0.00  -0.00
  31   1     0.00   0.00   0.00     0.00   0.00   0.00    -0.00  -0.01  -0.01
  32   1     0.00  -0.00   0.00    -0.00   0.00  -0.00     0.01   0.00   0.01
  33   1    -0.00  -0.00   0.00    -0.00  -0.00   0.01     0.00  -0.00  -0.00
  34   1     0.00  -0.00   0.00    -0.00  -0.00  -0.00    -0.00  -0.00  -0.00
  35   1    -0.01   0.02  -0.01    -0.01   0.03  -0.01    -0.00   0.00  -0.00
                     88                     89                     90
                        a                      a                      a 
 Frequencies --  2986.0999              2995.2835              3009.9223
 Red. masses --     1.6415                 1.5506                 1.8024
 Frc consts  --     0.0000                 0.0000                 0.0000
 IR Inten    --    55.5054                67.2632                50.5795
 Raman Activ --     0.0000                 0.0000                 0.0000
 Depolar     --     0.0000                 0.0000                 0.0000
 Atom AN      X      Y      Z        X      Y      Z        X      Y      Z
   1   6     0.00   0.00   0.01    -0.00  -0.00   0.00    -0.00   0.00   0.00
   2   6    -0.00   0.00   0.00    -0.00   0.00  -0.01     0.00   0.00  -0.00
   3   6     0.01   0.01   0.01     0.00   0.17  -0.13     0.01   0.03  -0.01
   4   6     0.00  -0.00  -0.00    -0.04   0.03  -0.02     0.00   0.00   0.00
   5   6    -0.00  -0.00   0.00    -0.00  -0.00   0.00    -0.00  -0.00   0.00
   6   6     0.00   0.00  -0.00     0.00   0.00   0.00     0.00   0.00  -0.00
   7   6     0.01  -0.00   0.24     0.00   0.00  -0.00     0.00   0.00  -0.00
   8   6    -0.00   0.00   0.01    -0.00   0.00  -0.00    -0.00   0.00  -0.00
   9   8    -0.00   0.00   0.00     0.00  -0.00  -0.00     0.00  -0.00  -0.00
  10   6     0.01   0.00   0.01     0.00  -0.00  -0.00     0.00   0.00   0.00
  11   6     0.00  -0.00  -0.00     0.00  -0.00  -0.00     0.00  -0.00  -0.00
  12   6    -0.00   0.00   0.00     0.00  -0.00  -0.00    -0.01   0.01   0.00
  13   6    -0.00  -0.00  -0.00    -0.00   0.00   0.00     0.00   0.00   0.00
  14   1     0.00  -0.00  -0.02    -0.00   0.01   0.03    -0.00   0.00   0.00
  15   8     0.00   0.00   0.00    -0.00   0.00  -0.00     0.00   0.00   0.00
  16   6     0.00  -0.00   0.00     0.02  -0.03   0.01    -0.13   0.21  -0.09
  17   1    -0.02  -0.04   0.01    -0.35  -0.73   0.13    -0.06  -0.12   0.02
  18   1    -0.03  -0.01  -0.03     0.33   0.12   0.32     0.02   0.01   0.02
  19   1     0.01   0.01   0.01     0.02   0.02   0.03    -0.01  -0.01  -0.02
  20   1    -0.02   0.01  -0.00     0.14  -0.10   0.01     0.00  -0.00   0.00
  21   1     0.01  -0.00  -0.01     0.01  -0.00  -0.02     0.00   0.00  -0.00
  22   1    -0.00  -0.00  -0.00    -0.00  -0.00   0.00    -0.00  -0.00   0.00
  23   1     0.01   0.22  -0.92     0.00  -0.00   0.01     0.00  -0.00   0.00
  24   1    -0.03  -0.21   0.06    -0.00  -0.01   0.00    -0.00  -0.00   0.00
  25   1     0.00  -0.00  -0.00    -0.00   0.00   0.00    -0.00   0.00  -0.00
  26   1    -0.03  -0.01  -0.02    -0.00  -0.00  -0.00    -0.00  -0.00  -0.00
  27   1     0.00  -0.00  -0.01    -0.00   0.00   0.00     0.00   0.00   0.00
  28   1     0.00   0.01   0.01     0.00   0.00   0.00     0.00   0.00   0.00
  29   1    -0.00  -0.00  -0.00    -0.00   0.00   0.00    -0.00   0.00   0.00
  30   1     0.00  -0.00   0.00     0.00   0.00   0.00     0.00   0.00  -0.00
  31   1     0.00   0.00   0.00    -0.00  -0.00  -0.00    -0.00  -0.01  -0.01
  32   1    -0.00  -0.00   0.00     0.00  -0.00   0.00    -0.00  -0.00  -0.00
  33   1     0.00   0.00  -0.00     0.01  -0.00  -0.00    -0.06   0.00   0.06
  34   1    -0.00  -0.00  -0.00    -0.02  -0.01  -0.00     0.13   0.05   0.01
  35   1    -0.00   0.00  -0.00    -0.05   0.11  -0.03     0.39  -0.82   0.25
                     91                     92                     93
                        a                      a                      a 
 Frequencies --  3022.2990              3036.9378              3065.0299
 Red. masses --     1.6829                 1.6513                 1.6695
 Frc consts  --     0.0000                 0.0000                 0.0000
 IR Inten    --    46.7845                52.5003                 8.2862
 Raman Activ --     0.0000                 0.0000                 0.0000
 Depolar     --     0.0000                 0.0000                 0.0000
 Atom AN      X      Y      Z        X      Y      Z        X      Y      Z
   1   6    -0.00   0.00   0.00     0.00  -0.00  -0.00     0.00   0.00   0.00
   2   6     0.00   0.00   0.00    -0.00  -0.00  -0.00    -0.00   0.00   0.00
   3   6     0.02   0.02   0.01    -0.00   0.00  -0.00     0.00   0.00   0.00
   4   6     0.12   0.11   0.18    -0.01  -0.01  -0.01     0.01   0.01   0.01
   5   6    -0.00   0.01   0.01     0.00  -0.00  -0.00     0.00   0.00  -0.00
   6   6     0.00   0.00   0.00    -0.00  -0.00   0.00    -0.00  -0.00  -0.00
   7   6     0.00  -0.00   0.00    -0.00  -0.00  -0.00    -0.00   0.00  -0.00
   8   6    -0.00  -0.00  -0.00    -0.00  -0.00   0.00     0.00  -0.00  -0.00
   9   8     0.00  -0.00  -0.00    -0.00   0.00  -0.00    -0.00  -0.00   0.00
  10   6     0.00   0.00   0.00    -0.00  -0.00  -0.00     0.00  -0.00  -0.00
  11   6    -0.00  -0.00  -0.00     0.00   0.00   0.00     0.00   0.00   0.00
  12   6     0.00  -0.00  -0.00     0.01   0.00   0.00    -0.00   0.00   0.01
  13   6    -0.00  -0.00  -0.00    -0.01  -0.01  -0.01     0.00  -0.00  -0.00
  14   1     0.00  -0.00  -0.01     0.00   0.00   0.01    -0.00  -0.00  -0.01
  15   8    -0.00   0.00  -0.00    -0.00  -0.00  -0.00    -0.00  -0.00  -0.00
  16   6     0.03   0.00  -0.01     0.23   0.07   0.03    -0.12  -0.07   0.20
  17   1    -0.02  -0.05   0.01    -0.00  -0.00  -0.00    -0.01  -0.01   0.00
  18   1    -0.04  -0.01  -0.04    -0.00  -0.00  -0.00    -0.01  -0.00  -0.01
  19   1    -0.58  -0.33  -0.68     0.04   0.02   0.04    -0.03  -0.02  -0.04
  20   1     0.12  -0.06   0.04    -0.01   0.01  -0.00     0.00  -0.00   0.00
  21   1     0.03  -0.00  -0.03    -0.00   0.00   0.00    -0.00   0.00   0.00
  22   1     0.00   0.00   0.00     0.00   0.00  -0.00     0.00   0.00   0.00
  23   1     0.00   0.00  -0.01    -0.00  -0.00   0.00    -0.00  -0.00   0.00
  24   1    -0.00  -0.00   0.00     0.00   0.00  -0.00    -0.00  -0.00  -0.00
  25   1    -0.00   0.00  -0.00     0.00  -0.00   0.00    -0.00   0.00  -0.00
  26   1    -0.00  -0.00  -0.00     0.00   0.00   0.00    -0.00   0.00   0.00
  27   1     0.00  -0.00  -0.00    -0.00  -0.00  -0.00    -0.00  -0.00   0.00
  28   1     0.00   0.00   0.00    -0.00  -0.00  -0.00    -0.00  -0.00  -0.00
  29   1     0.00  -0.00  -0.00    -0.00   0.00   0.00    -0.00   0.00   0.00
  30   1     0.00   0.00   0.00     0.03   0.01   0.01    -0.00  -0.00  -0.00
  31   1    -0.00  -0.00  -0.00    -0.00   0.01   0.01    -0.00  -0.00  -0.00
  32   1     0.00  -0.00   0.00     0.00  -0.00   0.00     0.00   0.00   0.00
  33   1    -0.02  -0.02   0.04     0.03   0.00   0.01     0.44   0.33  -0.79
  34   1    -0.06  -0.01  -0.01    -0.93  -0.13  -0.18    -0.02  -0.01   0.02
  35   1    -0.01   0.02  -0.01     0.10  -0.12   0.04     0.02  -0.08   0.05
                     94                     95                     96
                        a                      a                      a 
 Frequencies --  3094.6857              3098.1142              3111.8108
 Red. masses --     1.5191                 1.5470                 2.0796
 Frc consts  --     0.0000                 0.0000                 0.0000
 IR Inten    --    53.0841                41.3040                91.0593
 Raman Activ --     0.0000                 0.0000                 0.0000
 Depolar     --     0.0000                 0.0000                 0.0000
 Atom AN      X      Y      Z        X      Y      Z        X      Y      Z
   1   6    -0.00   0.00   0.00     0.00  -0.00   0.00    -0.00  -0.00   0.00
   2   6     0.00   0.00   0.00    -0.00   0.00   0.00    -0.00  -0.00   0.00
   3   6    -0.00  -0.00   0.00    -0.00   0.00  -0.00     0.00   0.00   0.00
   4   6     0.00  -0.00  -0.00     0.00   0.00   0.00    -0.00   0.00  -0.00
   5   6     0.00  -0.00  -0.00     0.00  -0.00  -0.00    -0.00   0.00   0.00
   6   6     0.00   0.00  -0.00     0.00   0.00   0.00     0.00   0.00   0.00
   7   6     0.00   0.00   0.00    -0.00   0.00   0.00     0.00  -0.00   0.00
   8   6     0.00  -0.00   0.00    -0.01   0.00  -0.00    -0.00  -0.00  -0.00
   9   8    -0.00  -0.00   0.00     0.00  -0.00   0.00    -0.00  -0.00  -0.00
  10   6    -0.00   0.00   0.00    -0.00   0.00   0.00    -0.00  -0.00   0.00
  11   6    -0.00  -0.00  -0.00     0.19   0.04   0.11     0.00  -0.00  -0.00
  12   6     0.01  -0.00  -0.01     0.00  -0.00  -0.00     0.01   0.01   0.01
  13   6    -0.16   0.08   0.12    -0.00   0.00   0.00     0.19   0.17   0.18
  14   1    -0.00  -0.00  -0.01     0.00  -0.00  -0.00    -0.00  -0.00  -0.01
  15   8     0.00   0.00   0.00     0.00  -0.00   0.00     0.00  -0.00  -0.00
  16   6    -0.00  -0.00  -0.00    -0.00  -0.00  -0.00     0.01   0.00   0.00
  17   1     0.00   0.00  -0.00    -0.00  -0.00  -0.00     0.00   0.00   0.00
  18   1    -0.00  -0.00  -0.00     0.00   0.00   0.00    -0.00  -0.00  -0.00
  19   1     0.00   0.00   0.00    -0.00  -0.00  -0.00     0.00   0.00   0.00
  20   1    -0.00   0.00  -0.00    -0.00   0.00   0.00     0.00  -0.00  -0.00
  21   1    -0.00   0.00   0.00    -0.00   0.00   0.00     0.00  -0.00  -0.00
  22   1    -0.00  -0.00   0.00    -0.00  -0.00   0.00    -0.00  -0.00  -0.00
  23   1     0.00   0.00  -0.00     0.00   0.00  -0.01    -0.00   0.00  -0.00
  24   1    -0.00  -0.00   0.00    -0.00  -0.01   0.00     0.00   0.00   0.00
  25   1     0.00  -0.00  -0.00     0.00  -0.00  -0.00     0.00   0.00   0.00
  26   1     0.00   0.00   0.00     0.00   0.00   0.00     0.01   0.00   0.01
  27   1     0.00  -0.00  -0.01     0.00  -0.00  -0.00     0.00  -0.00  -0.01
  28   1     0.00   0.01   0.01    -0.28  -0.41  -0.67     0.00   0.00   0.00
  29   1     0.01  -0.01  -0.01    -0.32   0.27   0.29    -0.00   0.00   0.00
  30   1     0.59   0.21   0.18     0.01   0.00   0.00    -0.66  -0.21  -0.16
  31   1    -0.06  -0.46  -0.56    -0.00  -0.01  -0.01    -0.02  -0.40  -0.49
  32   1    -0.00  -0.00  -0.00    -0.00   0.00  -0.00     0.00  -0.00   0.00
  33   1     0.00   0.00  -0.00    -0.00  -0.00   0.00    -0.00  -0.00   0.01
  34   1     0.01   0.00   0.00     0.00   0.00   0.00    -0.03  -0.01  -0.01
  35   1    -0.00   0.01  -0.00    -0.00   0.00  -0.00     0.00   0.00   0.00
                     97                     98                     99
                        a                      a                      a 
 Frequencies --  3121.6515              3505.3260              3531.0625
 Red. masses --     2.0600                 1.8736                 1.8739
 Frc consts  --     0.0000                 0.0000                 0.0000
 IR Inten    --    57.4097                34.6285                35.9380
 Raman Activ --     0.0000                 0.0000                 0.0000
 Depolar     --     0.0000                 0.0000                 0.0000
 Atom AN      X      Y      Z        X      Y      Z        X      Y      Z
   1   6    -0.00   0.00   0.00    -0.00   0.00   0.00     0.00  -0.00  -0.00
   2   6    -0.00   0.00   0.00    -0.00   0.00   0.00    -0.00   0.00  -0.00
   3   6    -0.00  -0.00  -0.00    -0.00  -0.00   0.00    -0.00   0.00  -0.00
   4   6    -0.00   0.00  -0.00    -0.00  -0.00  -0.00     0.00   0.00   0.00
   5   6    -0.00  -0.00   0.00     0.00   0.00   0.00    -0.00  -0.00   0.00
   6   6     0.00   0.00   0.00    -0.00  -0.00  -0.00    -0.00   0.00  -0.00
   7   6     0.00  -0.00  -0.00     0.00   0.00  -0.00    -0.00  -0.00  -0.00
   8   6     0.00   0.01   0.01     0.00  -0.00   0.00    -0.00   0.00   0.00
   9   8     0.00  -0.00  -0.00    -0.00   0.00  -0.00    -0.18   0.16  -0.03
  10   6     0.00   0.00   0.00    -0.01  -0.01  -0.00     0.00  -0.00  -0.00
  11   6    -0.11   0.18   0.23    -0.00   0.00   0.00    -0.00   0.00  -0.00
  12   6     0.00   0.00   0.00    -0.00   0.00  -0.00     0.00  -0.00  -0.00
  13   6     0.00   0.00   0.00    -0.00   0.00   0.00    -0.00  -0.00  -0.00
  14   1     0.00  -0.00  -0.00     0.00  -0.00  -0.00     0.00  -0.00   0.00
  15   8     0.00   0.00  -0.00    -0.19  -0.10  -0.11     0.00   0.00   0.00
  16   6    -0.00   0.00  -0.00    -0.00   0.00  -0.00    -0.00  -0.00   0.00
  17   1    -0.00  -0.00  -0.00     0.00   0.00  -0.00    -0.00  -0.00   0.00
  18   1     0.00   0.00   0.00     0.00   0.00   0.00     0.00   0.00   0.00
  19   1     0.00   0.00   0.00    -0.00   0.00   0.00    -0.00  -0.00  -0.00
  20   1     0.00  -0.00   0.00    -0.00   0.00  -0.00     0.00  -0.00  -0.00
  21   1     0.00  -0.00  -0.01     0.00   0.00  -0.00     0.00  -0.00  -0.00
  22   1    -0.00   0.00   0.00     0.00  -0.00  -0.00     0.00  -0.00   0.00
  23   1     0.00   0.00  -0.01     0.00   0.00  -0.00     0.00  -0.00   0.00
  24   1     0.00  -0.00   0.00     0.00  -0.01   0.00     0.00   0.00  -0.00
  25   1    -0.00   0.00   0.00     0.02  -0.01   0.00     0.73  -0.62   0.13
  26   1    -0.00  -0.00  -0.00     0.01   0.00   0.01    -0.00  -0.00   0.00
  27   1     0.00  -0.00  -0.00     0.00   0.00  -0.00    -0.00  -0.00   0.00
  28   1    -0.19  -0.23  -0.38    -0.00  -0.00  -0.00    -0.00  -0.00  -0.00
  29   1     0.56  -0.42  -0.43     0.00   0.00  -0.00     0.00  -0.00  -0.00
  30   1    -0.00  -0.00  -0.00     0.00   0.00   0.00     0.00   0.00   0.00
  31   1    -0.00  -0.00  -0.00    -0.00  -0.00  -0.00     0.00   0.00   0.00
  32   1    -0.00  -0.00  -0.00     0.77   0.42   0.42    -0.02  -0.01  -0.01
  33   1    -0.00   0.00   0.00    -0.00   0.00   0.00     0.00   0.00  -0.00
  34   1     0.00   0.00  -0.00     0.00   0.00   0.00     0.00   0.00   0.00
  35   1     0.00  -0.00   0.00     0.00  -0.00   0.00     0.00  -0.00   0.00
