
                                 *****************
                                 * O   R   C   A *
                                 *****************

                                            #,                                       
                                            ###                                      
                                            ####                                     
                                            #####                                    
                                            ######                                   
                                           ########,                                 
                                     ,,################,,,,,                         
                               ,,#################################,,                 
                          ,,##########################################,,             
                       ,#########################################, ''#####,          
                    ,#############################################,,   '####,        
                  ,##################################################,,,,####,       
                ,###########''''           ''''###############################       
              ,#####''   ,,,,##########,,,,          '''####'''          '####       
            ,##' ,,,,###########################,,,                        '##       
           ' ,,###''''                  '''############,,,                           
         ,,##''                                '''############,,,,        ,,,,,,###''
      ,#''                                            '''#######################'''  
     '                                                          ''''####''''         
             ,#######,   #######,   ,#######,      ##                                
            ,#'     '#,  ##    ##  ,#'     '#,    #''#        ,####,    ,#,          
            ##       ##  ##   ,#'  ##            #'  '#       #'       ,# #          
            ##       ##  #######   ##           ,######,      #####,      #          
            '#,     ,#'  ##    ##  '#,     ,#' ,#      #,     #,   #      #          
             '#######'   ##     ##  '#######'  #'      '#     '####' #    #          



                #########################################################
                #                        -***-                          #
                #          Department of theory and spectroscopy        #
                #                                                       #
                #                      Frank Neese                      #
                #                                                       #
                #     Directorship, Architecture, Infrastructure        #
                #                    SHARK, DRIVERS                     #
                #        Core code/Algorithms in most modules           #
                #                                                       #
                #        Max Planck Institute fuer Kohlenforschung      #
                #                Kaiser Wilhelm Platz 1                 #
                #                 D-45470 Muelheim/Ruhr                 #
                #                      Germany                          #
                #                                                       #
                #                  All rights reserved                  #
                #                        -***-                          #
                #########################################################


                         Program Version 6.1.1  -  RELEASE   -
                                (GIT: $487d211c$)
                          ($2025-11-21 10:33:24 +0100$)


 With contributions from (in alphabetic order):
[Max-Planck-Institut fuer Kohlenforschung]                               
  Daniel Aravena         : Magnetic Suceptibility                        
  Michael Atanasov       : Ab Initio Ligand Field Theory (pilot matlab implementation)
  Alexander A. Auer      : GIAO ZORA, VPT2 properties, NMR spectrum      
  Ute Becker             : All parallelization in ORCA, NUMFREQ, NUMCALC 
  Giovanni Bistoni       : ED, misc. LED, open-shell LED, HFLD           
  Dmytro Bykov           : pre 5.0 version of the SCF Hessian            
  Marcos Casanova-Páez   : Triplet and SCS-CIS(D). UHF-(DLPNO)-IP/EA/STEOM-CCSD. UHF-CVS-IP/STEOM-CCSD   
  Vijay G. Chilkuri      : MRCI spin determinant printing, contributions to CSF-ICE 
  Pauline Colinet        : FMM embedding                                 
  Dipayan Datta          : RHF DLPNO-CCSD density                        
  Achintya Kumar Dutta   : EOM-CC, STEOM-CC                              
  Nicolas Foglia         : Exact transition moments, OPA infrastructure, MCD improvements    
  Dmitry Ganyushin       : Spin-Orbit,Spin-Spin,Magnetic field MRCI      
  Miquel Garcia-Rates    : C-PCM and meta-GGA Hessian, CCSD/C-PCM, Gaussian charge scheme 
  Tiago L. C. Gouveia    : GS-ROHF, GS-ROCIS                             
  Yang Guo               : DLPNO-NEVPT2, F12-NEVPT2, CIM, IAO-localization        
  Andreas Hansen         : Spin unrestricted coupled pair/coupled cluster methods 
  Ingolf Harden          : AUTO-CI MPn and infrastructure                
  Benjamin Helmich-Paris : MC-RPA, TRAH-(SCF,CASSCF), AVAS, COSX integrals, SCF dyn. polar., MC-PDFT, srDFT 
  Lee Huntington         : MR-EOM, pCC                                   
  Robert Izsak           : Overlap fitted RIJCOSX, COSX-SCS-MP3, EOM     
  Riya Kayal             : Wick's Theorem for AUTO-CI, AUTO-CI UHF-CCSDT 
  Emily Kempfer          : AUTO-CI RHF CISDT and CCSDT, approximate NEVPT4
  Christian Kollmar      : KDIIS, OOCD, Brueckner-CCSD(T), CCSD density, CASPT2, CASPT2-K, improved NEVPT2 
  Axel Koslowski         : Symmetry handling                             
  Simone Kossmann        : meta-GGA functionals, TD-DFT gradient, OOMP2, (MP2 Hessian; deprecated post 5.0) 
  Lucas Lang             : DCDCAS, Hyperfine gauge corrections, ICE-SOC+SSC
  Marvin Lechner         : AUTO-CI (C++ implementation), FIC-MRCC        
  Spencer Leger          : CASSCF response                               
  Dagmar Lenk            : GEPOL surface, SMD, ORCA-2-JSON               
  Dimitrios Liakos       : Extrapolation schemes; Compound Job, Property file
  Dimitrios Manganas     : Further ROCIS development; embedding schemes. LFT, Crystal Embedding 
  Dimitrios Pantazis     : SARC Basis sets                               
  Anastasios Papadopoulos: AUTO-CI, single reference methods and gradients 
  Taras Petrenko         : pre 6.0 DFT Hessian and TD-DFT gradient,  ECA, NRVS 
  Petra Pikulova         : Analytic Raman intensities                    
  Peter Pinski           : DLPNO-MP2, DLPNO-MP2 Gradient                 
  Shashank Vittal Rao    : ES-AILFT, MagRelax                            
  Christoph Reimann      : Effective Core Potentials                     
  Marius Retegan         : Local ZFS, SOC                                
  Christoph Riplinger    : Optimizer, TS searches, QM/MM, DLPNO-CCSD(T), (RO)-DLPNO pert. Triples 
  Michael Roemelt        : Original ROCIS implementation, recursive CI coupling coefficients
  Masaaki Saitow         : Open-shell DLPNO-CCSD energy and density      
  Barbara Sandhoefer     : DKH picture change effects                    
  Yorick L. A. Schmerwitz: GMF and freeze-and-release deltaSCF, NEB S-IDPP initial path                    
  Kantharuban Sivalingam : CASSCF convergence/infrastructure, NEVPT2, NEVPT3, NEVPT4(SD), FIC-MRCI and CEPA variants
  Bernardo de Souza      : ESD, SOC TD-DFT                               
  Georgi L. Stoychev     : AutoAux, RI-MP2 NMR, DLPNO-MP2 response, X2C  
  Van Anh Tran           : RI-MP2 g-tensors                              
  Willem Van den Heuvel  : Paramagnetic NMR                              
  Zikuan Wang            : NOTCH, Electric field optimization            
  Frank Wennmohs         : Technical directorship and infrastructure     
  Hang Xu                : AUTO-CI-Response properties                   
                                                                         
[FACCTs GmbH]                                                            
  Markus Bursch, Nicolas Foglia, Miquel Garcia-Rates, Ingolf Harden, Hagen Neugebauer, Anastasios Papadopoulos, 
  Christoph Riplinger, Bernardo de Souza, Georgi L. Stoychev                                                    
                                                                 
  APM, various basis sets, CI-OPT, improved COSX, DLPNO-Multilevel,           
  DOCKER, DRACO, updates on ESD, Fragmentator, GOAT, IRC, LR-CPCM, L-BFGS, MBIS, meta-GGA TD-DFT gradient, ML-optimized integration grids, 
  MM, NACMEs, nearIR, NEB, NEB-TS, NL-DFT gradient (VV10), 2- and 3-layer-ONIOM, interface openCOSMO-RS, QMMM,   
  Crystal-QMMM, RESP, rigid body optimization, SF, symmetry and pop. for TD-DFT, various functionals, SOLVATOR                                   
                                                                         
[Other institutions]                                                     
  V. Asgeirsson          : NEB                                           
  Christoph Bannwarth    : sTDA-DFT, sTD-DFT, PBEh-3c, B97-3c, D3        
  Giovanni Bistoni       : ETS/NOCV, ADLD/ADEX, COVALED                  
  Martin Brehm           : Molecular dynamics                            
  Ronald Cardenas        : ETS/NOCV                                      
  Martina Colucci        : COVALED                                       
  Sebastian Ehlert       : rSCAN, r2SCAN, r2SCAN-3c, D4, dhf basis sets  
  Marvin Friede          : D4 for Fr, Ra, Ac-Lr                          
  Lars Goerigk           : TD-DFT with DH, B97 family of functionals     
  Stefan Grimme          : VdW corrections, initial TS optimization, DFT functionals, gCP, sTDA/sTD-DF 
  Waldemar Hujo          : DFT-NL                                        
  H. Jonsson             : NEB                                           
  Holger Kruse           : gCP                                           
  Marcel Mueller         : wB97X-3c, vDZP basis set                      
  Hagen Neugebauer       : wr2SCAN, Native XTB                           
  Gianluca Regni         : ADLD/ADEX                                     
  Tobias Risthaus        : pre 6.0 range-separated hybrid DFT and stability analysis
  Lukas Wittmann         : regularized MP2, r2SCAN double-hybrids, wr2SCAN        
                                                                         
We gratefully acknowledge several colleagues who have allowed us to      
interface, adapt or use parts of their codes:                            
  Ed Valeev, F. Pavosevic, A. Kumar             : LibInt (2-el integral package), F12 methods 
  Garnet Chan, S. Sharma, J. Yang, R. Olivares  : DMRG                   
  Ulf Ekstrom                                   : XCFun DFT Library      
  Mihaly Kallay                                 : mrcc  (arbitrary order and MRCC methods)
  Frank Weinhold                                : gennbo (NPA and NBO analysis)           
  Simon Mueller                                 : openCOSMO-RS                            
  Christopher J. Cramer and Donald G. Truhlar   : smd solvation model                     
  S Lehtola, MJT Oliveira, MAL Marques          : LibXC Library                           
  Liviu Ungur et al                             : ANISO software                          


 Your calculation uses the libint2 library for the computation of 2-el integrals
 For citations please refer to: http://libint.valeyev.net

 Your ORCA version has been built with support for libXC version: 7.0.0
 For citations please refer to: https://libxc.gitlab.io

 This ORCA versions uses:
   CBLAS   interface :  Fast vector & matrix operations
   LAPACKE interface :  Fast linear algebra routines
   SCALAPACK package :  Parallel linear algebra routines
   Shared memory     :  Shared parallel matrices
   BLAS/LAPACK       :  OpenBLAS 0.3.29  USE64BITINT DYNAMIC_ARCH NO_AFFINITY Haswell SINGLE_THREADED
        Core in use  :  Haswell
   Copyright (c) 2011-2014, The OpenBLAS Project


  ***********************************
  * Starting time: Sun Aug  9 15:26:40 2026
  * Host name:     localhost.localdomain
  * Process ID:    2830929
  * Working dir.:  /home/dinglab/calculation/templates/NMR_modules/autohnmr/alpha_diol_screening/CONF33/b3lyp-3c
  ***********************************

NOTE: MaxCore=2500 MB was set to SCF,MP2,MDCI,CIPSI,MRCI,RASCI and CIS
      => If you want to overwrite this, your respective input block should be placed after the MaxCore statement
Your calculation utilizes the geometrical counterpoise correction gCP
Please cite in your paper:
H.Kruse, S. Grimme J.Chem.Phys., 136, (2012), 154101 
   

Your calculation utilizes the atom-pairwise dispersion correction
with the Becke-Johnson damping scheme (D3BJ)


Warning: RI is on but no J-basis has been assigned. Assigning Def2/J (nothing to worry about!)
================================================================================

----- Orbital basis set information -----
Your calculation utilizes the basis: def2-mSVP

----- AuxJ basis set information -----
Your calculation utilizes the auxiliary basis: def2/J
   H-Rn: F. Weigend, Phys. Chem. Chem. Phys. 8, 1057 (2006).
   Fr-Lr: K. Eichkorn, F. Weigend, O. Treutler, R. Ahlrichs; Theor. Chem. Acc. 97, 119 (1997).

================================================================================
                                        WARNINGS
                       Please study these warnings very carefully!
================================================================================


================================================================================
                                       INPUT FILE
================================================================================
NAME = inp
|  1> ! b3lyp
|  2> ! d3bj ABC
|  3> ! def2-mSVP
|  4> ! GCP(DFT/SV(P))
|  5> ! DEFGRID2
|  6> ! scfconv6
|  7> ! miniprint nopop noautostart
|  8> %MaxCore 2500
|  9> %pal
| 10>     nprocs 12
| 11> end
| 12> ! CPCM(chloroform)
| 13> *xyz 0 1
| 14> C   -0.0504786621  -0.4827542037   0.1015091995
| 15> C   -0.9942325737   0.7192821053   0.4202367502
| 16> C   -0.6293234914   1.9813923182  -0.3807604734
| 17> C    0.8743575190   2.2510534641  -0.4342233439
| 18> C    1.6796211038   0.9527961590  -0.6384834515
| 19> C    0.7645629482  -0.1573580351  -1.1676990432
| 20> C    1.0623395232  -0.5647176686   1.1642180985
| 21> C    2.1076864568   0.4066701288   0.7015007013
| 22> O    1.4973467254  -1.2940720463  -1.5918062746
| 23> C   -0.8113327259  -1.8188851859   0.0039810107
| 24> C    3.2131387210   0.7365317675   1.3435545304
| 25> C   -2.4706061172   0.4273667228   0.2358698069
| 26> C   -3.0337906070   0.2332323264  -0.9461360919
| 27> H   -0.8468135084   0.9567023358   1.4782560622
| 28> O    0.0258091707  -2.9426332643   0.0148345395
| 29> C   -3.2779903487   0.4151725133   1.4988671213
| 30> H   -1.0177285231   1.8915086658  -1.3950932059
| 31> H   -1.1351283806   2.8367186939   0.0720629271
| 32> H    1.0773501901   2.9512563717  -1.2468938378
| 33> H    1.2042161049   2.7213890595   0.4940631570
| 34> H    2.5364778911   1.1369754581  -1.2932329300
| 35> H    0.1302646360   0.1747639472  -1.9992247352
| 36> H    1.4727262861  -1.5773986859   1.1770500429
| 37> H    0.7027256536  -0.3453145791   2.1695984225
| 38> H    2.1921448763  -1.0048503421  -2.1919931754
| 39> H   -1.4327424227  -1.8172572029  -0.9015945163
| 40> H   -1.4691360059  -1.9293868045   0.8697794289
| 41> H    3.4521787976   0.3220105482   2.3079330210
| 42> H    3.9226199553   1.4347166032   0.9318875705
| 43> H   -4.0889347039   0.0425020016  -1.0431839984
| 44> H   -2.4749762117   0.2424363957  -1.8660624157
| 45> H    0.6871615031  -2.8048548982  -0.6783201345
| 46> H   -3.2264599278   1.3897789466   1.9846816215
| 47> H   -4.3198995048   0.1822457605   1.2969618375
| 48> H   -2.8824383698  -0.3227834455   2.1955343509
| 49> *
| 50> 
| 51>                          ****END OF INPUT****
================================================================================

                       ****************************
                       * Single Point Calculation *
                       ****************************

---------------------------------
CARTESIAN COORDINATES (ANGSTROEM)
---------------------------------
  C     -0.050479   -0.482754    0.101509
  C     -0.994233    0.719282    0.420237
  C     -0.629323    1.981392   -0.380760
  C      0.874358    2.251053   -0.434223
  C      1.679621    0.952796   -0.638483
  C      0.764563   -0.157358   -1.167699
  C      1.062340   -0.564718    1.164218
  C      2.107686    0.406670    0.701501
  O      1.497347   -1.294072   -1.591806
  C     -0.811333   -1.818885    0.003981
  C      3.213139    0.736532    1.343555
  C     -2.470606    0.427367    0.235870
  C     -3.033791    0.233232   -0.946136
  H     -0.846814    0.956702    1.478256
  O      0.025809   -2.942633    0.014835
  C     -3.277990    0.415173    1.498867
  H     -1.017729    1.891509   -1.395093
  H     -1.135128    2.836719    0.072063
  H      1.077350    2.951256   -1.246894
  H      1.204216    2.721389    0.494063
  H      2.536478    1.136975   -1.293233
  H      0.130265    0.174764   -1.999225
  H      1.472726   -1.577399    1.177050
  H      0.702726   -0.345315    2.169598
  H      2.192145   -1.004850   -2.191993
  H     -1.432742   -1.817257   -0.901595
  H     -1.469136   -1.929387    0.869779
  H      3.452179    0.322011    2.307933
  H      3.922620    1.434717    0.931888
  H     -4.088935    0.042502   -1.043184
  H     -2.474976    0.242436   -1.866062
  H      0.687162   -2.804855   -0.678320
  H     -3.226460    1.389779    1.984682
  H     -4.319900    0.182246    1.296962
  H     -2.882438   -0.322783    2.195534

----------------------------
CARTESIAN COORDINATES (A.U.)
----------------------------
  NO LB      ZA    FRAG     MASS         X           Y           Z
   0 C     6.0000    0    12.011   -0.095391   -0.912273    0.191825
   1 C     6.0000    0    12.011   -1.878827    1.359246    0.794132
   2 C     6.0000    0    12.011   -1.189249    3.744289   -0.719533
   3 C     6.0000    0    12.011    1.652296    4.253875   -0.820563
   4 C     6.0000    0    12.011    3.174024    1.800524   -1.206559
   5 C     6.0000    0    12.011    1.444815   -0.297364   -2.206631
   6 C     6.0000    0    12.011    2.007531   -1.067162    2.200053
   7 C     6.0000    0    12.011    3.982950    0.768495    1.325644
   8 O     8.0000    0    15.999    2.829575   -2.445442   -3.008078
   9 C     6.0000    0    12.011   -1.533197   -3.437195    0.007523
  10 C     6.0000    0    12.011    6.071952    1.391843    2.538950
  11 C     6.0000    0    12.011   -4.668769    0.807606    0.445729
  12 C     6.0000    0    12.011   -5.733033    0.440745   -1.787938
  13 H     1.0000    0     1.008   -1.600246    1.807905    2.793499
  14 O     8.0000    0    15.999    0.048772   -5.560771    0.028033
  15 C     6.0000    0    12.011   -6.194504    0.784562    2.832448
  16 H     1.0000    0     1.008   -1.923228    3.574433   -2.636344
  17 H     1.0000    0     1.008   -2.145082    5.360621    0.136179
  18 H     1.0000    0     1.008    2.035897    5.577066   -2.356288
  19 H     1.0000    0     1.008    2.275639    5.142680    0.933644
  20 H     1.0000    0     1.008    4.793249    2.148572   -2.443856
  21 H     1.0000    0     1.008    0.246164    0.330256   -3.777987
  22 H     1.0000    0     1.008    2.783049   -2.980852    2.224302
  23 H     1.0000    0     1.008    1.327959   -0.652550    4.099947
  24 H     1.0000    0     1.008    4.142553   -1.898892   -4.142267
  25 H     1.0000    0     1.008   -2.707491   -3.434118   -1.703767
  26 H     1.0000    0     1.008   -2.776265   -3.646013    1.643645
  27 H     1.0000    0     1.008    6.523672    0.608512    4.361361
  28 H     1.0000    0     1.008    7.412677    2.711221    1.761012
  29 H     1.0000    0     1.008   -7.726967    0.080317   -1.971332
  30 H     1.0000    0     1.008   -4.677027    0.458138   -3.526347
  31 H     1.0000    0     1.008    1.298547   -5.300408   -1.281839
  32 H     1.0000    0     1.008   -6.097126    2.626302    3.750505
  33 H     1.0000    0     1.008   -8.163427    0.344395    2.450903
  34 H     1.0000    0     1.008   -5.447019   -0.609972    4.148959



           ************************************************************
           *        Program running with 12 parallel MPI-processes    *
           *              working on a common directory               *
           ************************************************************
------------------------------------------------------------------------------
                   ___                                                        
                  /   \      - P O W E R E D   B Y -                         
                 /     \                                                     
                 |  |  |   _    _      __       _____    __    __             
                 |  |  |  | |  | |    /  \     |  _  \  |  |  /  |          
                  \  \/   | |  | |   /    \    | | | |  |  | /  /          
                 / \  \   | |__| |  /  /\  \   | |_| |  |  |/  /          
                |  |  |   |  __  | /  /__\  \  |    /   |      \           
                |  |  |   | |  | | |   __   |  |    \   |  |\   \          
                \     /   | |  | | |  |  |  |  | |\  \  |  | \   \       
                 \___/    |_|  |_| |__|  |__|  |_| \__\ |__|  \__/        
                                                                              
                      - O R C A' S   B I G   F R I E N D -                    
                                      &                                       
                       - I N T E G R A L  F E E D E R -                       
                                                                              
 v1 FN, 2020, v2 2021, v3 2022-2024                                           
------------------------------------------------------------------------------


----------------------
SHARK INTEGRAL PACKAGE
----------------------

Number of atoms                             ...     35
Number of basis functions                   ...    265
Number of shells                            ...    145
Maximum angular momentum                    ...      2
Integral batch strategy                     ... SHARK/LIBINT Hybrid
RI-J (if used) integral strategy            ... SPLIT-RIJ (Revised 2003 algorithm where possible)
Printlevel                                  ...      1
Contraction scheme used                     ... SEGMENTED contraction
Prescreening option                         ... SCHWARTZ
   Thresh                                   ... 1.000e-10
   Tcut                                     ... 1.000e-11
   Tpresel                                  ... 1.000e-11 
Coulomb Range Separation                    ... NOT USED
Exchange Range Separation                   ... NOT USED
Multipole approximations                    ... NOT USED
Finite Nucleus Model                        ... NOT USED
CABS basis                                  ... NOT available
Auxiliary Coulomb fitting basis             ... AVAILABLE
   # of basis functions in Aux-J            ...    955
   # of shells in Aux-J                     ...    325
   Maximum angular momentum in Aux-J        ...      4
Auxiliary J/K fitting basis                 ... NOT available
Auxiliary Correlation fitting basis         ... NOT available
Auxiliary 'external' fitting basis          ... NOT available

Checking pre-screening integrals            ... done (  0.0 sec) Dimension = 145
   => SHARK Basis and OBASIS are compatible. Storing Pre-screening
Shell pair information
Shell pair cut-off parameter TPreSel        ...   1.0e-11
Total number of shell pairs                 ...     10585
Shell pairs after pre-screening             ...      8813
Total number of primitive shell pairs       ...     38205
Primitive shell pairs kept                  ...     20811
          la=0 lb=0:   3890 shell pairs
          la=1 lb=0:   2746 shell pairs
          la=1 lb=1:    454 shell pairs
          la=2 lb=0:   1192 shell pairs
          la=2 lb=1:    428 shell pairs
          la=2 lb=2:    103 shell pairs

Checking whether 4 symmetric matrices of dimension 265 fit in memory
:Max Core in MB      =   2500.00
 MB in use           =     14.28
 MB left             =   2485.72
 MB needed           =      1.08
 Data fit in memory  = YES
Calculating RI/J V-Matrix + Cholesky decomp.... done (  0.0 sec)
Calculating Nuclear repulsion               ... done (  0.0 sec) ENN=   1114.750930541506 Eh

Diagonalization of the overlap matrix:
Smallest eigenvalue                        ... 1.773e-03
Time for diagonalization                   ...    0.013 sec
Threshold for overlap eigenvalues          ... 1.000e-07
Number of eigenvalues below threshold      ... 0
Time for construction of square roots      ...    0.004 sec
Total time needed                          ...    0.018 sec

-------------------
DFT GRID GENERATION
-------------------

General Integration Accuracy     IntAcc      ... 4.388
Radial Grid Type                 RadialGrid  ... OptM3 with GC (2021)
Angular Grid (max. ang.)         AngularGrid ... 4 (Lebedev-302)
Angular grid pruning method      GridPruning ... 4 (adaptive)
Weight generation scheme         WeightScheme... mBecke (2022)
Basis function cutoff            BFCut       ... 1.0000e-10
Integration weight cutoff        WCut        ... 1.0000e-14
Partially contracted basis set               ... off
Rotationally invariant grid construction     ... off
Angular grids for H and He will be reduced by one unit

Total number of grid points                  ...   152134
Total number of batches                      ...     2392
Average number of points per batch           ...       63
Average number of grid points per atom       ...     4347

--------------------
COSX GRID GENERATION
--------------------

GRIDX 1
-------
General Integration Accuracy     IntAcc      ... 3.816
Radial Grid Type                 RadialGrid  ... OptM3 with GC (2021)
Angular Grid (max. ang.)         AngularGrid ... 1 (Lebedev-50)
Angular grid pruning method      GridPruning ... 4 (adaptive)
Weight generation scheme         WeightScheme... mBecke (2022)
Basis function cutoff            BFCut       ... 1.0000e-10
Integration weight cutoff        WCut        ... 1.0000e-14
Partially contracted basis set               ... on
Rotationally invariant grid construction     ... off
Angular grids for H and He will be reduced by one unit

Total number of grid points                  ...    19394
Total number of batches                      ...      175
Average number of points per batch           ...      110
Average number of grid points per atom       ...      554
UseSFitting                                  ... on

GRIDX 2
-------
General Integration Accuracy     IntAcc      ... 4.020
Radial Grid Type                 RadialGrid  ... OptM3 with GC (2021)
Angular Grid (max. ang.)         AngularGrid ... 2 (Lebedev-110)
Angular grid pruning method      GridPruning ... 4 (adaptive)
Weight generation scheme         WeightScheme... mBecke (2022)
Basis function cutoff            BFCut       ... 1.0000e-10
Integration weight cutoff        WCut        ... 1.0000e-14
Partially contracted basis set               ... on
Rotationally invariant grid construction     ... off
Angular grids for H and He will be reduced by one unit

Total number of grid points                  ...    40610
Total number of batches                      ...      337
Average number of points per batch           ...      120
Average number of grid points per atom       ...     1160
UseSFitting                                  ... on

GRIDX 3
-------
General Integration Accuracy     IntAcc      ... 4.338
Radial Grid Type                 RadialGrid  ... OptM3 with GC (2021)
Angular Grid (max. ang.)         AngularGrid ... 3 (Lebedev-194)
Angular grid pruning method      GridPruning ... 4 (adaptive)
Weight generation scheme         WeightScheme... mBecke (2022)
Basis function cutoff            BFCut       ... 1.0000e-10
Integration weight cutoff        WCut        ... 1.0000e-14
Partially contracted basis set               ... on
Rotationally invariant grid construction     ... off
Angular grids for H and He will be reduced by one unit

Total number of grid points                  ...    88222
Total number of batches                      ...      710
Average number of points per batch           ...      124
Average number of grid points per atom       ...     2521
UseSFitting                                  ... on
Grids setup in   1.6 sec
Initializing property integral containers    ... done (  0.0 sec)

SHARK setup successfully completed in   1.8 seconds

Maximum memory used throughout the entire STARTUP-calculation: 40.5 MB


           ************************************************************
           *        Program running with 12 parallel MPI-processes    *
           *              working on a common directory               *
           ************************************************************
Loading Hartree-Fock densities                     ... done
Calculating cut-offs                               ... done
Initializing the effective Hamiltonian             ... done
Setting up the integral package (SHARK)            ... done
Starting the Coulomb interaction                   ... done (   0.1 sec)
Making the grid                                    ... done (   0.2 sec)
Mapping shells                                     ... done
Starting the XC term evaluation                    ... done (   0.1 sec)
  promolecular density results
     # of electrons  =    113.995845040
     EX              =    -89.283648804
     EC              =     -3.817346246
     EX+EC           =    -93.100995050
Transforming the Hamiltonian                       ... done (   0.0 sec)
Diagonalizing the Hamiltonian                      ... done (   0.0 sec)
Back transforming the eigenvectors                 ... done (   0.0 sec)
Now organizing SCF variables                       ... done
             **** ENERGY FILE WAS UPDATED (inp.en.tmp) ****
Finished Guess after   0.6 sec
Maximum memory used throughout the entire GUESS-calculation: 17.6 MB


           ************************************************************
           *        Program running with 12 parallel MPI-processes    *
           *              working on a common directory               *
           ************************************************************
--------------------
CPCM SOLVATION MODEL
--------------------
CPCM parameters:
  Epsilon                                         ...       4.8030
  Refrac                                          ...       1.4459
  Rsolv                                           ...       1.3000
  Surface type                                    ... GAUSSIAN VDW
  Discretization scheme                           ... Constant charge density
    Threshold for H atoms                         ...       5.0000 (charges/Ang^2)
    Threshold for non-H atoms                     ...       5.0000 (charges/Ang^2)
  Epsilon function type                           ...         CPCM
Solvent:                                          ... CHLOROFORM
Radii:
  Scheme                                          ... Element-dependent radii
  Radius for C  used is    3.8550 Bohr (=   2.0400 Ang.)
  Radius for O  used is    3.4469 Bohr (=   1.8240 Ang.)
  Radius for H  used is    2.4944 Bohr (=   1.3200 Ang.)
Calculating surface                               ...        done! (  0.0s)
Cavity surface points                             ...         2611
Cavity Volume                                     ...    1780.2983
Cavity Surface-area                               ...     908.2732
Calculating surface distance matrix               ...        done! (  0.1s)
Performing Cholesky decomposition & store         ...        done! (  0.2s)
Overall time for CPCM initialization              ...                 0.3s

----------------------------------------D-I-I-S--------------------------------------------
Iteration    Energy (Eh)           Delta-E    RMSDP     MaxDP     DIISErr   Damp  Time(sec)
-------------------------------------------------------------------------------------------
               ***  Starting incremental Fock matrix formation  ***
    1    -656.9114095145519059     0.00e+00  9.09e-03  7.43e-02  2.49e-01  0.700   2.2
    2    -657.1121247725568537    -2.01e-01  6.63e-03  4.29e-02  1.10e-01  0.700   1.3
                               ***Turning on AO-DIIS***
    3    -657.1965810944620898    -8.45e-02  2.65e-03  1.68e-02  3.91e-02  0.700   1.3
    4    -657.2457291845666987    -4.91e-02  4.45e-03  2.55e-02  1.98e-02  0.000   1.2
    5    -657.3519668296626151    -1.06e-01  8.70e-04  5.18e-03  5.18e-03  0.000   1.3
                              *** Initializing SOSCF ***
---------------------------------------S-O-S-C-F--------------------------------------
Iteration    Energy (Eh)           Delta-E    RMSDP     MaxDP     MaxGrad    Time(sec)
--------------------------------------------------------------------------------------
    6    -657.3523223024562867    -3.55e-04  2.89e-04  1.70e-03  9.70e-04     1.2
               *** Restarting incremental Fock matrix formation ***
    7    -657.3522389988504528     8.33e-05  1.59e-04  1.04e-03  3.45e-04     2.1
    8    -657.3522354787432960     3.52e-06  8.27e-05  7.34e-04  5.98e-04     1.5
    9    -657.3522421957172810    -6.72e-06  1.30e-05  8.92e-05  2.27e-05     1.4
                  *** Gradient check signals convergence ***

               *****************************************************
               *                     SUCCESS                       *
               *           SCF CONVERGED AFTER   9 CYCLES          *
               *****************************************************

Recomputing exchange energy using gridx3       ... done (    2.829 sec)
Old exchange energy                            :    -18.245853092 Eh
New exchange energy                            :    -18.245885748 Eh
Exchange energy change after final integration :     -0.000032656 Eh
Total energy after final integration           :   -657.352274798 Eh
             **** ENERGY FILE WAS UPDATED (inp.en.tmp) ****

----------------
TOTAL SCF ENERGY
----------------

Total Energy       :       -657.35227479847367 Eh          -17887.46478 eV

Components:
Nuclear Repulsion  :       1114.75093054150625 Eh           30333.91497 eV
Electronic Energy  :      -1772.09177728762575 Eh          -48221.06877 eV
One Electron Energy:      -3106.47122411089504 Eh          -84531.37950 eV
Two Electron Energy:       1334.37944682326929 Eh           36310.31073 eV
CPCM Dielectric    :         -0.01139539634777 Eh              -0.31008 eV

Virial components:
Potential Energy   :      -1310.58515512566373 Eh          -35662.83513 eV
Kinetic Energy     :        653.23288032719017 Eh           17775.37036 eV
Virial Ratio       :          2.00630616522123

DFT components:
N(Alpha)           :       56.999972872609 electrons
N(Beta)            :       56.999972872609 electrons
N(Total)           :      113.999945745219 electrons
E(X)               :      -72.349832911849 Eh       
E(C)               :       -4.495690220207 Eh       
E(XC)              :      -76.845523132056 Eh       

CPCM Solvation Model Properties:
Surface-charge          :         -0.02172071084295
Corrected charge        :         -0.00000000000000
Outlying charge corr.   :          0.00002332194609 Eh               0.00063 eV
Free-energy (cav+disp)  :  This term is not implemented in the current solvation scheme

---------------
SCF CONVERGENCE
---------------

  Last Energy change         ...    6.7170e-06  Tolerance :   1.0000e-06
  Last MAX-Density change    ...    8.9242e-05  Tolerance :   1.0000e-05
  Last RMS-Density change    ...    1.3009e-05  Tolerance :   1.0000e-06
  Last DIIS Error            ...    9.7050e-04  Tolerance :   1.0000e-06
  Last Orbital Gradient      ...    2.2738e-05  Tolerance :   3.3300e-04
  Last Orbital Rotation      ...    6.9883e-05  Tolerance :   3.3300e-04


----------------
ORBITAL ENERGIES
----------------

  NO   OCC          E(Eh)            E(eV) 
   0   2.0000     -19.139123      -520.8020 
   1   2.0000     -19.110398      -520.0204 
   2   2.0000     -10.220732      -278.1203 
   3   2.0000     -10.204298      -277.6731 
   4   2.0000     -10.180613      -277.0286 
   5   2.0000     -10.178895      -276.9818 
   6   2.0000     -10.177358      -276.9400 
   7   2.0000     -10.174532      -276.8631 
   8   2.0000     -10.173694      -276.8403 
   9   2.0000     -10.166788      -276.6524 
  10   2.0000     -10.165590      -276.6198 
  11   2.0000     -10.161591      -276.5109 
  12   2.0000     -10.159109      -276.4434 
  13   2.0000     -10.153262      -276.2843 
  14   2.0000     -10.150937      -276.2210 
  15   2.0000      -1.029104       -28.0034 
  16   2.0000      -1.000416       -27.2227 
  17   2.0000      -0.863205       -23.4890 
  18   2.0000      -0.808772       -22.0078 
  19   2.0000      -0.765079       -20.8189 
  20   2.0000      -0.755249       -20.5514 
  21   2.0000      -0.712237       -19.3809 
  22   2.0000      -0.679820       -18.4988 
  23   2.0000      -0.666587       -18.1388 
  24   2.0000      -0.658179       -17.9100 
  25   2.0000      -0.624602       -16.9963 
  26   2.0000      -0.584028       -15.8922 
  27   2.0000      -0.545439       -14.8421 
  28   2.0000      -0.534422       -14.5424 
  29   2.0000      -0.512244       -13.9389 
  30   2.0000      -0.504131       -13.7181 
  31   2.0000      -0.493406       -13.4263 
  32   2.0000      -0.458616       -12.4796 
  33   2.0000      -0.455495       -12.3947 
  34   2.0000      -0.444277       -12.0894 
  35   2.0000      -0.439100       -11.9485 
  36   2.0000      -0.430340       -11.7101 
  37   2.0000      -0.418894       -11.3987 
  38   2.0000      -0.416577       -11.3356 
  39   2.0000      -0.404759       -11.0140 
  40   2.0000      -0.400307       -10.8929 
  41   2.0000      -0.390078       -10.6146 
  42   2.0000      -0.377496       -10.2722 
  43   2.0000      -0.374593       -10.1932 
  44   2.0000      -0.361719        -9.8429 
  45   2.0000      -0.354143        -9.6367 
  46   2.0000      -0.348244        -9.4762 
  47   2.0000      -0.335531        -9.1303 
  48   2.0000      -0.330033        -8.9806 
  49   2.0000      -0.318650        -8.6709 
  50   2.0000      -0.304544        -8.2871 
  51   2.0000      -0.297156        -8.0860 
  52   2.0000      -0.277001        -7.5376 
  53   2.0000      -0.266956        -7.2642 
  54   2.0000      -0.258303        -7.0288 
  55   2.0000      -0.234680        -6.3860 
  56   2.0000      -0.231582        -6.3017 
  57   0.0000       0.021249         0.5782 
  58   0.0000       0.024986         0.6799 
  59   0.0000       0.092632         2.5206 
  60   0.0000       0.101591         2.7644 
  61   0.0000       0.122003         3.3199 
  62   0.0000       0.128219         3.4890 
  63   0.0000       0.139645         3.7999 
  64   0.0000       0.150291         4.0896 
  65   0.0000       0.154377         4.2008 
  66   0.0000       0.160117         4.3570 
  67   0.0000       0.165254         4.4968 
*Only the first 10 virtual orbitals were printed.
Total SCF time: 0 days 0 hours 0 min 18 sec 
Finished LeanSCF after  18.2 sec

Maximum memory used throughout the entire LEANSCF-calculation: 31.5 MB


-------------------------------------------------------------------------------
                          DFT DISPERSION CORRECTION                            
                                                                               
                              DFTD3 V3.1  Rev 1                                
                          USING Becke-Johnson damping                          
-------------------------------------------------------------------------------
-------------------------   ----------------
Dispersion correction           -0.074206468
-------------------------   ----------------

NOTIFICATION: Different basis set in ORCA and otool_gcp:
ORCA: 265  gCP: 250 
If you are NOT using ECPs, check your basis set inputs!
------------------   -----------------
gCP correction             0.168195984
------------------   -----------------

-------------------------   --------------------
FINAL SINGLE POINT ENERGY      -657.258285282676
-------------------------   --------------------



           ************************************************************
           *        Program running with 12 parallel MPI-processes    *
           *              working on a common directory               *
           ************************************************************

------------------------------------------------------------------------------
                              ORCA PROPERTY CALCULATIONS
------------------------------------------------------------------------------

GBWName                                 ... inp.gbw
Number of atoms                         ...     35
Number of basis functions               ...    265
Max core memory                         ...   2500 MB

Electric properties:
Dipole moment                           ... YES
Quadrupole moment                       ...  NO
Static polarizability (Dipole/Dipole)   ...  NO
Static polarizability (Dipole/Quad.)    ...  NO
Static polarizability (Quad./Quad.)     ...  NO
Static polarizability (Velocity)        ...  NO
Static hyperpolarizability              ...  NO

Atomic electric properties:
Dipole moment                           ...  NO
Quadrupole moment                       ...  NO
Static polarizability                   ...  NO

Choice of electric origin               ... Center of mass
Position of electric origin             ...    -0.000012     0.000031     0.000012

General magnetic properties:
Magnetizability                         ...  NO

EPR properties:
g-Tensor (aka g-matrix)                 ...  NO
Zero-Field splitting spin-orbit         ...  NO
Zero-field splitting spin-spin          ...  NO
Hyperfine couplings                     ...  NO (   0 nuclei)
Quadrupole couplings                    ...  NO (   0 nuclei)
Contact density                         ...  NO (   0 nuclei)

NMR properties:
Chemical shifts                         ...  NO (   0 nuclei)
Spin-rotation constants                 ...  NO (   0 nuclei)
Spin-spin couplings                     ...  NO (   0 nuclei,    0 pairs)

Choice of magnetic origin               ... GIAO
Position of magnetic origin             ...     0.000000     0.000000     0.000000

Properties with geometric perturbations:
SCF Hessian                             ...  NO
IR spectrum                             ...  NO
VCD spectrum                            ...  NO
X-ray spectroscopy properties:
SCF XES/XAS/RIXS spectra                ...  NO

SCF SOC stabilization energy            ...  NO
Diagonal Born-Oppenheimer correction    ...  NO

-------------
DIPOLE MOMENT
-------------

Method             : SCF
Type of density    : Electron Density
Multiplicity       :   1
Irrep              :   0
Energy             :  -657.3522747984736725 Eh
Basis              : AO
                                X                 Y                 Z
Electronic contribution:      5.368988375      -4.741514234      -2.889836772
Nuclear contribution   :     -5.152699709       6.017501531       2.192731364
                        -----------------------------------------
Total Dipole Moment    :      0.216288666       1.275987298      -0.697105407
                        -----------------------------------------
Magnitude (a.u.)       :      1.469993306
Magnitude (Debye)      :      3.736426046



--------------------
Rotational spectrum 
--------------------
 
Rotational constants in cm-1:             0.028121             0.018304             0.014865 
Rotational constants in MHz :           843.045708           548.728659           445.647466 

Dipole components along the rotational axes: 
x,y,z [a.u.] :     0.244224     1.193382    -0.822845 
x,y,z [Debye]:     0.620769     3.033337    -2.091505 

 

Dipole moment calculation done in   0.0 sec 

Maximum memory used throughout the entire PROP-calculation: 16.5 MB

--------------------------------
SUGGESTED CITATIONS FOR THIS RUN
--------------------------------

Below you find a list of papers that are relevant to this ORCA run
We neither can nor want to force you to cite these papers, but we appreciate if you do
You receive ORCA, which is the product of decades of hard work by many enthusiastic individuals, for free
The only thing we kindly ask in return is that you cite our papers,
We deeply appreciate it, if you show your appreciation for ORCA by not just citing the generic ORCA reference.

Please note that relegating all ORCA citations to the supporting information does *not* help us.
SI sections are not indexed - citations you put there will not count into any citation statistics
But we need these citations in order to attract the funding resources that allow us to do what we are doing

Therefore, if you are a happy ORCA user, please consider citing a few of the papers listed below in the main body of your paper

In addition to the list printed below, the program has created the file inp.bibtex that contains the list in bibtex format
You can import this file easily into all common literature databanks and citation aid programs

It goes without saying that in many instances, there are alternative algorithms to achieve similar
results as the ones you have gotten from ORCA. It is, of course, also the case that in some instances
ORCA just re-implements algorithms worked out by others. We are fully aware of that and we are also
fully appreciative of our colleagues work. Hence this citation list should not be read as indicating
that the listed papers, which are focused on our own work, are the only ones worth citing. It simply
meant to make it easier for users to cite ORCA specific papers. It is not a substitute for doing your
own literature research and citing the relevant literature in a scientifically appropriate manner.

List of essential papers. We consider these as the minimum necessary citations

  1. Neese, F.
     Software update: the ORCA program system, version 6.0
     WIRES Comput. Molec. Sci. 2025 15(1), e70019
     doi.org/10.1002/wcms.70019

List of papers to cite with high priority. The work reported in these papers was absolutely
necessary for this run to complete.
Our perspective: the developers of density functionals and basis sets usually get cited in chemistry papers
Good! But without the algorithms to do something with them, the functionals or basis sets would not do anything.
Hence, in our opinion, the algorithm design and method developments papers are equally worthy of getting cited

  1. Neese, F.
     An improvement of the resolution of the identity approximation for the formation of the Coulomb matrix
     J. Comp. Chem. 2003 24(14), 1740-1747
     doi.org/10.1002/jcc.10318
  2. Neese, F.; Wennmohs, F.; Hansen, A.; Becker, U.
     Efficient, approximate and parallel Hartree-Fock and hybrid DFT calculations. A 'chain-of-spheres' algorithm for the Hartree-Fock exchange
     Chem. Phys. 2009 356(1-3), 98-109
     doi.org/10.1016/j.chemphys.2008.10.036
  3. Grimme, S.; Antony, J.; Ehrlich, S.; Krieg, H.
     A consistent and accurate ab initio parametrization of density functional dispersion correction (DFT-D) for the 94 elements H-Pu
     J. Chem. Phys. 2010 132 , 154104
     doi.org/10.1063/1.3382344
  4. Grimme, S.; Ehrlich, S.; Goerigk, L.
     Effect of the damping function in dispersion corrected density functional theory
     J. Comput. Chem. 2011 32(7), 1456-1465
     doi.org/10.1002/jcc.21759
  5. Garcia-Rates, M.; Neese, F.
     Effect of the Solute Cavity on the Solvation Energy and its Derivatives within the Framework of the Gaussian Charge Scheme
     J. Comput. Chem. 2020 41 , 922-939
     doi.org/10.1002/jcc.26139
  6. Helmich-Paris, B.; de Souza, B.; Neese, F.; Izsák, R.
     An improved chain of spheres for exchange algorithm
     J. Chem. Phys. 2021 155(10), 104109
     doi.org/10.1063/5.0058766
  7. Neese, F.
     The SHARK Integral Generation and Digestion System
     J. Comp. Chem. 2022 44(3), 381
     doi.org/10.1002/jcc.26942

List of suggested additional citations. These are papers that are important in the 'surrounding' of 
of this run, or papers that preceded the highly important papers. If you like your results we are grateful for a citation.

  1. Izsak, R.; Neese, F.
     An overlap fitted chain of spheres exchange method
     J. Chem. Phys. 2011 135 , 144105
     doi.org/10.1063/1.3646921
  2. Izsak, R.; Hansen, A.; Neese, F.
     The resolution of identity and chain of spheres approximations for the LPNO-CCSD singles Fock term
     Molec. Phys. 2012 110 , 2413-2417
     doi.org/10.1080/00268976.2012.687466
  3. Neese, F.
     The ORCA program system
     WIRES Comput. Molec. Sci. 2012 2(1), 73-78
     doi.org/10.1002/wcms.81
  4. Izsak, R.; Neese, F.; Klopper, W.
     Robust fitting techniques in the chain of spheres approximation to the Fock exchange: The role of the complementary space
     J. Chem. Phys. 2013 139 , 
     doi.org/10.1063/1.4819264
  5. Neese, F.
     Software update: the ORCA program system, version 4.0
     WIRES Comput. Molec. Sci. 2018 8(1), 1-6
     doi.org/10.1002/wcms.1327
  6. Neese, F.; Wennmohs, F.; Becker, U.; Riplinger, C.
     The ORCA quantum chemistry program package
     J. Chem. Phys. 2020 152(22), 224108
     doi.org/10.1063/5.0004608
  7. Neese, F.
     Software update: The ORCA program system—Version 5.0
     WIRES Comput. Molec. Sci. 2022 12(1), e1606
     doi.org/10.1002/wcms.1606

List of optional additional citations

  1. Neese, F.
     Approximate second-order SCF convergence for spin unrestricted wavefunctions
     Chem. Phys. Lett. 2000 325(1-3), 93-98
     doi.org/10.1016/s0009-2614(00)00662-x

Timings for individual modules:

Sum of individual times          ...       21.513 sec (=   0.359 min)
Startup calculation              ...        2.076 sec (=   0.035 min)   9.7 %
SCF iterations                   ...       19.110 sec (=   0.319 min)  88.8 %
Property calculations            ...        0.326 sec (=   0.005 min)   1.5 %
                             ****ORCA TERMINATED NORMALLY****
TOTAL RUN TIME: 0 days 0 hours 0 minutes 21 seconds 863 msec
