
                                 *****************
                                 * O   R   C   A *
                                 *****************

                                            #,                                       
                                            ###                                      
                                            ####                                     
                                            #####                                    
                                            ######                                   
                                           ########,                                 
                                     ,,################,,,,,                         
                               ,,#################################,,                 
                          ,,##########################################,,             
                       ,#########################################, ''#####,          
                    ,#############################################,,   '####,        
                  ,##################################################,,,,####,       
                ,###########''''           ''''###############################       
              ,#####''   ,,,,##########,,,,          '''####'''          '####       
            ,##' ,,,,###########################,,,                        '##       
           ' ,,###''''                  '''############,,,                           
         ,,##''                                '''############,,,,        ,,,,,,###''
      ,#''                                            '''#######################'''  
     '                                                          ''''####''''         
             ,#######,   #######,   ,#######,      ##                                
            ,#'     '#,  ##    ##  ,#'     '#,    #''#        ,####,    ,#,          
            ##       ##  ##   ,#'  ##            #'  '#       #'       ,# #          
            ##       ##  #######   ##           ,######,      #####,      #          
            '#,     ,#'  ##    ##  '#,     ,#' ,#      #,     #,   #      #          
             '#######'   ##     ##  '#######'  #'      '#     '####' #    #          



                #########################################################
                #                        -***-                          #
                #          Department of theory and spectroscopy        #
                #                                                       #
                #                      Frank Neese                      #
                #                                                       #
                #     Directorship, Architecture, Infrastructure        #
                #                    SHARK, DRIVERS                     #
                #        Core code/Algorithms in most modules           #
                #                                                       #
                #        Max Planck Institute fuer Kohlenforschung      #
                #                Kaiser Wilhelm Platz 1                 #
                #                 D-45470 Muelheim/Ruhr                 #
                #                      Germany                          #
                #                                                       #
                #                  All rights reserved                  #
                #                        -***-                          #
                #########################################################


                         Program Version 6.1.1  -  RELEASE   -
                                (GIT: $487d211c$)
                          ($2025-11-21 10:33:24 +0100$)


 With contributions from (in alphabetic order):
[Max-Planck-Institut fuer Kohlenforschung]                               
  Daniel Aravena         : Magnetic Suceptibility                        
  Michael Atanasov       : Ab Initio Ligand Field Theory (pilot matlab implementation)
  Alexander A. Auer      : GIAO ZORA, VPT2 properties, NMR spectrum      
  Ute Becker             : All parallelization in ORCA, NUMFREQ, NUMCALC 
  Giovanni Bistoni       : ED, misc. LED, open-shell LED, HFLD           
  Dmytro Bykov           : pre 5.0 version of the SCF Hessian            
  Marcos Casanova-Páez   : Triplet and SCS-CIS(D). UHF-(DLPNO)-IP/EA/STEOM-CCSD. UHF-CVS-IP/STEOM-CCSD   
  Vijay G. Chilkuri      : MRCI spin determinant printing, contributions to CSF-ICE 
  Pauline Colinet        : FMM embedding                                 
  Dipayan Datta          : RHF DLPNO-CCSD density                        
  Achintya Kumar Dutta   : EOM-CC, STEOM-CC                              
  Nicolas Foglia         : Exact transition moments, OPA infrastructure, MCD improvements    
  Dmitry Ganyushin       : Spin-Orbit,Spin-Spin,Magnetic field MRCI      
  Miquel Garcia-Rates    : C-PCM and meta-GGA Hessian, CCSD/C-PCM, Gaussian charge scheme 
  Tiago L. C. Gouveia    : GS-ROHF, GS-ROCIS                             
  Yang Guo               : DLPNO-NEVPT2, F12-NEVPT2, CIM, IAO-localization        
  Andreas Hansen         : Spin unrestricted coupled pair/coupled cluster methods 
  Ingolf Harden          : AUTO-CI MPn and infrastructure                
  Benjamin Helmich-Paris : MC-RPA, TRAH-(SCF,CASSCF), AVAS, COSX integrals, SCF dyn. polar., MC-PDFT, srDFT 
  Lee Huntington         : MR-EOM, pCC                                   
  Robert Izsak           : Overlap fitted RIJCOSX, COSX-SCS-MP3, EOM     
  Riya Kayal             : Wick's Theorem for AUTO-CI, AUTO-CI UHF-CCSDT 
  Emily Kempfer          : AUTO-CI RHF CISDT and CCSDT, approximate NEVPT4
  Christian Kollmar      : KDIIS, OOCD, Brueckner-CCSD(T), CCSD density, CASPT2, CASPT2-K, improved NEVPT2 
  Axel Koslowski         : Symmetry handling                             
  Simone Kossmann        : meta-GGA functionals, TD-DFT gradient, OOMP2, (MP2 Hessian; deprecated post 5.0) 
  Lucas Lang             : DCDCAS, Hyperfine gauge corrections, ICE-SOC+SSC
  Marvin Lechner         : AUTO-CI (C++ implementation), FIC-MRCC        
  Spencer Leger          : CASSCF response                               
  Dagmar Lenk            : GEPOL surface, SMD, ORCA-2-JSON               
  Dimitrios Liakos       : Extrapolation schemes; Compound Job, Property file
  Dimitrios Manganas     : Further ROCIS development; embedding schemes. LFT, Crystal Embedding 
  Dimitrios Pantazis     : SARC Basis sets                               
  Anastasios Papadopoulos: AUTO-CI, single reference methods and gradients 
  Taras Petrenko         : pre 6.0 DFT Hessian and TD-DFT gradient,  ECA, NRVS 
  Petra Pikulova         : Analytic Raman intensities                    
  Peter Pinski           : DLPNO-MP2, DLPNO-MP2 Gradient                 
  Shashank Vittal Rao    : ES-AILFT, MagRelax                            
  Christoph Reimann      : Effective Core Potentials                     
  Marius Retegan         : Local ZFS, SOC                                
  Christoph Riplinger    : Optimizer, TS searches, QM/MM, DLPNO-CCSD(T), (RO)-DLPNO pert. Triples 
  Michael Roemelt        : Original ROCIS implementation, recursive CI coupling coefficients
  Masaaki Saitow         : Open-shell DLPNO-CCSD energy and density      
  Barbara Sandhoefer     : DKH picture change effects                    
  Yorick L. A. Schmerwitz: GMF and freeze-and-release deltaSCF, NEB S-IDPP initial path                    
  Kantharuban Sivalingam : CASSCF convergence/infrastructure, NEVPT2, NEVPT3, NEVPT4(SD), FIC-MRCI and CEPA variants
  Bernardo de Souza      : ESD, SOC TD-DFT                               
  Georgi L. Stoychev     : AutoAux, RI-MP2 NMR, DLPNO-MP2 response, X2C  
  Van Anh Tran           : RI-MP2 g-tensors                              
  Willem Van den Heuvel  : Paramagnetic NMR                              
  Zikuan Wang            : NOTCH, Electric field optimization            
  Frank Wennmohs         : Technical directorship and infrastructure     
  Hang Xu                : AUTO-CI-Response properties                   
                                                                         
[FACCTs GmbH]                                                            
  Markus Bursch, Nicolas Foglia, Miquel Garcia-Rates, Ingolf Harden, Hagen Neugebauer, Anastasios Papadopoulos, 
  Christoph Riplinger, Bernardo de Souza, Georgi L. Stoychev                                                    
                                                                 
  APM, various basis sets, CI-OPT, improved COSX, DLPNO-Multilevel,           
  DOCKER, DRACO, updates on ESD, Fragmentator, GOAT, IRC, LR-CPCM, L-BFGS, MBIS, meta-GGA TD-DFT gradient, ML-optimized integration grids, 
  MM, NACMEs, nearIR, NEB, NEB-TS, NL-DFT gradient (VV10), 2- and 3-layer-ONIOM, interface openCOSMO-RS, QMMM,   
  Crystal-QMMM, RESP, rigid body optimization, SF, symmetry and pop. for TD-DFT, various functionals, SOLVATOR                                   
                                                                         
[Other institutions]                                                     
  V. Asgeirsson          : NEB                                           
  Christoph Bannwarth    : sTDA-DFT, sTD-DFT, PBEh-3c, B97-3c, D3        
  Giovanni Bistoni       : ETS/NOCV, ADLD/ADEX, COVALED                  
  Martin Brehm           : Molecular dynamics                            
  Ronald Cardenas        : ETS/NOCV                                      
  Martina Colucci        : COVALED                                       
  Sebastian Ehlert       : rSCAN, r2SCAN, r2SCAN-3c, D4, dhf basis sets  
  Marvin Friede          : D4 for Fr, Ra, Ac-Lr                          
  Lars Goerigk           : TD-DFT with DH, B97 family of functionals     
  Stefan Grimme          : VdW corrections, initial TS optimization, DFT functionals, gCP, sTDA/sTD-DF 
  Waldemar Hujo          : DFT-NL                                        
  H. Jonsson             : NEB                                           
  Holger Kruse           : gCP                                           
  Marcel Mueller         : wB97X-3c, vDZP basis set                      
  Hagen Neugebauer       : wr2SCAN, Native XTB                           
  Gianluca Regni         : ADLD/ADEX                                     
  Tobias Risthaus        : pre 6.0 range-separated hybrid DFT and stability analysis
  Lukas Wittmann         : regularized MP2, r2SCAN double-hybrids, wr2SCAN        
                                                                         
We gratefully acknowledge several colleagues who have allowed us to      
interface, adapt or use parts of their codes:                            
  Ed Valeev, F. Pavosevic, A. Kumar             : LibInt (2-el integral package), F12 methods 
  Garnet Chan, S. Sharma, J. Yang, R. Olivares  : DMRG                   
  Ulf Ekstrom                                   : XCFun DFT Library      
  Mihaly Kallay                                 : mrcc  (arbitrary order and MRCC methods)
  Frank Weinhold                                : gennbo (NPA and NBO analysis)           
  Simon Mueller                                 : openCOSMO-RS                            
  Christopher J. Cramer and Donald G. Truhlar   : smd solvation model                     
  S Lehtola, MJT Oliveira, MAL Marques          : LibXC Library                           
  Liviu Ungur et al                             : ANISO software                          


 Your calculation uses the libint2 library for the computation of 2-el integrals
 For citations please refer to: http://libint.valeyev.net

 Your ORCA version has been built with support for libXC version: 7.0.0
 For citations please refer to: https://libxc.gitlab.io

 This ORCA versions uses:
   CBLAS   interface :  Fast vector & matrix operations
   LAPACKE interface :  Fast linear algebra routines
   SCALAPACK package :  Parallel linear algebra routines
   Shared memory     :  Shared parallel matrices
   BLAS/LAPACK       :  OpenBLAS 0.3.29  USE64BITINT DYNAMIC_ARCH NO_AFFINITY Haswell SINGLE_THREADED
        Core in use  :  Haswell
   Copyright (c) 2011-2014, The OpenBLAS Project


  ***********************************
  * Starting time: Sun Aug  9 12:30:32 2026
  * Host name:     localhost.localdomain
  * Process ID:    2795732
  * Working dir.:  /home/dinglab/calculation/templates/NMR_modules/ANN_PRA_15/pps_dysA_screening/CONF4/hf-3c
  ***********************************

NOTE: MaxCore=2500 MB was set to SCF,MP2,MDCI,CIPSI,MRCI,RASCI and CIS
      => If you want to overwrite this, your respective input block should be placed after the MaxCore statement
Your calculation utilizes the geometrical counterpoise correction gCP
Please cite in your paper:
H.Kruse, S. Grimme J.Chem.Phys., 136, (2012), 154101 
   

Your calculation utilizes the atom-pairwise dispersion correction
with the Becke-Johnson damping scheme (D3BJ)


================================================================================

----- Orbital basis set information -----
Your calculation utilizes the basis: MINIX,
   a combination of small basis sets by S. Grimme (see manual for definitions).

================================================================================
                                        WARNINGS
                       Please study these warnings very carefully!
================================================================================

WARNING: Old DensityContainer found on disk!
         Will remove this file - 
         If you want to keep old densities, please start your calculation with a different basename. 


================================================================================
                                       INPUT FILE
================================================================================
NAME = inp
|  1> ! hf-3c
|  2> ! DEFGRID2
|  3> ! scfconv6
|  4> ! miniprint nopop noautostart
|  5> %MaxCore 2500
|  6> %pal
|  7>     nprocs 12
|  8> end
|  9> *xyz 0 1
| 10> C   -1.3063189102  -1.5081018931   1.9947252897
| 11> C   -2.7173668852  -1.2988706761   1.4124655612
| 12> C   -2.7329879519  -0.6885247527  -0.0258088068
| 13> C   -1.6849023166   0.4887142407  -0.1819904805
| 14> C   -0.2813172947   0.2882892392   0.5313577401
| 15> C   -0.5345983739  -0.1728259594   1.9932610726
| 16> C   -1.4127223799   0.7881367395  -1.6729062840
| 17> C   -0.6216090188   2.1070171076  -1.8107782186
| 18> C    0.6970800329   2.0921085178  -1.0023995043
| 19> C    0.5494948857   1.6487473999   0.4895293661
| 20> C    0.8287116414  -0.7040592772  -0.0151931819
| 21> C    1.9480701401   1.1901158171   0.9531301425
| 22> C    2.0794262377  -0.1726975310   0.3355389416
| 23> C    3.2861468189  -0.8035337097   0.1333434861
| 24> C    3.2882256670  -2.0625889680  -0.4785176292
| 25> C    2.0886133406  -2.6137451745  -0.8324330413
| 26> C    0.8444843097  -1.9760768395  -0.6039757734
| 27> O   -0.1959234179  -2.7495376972  -0.9870582328
| 28> O    4.4967430933  -0.2564705361   0.4995812920
| 29> O   -2.4537335824  -1.6784064271  -1.0132777135
| 30> C   -4.2032622763  -0.2423827426  -0.3191040080
| 31> C   -2.4213062927   1.7108772205   0.4340704983
| 32> C    1.3923786424   3.4670160649  -1.1480800088
| 33> C    0.1530478875   2.8231733573   1.4283162617
| 34> H   -1.3943657255  -1.8834179928   3.0076141043
| 35> H   -0.7627021491  -2.2474945401   1.4197253631
| 36> H   -3.2644071783  -0.6285523308   2.0622309022
| 37> H   -3.2632376889  -2.2351111150   1.3932217284
| 38> H    0.4098714254  -0.2958634605   2.5030642885
| 39> H   -1.1071124013   0.5673423293   2.5315515123
| 40> H   -0.8441481386  -0.0245442686  -2.1064449578
| 41> H   -2.3450522234   0.8632485729  -2.2161462763
| 42> H   -0.3716115670   2.2659547319  -2.8527523555
| 43> H   -1.2359498814   2.9418783852  -1.5078666546
| 44> H    1.3322739818   1.3507793815  -1.4661663970
| 45> H    1.9917199516   1.1442475203   2.0345672745
| 46> H    2.7081190486   1.8823884256   0.6228682613
| 47> H    4.2240039958  -2.5711767513  -0.6564004149
| 48> H    2.0428427669  -3.5850100505  -1.3007537293
| 49> H   -1.0607226916  -2.2760543081  -1.0231555630
| 50> H    4.3586436331   0.6008890618   0.9399007891
| 51> H   -3.1345058679  -2.3734592234  -0.9973266464
| 52> H   -4.8254065877  -1.1293381935  -0.3602325098
| 53> H   -4.5981594439   0.3963607752   0.4568273520
| 54> H   -4.2708750320   0.2663781492  -1.2722237472
| 55> H   -2.7428150522   1.5122843320   1.4446176594
| 56> H   -1.8107085985   2.5841099037   0.4396932852
| 57> H   -3.2865321533   1.9433082083  -0.1641069944
| 58> H    2.3169428075   3.5101652458  -0.5884943958
| 59> H    1.6204269050   3.6492210483  -2.1915849989
| 60> H    0.7474442825   4.2637928947  -0.8027431481
| 61> H    1.0590178951   3.3122888117   1.7616907852
| 62> H   -0.4434081023   3.5774755425   0.9416277842
| 63> H   -0.3748286344   2.4753843338   2.3043914628
| 64> *
| 65> 
| 66>                          ****END OF INPUT****
================================================================================

                       ****************************
                       * Single Point Calculation *
                       ****************************

---------------------------------
CARTESIAN COORDINATES (ANGSTROEM)
---------------------------------
  C     -1.306319   -1.508102    1.994725
  C     -2.717367   -1.298871    1.412466
  C     -2.732988   -0.688525   -0.025809
  C     -1.684902    0.488714   -0.181990
  C     -0.281317    0.288289    0.531358
  C     -0.534598   -0.172826    1.993261
  C     -1.412722    0.788137   -1.672906
  C     -0.621609    2.107017   -1.810778
  C      0.697080    2.092109   -1.002400
  C      0.549495    1.648747    0.489529
  C      0.828712   -0.704059   -0.015193
  C      1.948070    1.190116    0.953130
  C      2.079426   -0.172698    0.335539
  C      3.286147   -0.803534    0.133343
  C      3.288226   -2.062589   -0.478518
  C      2.088613   -2.613745   -0.832433
  C      0.844484   -1.976077   -0.603976
  O     -0.195923   -2.749538   -0.987058
  O      4.496743   -0.256471    0.499581
  O     -2.453734   -1.678406   -1.013278
  C     -4.203262   -0.242383   -0.319104
  C     -2.421306    1.710877    0.434070
  C      1.392379    3.467016   -1.148080
  C      0.153048    2.823173    1.428316
  H     -1.394366   -1.883418    3.007614
  H     -0.762702   -2.247495    1.419725
  H     -3.264407   -0.628552    2.062231
  H     -3.263238   -2.235111    1.393222
  H      0.409871   -0.295863    2.503064
  H     -1.107112    0.567342    2.531552
  H     -0.844148   -0.024544   -2.106445
  H     -2.345052    0.863249   -2.216146
  H     -0.371612    2.265955   -2.852752
  H     -1.235950    2.941878   -1.507867
  H      1.332274    1.350779   -1.466166
  H      1.991720    1.144248    2.034567
  H      2.708119    1.882388    0.622868
  H      4.224004   -2.571177   -0.656400
  H      2.042843   -3.585010   -1.300754
  H     -1.060723   -2.276054   -1.023156
  H      4.358644    0.600889    0.939901
  H     -3.134506   -2.373459   -0.997327
  H     -4.825407   -1.129338   -0.360233
  H     -4.598159    0.396361    0.456827
  H     -4.270875    0.266378   -1.272224
  H     -2.742815    1.512284    1.444618
  H     -1.810709    2.584110    0.439693
  H     -3.286532    1.943308   -0.164107
  H      2.316943    3.510165   -0.588494
  H      1.620427    3.649221   -2.191585
  H      0.747444    4.263793   -0.802743
  H      1.059018    3.312289    1.761691
  H     -0.443408    3.577476    0.941628
  H     -0.374829    2.475384    2.304391

----------------------------
CARTESIAN COORDINATES (A.U.)
----------------------------
  NO LB      ZA    FRAG     MASS         X           Y           Z
   0 C     6.0000    0    12.011   -2.468585   -2.849900    3.769485
   1 C     6.0000    0    12.011   -5.135079   -2.454510    2.669173
   2 C     6.0000    0    12.011   -5.164599   -1.301123   -0.048772
   3 C     6.0000    0    12.011   -3.184004    0.923536   -0.343912
   4 C     6.0000    0    12.011   -0.531613    0.544788    1.004121
   5 C     6.0000    0    12.011   -1.010245   -0.326594    3.766718
   6 C     6.0000    0    12.011   -2.669658    1.489363   -3.161335
   7 C     6.0000    0    12.011   -1.174671    3.981685   -3.421875
   8 C     6.0000    0    12.011    1.317290    3.953512   -1.894261
   9 C     6.0000    0    12.011    1.038395    3.115681    0.925076
  10 C     6.0000    0    12.011    1.566038   -1.330479   -0.028711
  11 C     6.0000    0    12.011    3.681319    2.248993    1.801155
  12 C     6.0000    0    12.011    3.929546   -0.326351    0.634077
  13 C     6.0000    0    12.011    6.209918   -1.518459    0.251983
  14 C     6.0000    0    12.011    6.213846   -3.897728   -0.904267
  15 C     6.0000    0    12.011    3.946907   -4.939263   -1.573070
  16 C     6.0000    0    12.011    1.595844   -3.734244   -1.141349
  17 O     8.0000    0    15.999   -0.370242   -5.195873   -1.865270
  18 O     8.0000    0    15.999    8.497613   -0.484659    0.944072
  19 O     8.0000    0    15.999   -4.636884   -3.171728   -1.914817
  20 C     6.0000    0    12.011   -7.943015   -0.458037   -0.603019
  21 C     6.0000    0    12.011   -4.575606    3.233089    0.820274
  22 C     6.0000    0    12.011    2.631214    6.551711   -2.169557
  23 C     6.0000    0    12.011    0.289219    5.335024    2.699127
  24 H     1.0000    0     1.008   -2.634969   -3.559144    5.683567
  25 H     1.0000    0     1.008   -1.441298   -4.247149    2.682892
  26 H     1.0000    0     1.008   -6.168836   -1.187792    3.897052
  27 H     1.0000    0     1.008   -6.166626   -4.223748    2.632808
  28 H     1.0000    0     1.008    0.774545   -0.559101    4.730106
  29 H     1.0000    0     1.008   -2.092139    1.072122    4.783939
  30 H     1.0000    0     1.008   -1.595209   -0.046382   -3.980604
  31 H     1.0000    0     1.008   -4.431506    1.631303   -4.187910
  32 H     1.0000    0     1.008   -0.702244    4.282034   -5.390921
  33 H     1.0000    0     1.008   -2.335607    5.559344   -2.849455
  34 H     1.0000    0     1.008    2.517633    2.552603   -2.770653
  35 H     1.0000    0     1.008    3.763805    2.162314    3.844775
  36 H     1.0000    0     1.008    5.117603    3.557199    1.177050
  37 H     1.0000    0     1.008    7.982211   -4.858820   -1.240417
  38 H     1.0000    0     1.008    3.860413   -6.774687   -2.458068
  39 H     1.0000    0     1.008   -2.004475   -4.301119   -1.933484
  40 H     1.0000    0     1.008    8.236643    1.135516    1.776155
  41 H     1.0000    0     1.008   -5.923358   -4.485188   -1.884674
  42 H     1.0000    0     1.008   -9.118697   -2.134140   -0.680741
  43 H     1.0000    0     1.008   -8.689262    0.749013    0.863279
  44 H     1.0000    0     1.008   -8.070784    0.503382   -2.404154
  45 H     1.0000    0     1.008   -5.183169    2.857803    2.729932
  46 H     1.0000    0     1.008   -3.421743    4.883260    0.830900
  47 H     1.0000    0     1.008   -6.210646    3.672320   -0.310117
  48 H     1.0000    0     1.008    4.378387    6.633251   -1.112093
  49 H     1.0000    0     1.008    3.062163    6.896028   -4.141495
  50 H     1.0000    0     1.008    1.412465    8.057401   -1.516965
  51 H     1.0000    0     1.008    2.001254    6.259319    3.329113
  52 H     1.0000    0     1.008   -0.837920    6.760449    1.779419
  53 H     1.0000    0     1.008   -0.708323    4.677798    4.354669



           ************************************************************
           *        Program running with 12 parallel MPI-processes    *
           *              working on a common directory               *
           ************************************************************
------------------------------------------------------------------------------
                   ___                                                        
                  /   \      - P O W E R E D   B Y -                         
                 /     \                                                     
                 |  |  |   _    _      __       _____    __    __             
                 |  |  |  | |  | |    /  \     |  _  \  |  |  /  |          
                  \  \/   | |  | |   /    \    | | | |  |  | /  /          
                 / \  \   | |__| |  /  /\  \   | |_| |  |  |/  /          
                |  |  |   |  __  | /  /__\  \  |    /   |      \           
                |  |  |   | |  | | |   __   |  |    \   |  |\   \          
                \     /   | |  | | |  |  |  |  | |\  \  |  | \   \       
                 \___/    |_|  |_| |__|  |__|  |_| \__\ |__|  \__/        
                                                                              
                      - O R C A' S   B I G   F R I E N D -                    
                                      &                                       
                       - I N T E G R A L  F E E D E R -                       
                                                                              
 v1 FN, 2020, v2 2021, v3 2022-2024                                           
------------------------------------------------------------------------------


----------------------
SHARK INTEGRAL PACKAGE
----------------------

Number of atoms                             ...     54
Number of basis functions                   ...    150
Number of shells                            ...    102
Maximum angular momentum                    ...      1
Integral batch strategy                     ... SHARK/LIBINT Hybrid
RI-J (if used) integral strategy            ... SPLIT-RIJ (Revised 2003 algorithm where possible)
Printlevel                                  ...      1
Contraction scheme used                     ... SEGMENTED contraction
Prescreening option                         ... SCHWARTZ
   Thresh                                   ... 1.000e-10
   Tcut                                     ... 1.000e-11
   Tpresel                                  ... 1.000e-11 
Coulomb Range Separation                    ... NOT USED
Exchange Range Separation                   ... NOT USED
Multipole approximations                    ... NOT USED
Finite Nucleus Model                        ... NOT USED
CABS basis                                  ... NOT available
Auxiliary Coulomb fitting basis             ... NOT available
Auxiliary J/K fitting basis                 ... NOT available
Auxiliary Correlation fitting basis         ... NOT available
Auxiliary 'external' fitting basis          ... NOT available

Checking pre-screening integrals            ... done (  0.0 sec) Dimension = 102
   => SHARK Basis and OBASIS are compatible. Storing Pre-screening
Shell pair information
Shell pair cut-off parameter TPreSel        ...   1.0e-11
Total number of shell pairs                 ...      5253
Shell pairs after pre-screening             ...      4559
Total number of primitive shell pairs       ...     47277
Primitive shell pairs kept                  ...     23650
          la=0 lb=0:   2504 shell pairs
          la=1 lb=0:   1757 shell pairs
          la=1 lb=1:    298 shell pairs

Checking whether 4 symmetric matrices of dimension 150 fit in memory
:Max Core in MB      =   2500.00
 MB in use           =      8.21
 MB left             =   2491.79
 MB needed           =      0.35
 Data fit in memory  = YES
Calculating Nuclear repulsion               ... done (  0.0 sec) ENN=   2420.209694233089 Eh
Entering conventional section               ... 
Calculating 4-index integrals               ...     -> SHARK/Ints2Disk: Thresh =     1.000000e-10 TCut=    1.000000e-11 
    -> calling libint FockFlag=2 Lmax_loc=1
    ->Total LIBINT loop time =    0.000 sec
    -> L=0 0 0 0:     0.141 sec done=   2194742 (=100.0%) skipped=         0 
    -> L=1 0 0 0:     0.296 sec done=   3328832 (=100.0%) skipped=         0 
    -> L=1 0 1 0:     0.186 sec done=   1249808 (=100.0%) skipped=         0 
    -> L=1 1 0 0:     0.102 sec done=    630556 (=100.0%) skipped=         0 
    -> L=1 1 1 0:     0.157 sec done=    463767 (=100.0%) skipped=         0 
    -> L=1 1 1 1:     0.040 sec done=     41717 (=100.0%) skipped=         0 
    ->Total SHARK integral loop time =    0.971 sec
    -> Total Integral generation matrix time =    0.982 sec
    -> Number of small integrals   =   8744426
    -> Number of medium integrals  =  13275561
    -> Number of large integrals   =  16242423
    -> Number of MB stored         =       340 MB

done (  1.0 sec)
Leaving conventional section

Diagonalization of the overlap matrix:
Smallest eigenvalue                        ... 1.696e-01
Time for diagonalization                   ...    0.004 sec
Threshold for overlap eigenvalues          ... 1.000e-07
Number of eigenvalues below threshold      ... 0
Time for construction of square roots      ...    0.001 sec
Total time needed                          ...    0.006 sec

-------------------
DFT GRID GENERATION
-------------------

General Integration Accuracy     IntAcc      ... 4.388
Radial Grid Type                 RadialGrid  ... OptM3 with GC (2021)
Angular Grid (max. ang.)         AngularGrid ... 4 (Lebedev-302)
Angular grid pruning method      GridPruning ... 4 (adaptive)
Weight generation scheme         WeightScheme... mBecke (2022)
Basis function cutoff            BFCut       ... 1.0000e-10
Integration weight cutoff        WCut        ... 1.0000e-14
Partially contracted basis set               ... off
Rotationally invariant grid construction     ... off
Angular grids for H and He will be reduced by one unit

Total number of grid points                  ...   234759
Total number of batches                      ...     3693
Average number of points per batch           ...       63
Average number of grid points per atom       ...     4347
Grids setup in   1.5 sec
Initializing property integral containers    ... done (  0.0 sec)

SHARK setup successfully completed in   2.6 seconds

Maximum memory used throughout the entire STARTUP-calculation: 49.0 MB


           ************************************************************
           *        Program running with 12 parallel MPI-processes    *
           *              working on a common directory               *
           ************************************************************
             **** ENERGY FILE WAS UPDATED (inp.en.tmp) ****
Finished Guess after   0.1 sec
Maximum memory used throughout the entire GUESS-calculation: 10.0 MB


           ************************************************************
           *        Program running with 12 parallel MPI-processes    *
           *              working on a common directory               *
           ************************************************************

 InCore treatment chosen for four center integrals:
   Memory dedicated               ...    2500 MB
   Memory needed                  ...     28 MB
   Number of tiny    integrals    ... 8744426
   Number of small   integrals    ... 13275561
   Number of regular integrals    ... 16242423

----------------------------------------D-I-I-S--------------------------------------------
Iteration    Energy (Eh)           Delta-E    RMSDP     MaxDP     DIISErr   Damp  Time(sec)
-------------------------------------------------------------------------------------------
    1    -1029.2839701464654354     0.00e+00  1.33e-02  7.40e-02  2.43e-01  0.700   0.1
    2    -1029.5752041253363132    -2.91e-01  1.12e-02  6.57e-02  1.76e-01  0.700   0.2
                               ***Turning on AO-DIIS***
    3    -1029.7874861604050238    -2.12e-01  8.68e-03  4.91e-02  1.26e-01  0.700   0.2
    4    -1029.9401256186702085    -1.53e-01  6.63e-03  3.90e-02  8.85e-02  0.700   0.2
    5    -1030.0500717353143045    -1.10e-01  1.66e-02  1.03e-01  6.20e-02  0.000   0.2
    6    -1030.3211634217241226    -2.71e-01  1.65e-03  1.40e-02  6.72e-03  0.000   0.2
    7    -1030.3218251031621548    -6.62e-04  1.13e-03  1.00e-02  3.45e-03  0.000   0.2
                              *** Initializing SOSCF ***
---------------------------------------S-O-S-C-F--------------------------------------
Iteration    Energy (Eh)           Delta-E    RMSDP     MaxDP     MaxGrad    Time(sec)
--------------------------------------------------------------------------------------
    8    -1030.3220332011596838    -2.08e-04  4.54e-04  4.01e-03  1.24e-03     0.2
    9    -1030.3220630706427983    -2.99e-05  1.18e-04  8.27e-04  3.75e-04     0.2
   10    -1030.3220663536189932    -3.28e-06  1.15e-04  7.81e-04  1.67e-04     0.2
   11    -1030.3220673645737406    -1.01e-06  1.64e-05  1.16e-04  6.17e-05     0.2
                  *** Gradient check signals convergence ***

               *****************************************************
               *                     SUCCESS                       *
               *           SCF CONVERGED AFTER  11 CYCLES          *
               *****************************************************

             **** ENERGY FILE WAS UPDATED (inp.en.tmp) ****

----------------
TOTAL SCF ENERGY
----------------

Total Energy       :      -1030.32206740302536 Eh          -28036.48880 eV

Components:
Nuclear Repulsion  :       2420.20969423308861 Eh           65857.25390 eV
Electronic Energy  :      -3450.53176163611397 Eh          -93893.74270 eV
One Electron Energy:      -6218.79825767978491 Eh         -169222.10368 eV
Two Electron Energy:       2768.26649604367094 Eh           75328.36098 eV

Virial components:
Potential Energy   :      -2058.33771946464094 Eh          -56010.21685 eV
Kinetic Energy     :       1028.01565206161581 Eh           27973.72805 eV
Virial Ratio       :          2.00224356053022

---------------
SCF CONVERGENCE
---------------

  Last Energy change         ...    1.0110e-06  Tolerance :   1.0000e-06
  Last MAX-Density change    ...    1.1564e-04  Tolerance :   1.0000e-05
  Last RMS-Density change    ...    1.6370e-05  Tolerance :   1.0000e-06
  Last DIIS Error            ...    1.2431e-03  Tolerance :   1.0000e-06
  Last Orbital Gradient      ...    6.1682e-05  Tolerance :   3.3300e-04
  Last Orbital Rotation      ...    1.1996e-04  Tolerance :   3.3300e-04


----------------
ORBITAL ENERGIES
----------------

  NO   OCC          E(Eh)            E(eV) 
   0   2.0000     -20.335472      -553.3563 
   1   2.0000     -20.331503      -553.2483 
   2   2.0000     -20.273577      -551.6721 
   3   2.0000     -11.250026      -306.1288 
   4   2.0000     -11.227363      -305.5121 
   5   2.0000     -11.226015      -305.4754 
   6   2.0000     -11.185560      -304.3746 
   7   2.0000     -11.180603      -304.2397 
   8   2.0000     -11.172884      -304.0296 
   9   2.0000     -11.167180      -303.8744 
  10   2.0000     -11.162152      -303.7376 
  11   2.0000     -11.158051      -303.6260 
  12   2.0000     -11.157504      -303.6111 
  13   2.0000     -11.157042      -303.5985 
  14   2.0000     -11.156982      -303.5969 
  15   2.0000     -11.155473      -303.5559 
  16   2.0000     -11.152991      -303.4883 
  17   2.0000     -11.151893      -303.4584 
  18   2.0000     -11.149715      -303.3992 
  19   2.0000     -11.147238      -303.3318 
  20   2.0000     -11.146862      -303.3215 
  21   2.0000     -11.144793      -303.2652 
  22   2.0000     -11.141099      -303.1647 
  23   2.0000     -11.140274      -303.1423 
  24   2.0000      -1.382188       -37.6113 
  25   2.0000      -1.357617       -36.9426 
  26   2.0000      -1.331144       -36.2223 
  27   2.0000      -1.190515       -32.3956 
  28   2.0000      -1.133816       -30.8527 
  29   2.0000      -1.110740       -30.2248 
  30   2.0000      -1.084376       -29.5074 
  31   2.0000      -1.046009       -28.4634 
  32   2.0000      -1.036943       -28.2167 
  33   2.0000      -1.011378       -27.5210 
  34   2.0000      -0.986971       -26.8569 
  35   2.0000      -0.962139       -26.1811 
  36   2.0000      -0.951866       -25.9016 
  37   2.0000      -0.928574       -25.2678 
  38   2.0000      -0.921102       -25.0645 
  39   2.0000      -0.899067       -24.4649 
  40   2.0000      -0.847828       -23.0706 
  41   2.0000      -0.834700       -22.7133 
  42   2.0000      -0.803890       -21.8750 
  43   2.0000      -0.789267       -21.4771 
  44   2.0000      -0.779384       -21.2081 
  45   2.0000      -0.751422       -20.4472 
  46   2.0000      -0.719982       -19.5917 
  47   2.0000      -0.700351       -19.0575 
  48   2.0000      -0.689197       -18.7540 
  49   2.0000      -0.670407       -18.2427 
  50   2.0000      -0.664113       -18.0714 
  51   2.0000      -0.655409       -17.8346 
  52   2.0000      -0.648732       -17.6529 
  53   2.0000      -0.636447       -17.3186 
  54   2.0000      -0.625407       -17.0182 
  55   2.0000      -0.622366       -16.9355 
  56   2.0000      -0.613657       -16.6984 
  57   2.0000      -0.602105       -16.3841 
  58   2.0000      -0.589930       -16.0528 
  59   2.0000      -0.584124       -15.8948 
  60   2.0000      -0.575651       -15.6643 
  61   2.0000      -0.568865       -15.4796 
  62   2.0000      -0.566618       -15.4185 
  63   2.0000      -0.557760       -15.1774 
  64   2.0000      -0.551775       -15.0146 
  65   2.0000      -0.550653       -14.9840 
  66   2.0000      -0.543632       -14.7930 
  67   2.0000      -0.539689       -14.6857 
  68   2.0000      -0.534606       -14.5474 
  69   2.0000      -0.531664       -14.4673 
  70   2.0000      -0.524248       -14.2655 
  71   2.0000      -0.519706       -14.1419 
  72   2.0000      -0.518154       -14.0997 
  73   2.0000      -0.505316       -13.7503 
  74   2.0000      -0.500333       -13.6148 
  75   2.0000      -0.491884       -13.3848 
  76   2.0000      -0.488262       -13.2863 
  77   2.0000      -0.479031       -13.0351 
  78   2.0000      -0.472176       -12.8486 
  79   2.0000      -0.466970       -12.7069 
  80   2.0000      -0.461069       -12.5463 
  81   2.0000      -0.447983       -12.1902 
  82   2.0000      -0.443047       -12.0559 
  83   2.0000      -0.440456       -11.9854 
  84   2.0000      -0.422057       -11.4848 
  85   2.0000      -0.410507       -11.1705 
  86   2.0000      -0.398586       -10.8461 
  87   2.0000      -0.395008       -10.7487 
  88   2.0000      -0.325430        -8.8554 
  89   2.0000      -0.266080        -7.2404 
  90   0.0000       0.199595         5.4313 
  91   0.0000       0.224010         6.0956 
  92   0.0000       0.427067        11.6211 
  93   0.0000       0.439830        11.9684 
  94   0.0000       0.446523        12.1505 
  95   0.0000       0.464533        12.6406 
  96   0.0000       0.465866        12.6769 
  97   0.0000       0.507912        13.8210 
  98   0.0000       0.521721        14.1968 
  99   0.0000       0.529930        14.4201 
 100   0.0000       0.536018        14.5858 
*Only the first 10 virtual orbitals were printed.
Total SCF time: 0 days 0 hours 0 min 2 sec 
Finished LeanSCF after   2.3 sec

Maximum memory used throughout the entire LEANSCF-calculation: 87.4 MB


-------------------------------------------------------------------------------
                          DFT DISPERSION CORRECTION                            
                                                                               
                              DFTD3 V3.1  Rev 1                                
                          USING Becke-Johnson damping                          
-------------------------------------------------------------------------------
-------------------------   ----------------
Dispersion correction           -0.315340445
-------------------------   ----------------

------------------   -----------------
gCP+bas correction        -0.051647489
------------------   -----------------
----------------------------   ----------------
Total correction to HF/MINIX       -0.366987934
----------------------------   ----------------


-------------------------   --------------------
FINAL SINGLE POINT ENERGY     -1030.689055336772
-------------------------   --------------------



           ************************************************************
           *        Program running with 12 parallel MPI-processes    *
           *              working on a common directory               *
           ************************************************************

------------------------------------------------------------------------------
                              ORCA PROPERTY CALCULATIONS
------------------------------------------------------------------------------

GBWName                                 ... inp.gbw
Number of atoms                         ...     54
Number of basis functions               ...    150
Max core memory                         ...   2500 MB

Electric properties:
Dipole moment                           ... YES
Quadrupole moment                       ...  NO
Static polarizability (Dipole/Dipole)   ...  NO
Static polarizability (Dipole/Quad.)    ...  NO
Static polarizability (Quad./Quad.)     ...  NO
Static polarizability (Velocity)        ...  NO
Static hyperpolarizability              ...  NO

Atomic electric properties:
Dipole moment                           ...  NO
Quadrupole moment                       ...  NO
Static polarizability                   ...  NO

Choice of electric origin               ... Center of mass
Position of electric origin             ...     0.011109    -0.014594    -0.001293

General magnetic properties:
Magnetizability                         ...  NO

EPR properties:
g-Tensor (aka g-matrix)                 ...  NO
Zero-Field splitting spin-orbit         ...  NO
Zero-field splitting spin-spin          ...  NO
Hyperfine couplings                     ...  NO (   0 nuclei)
Quadrupole couplings                    ...  NO (   0 nuclei)
Contact density                         ...  NO (   0 nuclei)

NMR properties:
Chemical shifts                         ...  NO (   0 nuclei)
Spin-rotation constants                 ...  NO (   0 nuclei)
Spin-spin couplings                     ...  NO (   0 nuclei,    0 pairs)

Choice of magnetic origin               ... GIAO
Position of magnetic origin             ...     0.000000     0.000000     0.000000

Properties with geometric perturbations:
SCF Hessian                             ...  NO
IR spectrum                             ...  NO
VCD spectrum                            ...  NO
X-ray spectroscopy properties:
SCF XES/XAS/RIXS spectra                ...  NO

SCF SOC stabilization energy            ...  NO
Diagonal Born-Oppenheimer correction    ...  NO

-------------
DIPOLE MOMENT
-------------

Method             : SCF
Type of density    : Electron Density
Multiplicity       :   1
Irrep              :   0
Energy             : -1030.3220674030253576 Eh
Basis              : AO
                                X                 Y                 Z
Electronic contribution:     15.367518104     -17.625260598      -3.359244643
Nuclear contribution   :    -17.330716051      18.778243281       4.084912020
                        -----------------------------------------
Total Dipole Moment    :     -1.963197947       1.152982683       0.725667377
                        -----------------------------------------
Magnitude (a.u.)       :      2.389583309
Magnitude (Debye)      :      6.073838075



--------------------
Rotational spectrum 
--------------------
 
Rotational constants in cm-1:             0.011927             0.008334             0.006396 
Rotational constants in MHz :           357.555899           249.840532           191.760694 

Dipole components along the rotational axes: 
x,y,z [a.u.] :    -1.976510     1.127537     0.729506 
x,y,z [Debye]:    -5.023889     2.865970     1.854257 

 

Dipole moment calculation done in   0.0 sec 

Maximum memory used throughout the entire PROP-calculation: 9.1 MB

--------------------------------
SUGGESTED CITATIONS FOR THIS RUN
--------------------------------

Below you find a list of papers that are relevant to this ORCA run
We neither can nor want to force you to cite these papers, but we appreciate if you do
You receive ORCA, which is the product of decades of hard work by many enthusiastic individuals, for free
The only thing we kindly ask in return is that you cite our papers,
We deeply appreciate it, if you show your appreciation for ORCA by not just citing the generic ORCA reference.

Please note that relegating all ORCA citations to the supporting information does *not* help us.
SI sections are not indexed - citations you put there will not count into any citation statistics
But we need these citations in order to attract the funding resources that allow us to do what we are doing

Therefore, if you are a happy ORCA user, please consider citing a few of the papers listed below in the main body of your paper

In addition to the list printed below, the program has created the file inp.bibtex that contains the list in bibtex format
You can import this file easily into all common literature databanks and citation aid programs

It goes without saying that in many instances, there are alternative algorithms to achieve similar
results as the ones you have gotten from ORCA. It is, of course, also the case that in some instances
ORCA just re-implements algorithms worked out by others. We are fully aware of that and we are also
fully appreciative of our colleagues work. Hence this citation list should not be read as indicating
that the listed papers, which are focused on our own work, are the only ones worth citing. It simply
meant to make it easier for users to cite ORCA specific papers. It is not a substitute for doing your
own literature research and citing the relevant literature in a scientifically appropriate manner.

List of essential papers. We consider these as the minimum necessary citations

  1. Neese, F.
     Software update: the ORCA program system, version 6.0
     WIRES Comput. Molec. Sci. 2025 15(1), e70019
     doi.org/10.1002/wcms.70019

List of papers to cite with high priority. The work reported in these papers was absolutely
necessary for this run to complete.
Our perspective: the developers of density functionals and basis sets usually get cited in chemistry papers
Good! But without the algorithms to do something with them, the functionals or basis sets would not do anything.
Hence, in our opinion, the algorithm design and method developments papers are equally worthy of getting cited

  1. Grimme, S.; Antony, J.; Ehrlich, S.; Krieg, H.
     A consistent and accurate ab initio parametrization of density functional dispersion correction (DFT-D) for the 94 elements H-Pu
     J. Chem. Phys. 2010 132 , 154104
     doi.org/10.1063/1.3382344
  2. Grimme, S.; Ehrlich, S.; Goerigk, L.
     Effect of the damping function in dispersion corrected density functional theory
     J. Comput. Chem. 2011 32(7), 1456-1465
     doi.org/10.1002/jcc.21759
  3. Neese, F.
     The SHARK Integral Generation and Digestion System
     J. Comp. Chem. 2022 44(3), 381
     doi.org/10.1002/jcc.26942

List of suggested additional citations. These are papers that are important in the 'surrounding' of 
of this run, or papers that preceded the highly important papers. If you like your results we are grateful for a citation.

  1. Neese, F.
     The ORCA program system
     WIRES Comput. Molec. Sci. 2012 2(1), 73-78
     doi.org/10.1002/wcms.81
  2. Neese, F.
     Software update: the ORCA program system, version 4.0
     WIRES Comput. Molec. Sci. 2018 8(1), 1-6
     doi.org/10.1002/wcms.1327
  3. Neese, F.; Wennmohs, F.; Becker, U.; Riplinger, C.
     The ORCA quantum chemistry program package
     J. Chem. Phys. 2020 152(22), 224108
     doi.org/10.1063/5.0004608
  4. Neese, F.
     Software update: The ORCA program system—Version 5.0
     WIRES Comput. Molec. Sci. 2022 12(1), e1606
     doi.org/10.1002/wcms.1606

List of optional additional citations

  1. Neese, F.
     Approximate second-order SCF convergence for spin unrestricted wavefunctions
     Chem. Phys. Lett. 2000 325(1-3), 93-98
     doi.org/10.1016/s0009-2614(00)00662-x

Timings for individual modules:

Sum of individual times          ...        5.755 sec (=   0.096 min)
Startup calculation              ...        2.738 sec (=   0.046 min)  47.6 %
SCF iterations                   ...        2.758 sec (=   0.046 min)  47.9 %
Property calculations            ...        0.259 sec (=   0.004 min)   4.5 %
                             ****ORCA TERMINATED NORMALLY****
TOTAL RUN TIME: 0 days 0 hours 0 minutes 6 seconds 159 msec
