 Entering Gaussian System
 *********************************************
 Gaussian 98:
 frequency output generated by the xtb code
 *********************************************
                         Standard orientation:
 --------------------------------------------------------------------
  Center     Atomic     Atomic              Coordinates (Angstroms)
  Number     Number      Type              X           Y           Z
 --------------------------------------------------------------------
    1          6             0       -0.288416   -0.518357   -2.801797
    2          6             0        0.784489    0.527062   -2.483617
    3          6             0       -2.576200    3.023167    0.686271
    4          6             0       -3.616773    2.559573   -0.101797
    5          6             0       -3.490778    1.348467   -0.745799
    6          6             0       -2.333189    0.576573   -0.609233
    7          6             0       -1.290704    1.018931    0.214150
    8          6             0       -1.438037    2.251742    0.838960
    9          7             0       -2.250010   -0.632734   -1.248962
   10          6             0       -0.964267   -1.183373   -1.573009
   11          6             0       -0.039243   -1.172373   -0.330581
   12          6             0       -0.049786    0.180115    0.451352
   13          6             0        1.387264   -1.323715   -0.886044
   14          6             0        1.688541    0.128410   -1.294157
   15          6             0        1.225926    0.863319   -0.053127
   16          6             0        3.127147    0.491566   -1.524239
   17          6             0        3.826416    1.240447   -0.681016
   18          6             0        3.318911    1.703954    0.661063
   19          7             0        2.249386    0.762347    1.049903
   20          6             0        1.404312    1.044055    2.228417
   21          6             0        0.239654    0.076676    1.977218
   22          8             0        2.836056   -0.436079    1.261250
   23          1             0        1.079538    1.929904   -0.229021
   24          6             0       -0.483490   -2.349126    0.509420
   25          8             0        0.029612   -3.445377    0.488126
   26          8             0       -1.568825   -2.065254    1.224451
   27          6             0       -2.130679   -3.123493    1.999462
   28          1             0        0.158698   -1.305565   -3.409288
   29          1             0       -1.066900   -0.049656   -3.407735
   30          1             0        1.396646    0.668484   -3.376311
   31          1             0        0.308345    1.484304   -2.262786
   32          1             0       -2.651557    3.976877    1.186522
   33          1             0       -4.516390    3.145311   -0.220457
   34          1             0       -4.290358    0.977429   -1.371606
   35          1             0       -0.651932    2.630788    1.471157
   36          1             0       -2.978736   -0.814544   -1.923371
   37          1             0       -1.134694   -2.237843   -1.831235
   38          1             0        2.076611   -1.628799   -0.098831
   39          1             0        1.442346   -2.039527   -1.700720
   40          1             0        3.577396    0.135547   -2.439147
   41          1             0        4.851546    1.500503   -0.899108
   42          1             0        2.949795    2.733525    0.633329
   43          1             0        4.116456    1.619393    1.402170
   44          1             0        1.964483    0.793543    3.128251
   45          1             0        1.104181    2.090948    2.245460
   46          1             0       -0.635699    0.309764    2.578345
   47          1             0        0.593423   -0.924791    2.222804
   48          1             0       -2.991363   -2.694095    2.504219
   49          1             0       -2.430666   -3.947277    1.349585
   50          1             0       -1.399057   -3.492333    2.720442
 --------------------------------------------------------------------
     1 basis functions        1 primitive gaussians
     1 alpha electrons        1 beta electrons
 
 Harmonic frequencies (cm**-1), IR intensities (km*mol⁻¹),
 Raman scattering activities (A**4/amu), Raman depolarization ratios,
 reduced masses (AMU), force constants (mDyne/A) and normal coordinates:
                      1                      2                      3
                        a                      a                      a 
 Frequencies --    41.3168                48.2260                56.8142
 Red. masses --     3.8993                 9.6104                13.0835
 Frc consts  --     0.0000                 0.0000                 0.0000
 IR Inten    --     1.1854                 1.1545                 3.9413
 Raman Activ --     0.0000                 0.0000                 0.0000
 Depolar     --     0.0000                 0.0000                 0.0000
 Atom AN      X      Y      Z        X      Y      Z        X      Y      Z
   1   6    -0.02   0.03   0.01     0.13  -0.09  -0.06    -0.09   0.00   0.05
   2   6    -0.01   0.02   0.02     0.11  -0.07  -0.05    -0.10   0.02   0.03
   3   6     0.03   0.05  -0.10    -0.14  -0.18   0.24     0.10   0.10  -0.09
   4   6     0.03   0.05  -0.09    -0.12  -0.18   0.21     0.08   0.09  -0.06
   5   6     0.01   0.03  -0.05    -0.03  -0.10   0.09     0.02   0.05   0.01
   6   6    -0.01   0.01  -0.01     0.03  -0.03  -0.01    -0.01   0.01   0.04
   7   6    -0.01   0.01  -0.02     0.01  -0.03   0.03     0.01   0.02   0.01
   8   6     0.01   0.03  -0.06    -0.07  -0.10   0.14     0.07   0.05  -0.05
   9   7    -0.02  -0.02   0.02     0.09   0.04  -0.12    -0.05  -0.02   0.11
  10   6    -0.01   0.00   0.01     0.07  -0.01  -0.05    -0.05  -0.02   0.06
  11   6    -0.01   0.00   0.01     0.03   0.00  -0.02    -0.00  -0.01   0.02
  12   6    -0.02   0.00   0.01     0.04   0.00  -0.03    -0.00  -0.00   0.02
  13   6    -0.01   0.01   0.00     0.05  -0.03   0.04    -0.02   0.02  -0.02
  14   6    -0.01   0.01   0.01     0.06  -0.04  -0.01    -0.04   0.02  -0.01
  15   6    -0.01   0.00   0.02     0.04   0.01  -0.05    -0.01  -0.00   0.02
  16   6    -0.01   0.01   0.02     0.07  -0.05   0.00    -0.06   0.05  -0.04
  17   6    -0.01  -0.01   0.03     0.05   0.02  -0.04    -0.04   0.02  -0.03
  18   6    -0.01  -0.02   0.03     0.02   0.07  -0.07    -0.00  -0.02  -0.00
  19   7    -0.02  -0.01   0.03     0.05   0.06  -0.05     0.00  -0.03  -0.00
  20   6    -0.03   0.01   0.02     0.04   0.04  -0.04     0.02  -0.05   0.02
  21   6    -0.04   0.02   0.01     0.08  -0.01  -0.03    -0.01  -0.02   0.02
  22   8    -0.05  -0.02   0.04     0.10   0.09  -0.03     0.01  -0.03  -0.03
  23   1    -0.00   0.00   0.01     0.01  -0.00  -0.02    -0.00   0.00   0.01
  24   6     0.00  -0.03  -0.03    -0.07   0.06   0.01     0.08   0.00   0.08
  25   8    -0.08  -0.07  -0.23    -0.12   0.05   0.19     0.44   0.16   0.48
  26   8     0.14  -0.03   0.17    -0.16   0.19  -0.14    -0.20  -0.18  -0.29
  27   6     0.17  -0.07   0.12    -0.30   0.25  -0.12    -0.14  -0.19  -0.27
  28   1    -0.01   0.01  -0.00     0.05  -0.04   0.00    -0.03   0.00   0.01
  29   1    -0.01   0.01   0.01     0.04  -0.04  -0.03    -0.03  -0.00   0.02
  30   1    -0.00   0.01   0.00     0.04  -0.03  -0.01    -0.04   0.01   0.00
  31   1    -0.00   0.01   0.01     0.03  -0.02  -0.03    -0.03   0.00   0.02
  32   1     0.01   0.02  -0.04    -0.06  -0.07   0.10     0.04   0.04  -0.04
  33   1     0.01   0.02  -0.04    -0.05  -0.07   0.08     0.03   0.04  -0.03
  34   1     0.00   0.01  -0.02    -0.00  -0.03   0.02    -0.00   0.01   0.01
  35   1     0.00   0.01  -0.02    -0.03  -0.03   0.05     0.03   0.02  -0.02
  36   1    -0.00  -0.00   0.00     0.03   0.01  -0.04    -0.02  -0.01   0.04
  37   1     0.00   0.00  -0.00     0.01  -0.00  -0.00    -0.02  -0.00   0.02
  38   1    -0.00   0.00  -0.00     0.01   0.00   0.02     0.00   0.00  -0.01
  39   1    -0.00   0.00  -0.00     0.02  -0.02   0.02    -0.01   0.01  -0.01
  40   1    -0.00   0.00   0.00     0.02  -0.03   0.01    -0.02   0.02  -0.02
  41   1    -0.00  -0.00   0.01     0.01   0.01  -0.01    -0.01   0.01  -0.02
  42   1    -0.00  -0.00   0.01    -0.00   0.02  -0.03    -0.00  -0.00   0.01
  43   1    -0.00  -0.01   0.01     0.00   0.04  -0.02     0.00  -0.01  -0.01
  44   1    -0.01   0.00   0.01     0.02   0.02  -0.01     0.01  -0.02   0.00
  45   1    -0.00   0.00   0.00     0.00   0.01  -0.02     0.01  -0.01   0.01
  46   1    -0.01   0.01  -0.00     0.02  -0.01  -0.00    -0.00   0.00   0.00
  47   1    -0.01   0.01   0.01     0.04   0.00  -0.02    -0.01  -0.01   0.00
  48   1     0.34   0.09   0.43     0.05   0.16   0.12     0.05  -0.03   0.05
  49   1    -0.40   0.19  -0.03    -0.31   0.17  -0.06    -0.17   0.01  -0.10
  50   1     0.22  -0.36  -0.31    -0.04  -0.10  -0.18     0.01  -0.16  -0.19
                      4                      5                      6
                        a                      a                      a 
 Frequencies --    69.6845                81.8592                92.8836
 Red. masses --    10.4265                11.1079                10.5414
 Frc consts  --     0.0000                 0.0000                 0.0000
 IR Inten    --     0.9490                 0.5066                 3.2643
 Raman Activ --     0.0000                 0.0000                 0.0000
 Depolar     --     0.0000                 0.0000                 0.0000
 Atom AN      X      Y      Z        X      Y      Z        X      Y      Z
   1   6     0.07  -0.23  -0.00     0.06  -0.00  -0.10    -0.07   0.12   0.01
   2   6    -0.07  -0.10   0.01     0.01   0.03  -0.04    -0.13   0.16   0.08
   3   6     0.06  -0.01   0.13    -0.11  -0.08   0.18     0.10  -0.04  -0.14
   4   6     0.19   0.20  -0.16    -0.04   0.04   0.01     0.10  -0.03  -0.16
   5   6     0.20   0.24  -0.25     0.02   0.13  -0.14     0.06  -0.09  -0.07
   6   6     0.08   0.10  -0.07    -0.00   0.10  -0.13     0.02  -0.13   0.02
   7   6    -0.01  -0.05   0.13    -0.05   0.01  -0.02     0.02  -0.12   0.01
   8   6    -0.04  -0.12   0.26    -0.11  -0.09   0.15     0.05  -0.09  -0.05
   9   7     0.03   0.10  -0.08    -0.00   0.15  -0.22    -0.00  -0.18   0.08
  10   6    -0.01  -0.06   0.03    -0.02   0.05  -0.12     0.03  -0.04  -0.03
  11   6    -0.03  -0.06   0.05    -0.06   0.01  -0.10     0.06  -0.06  -0.05
  12   6    -0.02  -0.07   0.08    -0.05  -0.01  -0.06     0.02  -0.10   0.02
  13   6    -0.01  -0.03   0.08    -0.05   0.00  -0.07     0.05   0.04  -0.11
  14   6    -0.06  -0.03   0.03    -0.02   0.00  -0.03    -0.04   0.09  -0.01
  15   6    -0.07  -0.02   0.02    -0.03  -0.02  -0.02    -0.01  -0.03   0.07
  16   6    -0.09   0.07  -0.02     0.00  -0.04   0.01    -0.08   0.23  -0.05
  17   6    -0.14   0.19  -0.09     0.02  -0.11   0.05    -0.10   0.20  -0.00
  18   6    -0.13   0.19  -0.09     0.00  -0.12   0.05    -0.04  -0.01   0.09
  19   7    -0.01   0.08  -0.03    -0.05  -0.09  -0.00     0.02  -0.10   0.04
  20   6     0.03  -0.04   0.02    -0.06  -0.08  -0.01     0.03  -0.22   0.08
  21   6     0.08  -0.11   0.05    -0.06  -0.07  -0.05     0.03  -0.19   0.01
  22   8     0.16   0.16  -0.09    -0.11  -0.13  -0.02     0.08  -0.10  -0.10
  23   1    -0.04  -0.01  -0.00     0.00  -0.00   0.00    -0.01  -0.01   0.05
  24   6    -0.04  -0.08   0.02     0.04   0.05   0.01     0.00   0.00  -0.00
  25   8    -0.09  -0.11  -0.04     0.28   0.16   0.29    -0.10  -0.05   0.13
  26   8    -0.03  -0.09   0.06    -0.02  -0.00  -0.06     0.02   0.22  -0.05
  27   6    -0.05  -0.11  -0.01     0.32   0.11   0.34    -0.09   0.40   0.15
  28   1     0.06  -0.08   0.05     0.03  -0.00  -0.01    -0.01   0.06  -0.03
  29   1     0.03  -0.11  -0.05     0.03  -0.01  -0.05    -0.04   0.04   0.03
  30   1    -0.02  -0.00   0.01     0.01   0.02  -0.01    -0.05   0.09   0.02
  31   1    -0.06  -0.05   0.00    -0.01   0.00  -0.01    -0.05   0.03   0.06
  32   1     0.01  -0.02   0.07    -0.05  -0.05   0.09     0.04  -0.00  -0.06
  33   1     0.08   0.09  -0.09    -0.01   0.02   0.00     0.04   0.00  -0.07
  34   1     0.08   0.11  -0.13     0.02   0.06  -0.07     0.02  -0.02  -0.02
  35   1    -0.04  -0.07   0.13    -0.05  -0.05   0.08     0.01  -0.03  -0.01
  36   1     0.02   0.06  -0.05     0.01   0.06  -0.08    -0.00  -0.05   0.02
  37   1    -0.03  -0.02   0.03    -0.02   0.02  -0.03     0.03  -0.01  -0.03
  38   1    -0.00   0.01   0.03    -0.02  -0.01  -0.02     0.03   0.00  -0.05
  39   1     0.01  -0.02   0.04    -0.01   0.00  -0.02     0.01   0.03  -0.05
  40   1    -0.02   0.02  -0.00     0.00  -0.01   0.00    -0.03   0.11  -0.04
  41   1    -0.05   0.08  -0.04     0.01  -0.04   0.02    -0.04   0.09  -0.01
  42   1    -0.07   0.04  -0.03     0.01  -0.03   0.02    -0.02  -0.01   0.07
  43   1    -0.03   0.09  -0.03    -0.01  -0.05   0.02     0.00  -0.02   0.01
  44   1     0.03  -0.01  -0.00    -0.02  -0.03  -0.00     0.01  -0.09   0.01
  45   1    -0.01  -0.02   0.02    -0.01  -0.02  -0.00     0.01  -0.06   0.05
  46   1     0.03  -0.06   0.03    -0.02  -0.03  -0.01     0.01  -0.06   0.01
  47   1     0.05  -0.03  -0.00    -0.01  -0.02  -0.03     0.01  -0.06  -0.01
  48   1    -0.02  -0.04  -0.01     0.12   0.04   0.14    -0.00   0.18   0.03
  49   1    -0.01  -0.03  -0.01     0.06  -0.02   0.18    -0.07   0.10   0.09
  50   1    -0.03  -0.04   0.00     0.17   0.10   0.06    -0.03   0.12   0.05
                      7                      8                      9
                        a                      a                      a 
 Frequencies --   125.5867               147.2133               188.1516
 Red. masses --     9.9968                 8.8066                11.6643
 Frc consts  --     0.0000                 0.0000                 0.0000
 IR Inten    --     3.6848                 0.7868                 2.2483
 Raman Activ --     0.0000                 0.0000                 0.0000
 Depolar     --     0.0000                 0.0000                 0.0000
 Atom AN      X      Y      Z        X      Y      Z        X      Y      Z
   1   6     0.02   0.01  -0.05     0.20  -0.39  -0.06    -0.10  -0.09  -0.00
   2   6     0.21  -0.16  -0.10    -0.23  -0.02   0.07     0.04  -0.16  -0.16
   3   6     0.22   0.11  -0.06     0.08   0.07  -0.02     0.12  -0.03   0.18
   4   6     0.06   0.04   0.20    -0.04  -0.05   0.20     0.13   0.08   0.09
   5   6    -0.07   0.00   0.24    -0.05  -0.03   0.15     0.07   0.12   0.00
   6   6    -0.04   0.02   0.05     0.04   0.06  -0.06     0.01   0.02   0.01
   7   6     0.04   0.00  -0.05     0.06   0.08  -0.10     0.03  -0.03  -0.01
   8   6     0.20   0.07  -0.15     0.12   0.12  -0.16     0.09  -0.08   0.09
   9   7    -0.03   0.08  -0.06     0.09   0.16  -0.20    -0.03  -0.05   0.12
  10   6    -0.05   0.03  -0.07     0.02  -0.09  -0.02    -0.04  -0.07   0.05
  11   6    -0.05  -0.06  -0.07     0.01   0.01   0.00     0.09  -0.06  -0.05
  12   6    -0.03  -0.08  -0.06    -0.00   0.03  -0.03    -0.00  -0.05  -0.07
  13   6    -0.01  -0.10   0.01     0.04   0.04   0.05     0.07  -0.01  -0.12
  14   6     0.07  -0.11   0.03    -0.05   0.05  -0.02     0.01  -0.00  -0.08
  15   6    -0.04  -0.07  -0.04     0.02  -0.00   0.03    -0.06  -0.00  -0.09
  16   6     0.07  -0.01   0.15    -0.11   0.20  -0.11    -0.00   0.10  -0.02
  17   6    -0.10   0.21   0.09    -0.09   0.11  -0.05    -0.04   0.04   0.08
  18   6    -0.23   0.23   0.04     0.04  -0.12   0.08    -0.07  -0.06   0.09
  19   7    -0.09   0.06  -0.00     0.01  -0.09   0.06    -0.17   0.02  -0.01
  20   6    -0.12  -0.11   0.01    -0.02  -0.04   0.03    -0.20   0.14  -0.07
  21   6    -0.06  -0.15  -0.07    -0.09   0.05  -0.01    -0.10   0.04  -0.04
  22   8     0.10   0.14  -0.08    -0.05  -0.11   0.11    -0.37  -0.04   0.13
  23   1    -0.03  -0.03  -0.04     0.02   0.00   0.03    -0.02  -0.00  -0.03
  24   6    -0.07  -0.06  -0.06     0.02   0.01   0.00     0.21  -0.05   0.01
  25   8    -0.01  -0.03   0.04    -0.02  -0.01  -0.04     0.17  -0.09  -0.02
  26   8    -0.11  -0.07  -0.11     0.03   0.02   0.02     0.33   0.11   0.06
  27   6     0.10   0.02   0.16     0.01   0.00  -0.01    -0.11   0.18  -0.13
  28   1    -0.03  -0.01  -0.03     0.18  -0.14   0.10    -0.07  -0.04  -0.02
  29   1     0.02   0.04  -0.00     0.08  -0.23  -0.14    -0.04  -0.01   0.03
  30   1     0.09  -0.12  -0.02    -0.09   0.12   0.02     0.02  -0.13  -0.05
  31   1     0.11  -0.01  -0.09    -0.18  -0.08   0.08     0.05  -0.01  -0.11
  32   1     0.10   0.05  -0.04     0.03   0.03  -0.02     0.04  -0.02   0.08
  33   1     0.01   0.01   0.10    -0.04  -0.04   0.11     0.05   0.04   0.03
  34   1    -0.05  -0.00   0.12    -0.04  -0.02   0.08     0.02   0.06  -0.01
  35   1     0.09   0.03  -0.09     0.06   0.05  -0.08     0.03  -0.04   0.03
  36   1    -0.02   0.02  -0.00     0.02   0.03  -0.04    -0.01  -0.02   0.04
  37   1    -0.03   0.01  -0.03    -0.03  -0.03   0.04    -0.02  -0.02   0.02
  38   1    -0.02  -0.03   0.02     0.01   0.04   0.03     0.03  -0.01  -0.04
  39   1     0.01  -0.03   0.00     0.04  -0.01   0.03     0.01   0.01  -0.05
  40   1     0.06  -0.02   0.06    -0.05   0.12  -0.07     0.01   0.06  -0.01
  41   1    -0.03   0.09   0.04    -0.04   0.07  -0.04    -0.01   0.02   0.03
  42   1    -0.12   0.05  -0.01     0.04  -0.02   0.09     0.00  -0.01   0.04
  43   1    -0.07   0.12   0.02     0.03  -0.09  -0.00    -0.03  -0.05   0.03
  44   1    -0.03  -0.05  -0.00    -0.02  -0.03   0.01    -0.06   0.08  -0.01
  45   1    -0.05  -0.04   0.03     0.01  -0.01   0.01    -0.06   0.04  -0.06
  46   1    -0.03  -0.07  -0.02    -0.03   0.04  -0.02    -0.05   0.00  -0.04
  47   1    -0.01  -0.04  -0.03    -0.06   0.01   0.01    -0.01   0.03   0.01
  48   1     0.04   0.01   0.07    -0.00  -0.00  -0.01    -0.03   0.10  -0.09
  49   1     0.01  -0.03   0.10     0.00   0.00  -0.01    -0.05   0.09  -0.07
  50   1     0.07   0.05   0.03    -0.00  -0.00  -0.00    -0.10  -0.01   0.00
                     10                     11                     12
                        a                      a                      a 
 Frequencies --   196.5526               218.4681               231.4706
 Red. masses --    10.4916                10.8760                11.1142
 Frc consts  --     0.0000                 0.0000                 0.0000
 IR Inten    --     0.6712                 8.4353                 4.2821
 Raman Activ --     0.0000                 0.0000                 0.0000
 Depolar     --     0.0000                 0.0000                 0.0000
 Atom AN      X      Y      Z        X      Y      Z        X      Y      Z
   1   6     0.04   0.01  -0.03     0.07  -0.08  -0.04     0.01  -0.27   0.01
   2   6    -0.21   0.19   0.13    -0.09   0.07   0.01     0.04  -0.23  -0.13
   3   6     0.17   0.00  -0.02     0.01   0.07  -0.10    -0.12   0.14  -0.13
   4   6     0.13   0.01   0.04    -0.04   0.03  -0.01    -0.08   0.09  -0.16
   5   6     0.04  -0.03   0.10    -0.09  -0.02   0.07    -0.09  -0.05   0.10
   6   6     0.02  -0.07   0.05    -0.06   0.00   0.01    -0.07  -0.00   0.20
   7   6     0.01  -0.11   0.06    -0.07  -0.02   0.04    -0.09   0.05   0.21
   8   6     0.10  -0.08   0.03    -0.03   0.02  -0.03    -0.18   0.09   0.14
   9   7     0.02  -0.03  -0.04    -0.02   0.07  -0.11     0.00   0.04   0.17
  10   6     0.02  -0.02  -0.06    -0.03   0.00  -0.03    -0.04  -0.02   0.10
  11   6     0.02  -0.06  -0.05    -0.02   0.03  -0.04     0.04   0.08   0.01
  12   6     0.01  -0.09   0.04    -0.05  -0.01  -0.01    -0.02   0.06   0.07
  13   6     0.02   0.04  -0.01    -0.04   0.07  -0.04     0.04   0.07   0.05
  14   6    -0.08   0.07  -0.00    -0.06   0.08  -0.00     0.00   0.04  -0.00
  15   6    -0.05   0.02   0.03    -0.08   0.05   0.01    -0.03   0.07  -0.00
  16   6    -0.04  -0.16  -0.01     0.02  -0.16   0.12     0.01   0.05   0.03
  17   6     0.06  -0.29   0.01     0.08  -0.26   0.16     0.07  -0.05   0.08
  18   6    -0.04   0.07  -0.14    -0.12   0.10  -0.03     0.07  -0.06   0.08
  19   7    -0.07   0.17   0.03    -0.05   0.03  -0.03     0.02  -0.01  -0.01
  20   6    -0.11   0.22  -0.02    -0.01  -0.21   0.06     0.06  -0.07   0.04
  21   6     0.04   0.00   0.04     0.02  -0.20  -0.03     0.09  -0.09   0.04
  22   8    -0.09   0.20   0.24     0.11   0.07  -0.23     0.01  -0.04  -0.08
  23   1    -0.04   0.00   0.01    -0.03   0.01   0.01    -0.00   0.02   0.00
  24   6     0.00  -0.11  -0.13     0.14   0.07   0.08     0.06  -0.00  -0.15
  25   8     0.03  -0.11  -0.08     0.16   0.08   0.04     0.11   0.02  -0.27
  26   8    -0.08  -0.09  -0.30     0.32   0.16   0.30    -0.04  -0.02  -0.36
  27   6     0.02   0.13   0.08    -0.08   0.04  -0.15     0.06   0.19   0.02
  28   1     0.08   0.02   0.02     0.07  -0.03   0.03     0.00  -0.12   0.05
  29   1     0.01  -0.05  -0.04     0.03  -0.07  -0.06     0.02  -0.10  -0.04
  30   1    -0.09   0.17   0.04    -0.03   0.07   0.01     0.03  -0.13  -0.04
  31   1    -0.13   0.00   0.12    -0.07  -0.01   0.03     0.02  -0.05  -0.11
  32   1     0.07   0.01  -0.02     0.02   0.04  -0.06    -0.03   0.07  -0.09
  33   1     0.05   0.02   0.01    -0.01   0.01  -0.00    -0.01   0.04  -0.10
  34   1    -0.00  -0.00   0.04    -0.03  -0.01   0.03    -0.02  -0.04   0.03
  35   1     0.03  -0.03   0.00    -0.00   0.00  -0.01    -0.07   0.04   0.06
  36   1     0.00   0.00  -0.01     0.00   0.03  -0.04    -0.02  -0.01   0.07
  37   1     0.01  -0.00  -0.03    -0.02  -0.00   0.00    -0.03  -0.01   0.06
  38   1     0.01   0.04   0.00    -0.01   0.02  -0.02     0.00   0.02   0.02
  39   1     0.03   0.01   0.00    -0.00   0.02  -0.01     0.02   0.01   0.02
  40   1    -0.01  -0.11   0.02     0.03  -0.13   0.08     0.00   0.02   0.01
  41   1     0.05  -0.17   0.03     0.06  -0.17   0.10     0.03  -0.04   0.03
  42   1    -0.02   0.02  -0.14    -0.07   0.01  -0.11     0.04  -0.01   0.03
  43   1    -0.03   0.09  -0.02    -0.07   0.11   0.03     0.01  -0.04   0.03
  44   1    -0.03   0.11   0.01     0.02  -0.10  -0.00     0.03  -0.02   0.00
  45   1    -0.07   0.05  -0.04    -0.01  -0.07   0.08     0.00  -0.02   0.02
  46   1     0.00  -0.03   0.01     0.01  -0.10   0.01     0.04  -0.05   0.04
  47   1     0.06   0.02   0.02     0.02  -0.06  -0.06     0.04  -0.03  -0.03
  48   1     0.03   0.08   0.03    -0.05   0.01  -0.08     0.04   0.10   0.01
  49   1    -0.03  -0.01   0.10    -0.01   0.08  -0.13    -0.02   0.01   0.08
  50   1     0.04   0.09   0.02    -0.10  -0.08  -0.01     0.05   0.11   0.00
                     13                     14                     15
                        a                      a                      a 
 Frequencies --   249.5600               262.0589               273.8193
 Red. masses --    11.1651                10.9398                11.4611
 Frc consts  --     0.0000                 0.0000                 0.0000
 IR Inten    --    19.3808                 0.5784                18.7030
 Raman Activ --     0.0000                 0.0000                 0.0000
 Depolar     --     0.0000                 0.0000                 0.0000
 Atom AN      X      Y      Z        X      Y      Z        X      Y      Z
   1   6    -0.10   0.02   0.11     0.14   0.16  -0.03    -0.07   0.06  -0.02
   2   6    -0.08  -0.01   0.13     0.17   0.09  -0.00    -0.02  -0.04   0.08
   3   6    -0.16  -0.04   0.13     0.00   0.10  -0.17    -0.09   0.05  -0.06
   4   6    -0.15  -0.02   0.09    -0.06   0.05  -0.06    -0.09   0.06  -0.06
   5   6     0.02   0.14  -0.19    -0.13  -0.06   0.14    -0.07   0.01   0.03
   6   6     0.02   0.14  -0.14    -0.06   0.01   0.06    -0.04   0.05   0.04
   7   6     0.05   0.15  -0.18    -0.09  -0.06   0.14    -0.01   0.03   0.03
   8   6     0.00   0.13  -0.15    -0.10  -0.02   0.07    -0.09   0.04   0.02
   9   7    -0.06   0.01   0.12     0.07   0.21  -0.25    -0.07   0.07   0.00
  10   6    -0.07  -0.03   0.08     0.07   0.13  -0.06    -0.09   0.03  -0.06
  11   6     0.01  -0.04   0.02    -0.03  -0.07   0.05    -0.05   0.00  -0.10
  12   6    -0.02   0.03  -0.03    -0.04  -0.06   0.12     0.01  -0.03  -0.06
  13   6     0.00  -0.04   0.04    -0.04  -0.06  -0.00     0.00  -0.10   0.06
  14   6     0.02  -0.06   0.04     0.00  -0.06   0.04     0.05  -0.15   0.00
  15   6     0.05  -0.07   0.05    -0.05  -0.07   0.03     0.11  -0.14   0.02
  16   6     0.02  -0.09   0.03    -0.03  -0.03  -0.04    -0.01  -0.05  -0.11
  17   6    -0.02  -0.02  -0.00    -0.07   0.13  -0.16    -0.09   0.07  -0.15
  18   6    -0.06   0.08  -0.04     0.01  -0.06  -0.08     0.03  -0.05  -0.05
  19   7     0.07  -0.06   0.05     0.00  -0.05  -0.04     0.09  -0.06   0.12
  20   6     0.04  -0.11   0.05     0.08   0.09  -0.02    -0.15   0.03  -0.06
  21   6    -0.14   0.11  -0.01     0.03   0.11   0.13     0.13  -0.29  -0.12
  22   8     0.29   0.04   0.01    -0.10  -0.10  -0.03     0.22   0.05   0.53
  23   1     0.03  -0.02   0.01    -0.02  -0.02   0.01     0.05  -0.04  -0.00
  24   6     0.13  -0.16  -0.06     0.09  -0.20   0.02     0.02   0.07  -0.03
  25   8     0.24  -0.14  -0.18     0.22  -0.18  -0.00     0.09   0.11  -0.02
  26   8     0.13  -0.15  -0.15     0.16  -0.20   0.09     0.12   0.12   0.07
  27   6    -0.15   0.18   0.09    -0.25   0.06   0.13     0.04   0.04  -0.09
  28   1    -0.04   0.01   0.02     0.03   0.05  -0.02    -0.03   0.02  -0.02
  29   1    -0.03   0.02   0.04     0.04   0.06  -0.01    -0.01   0.05   0.00
  30   1    -0.04   0.02   0.03     0.07   0.01   0.01    -0.01   0.02   0.02
  31   1    -0.02  -0.01   0.07     0.07   0.04  -0.01     0.01  -0.01   0.06
  32   1    -0.08  -0.05   0.10     0.03   0.06  -0.11    -0.02   0.02  -0.03
  33   1    -0.07  -0.04   0.08    -0.01   0.03  -0.04    -0.02   0.02  -0.03
  34   1     0.02   0.05  -0.07    -0.04  -0.04   0.06    -0.02  -0.01   0.01
  35   1     0.01   0.05  -0.06    -0.04  -0.00   0.03    -0.04   0.02   0.02
  36   1    -0.03  -0.03   0.05     0.04   0.08  -0.10    -0.03   0.03   0.01
  37   1    -0.03  -0.00   0.02     0.01   0.05  -0.04    -0.04   0.01  -0.02
  38   1    -0.00  -0.01   0.02    -0.01  -0.03  -0.01    -0.03  -0.00   0.06
  39   1     0.00  -0.02   0.01    -0.03  -0.01  -0.01     0.02  -0.06   0.04
  40   1     0.01  -0.05   0.02    -0.03   0.00  -0.03    -0.01   0.02  -0.05
  41   1    -0.00  -0.01   0.00    -0.04   0.09  -0.08    -0.05   0.08  -0.07
  42   1    -0.06   0.01  -0.04     0.01  -0.01   0.02     0.01  -0.01   0.02
  43   1    -0.01   0.08  -0.01     0.02  -0.05  -0.04     0.04  -0.02  -0.05
  44   1    -0.00  -0.08   0.01     0.03   0.05  -0.01    -0.08   0.09   0.03
  45   1     0.05  -0.02   0.04     0.03   0.03  -0.04    -0.11  -0.01  -0.09
  46   1    -0.04   0.10  -0.03     0.02   0.07   0.04     0.03  -0.22   0.01
  47   1    -0.12   0.01   0.03    -0.01   0.03   0.07     0.17  -0.06  -0.12
  48   1    -0.02   0.16  -0.02    -0.06   0.12  -0.02     0.00  -0.00  -0.03
  49   1    -0.10   0.03   0.08    -0.12   0.02   0.05     0.02   0.03  -0.06
  50   1    -0.08   0.05   0.07    -0.14  -0.01   0.09    -0.01  -0.02  -0.02
                     16                     17                     18
                        a                      a                      a 
 Frequencies --   297.0751               309.8500               323.1046
 Red. masses --    10.4298                11.1835                10.4438
 Frc consts  --     0.0000                 0.0000                 0.0000
 IR Inten    --     2.1391                 1.2731                 1.4996
 Raman Activ --     0.0000                 0.0000                 0.0000
 Depolar     --     0.0000                 0.0000                 0.0000
 Atom AN      X      Y      Z        X      Y      Z        X      Y      Z
   1   6     0.02   0.02   0.02    -0.08  -0.05   0.03     0.09  -0.04   0.14
   2   6    -0.02   0.09  -0.04    -0.02  -0.04  -0.04    -0.07   0.08   0.28
   3   6    -0.15   0.05  -0.01     0.11  -0.05   0.02    -0.06   0.06  -0.00
   4   6    -0.14  -0.06   0.03     0.05   0.10   0.02    -0.05   0.17  -0.08
   5   6     0.08   0.03  -0.08    -0.15   0.07   0.02    -0.16   0.06   0.10
   6   6     0.14   0.14   0.01    -0.21  -0.08  -0.09    -0.14   0.04   0.06
   7   6     0.10   0.16   0.03    -0.11  -0.16  -0.14    -0.05   0.01  -0.03
   8   6     0.01   0.23  -0.09    -0.01  -0.21  -0.04    -0.14  -0.05   0.10
   9   7     0.13   0.10   0.12    -0.26  -0.06  -0.16    -0.07   0.04   0.08
  10   6     0.06  -0.00   0.04    -0.16  -0.03  -0.01    -0.08  -0.02   0.05
  11   6     0.04  -0.08   0.03    -0.08   0.00  -0.03     0.06  -0.11  -0.05
  12   6     0.04  -0.01  -0.04    -0.00   0.02  -0.10     0.01  -0.02  -0.13
  13   6     0.04   0.05  -0.08    -0.02   0.11   0.03     0.07  -0.15  -0.11
  14   6     0.01   0.09  -0.07     0.04   0.12  -0.02     0.19  -0.12   0.02
  15   6    -0.00   0.07  -0.07     0.05   0.10  -0.02     0.09  -0.08  -0.07
  16   6     0.03   0.11  -0.02     0.07   0.21   0.04     0.22  -0.03   0.10
  17   6     0.09  -0.05   0.08     0.20  -0.02   0.15     0.10   0.14   0.07
  18   6     0.06  -0.02   0.06     0.26  -0.03   0.17     0.01   0.05   0.06
  19   7    -0.05   0.09  -0.07     0.13   0.08   0.01     0.02  -0.02  -0.08
  20   6    -0.11   0.03  -0.09     0.04   0.07  -0.06    -0.03   0.09  -0.16
  21   6     0.19  -0.30  -0.12     0.08   0.02  -0.11    -0.04   0.10  -0.12
  22   8    -0.17   0.04  -0.10     0.23   0.12   0.04    -0.03  -0.05  -0.21
  23   1    -0.01   0.02  -0.02     0.02   0.03   0.01     0.03  -0.03  -0.05
  24   6    -0.02  -0.16   0.08    -0.04  -0.06   0.03     0.05  -0.08  -0.01
  25   8    -0.09  -0.22   0.13     0.05  -0.02  -0.03    -0.16  -0.20   0.17
  26   8    -0.06  -0.22   0.08    -0.05  -0.17   0.10     0.05   0.07  -0.09
  27   6    -0.16  -0.10   0.16    -0.18  -0.05   0.15     0.14   0.01  -0.11
  28   1     0.01   0.01   0.01    -0.03  -0.02   0.02     0.08  -0.01   0.08
  29   1    -0.01  -0.01   0.01    -0.01  -0.01  -0.01     0.05  -0.04  -0.02
  30   1    -0.02   0.03  -0.02    -0.01  -0.05  -0.02    -0.08   0.16   0.06
  31   1    -0.02   0.02  -0.01    -0.00  -0.00  -0.04    -0.08  -0.04   0.20
  32   1    -0.08   0.01   0.01     0.07  -0.02   0.02     0.00   0.02  -0.00
  33   1    -0.07  -0.06   0.03     0.04   0.07   0.01     0.01   0.08  -0.06
  34   1     0.05  -0.02  -0.04    -0.07   0.05   0.02    -0.05   0.01   0.04
  35   1    -0.01   0.11  -0.03     0.02  -0.10  -0.01    -0.05  -0.03   0.06
  36   1     0.01   0.01   0.06    -0.04   0.00  -0.09    -0.04  -0.04   0.06
  37   1    -0.01   0.01  -0.00    -0.03  -0.01   0.00    -0.05   0.00  -0.00
  38   1     0.03   0.01  -0.04    -0.02   0.05   0.03     0.01  -0.09  -0.04
  39   1     0.01   0.03  -0.03     0.03   0.03   0.02    -0.00  -0.02  -0.05
  40   1     0.01   0.05  -0.01     0.02   0.10  -0.01     0.09  -0.00   0.04
  41   1     0.04  -0.04   0.04     0.06  -0.03   0.04     0.02   0.08   0.03
  42   1     0.05   0.01   0.01     0.13   0.01   0.07    -0.01   0.01   0.03
  43   1    -0.00  -0.04   0.04     0.06  -0.07   0.06    -0.01   0.01   0.03
  44   1    -0.02   0.07  -0.01    -0.01   0.03  -0.00    -0.03   0.06  -0.02
  45   1    -0.11  -0.02  -0.06     0.01   0.02  -0.03     0.00   0.03  -0.09
  46   1     0.05  -0.23   0.02     0.03  -0.03  -0.01    -0.02   0.05  -0.05
  47   1     0.19  -0.07  -0.14     0.05   0.01  -0.06    -0.02   0.03  -0.01
  48   1    -0.04   0.01   0.03    -0.04   0.03   0.02     0.04  -0.03  -0.01
  49   1    -0.07  -0.04   0.07    -0.08  -0.02   0.06     0.06   0.00  -0.04
  50   1    -0.06  -0.03   0.06    -0.08  -0.02   0.06     0.06   0.01  -0.05
                     19                     20                     21
                        a                      a                      a 
 Frequencies --   329.7412               349.8478               371.6896
 Red. masses --    12.1191                10.7150                10.0834
 Frc consts  --     0.0000                 0.0000                 0.0000
 IR Inten    --    10.4510                 7.9284                 6.5643
 Raman Activ --     0.0000                 0.0000                 0.0000
 Depolar     --     0.0000                 0.0000                 0.0000
 Atom AN      X      Y      Z        X      Y      Z        X      Y      Z
   1   6     0.04  -0.04   0.07    -0.12  -0.02   0.07    -0.21  -0.06  -0.17
   2   6    -0.03  -0.02   0.25    -0.01  -0.12   0.05    -0.19  -0.07  -0.07
   3   6     0.04  -0.07   0.03    -0.02  -0.04  -0.07    -0.03  -0.01  -0.08
   4   6     0.06  -0.08   0.02    -0.15  -0.06   0.13     0.01  -0.11  -0.07
   5   6     0.08  -0.03  -0.06    -0.02   0.11  -0.15     0.12  -0.13   0.05
   6   6     0.04  -0.07  -0.01    -0.04   0.06  -0.11     0.20   0.03   0.05
   7   6     0.04  -0.03  -0.02    -0.05  -0.12   0.03     0.14   0.06   0.09
   8   6     0.08  -0.01  -0.06     0.05   0.02  -0.24    -0.01   0.05   0.10
   9   7    -0.08  -0.11   0.01    -0.13   0.12  -0.20     0.04   0.11  -0.09
  10   6    -0.06  -0.04  -0.00    -0.11  -0.01   0.05    -0.09  -0.05  -0.11
  11   6    -0.10   0.11   0.01     0.00  -0.06   0.02    -0.08  -0.01  -0.08
  12   6     0.04   0.06  -0.00     0.00  -0.09   0.18     0.08  -0.03   0.05
  13   6    -0.13  -0.12   0.06    -0.04  -0.03  -0.03    -0.13  -0.10  -0.24
  14   6     0.06  -0.15   0.14    -0.06  -0.01   0.12    -0.06  -0.07  -0.10
  15   6     0.04   0.05   0.00    -0.06   0.01   0.12     0.07  -0.13  -0.02
  16   6     0.06  -0.15   0.14    -0.08  -0.01   0.09    -0.02   0.06   0.17
  17   6    -0.06   0.17  -0.04    -0.00   0.01   0.00    -0.05   0.01   0.27
  18   6     0.06   0.02   0.05     0.12   0.00   0.04    -0.07   0.09   0.22
  19   7    -0.04   0.10  -0.04     0.04   0.10   0.04     0.09  -0.09   0.02
  20   6     0.01   0.08  -0.01     0.15   0.12   0.10     0.07   0.19  -0.09
  21   6     0.16  -0.09  -0.03     0.23  -0.05   0.20     0.07   0.16   0.09
  22   8    -0.31  -0.04  -0.24    -0.10   0.03  -0.07     0.20  -0.04  -0.00
  23   1     0.02   0.01  -0.05    -0.04  -0.00   0.02     0.03  -0.04  -0.01
  24   6    -0.05   0.14  -0.02     0.08  -0.07  -0.05    -0.05   0.02  -0.03
  25   8     0.25   0.32  -0.30    -0.10  -0.18   0.14     0.05   0.07  -0.02
  26   8    -0.06  -0.03   0.03     0.12   0.15  -0.16    -0.01  -0.01   0.06
  27   6    -0.12   0.04   0.07     0.22   0.09  -0.19    -0.04  -0.02   0.03
  28   1     0.03  -0.00   0.03    -0.08  -0.00  -0.01    -0.09  -0.00  -0.09
  29   1     0.03  -0.01  -0.00    -0.03   0.04   0.05    -0.07   0.01  -0.01
  30   1    -0.03   0.08   0.07     0.02  -0.09   0.02    -0.07   0.02  -0.02
  31   1    -0.05  -0.04   0.14     0.03  -0.01  -0.03    -0.08  -0.04   0.01
  32   1     0.00  -0.02   0.02     0.01  -0.01  -0.01    -0.03   0.01  -0.04
  33   1     0.01  -0.03   0.01    -0.07  -0.04   0.10    -0.01  -0.05  -0.03
  34   1     0.03   0.00  -0.03     0.01   0.05  -0.07     0.05  -0.08   0.02
  35   1     0.03  -0.00  -0.03     0.04   0.03  -0.11    -0.03   0.04   0.05
  36   1    -0.01   0.01  -0.02     0.02   0.09  -0.12    -0.00   0.09  -0.03
  37   1     0.01  -0.02   0.01    -0.04  -0.00   0.02    -0.04  -0.02  -0.01
  38   1    -0.06  -0.09   0.01    -0.01  -0.05  -0.03    -0.02  -0.08  -0.10
  39   1    -0.07  -0.02  -0.00    -0.02   0.03  -0.04    -0.09   0.00  -0.10
  40   1     0.02  -0.05   0.04    -0.04  -0.01   0.02     0.05   0.03   0.07
  41   1    -0.04   0.10  -0.05    -0.01  -0.00  -0.03    -0.00  -0.03   0.09
  42   1     0.05   0.02   0.08     0.07   0.01   0.04    -0.07   0.01   0.05
  43   1     0.03  -0.07  -0.01     0.04  -0.04   0.00    -0.03   0.07   0.08
  44   1     0.01   0.05  -0.00     0.07   0.06   0.02     0.00   0.14   0.01
  45   1    -0.03   0.01  -0.01     0.01   0.02   0.02     0.03   0.06  -0.13
  46   1     0.05  -0.11   0.02     0.08  -0.06   0.09     0.02   0.08   0.01
  47   1     0.12  -0.02  -0.07     0.13  -0.00   0.03     0.02   0.06   0.08
  48   1    -0.03   0.04   0.01     0.06  -0.01  -0.04    -0.01  -0.00   0.00
  49   1    -0.05   0.01   0.03     0.08   0.03  -0.07    -0.01  -0.00   0.00
  50   1    -0.05   0.01   0.03     0.08   0.03  -0.07    -0.02  -0.01   0.01
                     22                     23                     24
                        a                      a                      a 
 Frequencies --   405.0343               418.3164               429.6649
 Red. masses --     9.6523                10.1702                 9.8739
 Frc consts  --     0.0000                 0.0000                 0.0000
 IR Inten    --     5.1231                11.8726                 5.2992
 Raman Activ --     0.0000                 0.0000                 0.0000
 Depolar     --     0.0000                 0.0000                 0.0000
 Atom AN      X      Y      Z        X      Y      Z        X      Y      Z
   1   6    -0.21   0.03  -0.03    -0.12  -0.06   0.15     0.13  -0.08  -0.22
   2   6    -0.09  -0.13   0.10    -0.05  -0.06   0.03     0.04   0.03  -0.11
   3   6     0.03   0.04  -0.07     0.01  -0.04  -0.09    -0.10  -0.04   0.09
   4   6     0.07  -0.02  -0.09    -0.04   0.01  -0.05    -0.02   0.03  -0.06
   5   6    -0.01  -0.15   0.16    -0.09  -0.04   0.05     0.05   0.02  -0.04
   6   6     0.17   0.09  -0.12     0.02   0.08  -0.12    -0.06  -0.09   0.21
   7   6     0.12   0.13  -0.11     0.07  -0.01  -0.11     0.02   0.01   0.06
   8   6    -0.07  -0.05   0.21    -0.05  -0.11   0.04     0.02   0.09  -0.06
   9   7     0.10   0.11  -0.13    -0.05   0.12  -0.13    -0.11  -0.08   0.15
  10   6     0.00  -0.10  -0.03    -0.05  -0.04   0.16    -0.14   0.04  -0.21
  11   6     0.01  -0.03  -0.03     0.08   0.04   0.05    -0.09  -0.04  -0.19
  12   6     0.04   0.06  -0.09     0.11   0.04  -0.02     0.05  -0.00  -0.03
  13   6     0.00  -0.07   0.05     0.06   0.02  -0.19    -0.12  -0.00  -0.27
  14   6    -0.02  -0.07   0.08     0.14   0.05  -0.06     0.01   0.03  -0.03
  15   6     0.05   0.12   0.02     0.12   0.01  -0.00     0.06   0.05   0.04
  16   6    -0.07  -0.08  -0.02     0.17   0.08  -0.11     0.07  -0.14   0.06
  17   6    -0.05  -0.04  -0.08     0.13   0.04  -0.02    -0.00   0.12  -0.10
  18   6     0.23  -0.01   0.05    -0.15   0.17  -0.17     0.15   0.10  -0.01
  19   7    -0.03   0.26   0.08     0.03  -0.02   0.06     0.07   0.16   0.12
  20   6    -0.09  -0.11   0.18     0.16  -0.10   0.16     0.12  -0.08   0.23
  21   6    -0.14  -0.01  -0.09     0.12  -0.03   0.00     0.01   0.06   0.02
  22   8    -0.06   0.24  -0.11    -0.32  -0.15   0.26    -0.14   0.09   0.20
  23   1     0.01   0.03  -0.03     0.02   0.00   0.00     0.01   0.01   0.00
  24   6     0.04  -0.05  -0.00     0.01   0.06   0.07    -0.04  -0.07  -0.07
  25   8    -0.03  -0.10   0.06    -0.03   0.05  -0.07    -0.03  -0.08   0.13
  26   8     0.06  -0.01  -0.02    -0.10  -0.05   0.00     0.05  -0.04   0.07
  27   6     0.03   0.01  -0.02    -0.05  -0.04   0.07    -0.04  -0.04   0.03
  28   1    -0.13   0.05  -0.11    -0.07  -0.01   0.01     0.10  -0.06   0.03
  29   1    -0.09   0.10   0.09    -0.05   0.01   0.08     0.08  -0.08  -0.16
  30   1    -0.02  -0.03   0.03    -0.05  -0.03  -0.02     0.03   0.03  -0.01
  31   1    -0.01  -0.03   0.04    -0.01  -0.01   0.01    -0.02  -0.01  -0.03
  32   1    -0.01   0.01  -0.03     0.01  -0.01  -0.02    -0.04  -0.02   0.04
  33   1     0.02  -0.01  -0.04    -0.01   0.01   0.00     0.01   0.02  -0.06
  34   1    -0.03  -0.10   0.12    -0.04  -0.05   0.06     0.04   0.02  -0.06
  35   1    -0.07  -0.05   0.14    -0.04  -0.06   0.06     0.03   0.06  -0.07
  36   1     0.01   0.03  -0.01     0.02   0.05  -0.08    -0.09  -0.03   0.11
  37   1    -0.02  -0.03   0.00    -0.02  -0.02   0.07    -0.05   0.02  -0.08
  38   1    -0.01  -0.03   0.02     0.04  -0.05  -0.10    -0.04  -0.06  -0.10
  39   1     0.00   0.00  -0.01    -0.04   0.05  -0.09    -0.05   0.04  -0.12
  40   1    -0.03  -0.02  -0.02     0.06   0.01  -0.02     0.03  -0.08   0.04
  41   1    -0.02  -0.00  -0.06     0.05   0.00   0.04    -0.00   0.03  -0.05
  42   1     0.19   0.04   0.07    -0.18  -0.01  -0.16     0.07   0.04   0.04
  43   1     0.09  -0.14  -0.02    -0.05   0.24  -0.02     0.07  -0.01  -0.04
  44   1    -0.03  -0.14   0.02     0.07  -0.12   0.01     0.05  -0.14   0.02
  45   1    -0.02  -0.03   0.17     0.06  -0.03   0.14     0.06  -0.02   0.20
  46   1    -0.06   0.01  -0.06     0.03  -0.02   0.00    -0.00   0.06  -0.02
  47   1    -0.08  -0.02  -0.03     0.03  -0.02  -0.03    -0.06   0.00   0.03
  48   1     0.01   0.01  -0.01    -0.01  -0.00   0.02    -0.01   0.00  -0.01
  49   1     0.01   0.00  -0.01    -0.02  -0.02   0.03    -0.01  -0.00  -0.00
  50   1     0.00   0.00  -0.00    -0.01   0.00   0.02    -0.03  -0.03   0.02
                     25                     26                     27
                        a                      a                      a 
 Frequencies --   449.4669               468.6574               473.2661
 Red. masses --     8.9607                 9.2793                 7.9328
 Frc consts  --     0.0000                 0.0000                 0.0000
 IR Inten    --     5.4139                23.4678                16.3687
 Raman Activ --     0.0000                 0.0000                 0.0000
 Depolar     --     0.0000                 0.0000                 0.0000
 Atom AN      X      Y      Z        X      Y      Z        X      Y      Z
   1   6     0.05  -0.00  -0.05    -0.17   0.05  -0.15    -0.02  -0.03   0.22
   2   6    -0.01   0.10  -0.14    -0.12  -0.05   0.02    -0.05   0.12  -0.13
   3   6     0.06   0.03  -0.02    -0.05   0.09   0.09    -0.01  -0.04   0.04
   4   6     0.05   0.06  -0.01     0.06  -0.01   0.01     0.05  -0.05  -0.03
   5   6    -0.12  -0.02   0.08     0.11  -0.02   0.02     0.06  -0.05  -0.00
   6   6     0.02   0.10  -0.28     0.02  -0.13   0.10    -0.01  -0.09   0.15
   7   6     0.05   0.10  -0.28    -0.06   0.06   0.08    -0.01  -0.02   0.07
   8   6    -0.05  -0.11   0.07    -0.01   0.14   0.01     0.04   0.03  -0.02
   9   7     0.05  -0.08   0.08    -0.05  -0.10  -0.09    -0.07   0.02  -0.11
  10   6     0.05   0.00   0.00    -0.02  -0.09  -0.16     0.03   0.00   0.24
  11   6    -0.01   0.02   0.05    -0.08   0.00  -0.07     0.06   0.07   0.13
  12   6    -0.02   0.08  -0.02    -0.03   0.10  -0.09     0.05   0.09  -0.06
  13   6    -0.08   0.12   0.02     0.07   0.10   0.39    -0.05   0.13  -0.15
  14   6    -0.17   0.10   0.00     0.02   0.01  -0.01    -0.04   0.10  -0.12
  15   6    -0.03   0.08   0.02    -0.02   0.08  -0.10     0.05   0.09  -0.08
  16   6    -0.11  -0.24   0.23     0.09  -0.01   0.10     0.07  -0.31   0.12
  17   6    -0.22   0.13   0.00     0.05   0.11   0.05    -0.17   0.15  -0.08
  18   6    -0.05   0.03   0.07    -0.07   0.05  -0.00     0.01  -0.02   0.06
  19   7     0.07  -0.10   0.01     0.01  -0.06  -0.12     0.02  -0.05   0.00
  20   6     0.16   0.07  -0.04     0.21  -0.07  -0.09    -0.13  -0.06  -0.07
  21   6     0.21   0.02  -0.05     0.11   0.07  -0.13    -0.10  -0.02  -0.11
  22   8    -0.01  -0.15   0.08    -0.18  -0.14   0.11     0.12  -0.00   0.07
  23   1     0.01   0.03   0.04     0.01   0.03  -0.02     0.04   0.03  -0.00
  24   6     0.04  -0.04   0.01     0.01  -0.09  -0.06     0.08   0.00   0.10
  25   8    -0.04  -0.10   0.04    -0.03  -0.13   0.11    -0.06  -0.07  -0.01
  26   8     0.03  -0.02  -0.05     0.09  -0.03  -0.02    -0.02  -0.03  -0.08
  27   6     0.02   0.01  -0.02     0.02   0.01  -0.03     0.02   0.01  -0.00
  28   1     0.04  -0.01   0.02    -0.08   0.04  -0.11     0.00  -0.02   0.08
  29   1     0.00  -0.05  -0.04    -0.06   0.07   0.02    -0.03  -0.06   0.05
  30   1     0.03  -0.01  -0.02    -0.05   0.05   0.01    -0.03  -0.02  -0.06
  31   1     0.00   0.04  -0.08    -0.06  -0.04   0.06     0.00   0.05  -0.07
  32   1     0.01  -0.01   0.04    -0.03   0.03   0.01    -0.01  -0.00  -0.01
  33   1     0.00   0.01   0.04     0.02  -0.01  -0.04     0.03   0.00  -0.05
  34   1    -0.10  -0.04   0.13     0.04   0.02  -0.03     0.05   0.01  -0.05
  35   1    -0.06  -0.11   0.12     0.03   0.05  -0.04     0.04   0.04  -0.06
  36   1    -0.10  -0.23   0.20     0.05   0.13  -0.14     0.18   0.28  -0.33
  37   1     0.03   0.00  -0.00     0.00  -0.03  -0.04     0.02  -0.01   0.08
  38   1    -0.00   0.06  -0.00    -0.05   0.16   0.22     0.03   0.03  -0.09
  39   1    -0.01   0.03   0.01     0.14  -0.06   0.20    -0.06   0.04  -0.05
  40   1     0.00  -0.16   0.12     0.05  -0.03   0.05     0.07  -0.19   0.10
  41   1    -0.05  -0.01  -0.01     0.02   0.02   0.03    -0.04   0.02  -0.01
  42   1    -0.04  -0.00   0.10    -0.08  -0.01   0.00     0.04   0.01   0.14
  43   1     0.02  -0.02  -0.02    -0.04   0.06   0.02     0.05  -0.11  -0.04
  44   1     0.04   0.04  -0.00     0.08  -0.09  -0.06    -0.06  -0.00  -0.00
  45   1     0.06   0.02  -0.04     0.09  -0.01   0.04    -0.04  -0.02  -0.04
  46   1     0.08  -0.08   0.05     0.05   0.03  -0.02    -0.04  -0.01  -0.05
  47   1     0.14   0.01  -0.09     0.01   0.01  -0.06    -0.04  -0.01  -0.04
  48   1     0.01   0.01  -0.01     0.01   0.02  -0.02     0.01   0.01   0.00
  49   1     0.00   0.00  -0.00     0.00   0.01  -0.01    -0.00  -0.01   0.02
  50   1     0.01   0.01  -0.01    -0.00  -0.00  -0.00     0.02   0.02  -0.01
                     28                     29                     30
                        a                      a                      a 
 Frequencies --   482.8684               500.7419               505.3782
 Red. masses --     9.6560                10.2078                 9.9171
 Frc consts  --     0.0000                 0.0000                 0.0000
 IR Inten    --    18.4023                14.2802                 1.0272
 Raman Activ --     0.0000                 0.0000                 0.0000
 Depolar     --     0.0000                 0.0000                 0.0000
 Atom AN      X      Y      Z        X      Y      Z        X      Y      Z
   1   6     0.11  -0.01   0.17     0.04  -0.06  -0.07    -0.08  -0.04  -0.02
   2   6     0.15   0.03   0.06     0.05  -0.08   0.07    -0.06   0.01  -0.03
   3   6     0.02  -0.05  -0.05    -0.07   0.40   0.11     0.14   0.14  -0.28
   4   6     0.08  -0.13  -0.08     0.02   0.14   0.16    -0.13  -0.16   0.26
   5   6     0.11  -0.16   0.06     0.15   0.10   0.12     0.08   0.08  -0.15
   6   6     0.21   0.07  -0.05     0.04  -0.16  -0.15     0.12   0.15  -0.19
   7   6     0.19   0.14  -0.10    -0.15   0.07  -0.02    -0.11  -0.12   0.23
   8   6     0.04   0.02   0.12    -0.22   0.13   0.00    -0.06  -0.08   0.15
   9   7    -0.27  -0.07   0.09     0.00  -0.39  -0.07     0.02  -0.01   0.11
  10   6    -0.28  -0.01  -0.03     0.14  -0.23  -0.09    -0.06  -0.07  -0.03
  11   6    -0.22  -0.00  -0.09     0.03   0.01  -0.01    -0.01  -0.02  -0.06
  12   6    -0.03  -0.04   0.01    -0.08   0.08   0.02    -0.07  -0.11   0.05
  13   6    -0.18   0.16   0.06    -0.01  -0.01  -0.19     0.04   0.12  -0.02
  14   6     0.01   0.15   0.13     0.01   0.04   0.11     0.07   0.10  -0.04
  15   6    -0.02   0.02   0.13    -0.00   0.02   0.12    -0.07   0.00  -0.02
  16   6     0.01   0.10  -0.03    -0.02   0.03  -0.02     0.24  -0.12   0.11
  17   6     0.15   0.01  -0.08     0.05  -0.01  -0.06     0.17   0.20  -0.11
  18   6     0.01   0.02  -0.13     0.02   0.02  -0.07     0.11  -0.00  -0.06
  19   7     0.05  -0.07   0.01     0.07  -0.05   0.10    -0.00  -0.01  -0.09
  20   6    -0.10   0.04  -0.07    -0.06   0.06   0.05    -0.05  -0.08  -0.10
  21   6    -0.08  -0.03   0.00    -0.02  -0.01   0.01    -0.13  -0.05   0.06
  22   8    -0.01  -0.10  -0.07     0.06  -0.06  -0.03     0.01   0.01   0.10
  23   1    -0.03   0.01   0.07     0.01   0.01   0.04    -0.04   0.00   0.03
  24   6    -0.03  -0.07  -0.07     0.01   0.01   0.02    -0.04   0.03  -0.02
  25   8     0.00  -0.08   0.07    -0.02  -0.01   0.00     0.01   0.07  -0.02
  26   8     0.08   0.03  -0.01    -0.02  -0.02  -0.01    -0.03   0.01   0.05
  27   6     0.04   0.04  -0.05    -0.01  -0.01   0.02    -0.02  -0.02   0.02
  28   1     0.09  -0.04   0.14    -0.03   0.03  -0.10    -0.03  -0.00  -0.02
  29   1     0.10  -0.04  -0.07    -0.01   0.04   0.05    -0.03  -0.00   0.01
  30   1     0.07  -0.10   0.02     0.04  -0.02   0.04    -0.05   0.03  -0.02
  31   1     0.09   0.05  -0.08     0.00  -0.02  -0.00    -0.04  -0.01   0.01
  32   1    -0.04  -0.03  -0.00    -0.00   0.11   0.03     0.07   0.08  -0.14
  33   1     0.01  -0.06  -0.01    -0.03  -0.03   0.02    -0.09  -0.10   0.18
  34   1     0.02  -0.11   0.08    -0.00   0.07   0.06     0.02   0.01  -0.03
  35   1    -0.04  -0.00   0.11    -0.04  -0.01   0.01    -0.04  -0.03   0.08
  36   1    -0.00   0.19  -0.11     0.10   0.03  -0.17    -0.05  -0.07   0.11
  37   1    -0.08   0.01  -0.04     0.09  -0.08  -0.01    -0.03  -0.02  -0.00
  38   1    -0.10   0.04   0.06     0.03  -0.12  -0.13     0.00   0.05   0.01
  39   1     0.01   0.05   0.02    -0.08   0.09  -0.14     0.05   0.03  -0.00
  40   1    -0.05   0.02  -0.03    -0.03  -0.00  -0.01     0.08  -0.12   0.07
  41   1     0.04   0.01  -0.03     0.01  -0.00  -0.02     0.06   0.05  -0.01
  42   1    -0.05  -0.02  -0.09    -0.03  -0.01  -0.06     0.06   0.01   0.06
  43   1    -0.01   0.08  -0.02     0.01   0.07  -0.02     0.03  -0.08  -0.02
  44   1    -0.06   0.08   0.02    -0.05   0.06   0.05    -0.01  -0.01  -0.03
  45   1    -0.04   0.01  -0.10    -0.02   0.01  -0.05    -0.03  -0.03  -0.03
  46   1    -0.03  -0.01  -0.00     0.00  -0.06   0.03    -0.03   0.08  -0.01
  47   1    -0.01  -0.00   0.01     0.04   0.00  -0.04    -0.10  -0.02   0.09
  48   1     0.01   0.01  -0.02    -0.00   0.00   0.00    -0.01  -0.01   0.01
  49   1     0.02   0.02  -0.02    -0.01  -0.01   0.01    -0.00  -0.00   0.00
  50   1     0.01   0.00  -0.01    -0.00   0.00   0.00    -0.01  -0.01   0.01
                     31                     32                     33
                        a                      a                      a 
 Frequencies --   518.6193               550.8537               565.1355
 Red. masses --     9.0071                 9.8022                10.3864
 Frc consts  --     0.0000                 0.0000                 0.0000
 IR Inten    --    29.5286                27.7154                22.2230
 Raman Activ --     0.0000                 0.0000                 0.0000
 Depolar     --     0.0000                 0.0000                 0.0000
 Atom AN      X      Y      Z        X      Y      Z        X      Y      Z
   1   6     0.12   0.07   0.04    -0.10  -0.02  -0.21     0.01  -0.00  -0.11
   2   6     0.04   0.13  -0.09    -0.09  -0.02  -0.12     0.02  -0.10   0.06
   3   6     0.03   0.12  -0.13    -0.10  -0.05   0.03     0.13  -0.05  -0.21
   4   6    -0.08  -0.02   0.11    -0.13   0.22  -0.08    -0.12  -0.11   0.14
   5   6     0.04   0.04   0.00    -0.03   0.09   0.17    -0.06   0.07  -0.18
   6   6     0.09   0.09  -0.18     0.03   0.08  -0.02    -0.07   0.09   0.08
   7   6     0.01   0.02  -0.04     0.19  -0.06  -0.16    -0.05  -0.08   0.12
   8   6    -0.10  -0.05   0.09    -0.08  -0.10  -0.15     0.03  -0.11   0.15
   9   7    -0.19  -0.25   0.21    -0.11  -0.09   0.13    -0.02   0.01   0.20
  10   6     0.01   0.10   0.05     0.03   0.11  -0.05     0.03   0.12  -0.04
  11   6    -0.02  -0.01   0.03     0.14  -0.02  -0.06     0.11   0.01  -0.10
  12   6     0.03   0.01   0.01     0.14  -0.15   0.13     0.09   0.11  -0.19
  13   6    -0.04  -0.17  -0.00     0.25   0.06   0.11     0.14  -0.03   0.03
  14   6     0.01  -0.19  -0.18     0.04   0.04  -0.07    -0.05   0.00   0.12
  15   6     0.00  -0.10  -0.17     0.08  -0.05   0.08     0.14   0.14   0.08
  16   6    -0.03   0.05  -0.09     0.11  -0.12  -0.02    -0.20  -0.01  -0.02
  17   6    -0.12  -0.11   0.14    -0.02   0.06  -0.07    -0.18  -0.10   0.01
  18   6    -0.07  -0.07   0.12     0.02   0.02  -0.00    -0.01   0.10   0.02
  19   7    -0.13   0.11  -0.08     0.02  -0.01   0.09     0.16  -0.04   0.22
  20   6     0.15  -0.04   0.07    -0.12   0.05   0.10    -0.04   0.09   0.08
  21   6     0.11   0.05   0.02    -0.04  -0.10   0.26     0.01   0.12  -0.26
  22   8    -0.00   0.18   0.09    -0.06  -0.05  -0.21    -0.03  -0.16  -0.14
  23   1     0.01  -0.03  -0.09    -0.01  -0.01   0.04     0.07   0.04   0.01
  24   6    -0.02  -0.02  -0.01    -0.06   0.03  -0.05     0.00   0.00  -0.04
  25   8     0.02  -0.01  -0.00     0.01   0.08   0.00    -0.04  -0.02   0.05
  26   8     0.01   0.02  -0.02    -0.03  -0.01   0.06     0.02  -0.06   0.01
  27   6     0.02   0.02  -0.02    -0.04  -0.04   0.05    -0.03  -0.04   0.04
  28   1     0.11  -0.01   0.11    -0.03  -0.02  -0.04    -0.00  -0.02  -0.01
  29   1     0.06  -0.07  -0.08    -0.03  -0.01  -0.07     0.03   0.01  -0.05
  30   1    -0.02   0.07  -0.04    -0.03   0.04  -0.03     0.05  -0.04   0.04
  31   1     0.02   0.03   0.02    -0.05  -0.03  -0.00     0.01  -0.02  -0.01
  32   1     0.02   0.04  -0.04     0.01  -0.05   0.08     0.07   0.02  -0.12
  33   1    -0.06  -0.05   0.09    -0.04   0.06  -0.02    -0.02  -0.01   0.09
  34   1    -0.02  -0.02   0.06    -0.02  -0.03   0.09     0.01   0.03  -0.10
  35   1    -0.05  -0.05   0.08    -0.06  -0.02  -0.00     0.01  -0.01   0.02
  36   1     0.14   0.21  -0.24     0.10   0.15  -0.16     0.09   0.14  -0.09
  37   1     0.03   0.03  -0.02     0.01   0.03  -0.00    -0.02   0.04  -0.01
  38   1    -0.01   0.01   0.02     0.05   0.11   0.09     0.03  -0.02   0.01
  39   1    -0.03  -0.12   0.06     0.15  -0.03   0.08     0.07   0.03  -0.02
  40   1     0.02   0.11  -0.05     0.06  -0.10   0.03    -0.06  -0.02  -0.00
  41   1    -0.05   0.01   0.04     0.01  -0.01   0.01    -0.05  -0.06  -0.02
  42   1     0.05   0.01   0.04     0.01   0.01   0.04    -0.08  -0.00  -0.05
  43   1    -0.04  -0.09   0.05     0.03  -0.01  -0.03     0.04   0.14  -0.03
  44   1     0.11  -0.11  -0.05    -0.03   0.12   0.06    -0.11   0.02   0.08
  45   1     0.07  -0.00   0.14    -0.09  -0.00  -0.07     0.03   0.04  -0.02
  46   1     0.04   0.01   0.01    -0.03   0.01   0.03    -0.03  -0.03  -0.09
  47   1     0.02   0.01  -0.01    -0.03  -0.02   0.13     0.03   0.04  -0.10
  48   1     0.01   0.00  -0.01    -0.01  -0.01   0.01    -0.01   0.01  -0.00
  49   1     0.01   0.01  -0.01    -0.01  -0.01   0.01    -0.02  -0.01   0.02
  50   1     0.01   0.01  -0.01    -0.02  -0.01   0.02    -0.02  -0.01   0.02
                     34                     35                     36
                        a                      a                      a 
 Frequencies --   577.0101               595.5813               598.6194
 Red. masses --    10.3690                 9.8308                10.0624
 Frc consts  --     0.0000                 0.0000                 0.0000
 IR Inten    --    16.5272                21.3969                 4.9982
 Raman Activ --     0.0000                 0.0000                 0.0000
 Depolar     --     0.0000                 0.0000                 0.0000
 Atom AN      X      Y      Z        X      Y      Z        X      Y      Z
   1   6    -0.04  -0.00  -0.06     0.04   0.05   0.28     0.01   0.05  -0.01
   2   6    -0.01   0.02  -0.10     0.07   0.08   0.06    -0.05   0.12  -0.17
   3   6     0.06   0.06  -0.03    -0.10   0.14  -0.05    -0.02   0.08  -0.03
   4   6     0.06  -0.11   0.07    -0.14   0.09   0.07    -0.06   0.05   0.07
   5   6     0.07  -0.02  -0.07     0.29   0.11   0.13     0.13   0.07   0.04
   6   6    -0.01  -0.10  -0.02     0.14  -0.12   0.09     0.03  -0.09   0.02
   7   6    -0.05  -0.00   0.04     0.13  -0.15   0.05     0.04  -0.10  -0.01
   8   6    -0.02  -0.01   0.05    -0.20  -0.09  -0.10    -0.13  -0.10  -0.05
   9   7    -0.08  -0.00  -0.14    -0.06   0.08  -0.19     0.03  -0.01  -0.07
  10   6    -0.09   0.05  -0.01    -0.17  -0.19  -0.03     0.06   0.08   0.08
  11   6    -0.10   0.17   0.08     0.03  -0.12  -0.14    -0.09   0.05   0.17
  12   6     0.05   0.19   0.07     0.17  -0.09  -0.11     0.10   0.01   0.04
  13   6    -0.15   0.11   0.08     0.14   0.06  -0.01    -0.24  -0.13   0.13
  14   6     0.19  -0.03  -0.17    -0.01   0.07  -0.01    -0.12  -0.13  -0.12
  15   6     0.17   0.03  -0.03     0.07   0.04  -0.02     0.16  -0.05  -0.05
  16   6     0.27  -0.09  -0.27    -0.09  -0.06  -0.07    -0.12   0.10   0.08
  17   6    -0.07  -0.04  -0.01    -0.23  -0.08   0.04     0.08   0.01   0.04
  18   6    -0.16  -0.10   0.05    -0.11  -0.04   0.07     0.28   0.30   0.02
  19   7    -0.07  -0.04   0.20    -0.03   0.02   0.02     0.25   0.05   0.04
  20   6    -0.14   0.12   0.28     0.07   0.02   0.00    -0.11  -0.12  -0.09
  21   6     0.01   0.04   0.12     0.07   0.06  -0.09    -0.12  -0.12  -0.03
  22   8     0.08  -0.01  -0.20    -0.01   0.02  -0.04    -0.18  -0.11  -0.01
  23   1     0.08   0.01  -0.03    -0.00   0.01   0.01     0.05  -0.02  -0.05
  24   6     0.09  -0.03   0.02    -0.02   0.04  -0.00     0.04  -0.04   0.08
  25   8    -0.07  -0.13   0.07     0.02   0.07  -0.04     0.02  -0.06  -0.02
  26   8     0.07  -0.07  -0.06    -0.05   0.02   0.04     0.02   0.02  -0.05
  27   6     0.02   0.01  -0.02    -0.03  -0.02   0.03     0.05   0.06  -0.06
  28   1    -0.01  -0.01  -0.01     0.05   0.02   0.10     0.04   0.00   0.04
  29   1    -0.01  -0.00  -0.02     0.03  -0.01   0.04    -0.02  -0.06  -0.02
  30   1    -0.05   0.06  -0.05     0.02  -0.11  -0.00    -0.01   0.02  -0.05
  31   1    -0.02  -0.02   0.03     0.10   0.08  -0.07     0.00   0.04  -0.04
  32   1     0.01   0.03  -0.04     0.04   0.04  -0.02     0.04   0.03  -0.01
  33   1     0.01  -0.04   0.02    -0.07  -0.03  -0.04    -0.03  -0.01  -0.00
  34   1     0.02   0.02  -0.04     0.12   0.02  -0.00     0.05   0.03  -0.01
  35   1     0.01  -0.01   0.01    -0.06   0.00  -0.04    -0.03  -0.02  -0.03
  36   1    -0.14  -0.16   0.14    -0.16  -0.12   0.15    -0.04  -0.10   0.07
  37   1     0.02   0.00   0.02    -0.06  -0.04  -0.04     0.05   0.02   0.03
  38   1    -0.06   0.05   0.05     0.01   0.09   0.05    -0.06   0.02   0.05
  39   1    -0.06  -0.04   0.08     0.15  -0.00   0.02    -0.11  -0.12   0.11
  40   1     0.11   0.04  -0.08    -0.01  -0.03  -0.00    -0.02   0.06   0.01
  41   1    -0.03   0.09   0.06    -0.06  -0.04   0.03     0.02  -0.05  -0.06
  42   1    -0.04  -0.03   0.00    -0.01  -0.00   0.05    -0.01   0.05  -0.08
  43   1    -0.02  -0.01  -0.01    -0.01  -0.05  -0.01     0.08   0.21   0.01
  44   1    -0.06   0.07   0.10     0.02  -0.02  -0.01    -0.07   0.02   0.01
  45   1    -0.03   0.04   0.03     0.03   0.01   0.02    -0.09  -0.05  -0.07
  46   1    -0.02  -0.11   0.04    -0.01   0.07  -0.08    -0.04   0.05  -0.05
  47   1     0.09   0.02  -0.04    -0.02   0.02   0.04    -0.11  -0.05   0.04
  48   1     0.01   0.03  -0.01    -0.01  -0.02   0.01     0.01   0.01  -0.01
  49   1    -0.01  -0.00   0.01    -0.00  -0.00   0.00     0.02   0.01  -0.01
  50   1    -0.00   0.00   0.00    -0.00  -0.01   0.00     0.02   0.02  -0.02
                     37                     38                     39
                        a                      a                      a 
 Frequencies --   651.3075               676.3639               686.4028
 Red. masses --    10.2934                10.2972                11.4629
 Frc consts  --     0.0000                 0.0000                 0.0000
 IR Inten    --     9.7333                 0.7112                10.5910
 Raman Activ --     0.0000                 0.0000                 0.0000
 Depolar     --     0.0000                 0.0000                 0.0000
 Atom AN      X      Y      Z        X      Y      Z        X      Y      Z
   1   6     0.03  -0.04  -0.21     0.01  -0.05  -0.00    -0.02  -0.01  -0.02
   2   6     0.05  -0.20   0.17    -0.02   0.04  -0.07    -0.04   0.03  -0.05
   3   6    -0.00  -0.06  -0.10    -0.04  -0.14  -0.05     0.09   0.11  -0.18
   4   6    -0.13   0.08   0.03    -0.18   0.18  -0.03    -0.09  -0.10   0.17
   5   6     0.17   0.09   0.08     0.05   0.10   0.15     0.09   0.11  -0.19
   6   6     0.07  -0.04   0.09     0.10   0.09   0.04    -0.21  -0.25   0.42
   7   6     0.16  -0.11  -0.08     0.06  -0.17   0.05     0.25   0.26  -0.44
   8   6    -0.10  -0.20  -0.10    -0.03  -0.16  -0.15    -0.10  -0.10   0.19
   9   7    -0.06   0.00   0.05     0.26   0.04   0.16     0.03   0.06  -0.08
  10   6     0.01   0.22  -0.01     0.14  -0.13   0.03     0.04   0.01   0.02
  11   6    -0.00   0.22   0.09    -0.18  -0.10   0.07     0.01  -0.07   0.04
  12   6     0.13   0.12   0.05    -0.04  -0.08  -0.11    -0.04  -0.05   0.01
  13   6    -0.14   0.11   0.01    -0.31   0.07   0.07     0.03  -0.03   0.00
  14   6     0.03   0.04   0.17    -0.00   0.07   0.00    -0.04   0.02   0.01
  15   6     0.01   0.21  -0.03    -0.08  -0.00   0.02    -0.07  -0.12   0.06
  16   6    -0.02   0.01   0.01     0.13  -0.00   0.01     0.01   0.03   0.08
  17   6    -0.01  -0.04   0.02     0.14   0.05  -0.03     0.12   0.06  -0.04
  18   6    -0.14  -0.12  -0.03    -0.05  -0.11  -0.03    -0.00  -0.06  -0.06
  19   7    -0.12  -0.01  -0.18    -0.04  -0.04   0.08    -0.07  -0.02  -0.04
  20   6     0.01  -0.12  -0.21    -0.02   0.12   0.16     0.00   0.05   0.06
  21   6    -0.01  -0.07   0.01     0.02   0.16  -0.21    -0.01   0.01   0.04
  22   8     0.07   0.06   0.13     0.07  -0.01  -0.04     0.01   0.03  -0.01
  23   1     0.02   0.06  -0.01    -0.05   0.00   0.05    -0.04  -0.03   0.04
  24   6     0.13   0.04   0.06    -0.16  -0.14  -0.05    -0.04  -0.03   0.01
  25   8    -0.11  -0.08   0.06     0.13  -0.02  -0.03     0.05   0.01  -0.03
  26   8     0.07  -0.10  -0.07    -0.03   0.11   0.04    -0.04   0.05   0.02
  27   6    -0.00  -0.01   0.01     0.04   0.06  -0.06     0.01   0.02  -0.01
  28   1    -0.06  -0.03  -0.09    -0.04   0.02  -0.08    -0.01  -0.00  -0.01
  29   1     0.04   0.08  -0.04    -0.05   0.01   0.08    -0.02  -0.02   0.01
  30   1     0.04   0.06   0.08    -0.01   0.03  -0.02    -0.00   0.00  -0.01
  31   1    -0.06  -0.10   0.09    -0.03  -0.00  -0.02    -0.01   0.01  -0.02
  32   1     0.06  -0.03   0.01     0.08  -0.04   0.01     0.00   0.01  -0.01
  33   1    -0.05   0.00  -0.00    -0.04   0.06  -0.01    -0.01  -0.01   0.02
  34   1     0.07  -0.01   0.02     0.05  -0.01   0.02     0.04   0.05  -0.08
  35   1    -0.04  -0.04  -0.02    -0.01  -0.02  -0.06    -0.04  -0.05   0.09
  36   1    -0.03   0.00   0.03     0.12   0.08  -0.03     0.01   0.02  -0.02
  37   1     0.04   0.04   0.05     0.00  -0.03   0.00     0.00   0.00  -0.00
  38   1    -0.03  -0.11  -0.07    -0.08  -0.01   0.01     0.02   0.00  -0.00
  39   1    -0.14   0.12  -0.08    -0.11   0.02   0.02     0.01  -0.01   0.00
  40   1    -0.04   0.03  -0.03     0.00   0.05  -0.03    -0.01  -0.02   0.03
  41   1    -0.02   0.05   0.01     0.02   0.10  -0.01     0.04   0.01  -0.00
  42   1    -0.01  -0.02  -0.01    -0.02  -0.03  -0.04     0.02  -0.01  -0.00
  43   1    -0.07  -0.06   0.02    -0.03  -0.00   0.01    -0.02  -0.05   0.00
  44   1     0.06   0.00  -0.08    -0.06  -0.09   0.04     0.02  -0.02  -0.00
  45   1    -0.04  -0.05  -0.06     0.09   0.06   0.12     0.03   0.02   0.05
  46   1     0.00   0.06  -0.02    -0.02  -0.09  -0.05     0.00  -0.08   0.05
  47   1    -0.07  -0.04   0.03     0.11   0.06  -0.11     0.07   0.01  -0.04
  48   1     0.01   0.04  -0.02    -0.00  -0.04   0.01    -0.00  -0.02   0.01
  49   1    -0.02  -0.01   0.02     0.04   0.03  -0.04     0.01   0.01  -0.01
  50   1    -0.01  -0.00   0.02     0.03   0.02  -0.03     0.01   0.01  -0.01
                     40                     41                     42
                        a                      a                      a 
 Frequencies --   706.0226               715.7352               751.4109
 Red. masses --    11.5495                 9.8390                 4.6555
 Frc consts  --     0.0000                 0.0000                 0.0000
 IR Inten    --    24.3302                11.6439                22.3454
 Raman Activ --     0.0000                 0.0000                 0.0000
 Depolar     --     0.0000                 0.0000                 0.0000
 Atom AN      X      Y      Z        X      Y      Z        X      Y      Z
   1   6    -0.00  -0.06   0.20    -0.13   0.04   0.03    -0.07  -0.01   0.06
   2   6    -0.02  -0.08   0.07    -0.14  -0.03  -0.03    -0.06   0.10  -0.08
   3   6     0.02   0.04   0.01    -0.05   0.09   0.07     0.01  -0.00  -0.00
   4   6     0.02  -0.01   0.04     0.12  -0.07  -0.02    -0.01   0.01   0.01
   5   6    -0.06   0.01  -0.05     0.22  -0.09   0.10    -0.04   0.01  -0.02
   6   6    -0.08  -0.05   0.01     0.12  -0.05  -0.09    -0.02  -0.01   0.01
   7   6    -0.01   0.04  -0.07    -0.07  -0.10   0.03     0.01   0.02  -0.02
   8   6    -0.03  -0.02   0.01    -0.11  -0.04  -0.13     0.01   0.00   0.02
   9   7     0.15  -0.02  -0.01    -0.08   0.07  -0.05     0.05  -0.00  -0.01
  10   6     0.15   0.05   0.10    -0.00   0.40   0.13     0.01  -0.09   0.00
  11   6    -0.05   0.08  -0.05     0.13   0.09   0.01     0.06   0.03  -0.10
  12   6     0.05   0.06   0.05    -0.06   0.06   0.00     0.04   0.02  -0.01
  13   6    -0.07   0.08  -0.03     0.19  -0.17  -0.02     0.03   0.04  -0.05
  14   6     0.05   0.03  -0.03    -0.07  -0.07   0.05    -0.05  -0.03   0.02
  15   6     0.11   0.08  -0.02    -0.13  -0.04  -0.00    -0.03   0.08  -0.02
  16   6     0.03  -0.02  -0.13    -0.04   0.05   0.17     0.04  -0.28   0.25
  17   6    -0.13  -0.04   0.03     0.20   0.10  -0.06     0.08  -0.13   0.08
  18   6    -0.02   0.06   0.06     0.01  -0.08  -0.10     0.03  -0.12   0.02
  19   7     0.03   0.04  -0.02    -0.06  -0.07  -0.01     0.01   0.03   0.01
  20   6     0.03  -0.07  -0.10    -0.08   0.07   0.11     0.01  -0.01   0.00
  21   6     0.02  -0.08   0.09    -0.05   0.11  -0.12     0.02  -0.05   0.05
  22   8    -0.04   0.01   0.03     0.07  -0.03  -0.00     0.01   0.03  -0.01
  23   1     0.03   0.02  -0.02    -0.01  -0.01  -0.01    -0.01   0.02  -0.02
  24   6    -0.42  -0.19  -0.59    -0.10  -0.01  -0.23     0.03   0.09  -0.09
  25   8     0.09   0.05   0.19    -0.02   0.04   0.10    -0.09   0.06   0.05
  26   8     0.14   0.02   0.13     0.09  -0.05   0.03     0.08  -0.08  -0.02
  27   6     0.01  -0.01   0.01    -0.01  -0.03   0.02    -0.02  -0.04   0.03
  28   1    -0.03  -0.01   0.03     0.04  -0.07   0.16     0.03   0.00   0.04
  29   1    -0.02  -0.00   0.09    -0.00  -0.10  -0.12    -0.04  -0.06  -0.00
  30   1    -0.03  -0.05  -0.00    -0.03  -0.06  -0.01    -0.02  -0.02  -0.04
  31   1    -0.00  -0.02   0.00     0.00   0.02  -0.04     0.01   0.05  -0.05
  32   1     0.01   0.01   0.00    -0.01   0.02   0.02     0.00   0.00  -0.00
  33   1     0.01   0.01   0.01    -0.00  -0.09  -0.04     0.00   0.02   0.00
  34   1    -0.03   0.03  -0.02     0.07  -0.03   0.03    -0.01   0.01  -0.01
  35   1     0.00  -0.01  -0.00    -0.01  -0.05  -0.04     0.00   0.01   0.00
  36   1     0.06  -0.04  -0.02    -0.05  -0.07   0.05     0.02   0.00  -0.01
  37   1     0.06   0.01   0.04     0.03   0.10   0.05    -0.00  -0.03   0.01
  38   1    -0.03  -0.01  -0.01     0.07  -0.06  -0.02     0.00   0.05   0.01
  39   1    -0.03   0.04  -0.02     0.02  -0.04  -0.02     0.07   0.00   0.00
  40   1     0.04  -0.02  -0.01    -0.04  -0.04   0.05    -0.15   0.37  -0.19
  41   1    -0.02  -0.05   0.04     0.06   0.00  -0.03    -0.18   0.51  -0.26
  42   1     0.00   0.02   0.04    -0.01  -0.03  -0.03    -0.04  -0.05  -0.23
  43   1     0.01  -0.00  -0.01    -0.02  -0.02   0.00    -0.05   0.15   0.09
  44   1     0.03   0.06  -0.02    -0.05  -0.09   0.02     0.02   0.04   0.01
  45   1    -0.06  -0.04  -0.08     0.07   0.04   0.10    -0.04  -0.01  -0.03
  46   1     0.02   0.07   0.01    -0.03  -0.13   0.01     0.00   0.04  -0.01
  47   1    -0.08  -0.04   0.05     0.10   0.05  -0.14    -0.04  -0.02   0.05
  48   1    -0.01   0.01  -0.03    -0.00   0.03  -0.02     0.01   0.05  -0.02
  49   1     0.00   0.02  -0.03    -0.02  -0.00   0.01    -0.03  -0.02   0.03
  50   1    -0.04  -0.03   0.02    -0.03  -0.02   0.03    -0.03  -0.02   0.03
                     43                     44                     45
                        a                      a                      a 
 Frequencies --   762.2488               771.1892               794.0661
 Red. masses --    10.9538                 3.9246                 9.8125
 Frc consts  --     0.0000                 0.0000                 0.0000
 IR Inten    --    17.3299                20.4259                 8.6745
 Raman Activ --     0.0000                 0.0000                 0.0000
 Depolar     --     0.0000                 0.0000                 0.0000
 Atom AN      X      Y      Z        X      Y      Z        X      Y      Z
   1   6    -0.01   0.01  -0.15     0.03  -0.01   0.04     0.05  -0.05   0.01
   2   6     0.01  -0.05  -0.04     0.03  -0.02   0.01     0.09  -0.15   0.03
   3   6    -0.01   0.11   0.03     0.07   0.06  -0.15    -0.04   0.11   0.08
   4   6     0.12  -0.08  -0.02     0.05   0.09  -0.14     0.11  -0.11   0.04
   5   6     0.04  -0.05  -0.04     0.09   0.09  -0.13     0.08  -0.08   0.03
   6   6    -0.02  -0.03  -0.02    -0.06  -0.09   0.18     0.02  -0.00  -0.02
   7   6    -0.04  -0.01   0.03    -0.06  -0.07   0.12    -0.03  -0.01  -0.10
   8   6    -0.02   0.07  -0.02     0.08   0.08  -0.16    -0.12  -0.05  -0.07
   9   7    -0.17   0.02  -0.04     0.03   0.04  -0.03     0.04   0.08   0.09
  10   6    -0.05   0.19   0.07     0.02  -0.01   0.01     0.02   0.22   0.11
  11   6     0.06  -0.19   0.19    -0.01   0.04  -0.04    -0.05   0.04  -0.03
  12   6     0.06  -0.03  -0.00    -0.06  -0.04   0.00    -0.21  -0.26   0.02
  13   6     0.12   0.04   0.02    -0.02   0.03  -0.01    -0.03   0.29  -0.07
  14   6     0.03   0.06   0.05     0.02  -0.01  -0.04     0.08   0.04  -0.07
  15   6     0.01   0.17  -0.01    -0.04  -0.03  -0.02    -0.06  -0.34   0.15
  16   6     0.06  -0.11  -0.02     0.00  -0.01  -0.03     0.05  -0.11  -0.09
  17   6    -0.06  -0.07   0.03    -0.04  -0.02   0.01    -0.17  -0.11   0.08
  18   6    -0.02  -0.03   0.05     0.04   0.05   0.03     0.11   0.14   0.09
  19   7     0.04   0.03   0.04     0.04   0.01   0.03     0.10   0.07   0.04
  20   6     0.01  -0.05  -0.06    -0.00   0.01  -0.01     0.08   0.03  -0.12
  21   6     0.03  -0.02  -0.07    -0.02   0.03  -0.06    -0.03   0.03  -0.15
  22   8    -0.00  -0.00   0.01    -0.01  -0.02  -0.00    -0.09   0.03  -0.04
  23   1    -0.02   0.05   0.02    -0.02  -0.01   0.00    -0.11  -0.10   0.10
  24   6    -0.19  -0.30   0.12     0.04   0.07  -0.03     0.09   0.08   0.05
  25   8     0.31  -0.16  -0.14    -0.06   0.04   0.03    -0.07   0.04   0.00
  26   8    -0.26   0.29   0.13     0.05  -0.06  -0.03     0.02  -0.04  -0.03
  27   6     0.01   0.09  -0.04    -0.00  -0.02   0.01    -0.01  -0.02   0.01
  28   1    -0.04  -0.04  -0.02    -0.02   0.00  -0.02    -0.11  -0.05  -0.04
  29   1     0.02   0.02  -0.05    -0.00   0.02   0.04     0.02   0.08   0.06
  30   1     0.00   0.08   0.00    -0.01   0.02  -0.01    -0.02   0.09   0.00
  31   1    -0.06  -0.05   0.04    -0.01  -0.02   0.03    -0.07  -0.11   0.10
  32   1    -0.07  -0.01   0.07    -0.21  -0.25   0.42     0.02   0.07  -0.06
  33   1    -0.01  -0.08   0.04    -0.17  -0.19   0.33     0.04  -0.03  -0.09
  34   1    -0.03  -0.03   0.05    -0.14  -0.18   0.29     0.05   0.02  -0.05
  35   1    -0.03  -0.02   0.05    -0.15  -0.16   0.28     0.01  -0.04  -0.06
  36   1    -0.06  -0.03   0.02     0.01   0.02  -0.01     0.03   0.02   0.00
  37   1    -0.01   0.06  -0.00     0.00  -0.00   0.01    -0.01   0.06   0.04
  38   1     0.09  -0.04  -0.06    -0.02   0.02   0.01    -0.02   0.13   0.01
  39   1     0.01   0.09  -0.07    -0.00  -0.01   0.01     0.04   0.05   0.01
  40   1    -0.02   0.09  -0.08     0.01   0.01  -0.01     0.01   0.09  -0.07
  41   1    -0.07   0.15  -0.05    -0.01  -0.01  -0.00    -0.08   0.06  -0.03
  42   1    -0.02  -0.01  -0.05     0.01   0.01   0.00     0.05   0.05  -0.00
  43   1    -0.00   0.05   0.02     0.02   0.02  -0.00     0.05   0.03   0.01
  44   1    -0.01   0.02   0.00    -0.03  -0.03   0.01    -0.02  -0.09  -0.03
  45   1    -0.02  -0.02  -0.05     0.04   0.01   0.01     0.09   0.03   0.03
  46   1     0.01   0.05  -0.04    -0.01  -0.01  -0.01     0.03  -0.01   0.02
  47   1    -0.04  -0.01   0.01     0.01   0.01  -0.02     0.05   0.03  -0.04
  48   1    -0.04  -0.17   0.08     0.01   0.03  -0.02     0.01   0.03  -0.01
  49   1     0.10   0.04  -0.08    -0.02  -0.01   0.02    -0.02  -0.01   0.02
  50   1     0.09   0.04  -0.08    -0.02  -0.01   0.02    -0.01  -0.00   0.01
                     46                     47                     48
                        a                      a                      a 
 Frequencies --   805.2174               831.5528               840.2908
 Red. masses --     7.8386                 9.6907                 8.5931
 Frc consts  --     0.0000                 0.0000                 0.0000
 IR Inten    --     6.1236                 2.7399                12.1755
 Raman Activ --     0.0000                 0.0000                 0.0000
 Depolar     --     0.0000                 0.0000                 0.0000
 Atom AN      X      Y      Z        X      Y      Z        X      Y      Z
   1   6    -0.23   0.07  -0.04     0.09  -0.00   0.11     0.08  -0.07  -0.01
   2   6    -0.24   0.03   0.08     0.10  -0.05  -0.02     0.07   0.01  -0.13
   3   6     0.00   0.15   0.06     0.01   0.15   0.08    -0.04   0.12   0.06
   4   6     0.12  -0.05   0.02     0.20  -0.14   0.04     0.05  -0.02  -0.02
   5   6    -0.05  -0.04  -0.07     0.03  -0.08  -0.04    -0.10  -0.01  -0.10
   6   6    -0.06  -0.03  -0.00    -0.02   0.03   0.03    -0.05  -0.00  -0.05
   7   6    -0.06  -0.03  -0.05    -0.06  -0.04  -0.15     0.06  -0.01   0.06
   8   6    -0.10  -0.03  -0.08    -0.21  -0.14  -0.16     0.01   0.10   0.10
   9   7     0.25   0.05   0.09     0.15   0.19   0.20    -0.12  -0.07  -0.08
  10   6     0.08   0.12  -0.08    -0.07   0.01   0.00     0.06   0.10   0.17
  11   6    -0.05  -0.04  -0.08    -0.05  -0.09  -0.16     0.00  -0.00   0.02
  12   6     0.01  -0.09  -0.08    -0.03   0.05  -0.11     0.26  -0.22  -0.13
  13   6    -0.14  -0.08   0.07    -0.06  -0.08  -0.04    -0.13  -0.01   0.03
  14   6     0.03   0.04   0.14    -0.01  -0.03  -0.08    -0.05   0.05   0.02
  15   6     0.08   0.00   0.18    -0.25   0.28  -0.27     0.07  -0.12   0.09
  16   6     0.19  -0.00  -0.17    -0.05   0.04   0.03    -0.10   0.09   0.15
  17   6     0.01   0.01   0.01     0.03   0.04  -0.03     0.11   0.08  -0.05
  18   6    -0.12  -0.05   0.04     0.04  -0.02  -0.00    -0.14  -0.21  -0.11
  19   7    -0.01   0.07   0.07     0.02  -0.04   0.09    -0.05   0.01   0.09
  20   6     0.11  -0.03  -0.07     0.03  -0.01   0.20     0.03   0.05   0.13
  21   6     0.10  -0.06  -0.08     0.09  -0.06   0.16     0.21  -0.08  -0.23
  22   8    -0.04   0.08  -0.02     0.08  -0.10   0.03    -0.03   0.11  -0.05
  23   1    -0.02  -0.00   0.07    -0.03   0.08  -0.10    -0.04  -0.03   0.07
  24   6     0.10   0.04   0.15     0.06   0.03   0.06    -0.02   0.05  -0.04
  25   8    -0.03  -0.01  -0.04    -0.02   0.00  -0.02    -0.05   0.07   0.03
  26   8    -0.01  -0.01  -0.03    -0.01  -0.00  -0.01     0.07  -0.06  -0.02
  27   6     0.00   0.00  -0.01    -0.01  -0.01   0.01     0.02  -0.00  -0.01
  28   1     0.14  -0.02   0.18    -0.06  -0.00  -0.03    -0.11  -0.03  -0.09
  29   1    -0.03  -0.18  -0.20     0.03   0.09   0.09    -0.02   0.06   0.11
  30   1     0.02  -0.28   0.03    -0.05   0.13  -0.03     0.01   0.14  -0.02
  31   1     0.11   0.14  -0.19    -0.06  -0.08   0.11    -0.10  -0.07   0.04
  32   1    -0.02   0.01   0.06     0.01   0.03   0.03    -0.05   0.05  -0.02
  33   1     0.01  -0.04   0.02     0.04  -0.07  -0.04    -0.00  -0.03   0.03
  34   1    -0.04   0.01   0.01    -0.00  -0.00  -0.01    -0.08  -0.02   0.05
  35   1    -0.01  -0.05  -0.01    -0.01  -0.10  -0.08     0.01   0.09  -0.01
  36   1     0.11   0.04  -0.03     0.07   0.12  -0.00    -0.02  -0.09  -0.01
  37   1    -0.01   0.04  -0.04    -0.13   0.03  -0.04     0.06   0.01   0.08
  38   1    -0.07  -0.09   0.02    -0.06   0.02   0.05    -0.05   0.03   0.04
  39   1    -0.04   0.01  -0.01     0.06  -0.05   0.02    -0.01  -0.03   0.03
  40   1     0.07  -0.04  -0.02    -0.01  -0.03   0.03    -0.06  -0.04   0.05
  41   1     0.01   0.04   0.09     0.03  -0.06  -0.00     0.05  -0.04   0.03
  42   1    -0.00  -0.00   0.05    -0.03  -0.02  -0.01    -0.03  -0.05  -0.01
  43   1    -0.03  -0.06  -0.00     0.03   0.05  -0.02    -0.05  -0.08  -0.02
  44   1     0.03   0.07   0.00     0.01   0.16   0.10    -0.00   0.08   0.06
  45   1    -0.05  -0.03  -0.07    -0.10  -0.03  -0.08    -0.09  -0.01  -0.01
  46   1     0.04   0.14  -0.07     0.01   0.07  -0.00    -0.02   0.19  -0.26
  47   1    -0.09  -0.03   0.08    -0.07  -0.04   0.09    -0.13  -0.03   0.16
  48   1     0.00   0.00   0.00    -0.00  -0.00   0.00     0.01   0.05  -0.03
  49   1    -0.00  -0.00   0.00    -0.00  -0.00   0.00    -0.02  -0.01   0.01
  50   1     0.00   0.01  -0.00    -0.00  -0.00   0.00    -0.02  -0.01   0.02
                     49                     50                     51
                        a                      a                      a 
 Frequencies --   856.0724               858.3159               872.5802
 Red. masses --     7.5211                 5.9258                10.1981
 Frc consts  --     0.0000                 0.0000                 0.0000
 IR Inten    --     4.6777                 2.3499                 2.1840
 Raman Activ --     0.0000                 0.0000                 0.0000
 Depolar     --     0.0000                 0.0000                 0.0000
 Atom AN      X      Y      Z        X      Y      Z        X      Y      Z
   1   6    -0.01   0.01   0.04     0.01  -0.01   0.02     0.03  -0.08  -0.18
   2   6    -0.02  -0.10   0.14    -0.00  -0.07   0.08     0.12   0.28  -0.20
   3   6    -0.04   0.03   0.13     0.07   0.17  -0.12     0.01   0.12   0.07
   4   6     0.10   0.01  -0.06     0.04  -0.06   0.07     0.19  -0.12   0.00
   5   6     0.00   0.07  -0.22    -0.19  -0.16   0.17    -0.03  -0.07  -0.06
   6   6    -0.04  -0.01   0.01    -0.02   0.04  -0.06    -0.02   0.08   0.04
   7   6    -0.03  -0.05   0.03    -0.02  -0.05   0.05    -0.05  -0.08  -0.02
   8   6    -0.12  -0.09   0.04     0.01   0.05  -0.15    -0.18  -0.12  -0.14
   9   7     0.12   0.02   0.06     0.06  -0.00   0.05    -0.03   0.20   0.14
  10   6     0.02   0.04  -0.07     0.01   0.03  -0.03    -0.18  -0.30   0.09
  11   6    -0.05   0.03  -0.09    -0.03   0.02  -0.07     0.06  -0.02   0.10
  12   6     0.14   0.10   0.01     0.16   0.05  -0.01     0.03   0.11   0.07
  13   6    -0.06   0.21  -0.13    -0.06   0.13  -0.09     0.07  -0.14   0.12
  14   6    -0.04  -0.03  -0.06    -0.04  -0.01  -0.04     0.02   0.04   0.10
  15   6     0.29  -0.16  -0.02     0.24  -0.11   0.00     0.25  -0.03   0.25
  16   6    -0.13   0.01   0.17    -0.11   0.02   0.15    -0.02   0.03  -0.01
  17   6     0.05   0.03  -0.01     0.05   0.03  -0.01    -0.01  -0.03   0.01
  18   6    -0.00  -0.03  -0.07    -0.02  -0.05  -0.07    -0.07  -0.02  -0.04
  19   7    -0.08  -0.04  -0.17    -0.07  -0.03  -0.12    -0.02   0.01  -0.07
  20   6    -0.10   0.05   0.04    -0.07   0.04   0.04    -0.00  -0.03  -0.16
  21   6    -0.06   0.01   0.12    -0.03  -0.00   0.07    -0.08   0.02   0.00
  22   8    -0.00   0.02  -0.01    -0.01   0.04  -0.01    -0.05   0.08  -0.01
  23   1     0.14  -0.04  -0.06     0.10  -0.03  -0.02     0.08  -0.00   0.08
  24   6     0.03  -0.07   0.06     0.02  -0.04   0.04    -0.08   0.02  -0.11
  25   8     0.07  -0.10  -0.03     0.04  -0.06  -0.02    -0.03   0.07   0.03
  26   8    -0.09   0.09   0.03    -0.06   0.06   0.02     0.07  -0.06  -0.00
  27   6    -0.03  -0.00   0.02    -0.02  -0.00   0.01     0.03   0.01  -0.02
  28   1     0.01   0.00   0.02    -0.01  -0.00   0.00    -0.03   0.02  -0.13
  29   1     0.03   0.02  -0.01     0.02   0.02   0.01    -0.05   0.00   0.04
  30   1     0.01  -0.09   0.04     0.01  -0.04   0.02     0.07   0.14  -0.02
  31   1     0.03   0.00  -0.01     0.01  -0.01   0.00    -0.01   0.05  -0.02
  32   1     0.07   0.09  -0.11    -0.14  -0.12   0.27     0.00   0.02   0.03
  33   1    -0.04  -0.07   0.12     0.05   0.03  -0.06     0.02  -0.07   0.02
  34   1    -0.20  -0.18   0.31     0.18   0.27  -0.43    -0.02  -0.01   0.00
  35   1     0.11   0.08  -0.23    -0.13  -0.16   0.22     0.01  -0.08  -0.08
  36   1     0.05   0.03  -0.01     0.03   0.01  -0.01    -0.01   0.13   0.02
  37   1    -0.01   0.01  -0.03    -0.00   0.01  -0.01    -0.15  -0.07   0.05
  38   1    -0.04   0.17   0.04    -0.04   0.12   0.03     0.05  -0.10  -0.02
  39   1     0.10  -0.01   0.03     0.07  -0.01   0.03    -0.06   0.01  -0.01
  40   1    -0.05   0.04   0.02    -0.05   0.03   0.02    -0.01  -0.02   0.01
  41   1     0.01  -0.03  -0.05     0.02  -0.03  -0.03    -0.01   0.02   0.01
  42   1     0.00  -0.01  -0.03    -0.00  -0.01  -0.02     0.02   0.01   0.01
  43   1    -0.04  -0.02   0.02    -0.04  -0.02   0.01    -0.03  -0.05  -0.00
  44   1     0.05  -0.06  -0.06     0.04  -0.04  -0.04     0.03  -0.06  -0.07
  45   1     0.01   0.02   0.10     0.02   0.02   0.06     0.03   0.00   0.01
  46   1    -0.05  -0.09   0.02    -0.05  -0.05  -0.02     0.01  -0.06   0.07
  47   1     0.06   0.02  -0.01     0.02   0.01   0.02     0.04   0.01  -0.08
  48   1    -0.02  -0.07   0.04    -0.01  -0.05   0.03     0.01   0.05  -0.03
  49   1     0.03   0.01  -0.02     0.02   0.00  -0.01    -0.02  -0.00   0.01
  50   1     0.03   0.01  -0.02     0.02   0.00  -0.02    -0.02  -0.01   0.02
                     52                     53                     54
                        a                      a                      a 
 Frequencies --   897.8519               905.6539               908.7912
 Red. masses --     4.5591                 8.5496                 3.4135
 Frc consts  --     0.0000                 0.0000                 0.0000
 IR Inten    --     0.0677                10.4337                 3.1266
 Raman Activ --     0.0000                 0.0000                 0.0000
 Depolar     --     0.0000                 0.0000                 0.0000
 Atom AN      X      Y      Z        X      Y      Z        X      Y      Z
   1   6     0.01  -0.00   0.02     0.02   0.02   0.01     0.01  -0.01   0.02
   2   6    -0.01  -0.01   0.00    -0.03  -0.03   0.03     0.00  -0.00  -0.02
   3   6    -0.12  -0.02   0.23    -0.01   0.20   0.01     0.00  -0.03  -0.00
   4   6    -0.02  -0.08   0.12     0.07  -0.01  -0.04    -0.02   0.01   0.00
   5   6    -0.02   0.04  -0.16    -0.17  -0.06  -0.05     0.02   0.01   0.01
   6   6    -0.05  -0.02   0.04    -0.03   0.03  -0.03     0.00  -0.01  -0.00
   7   6     0.04  -0.04   0.03     0.14  -0.04  -0.00    -0.02   0.01   0.01
   8   6     0.12   0.17  -0.26    -0.07   0.01   0.14     0.02   0.00  -0.01
   9   7     0.01  -0.00  -0.01    -0.03  -0.04  -0.03     0.01  -0.01  -0.00
  10   6     0.02   0.02  -0.01     0.03   0.04  -0.02     0.01   0.02   0.02
  11   6     0.01  -0.05  -0.02     0.03  -0.14   0.03    -0.02   0.03  -0.05
  12   6     0.13  -0.09   0.02     0.23  -0.27   0.05    -0.02   0.05  -0.01
  13   6    -0.06  -0.04   0.03    -0.10  -0.05   0.12    -0.00   0.01  -0.06
  14   6    -0.01   0.03   0.00    -0.01   0.08   0.02    -0.01  -0.03   0.00
  15   6     0.05   0.11  -0.02    -0.03   0.22  -0.12     0.01  -0.03   0.02
  16   6     0.01  -0.01  -0.02     0.04  -0.01  -0.12    -0.11   0.27  -0.12
  17   6    -0.01  -0.00   0.00    -0.04  -0.06   0.04     0.10  -0.24   0.16
  18   6     0.01   0.02   0.02     0.07   0.11   0.09    -0.02   0.01  -0.05
  19   7    -0.01   0.00  -0.08    -0.01   0.03  -0.18    -0.01   0.01   0.01
  20   6    -0.06   0.05  -0.02    -0.16   0.14  -0.04     0.02  -0.01   0.01
  21   6    -0.06  -0.01   0.04    -0.07   0.00   0.08     0.00  -0.00   0.00
  22   8     0.04  -0.06   0.02     0.13  -0.25   0.06    -0.00  -0.02  -0.00
  23   1    -0.03   0.03   0.03    -0.11   0.06   0.03     0.03  -0.01  -0.01
  24   6     0.00   0.02   0.01    -0.03   0.06   0.02     0.02  -0.02   0.01
  25   8    -0.02   0.03  -0.00    -0.06   0.10   0.00     0.02  -0.03  -0.00
  26   8     0.02  -0.02  -0.01     0.06  -0.09  -0.03    -0.02   0.03   0.00
  27   6     0.01  -0.00  -0.01     0.04   0.01  -0.04    -0.02  -0.01   0.02
  28   1    -0.01   0.00  -0.00     0.01   0.00   0.01    -0.02  -0.01  -0.01
  29   1     0.00   0.01   0.01     0.01   0.00  -0.01    -0.00   0.01   0.03
  30   1    -0.00  -0.01  -0.00    -0.00  -0.03   0.01     0.01   0.02   0.00
  31   1    -0.01  -0.00  -0.01    -0.01  -0.00  -0.02    -0.02  -0.01   0.01
  32   1     0.16   0.22  -0.35    -0.11  -0.01   0.12     0.01   0.00  -0.02
  33   1     0.09   0.09  -0.17    -0.02  -0.04   0.07    -0.00   0.01  -0.00
  34   1    -0.10  -0.07   0.12    -0.03   0.05  -0.07     0.01  -0.00   0.01
  35   1    -0.26  -0.27   0.48     0.10   0.14  -0.19    -0.01  -0.02   0.03
  36   1     0.01  -0.00  -0.01    -0.00  -0.04  -0.01     0.00  -0.01  -0.00
  37   1     0.00   0.01  -0.01     0.02   0.01  -0.03     0.01   0.00   0.01
  38   1    -0.03  -0.02   0.01    -0.02  -0.10  -0.01    -0.02   0.05   0.03
  39   1    -0.00  -0.00  -0.00    -0.05   0.06  -0.03     0.04  -0.04   0.02
  40   1     0.00   0.00  -0.01     0.05  -0.07   0.01     0.17  -0.53   0.30
  41   1    -0.00   0.00  -0.00    -0.05   0.09  -0.04    -0.18   0.53  -0.22
  42   1    -0.01   0.00  -0.00    -0.00   0.02   0.00     0.06   0.03  -0.00
  43   1    -0.00   0.01   0.01     0.01   0.05   0.03     0.01  -0.05  -0.03
  44   1    -0.00  -0.08  -0.04    -0.02  -0.19  -0.09     0.01   0.03   0.01
  45   1     0.09   0.04   0.06     0.13   0.08   0.20    -0.02  -0.01  -0.02
  46   1    -0.07  -0.08  -0.03    -0.11  -0.14  -0.06     0.01   0.01   0.01
  47   1     0.06   0.03   0.04     0.15   0.08   0.09    -0.02  -0.01  -0.01
  48   1     0.01   0.02  -0.01     0.02   0.07  -0.04    -0.01  -0.03   0.02
  49   1    -0.01  -0.00   0.01    -0.02  -0.00   0.02     0.01   0.00  -0.01
  50   1    -0.01  -0.00   0.01    -0.02  -0.00   0.02     0.01   0.00  -0.01
                     55                     56                     57
                        a                      a                      a 
 Frequencies --   916.7395               930.2934               956.8037
 Red. masses --     3.1781                 8.6754                 9.1404
 Frc consts  --     0.0000                 0.0000                 0.0000
 IR Inten    --     0.0478                 3.1845                18.2914
 Raman Activ --     0.0000                 0.0000                 0.0000
 Depolar     --     0.0000                 0.0000                 0.0000
 Atom AN      X      Y      Z        X      Y      Z        X      Y      Z
   1   6    -0.00   0.00  -0.01    -0.05   0.08  -0.19    -0.11  -0.00  -0.04
   2   6     0.00   0.01   0.01     0.00   0.01   0.22     0.06   0.08  -0.08
   3   6     0.07   0.09  -0.15    -0.01   0.05   0.05     0.00  -0.02  -0.01
   4   6    -0.14  -0.17   0.28     0.06  -0.04   0.00    -0.02   0.01  -0.00
   5   6     0.06   0.07  -0.12    -0.05  -0.02  -0.04     0.03   0.01   0.02
   6   6     0.03   0.04  -0.06    -0.01   0.04   0.05     0.00  -0.02  -0.01
   7   6    -0.03  -0.04   0.06     0.03  -0.02  -0.02    -0.03   0.01   0.00
   8   6    -0.00   0.00  -0.01    -0.04  -0.02  -0.07     0.02   0.01   0.01
   9   7    -0.01   0.01   0.00    -0.02   0.06   0.04     0.03   0.00  -0.01
  10   6    -0.01  -0.01  -0.00    -0.09  -0.21  -0.04    -0.01  -0.03   0.08
  11   6     0.00   0.01   0.02     0.06   0.05   0.31     0.00   0.09  -0.08
  12   6     0.01  -0.00   0.01     0.02  -0.06  -0.01    -0.03  -0.00  -0.09
  13   6     0.01   0.02   0.01     0.08   0.32   0.11    -0.00   0.03   0.07
  14   6     0.00  -0.00  -0.00     0.01  -0.08  -0.07     0.14  -0.03   0.06
  15   6     0.01  -0.01  -0.01    -0.11  -0.22  -0.30    -0.01  -0.03   0.07
  16   6    -0.00   0.00   0.00    -0.05   0.03   0.03     0.01   0.03   0.12
  17   6    -0.00  -0.00   0.00    -0.01  -0.02   0.02    -0.12  -0.10   0.19
  18   6     0.00   0.00  -0.00     0.08   0.03  -0.01    -0.03   0.26  -0.35
  19   7    -0.00  -0.00  -0.01    -0.00  -0.06   0.00    -0.16   0.12  -0.11
  20   6    -0.01   0.00   0.00    -0.05  -0.00   0.18     0.02   0.09   0.14
  21   6     0.01   0.00  -0.01     0.15   0.00  -0.08     0.01  -0.06  -0.02
  22   8     0.00  -0.01  -0.00     0.00  -0.02  -0.01     0.14  -0.39   0.05
  23   1     0.01  -0.00  -0.01    -0.02  -0.07  -0.14    -0.01  -0.01   0.02
  24   6    -0.01  -0.00  -0.01    -0.11  -0.00  -0.07     0.06  -0.02  -0.05
  25   8    -0.00   0.00   0.00    -0.02   0.07   0.03     0.02  -0.06   0.00
  26   8     0.00  -0.00   0.00     0.04  -0.08   0.02    -0.02   0.10  -0.02
  27   6     0.00   0.00  -0.00     0.05   0.04  -0.05    -0.07  -0.06   0.07
  28   1     0.01   0.00  -0.00     0.12   0.05   0.00     0.01  -0.02   0.05
  29   1     0.00  -0.00  -0.01     0.04  -0.02  -0.15    -0.04  -0.08  -0.05
  30   1     0.01  -0.01   0.01     0.07  -0.11   0.09    -0.01   0.07  -0.03
  31   1     0.01   0.01  -0.00     0.13   0.08  -0.01     0.02   0.01   0.04
  32   1    -0.16  -0.18   0.32     0.02   0.04  -0.03     0.00  -0.00  -0.01
  33   1     0.29   0.32  -0.57     0.01  -0.02   0.02    -0.00   0.00  -0.00
  34   1    -0.14  -0.17   0.28    -0.01   0.01  -0.02     0.01  -0.00   0.01
  35   1     0.04   0.04  -0.08    -0.04  -0.05   0.04    -0.01   0.00   0.02
  36   1    -0.00   0.00  -0.00    -0.02   0.07   0.01     0.02  -0.02  -0.01
  37   1    -0.00  -0.00   0.00    -0.03  -0.06   0.02     0.01  -0.02   0.06
  38   1     0.01   0.00  -0.01     0.18  -0.00  -0.15    -0.05  -0.09   0.02
  39   1    -0.01   0.01  -0.00    -0.20   0.14  -0.03    -0.02   0.06  -0.03
  40   1     0.00  -0.01   0.00     0.02  -0.04   0.04     0.02   0.20  -0.03
  41   1    -0.00   0.00  -0.00    -0.02   0.02  -0.06    -0.04  -0.01   0.06
  42   1     0.00   0.00  -0.00     0.01   0.00  -0.01     0.30   0.18   0.03
  43   1    -0.00   0.00   0.00     0.03   0.02  -0.01     0.04  -0.23  -0.17
  44   1    -0.01  -0.01  -0.00    -0.03   0.05   0.07     0.07   0.09   0.01
  45   1    -0.00   0.00   0.01    -0.08  -0.02   0.01    -0.08   0.00   0.03
  46   1    -0.00   0.01  -0.01    -0.00   0.08  -0.12    -0.05   0.01  -0.09
  47   1     0.00   0.00   0.00    -0.06  -0.01   0.05    -0.05  -0.02   0.04
  48   1     0.00   0.00  -0.00     0.02   0.06  -0.04    -0.03  -0.07   0.04
  49   1    -0.00   0.00   0.00    -0.01   0.00   0.01     0.01  -0.01  -0.01
  50   1    -0.00   0.00   0.00    -0.01   0.00   0.01     0.01  -0.01  -0.01
                     58                     59                     60
                        a                      a                      a 
 Frequencies --   967.4750               971.4345               983.3525
 Red. masses --     9.4073                 9.0419                 8.2474
 Frc consts  --     0.0000                 0.0000                 0.0000
 IR Inten    --     2.1982                53.3366                20.7904
 Raman Activ --     0.0000                 0.0000                 0.0000
 Depolar     --     0.0000                 0.0000                 0.0000
 Atom AN      X      Y      Z        X      Y      Z        X      Y      Z
   1   6    -0.03   0.07   0.19    -0.11   0.06   0.09    -0.02  -0.01   0.06
   2   6    -0.03  -0.12  -0.18     0.07   0.01  -0.15     0.02   0.04  -0.15
   3   6     0.00  -0.03  -0.02    -0.01   0.04   0.02     0.00  -0.03  -0.02
   4   6    -0.03   0.02  -0.00    -0.01   0.01   0.00    -0.02   0.01  -0.00
   5   6     0.03   0.01   0.02    -0.05  -0.01  -0.03     0.05   0.01   0.03
   6   6     0.00  -0.03  -0.02     0.00  -0.01   0.00    -0.00  -0.02  -0.02
   7   6    -0.05   0.01   0.01     0.04  -0.01  -0.00    -0.05   0.01   0.01
   8   6     0.02   0.01   0.01    -0.00   0.00   0.01     0.02   0.01   0.01
   9   7     0.07  -0.03  -0.01     0.07  -0.02  -0.01     0.02  -0.01  -0.01
  10   6     0.02   0.10  -0.15    -0.04  -0.06  -0.05     0.01   0.04   0.03
  11   6    -0.14  -0.19   0.03     0.03   0.14  -0.11    -0.04  -0.02  -0.09
  12   6    -0.03   0.03  -0.10     0.02  -0.10   0.02    -0.03   0.02  -0.16
  13   6     0.10   0.08   0.15    -0.00   0.10   0.22     0.04   0.08   0.16
  14   6     0.09   0.03  -0.02     0.16  -0.05   0.03     0.02  -0.01   0.12
  15   6     0.16  -0.01  -0.01    -0.04  -0.01  -0.10     0.07  -0.14  -0.01
  16   6    -0.06   0.05   0.13    -0.09   0.08   0.07    -0.09  -0.10  -0.15
  17   6    -0.09  -0.02   0.11    -0.13   0.04   0.04     0.23  -0.08  -0.24
  18   6     0.00  -0.04  -0.20     0.08  -0.22  -0.04    -0.02   0.31   0.37
  19   7     0.04  -0.12  -0.01     0.16  -0.12   0.05    -0.19  -0.14  -0.12
  20   6     0.04  -0.01   0.05     0.00   0.03  -0.06    -0.00   0.02   0.12
  21   6    -0.07  -0.02   0.09    -0.05  -0.05   0.04     0.08   0.01   0.05
  22   8    -0.07   0.14  -0.02    -0.09   0.23  -0.03     0.02  -0.01   0.02
  23   1     0.09   0.01   0.04    -0.04  -0.00   0.02     0.08  -0.03  -0.01
  24   6    -0.17   0.00   0.20     0.18   0.02  -0.13     0.04   0.01  -0.00
  25   8    -0.04   0.11  -0.02     0.03  -0.10   0.01    -0.00  -0.01  -0.00
  26   8     0.00  -0.29   0.08     0.00   0.26  -0.09     0.01   0.04  -0.02
  27   6     0.19   0.20  -0.21    -0.18  -0.18   0.19    -0.03  -0.03   0.03
  28   1    -0.02  -0.03   0.11     0.03  -0.02   0.11    -0.03  -0.03   0.03
  29   1     0.02  -0.02  -0.01    -0.02  -0.08  -0.07    -0.04  -0.05   0.02
  30   1    -0.13   0.07  -0.12    -0.09   0.11  -0.10    -0.02   0.08  -0.05
  31   1    -0.05  -0.08   0.08     0.03  -0.03   0.11    -0.03  -0.02   0.03
  32   1     0.00  -0.01   0.00    -0.00   0.01   0.01    -0.00  -0.01  -0.01
  33   1    -0.01   0.00  -0.00    -0.00   0.01   0.01    -0.01  -0.01  -0.01
  34   1     0.00  -0.00   0.01    -0.02   0.01  -0.01     0.01  -0.00   0.01
  35   1     0.01  -0.00   0.01     0.02   0.00  -0.02    -0.00  -0.01   0.02
  36   1     0.01  -0.00   0.00     0.03   0.00  -0.01     0.01  -0.02  -0.01
  37   1    -0.03   0.06  -0.16    -0.00  -0.02  -0.01    -0.01   0.02  -0.02
  38   1     0.06  -0.16  -0.06    -0.03  -0.24  -0.02    -0.02  -0.17  -0.01
  39   1    -0.00   0.21  -0.13    -0.15   0.18  -0.08    -0.00   0.21  -0.12
  40   1     0.03   0.04   0.05     0.04  -0.06   0.09    -0.21  -0.11  -0.11
  41   1    -0.04   0.02   0.01    -0.02  -0.05   0.00     0.04  -0.02  -0.19
  42   1     0.06   0.01  -0.03    -0.10  -0.10  -0.10    -0.05   0.07   0.18
  43   1     0.04  -0.05  -0.10     0.06   0.11  -0.04    -0.13   0.01   0.22
  44   1     0.04   0.05   0.01    -0.04  -0.08  -0.01     0.12   0.09  -0.02
  45   1     0.02  -0.00  -0.05     0.11   0.04   0.03    -0.05  -0.01  -0.00
  46   1    -0.01  -0.04   0.05    -0.04  -0.05  -0.02    -0.01   0.02  -0.04
  47   1     0.01  -0.01  -0.02     0.04   0.01   0.06    -0.01  -0.00   0.03
  48   1     0.07   0.17  -0.11    -0.07  -0.16   0.10    -0.01  -0.02   0.02
  49   1    -0.03   0.02   0.01     0.02  -0.02  -0.01     0.00  -0.00  -0.00
  50   1    -0.03   0.02   0.01     0.02  -0.02  -0.01     0.00  -0.01  -0.00
                     61                     62                     63
                        a                      a                      a 
 Frequencies --   991.1004              1002.0766              1008.1899
 Red. masses --     8.0880                 9.2718                 7.8836
 Frc consts  --     0.0000                 0.0000                 0.0000
 IR Inten    --    17.5219                48.7423                23.8102
 Raman Activ --     0.0000                 0.0000                 0.0000
 Depolar     --     0.0000                 0.0000                 0.0000
 Atom AN      X      Y      Z        X      Y      Z        X      Y      Z
   1   6     0.25  -0.04   0.24     0.03  -0.07  -0.16    -0.14   0.09  -0.02
   2   6    -0.21  -0.11  -0.01    -0.03   0.09   0.15     0.12  -0.06  -0.03
   3   6     0.00   0.03   0.02    -0.02   0.03   0.00    -0.00   0.07   0.04
   4   6     0.05  -0.03   0.01    -0.01  -0.01  -0.01     0.00   0.02   0.01
   5   6    -0.05  -0.01  -0.03     0.02  -0.00   0.01    -0.12  -0.02  -0.07
   6   6     0.01   0.06   0.03    -0.00   0.02  -0.00     0.01  -0.01   0.00
   7   6     0.05  -0.03   0.02     0.00  -0.03   0.02     0.14  -0.04   0.02
   8   6    -0.05  -0.03  -0.04     0.02   0.02   0.04    -0.02  -0.00  -0.01
   9   7    -0.10  -0.01   0.04    -0.08   0.02  -0.01     0.08  -0.04  -0.04
  10   6     0.02   0.07  -0.36     0.04   0.03   0.18    -0.03  -0.06   0.05
  11   6     0.11   0.02   0.09     0.04  -0.04  -0.04    -0.01  -0.04  -0.02
  12   6     0.05   0.04   0.05     0.07  -0.04  -0.20     0.15   0.00   0.16
  13   6     0.02  -0.09   0.16    -0.09  -0.04  -0.01    -0.06   0.01  -0.09
  14   6    -0.14   0.11  -0.15    -0.04   0.05   0.03     0.02  -0.03   0.03
  15   6    -0.00  -0.04   0.07    -0.08   0.03  -0.13    -0.11   0.06  -0.05
  16   6     0.07  -0.05   0.02     0.07  -0.02  -0.03    -0.02  -0.00   0.02
  17   6     0.07  -0.05   0.05    -0.01  -0.07   0.08     0.13  -0.11  -0.00
  18   6    -0.05   0.15  -0.08     0.03   0.16  -0.08    -0.14   0.21  -0.08
  19   7    -0.02  -0.12  -0.02     0.07  -0.40  -0.02     0.02  -0.20   0.12
  20   6    -0.01  -0.06   0.05     0.22   0.01   0.13    -0.19  -0.27  -0.11
  21   6     0.05   0.06  -0.07    -0.23  -0.09   0.11     0.21   0.26  -0.01
  22   8    -0.04   0.05   0.00    -0.14   0.32   0.00    -0.08   0.13  -0.00
  23   1    -0.01   0.00   0.11     0.04   0.02   0.04     0.01   0.03   0.03
  24   6     0.10   0.03  -0.09    -0.01  -0.00  -0.01    -0.01   0.01   0.01
  25   8     0.00  -0.03   0.01    -0.00   0.01  -0.00    -0.01   0.01  -0.00
  26   8     0.03   0.13  -0.06     0.02   0.02  -0.01     0.00  -0.01  -0.00
  27   6    -0.09  -0.11   0.10    -0.01  -0.02   0.01     0.00  -0.00  -0.00
  28   1    -0.03   0.06  -0.10    -0.01   0.01  -0.09     0.03  -0.03   0.12
  29   1     0.07   0.15   0.17    -0.03   0.00   0.03     0.01  -0.05  -0.12
  30   1    -0.10  -0.14  -0.05     0.12  -0.07   0.11    -0.03   0.10  -0.03
  31   1    -0.08  -0.02  -0.11     0.02   0.07  -0.09     0.03  -0.04   0.12
  32   1     0.00   0.01   0.01    -0.03   0.01   0.00     0.01   0.02   0.01
  33   1     0.02   0.00   0.01    -0.02  -0.03  -0.02     0.01   0.03   0.02
  34   1    -0.02   0.01  -0.01     0.01  -0.02   0.01    -0.04   0.01  -0.02
  35   1    -0.01   0.00  -0.01     0.03   0.01  -0.02    -0.02   0.03   0.00
  36   1    -0.07   0.08   0.03    -0.01  -0.04  -0.01     0.04  -0.03  -0.02
  37   1    -0.04   0.05  -0.17     0.03  -0.01   0.11     0.02  -0.02   0.01
  38   1     0.16  -0.05  -0.11    -0.06   0.02   0.04    -0.08   0.04   0.05
  39   1    -0.26  -0.06   0.06     0.04  -0.02   0.01     0.12  -0.00  -0.01
  40   1     0.01   0.08  -0.04     0.03   0.08  -0.04    -0.10   0.06  -0.07
  41   1    -0.01   0.09  -0.01    -0.02   0.04   0.00     0.01   0.04  -0.02
  42   1     0.09   0.08   0.08     0.05   0.05   0.11     0.08   0.10   0.21
  43   1    -0.01  -0.11  -0.04     0.06  -0.06  -0.09     0.03  -0.16  -0.11
  44   1    -0.04   0.03   0.04     0.10   0.14   0.05    -0.28  -0.14   0.09
  45   1    -0.03  -0.02  -0.05     0.21   0.05  -0.19     0.04  -0.05  -0.10
  46   1     0.01   0.02  -0.02    -0.18  -0.20  -0.07     0.14   0.07   0.12
  47   1    -0.01   0.00  -0.04     0.04  -0.00  -0.01     0.10   0.07  -0.04
  48   1    -0.03  -0.07   0.05    -0.00  -0.00   0.00     0.00   0.01  -0.01
  49   1     0.01  -0.02   0.00    -0.00  -0.00   0.00    -0.00  -0.00   0.00
  50   1     0.01  -0.01   0.00    -0.00  -0.00   0.00    -0.00   0.00   0.00
                     64                     65                     66
                        a                      a                      a 
 Frequencies --  1019.3418              1038.8085              1040.6137
 Red. masses --     6.7920                 9.3804                10.4621
 Frc consts  --     0.0000                 0.0000                 0.0000
 IR Inten    --     1.2323                 4.8921                 3.5741
 Raman Activ --     0.0000                 0.0000                 0.0000
 Depolar     --     0.0000                 0.0000                 0.0000
 Atom AN      X      Y      Z        X      Y      Z        X      Y      Z
   1   6     0.16  -0.21  -0.01    -0.05   0.03  -0.07    -0.01  -0.07   0.08
   2   6    -0.19   0.23   0.02     0.08  -0.04   0.07     0.00   0.06  -0.03
   3   6    -0.01  -0.01  -0.01     0.00  -0.07  -0.04     0.01   0.04   0.03
   4   6     0.03  -0.03   0.00    -0.01   0.01  -0.00     0.05  -0.01   0.02
   5   6     0.03   0.00   0.02     0.09   0.03   0.06    -0.13  -0.03  -0.08
   6   6    -0.01   0.03   0.01    -0.03  -0.05  -0.04     0.05   0.05   0.05
   7   6     0.00   0.01  -0.00    -0.12   0.04  -0.03     0.13  -0.01   0.05
   8   6    -0.01  -0.00  -0.02     0.03   0.02   0.02    -0.09  -0.06  -0.07
   9   7    -0.12   0.01   0.02     0.06   0.01   0.00    -0.01  -0.01   0.01
  10   6     0.12   0.13   0.05    -0.05  -0.00   0.09     0.04  -0.05  -0.13
  11   6    -0.14   0.01  -0.16     0.06  -0.09   0.01    -0.16   0.43  -0.11
  12   6    -0.04  -0.01  -0.03    -0.05   0.04  -0.13     0.10   0.11   0.18
  13   6     0.07   0.00   0.10    -0.06  -0.12  -0.01     0.19  -0.12  -0.08
  14   6     0.05  -0.00   0.16    -0.02   0.14  -0.08     0.10   0.00   0.01
  15   6     0.02  -0.13  -0.21     0.04   0.04   0.16    -0.23  -0.05   0.09
  16   6     0.04   0.02   0.01     0.05  -0.01  -0.05     0.00  -0.03  -0.04
  17   6    -0.09   0.01   0.07    -0.19   0.04   0.09    -0.08  -0.01   0.01
  18   6     0.05  -0.05  -0.08     0.26   0.00  -0.01     0.13   0.05   0.06
  19   7     0.05  -0.01   0.00    -0.08  -0.30  -0.33    -0.04  -0.15  -0.12
  20   6    -0.22  -0.10  -0.03    -0.26  -0.05   0.14     0.01   0.06   0.06
  21   6     0.19   0.13   0.11     0.27   0.13   0.04     0.03  -0.04  -0.14
  22   8    -0.00  -0.00  -0.01    -0.02   0.13   0.01    -0.01   0.06   0.01
  23   1     0.05  -0.05  -0.18    -0.01   0.05   0.30    -0.13  -0.00   0.14
  24   6     0.02  -0.00   0.06    -0.01   0.01  -0.02    -0.02  -0.08   0.08
  25   8    -0.00  -0.02  -0.01    -0.01   0.02  -0.00     0.05  -0.14   0.00
  26   8    -0.01  -0.00  -0.01     0.03   0.03  -0.03    -0.16  -0.18   0.17
  27   6    -0.00   0.01  -0.00    -0.01  -0.04   0.02     0.08   0.22  -0.13
  28   1    -0.07   0.04  -0.20    -0.00  -0.03   0.04     0.02   0.03  -0.02
  29   1    -0.11  -0.01   0.22     0.04   0.02  -0.07    -0.03  -0.02   0.05
  30   1     0.09  -0.12   0.07     0.03   0.02   0.03    -0.06  -0.01  -0.06
  31   1    -0.05   0.11  -0.22     0.02  -0.02   0.04     0.04   0.03   0.01
  32   1    -0.01   0.00  -0.01    -0.01  -0.02  -0.02     0.05   0.00   0.03
  33   1     0.00  -0.02  -0.01    -0.01  -0.01  -0.01     0.04   0.05   0.05
  34   1     0.01  -0.00   0.00     0.02   0.02   0.02    -0.04   0.01  -0.02
  35   1    -0.02  -0.01   0.02    -0.02   0.02   0.02    -0.03   0.01  -0.03
  36   1    -0.03  -0.01   0.01     0.04  -0.02  -0.02    -0.04   0.05   0.03
  37   1     0.04   0.02   0.06    -0.05   0.01   0.02     0.11  -0.06   0.09
  38   1    -0.11  -0.16   0.07    -0.00   0.01   0.01    -0.05  -0.08   0.05
  39   1     0.15   0.19  -0.13    -0.03  -0.09   0.05     0.08  -0.04  -0.01
  40   1     0.04   0.03   0.01     0.16   0.02   0.05     0.01  -0.01   0.00
  41   1    -0.01  -0.01   0.06    -0.05  -0.03  -0.04    -0.03  -0.03  -0.06
  42   1     0.01  -0.02  -0.05     0.01  -0.02  -0.18    -0.00  -0.00  -0.04
  43   1     0.06   0.02  -0.07    -0.00   0.12   0.08    -0.00   0.05   0.06
  44   1    -0.14  -0.12   0.01     0.01  -0.01  -0.01     0.01   0.01   0.00
  45   1    -0.07  -0.04   0.08    -0.18  -0.05   0.11     0.02   0.02   0.01
  46   1     0.13   0.10   0.12     0.09   0.12  -0.00    -0.10  -0.01  -0.19
  47   1     0.04   0.03   0.04    -0.00   0.02   0.05    -0.04  -0.01   0.02
  48   1    -0.00  -0.01   0.01     0.00   0.01  -0.00    -0.00  -0.03   0.01
  49   1     0.01   0.00  -0.01    -0.01  -0.01   0.01     0.04   0.04  -0.03
  50   1     0.00   0.00  -0.01    -0.01  -0.01   0.01     0.03   0.03  -0.05
                     67                     68                     69
                        a                      a                      a 
 Frequencies --  1054.5151              1072.2009              1090.3988
 Red. masses --     6.9998                 7.9799                 6.6182
 Frc consts  --     0.0000                 0.0000                 0.0000
 IR Inten    --     1.0086                 0.9167                10.0746
 Raman Activ --     0.0000                 0.0000                 0.0000
 Depolar     --     0.0000                 0.0000                 0.0000
 Atom AN      X      Y      Z        X      Y      Z        X      Y      Z
   1   6     0.01  -0.01  -0.00    -0.03  -0.08   0.00     0.08   0.07   0.01
   2   6     0.02   0.01   0.03     0.02   0.05   0.05    -0.08  -0.03  -0.08
   3   6     0.00  -0.10  -0.05    -0.01   0.05   0.02     0.01  -0.02  -0.00
   4   6    -0.03   0.01  -0.01    -0.05   0.00  -0.03    -0.05   0.02  -0.01
   5   6     0.14   0.03   0.09     0.04  -0.01   0.01     0.02  -0.01   0.01
   6   6    -0.04  -0.04  -0.03    -0.01   0.01  -0.00    -0.01  -0.04  -0.02
   7   6    -0.20   0.11  -0.09    -0.04  -0.02  -0.03    -0.08   0.08  -0.05
   8   6     0.03   0.00   0.02     0.06   0.01   0.04     0.01  -0.02   0.01
   9   7     0.06   0.04   0.04    -0.02   0.02   0.02     0.06   0.00   0.02
  10   6    -0.06  -0.01  -0.01     0.01   0.02  -0.05    -0.07  -0.01   0.01
  11   6    -0.02   0.13  -0.00     0.08   0.16  -0.05    -0.12  -0.12   0.12
  12   6    -0.15  -0.02   0.00    -0.03  -0.13  -0.29    -0.00   0.12   0.33
  13   6     0.08  -0.05  -0.02     0.00   0.01   0.02     0.03   0.02  -0.05
  14   6    -0.05   0.02  -0.03     0.14   0.05  -0.06    -0.12  -0.14   0.08
  15   6     0.05   0.08  -0.02     0.06   0.06   0.00     0.01   0.05   0.04
  16   6    -0.01  -0.02   0.03    -0.09   0.02   0.07     0.08   0.01  -0.08
  17   6     0.11  -0.11   0.02    -0.00   0.05  -0.07    -0.04   0.08  -0.00
  18   6    -0.17   0.05  -0.04     0.06   0.05   0.02     0.09   0.05   0.00
  19   7     0.27  -0.09  -0.02    -0.34  -0.03   0.32    -0.22  -0.14   0.07
  20   6    -0.14   0.25  -0.08    -0.01  -0.08  -0.20     0.02   0.04  -0.03
  21   6     0.15  -0.26   0.04     0.10  -0.03   0.17     0.11  -0.16  -0.17
  22   8    -0.04   0.05  -0.03     0.03  -0.03  -0.02     0.01   0.02   0.00
  23   1     0.11   0.04   0.01     0.05   0.03   0.03     0.18   0.01  -0.13
  24   6     0.00  -0.02  -0.00    -0.01  -0.03   0.00    -0.01   0.01   0.01
  25   8     0.02  -0.04   0.00     0.02  -0.05   0.00    -0.02   0.05  -0.00
  26   8    -0.05  -0.05   0.06    -0.08  -0.09   0.09     0.09   0.09  -0.10
  27   6     0.02   0.07  -0.03     0.03   0.10  -0.06    -0.02  -0.10   0.05
  28   1    -0.01  -0.00  -0.01     0.00   0.01  -0.03    -0.01  -0.00   0.00
  29   1     0.03   0.03  -0.00    -0.01  -0.00   0.02     0.02   0.03   0.01
  30   1     0.00  -0.01   0.01    -0.03  -0.04  -0.02     0.03   0.01   0.02
  31   1     0.01   0.01  -0.00     0.04   0.03  -0.00    -0.06  -0.03  -0.03
  32   1    -0.01  -0.02  -0.02    -0.03   0.02  -0.00     0.03  -0.01   0.01
  33   1    -0.02  -0.03  -0.03    -0.04  -0.05  -0.05    -0.02   0.00  -0.01
  34   1     0.04   0.01   0.02     0.03  -0.03  -0.00     0.02  -0.02  -0.01
  35   1     0.05  -0.07  -0.01     0.06  -0.05  -0.01     0.07  -0.09  -0.03
  36   1     0.02   0.03   0.00    -0.01   0.01   0.01     0.02   0.01  -0.00
  37   1    -0.05  -0.00   0.02     0.00  -0.01   0.06    -0.06   0.03  -0.09
  38   1     0.06   0.02  -0.03     0.07   0.02  -0.04    -0.01   0.03   0.02
  39   1    -0.07  -0.08   0.04    -0.24  -0.15   0.12     0.22   0.12  -0.10
  40   1    -0.07   0.05  -0.05    -0.04  -0.05   0.03     0.10  -0.01   0.02
  41   1     0.01   0.06   0.00     0.00  -0.06  -0.10     0.01  -0.02   0.06
  42   1    -0.14  -0.02   0.30     0.20   0.08  -0.23     0.20   0.07  -0.23
  43   1     0.06  -0.09  -0.13    -0.05   0.02   0.07    -0.07   0.02   0.10
  44   1    -0.09  -0.21  -0.06    -0.09  -0.11  -0.02    -0.11  -0.07   0.04
  45   1     0.09   0.10   0.25     0.27   0.06  -0.11     0.27   0.09  -0.10
  46   1    -0.03   0.12  -0.15     0.07   0.05   0.09    -0.10   0.04  -0.26
  47   1    -0.01  -0.01   0.31     0.11   0.05   0.17    -0.00   0.00   0.18
  48   1    -0.00  -0.02   0.01    -0.00  -0.02   0.01     0.01   0.03  -0.02
  49   1     0.02   0.01  -0.01     0.02   0.01  -0.01    -0.02  -0.01   0.01
  50   1     0.01   0.01  -0.02     0.02   0.02  -0.02    -0.02  -0.02   0.03
                     70                     71                     72
                        a                      a                      a 
 Frequencies --  1101.0878              1109.2501              1111.5448
 Red. masses --     7.8517                 8.0481                 8.0530
 Frc consts  --     0.0000                 0.0000                 0.0000
 IR Inten    --    12.5921                14.8148                 7.7215
 Raman Activ --     0.0000                 0.0000                 0.0000
 Depolar     --     0.0000                 0.0000                 0.0000
 Atom AN      X      Y      Z        X      Y      Z        X      Y      Z
   1   6     0.00   0.05  -0.01    -0.20  -0.28   0.08    -0.18  -0.23   0.06
   2   6    -0.02  -0.10  -0.02     0.19   0.23   0.07     0.16   0.12   0.04
   3   6    -0.06  -0.24  -0.17    -0.06  -0.17  -0.13     0.04   0.15   0.11
   4   6     0.32  -0.14   0.08     0.12  -0.02   0.04    -0.12   0.02  -0.05
   5   6     0.07   0.14   0.11     0.08   0.10   0.10    -0.05  -0.08  -0.06
   6   6    -0.04   0.13   0.05    -0.07  -0.11  -0.10     0.03   0.07   0.06
   7   6     0.02   0.05   0.04    -0.07   0.04  -0.02     0.03  -0.03  -0.03
   8   6    -0.22   0.00  -0.11    -0.04   0.05   0.01     0.08  -0.03   0.03
   9   7    -0.22   0.07   0.01     0.16  -0.06   0.01    -0.16   0.02   0.00
  10   6     0.28  -0.09  -0.02    -0.11   0.18  -0.21     0.23   0.10  -0.24
  11   6     0.00  -0.05   0.02     0.13  -0.09   0.00     0.00  -0.08   0.06
  12   6    -0.07  -0.03  -0.05     0.14   0.02   0.19    -0.19  -0.13   0.11
  13   6    -0.05   0.07  -0.06    -0.06   0.02   0.02    -0.02   0.08  -0.10
  14   6     0.04  -0.13  -0.03     0.08   0.06   0.09     0.11  -0.13   0.05
  15   6     0.02   0.11   0.05    -0.04  -0.06  -0.07     0.08   0.20   0.06
  16   6    -0.03   0.02   0.01    -0.00   0.01  -0.01    -0.04   0.03   0.00
  17   6     0.03   0.00  -0.01    -0.04  -0.00   0.01    -0.02  -0.02   0.01
  18   6    -0.00   0.02  -0.01     0.01  -0.01   0.01     0.01   0.01  -0.01
  19   7    -0.07  -0.06   0.08     0.01   0.02  -0.05     0.01  -0.07  -0.16
  20   6     0.02   0.05  -0.05     0.02  -0.07   0.04    -0.00   0.02   0.11
  21   6     0.01  -0.06   0.01    -0.01   0.05  -0.05     0.00   0.00  -0.11
  22   8     0.01   0.02  -0.01    -0.01   0.00   0.02    -0.01   0.03   0.02
  23   1     0.04   0.04   0.08    -0.02  -0.04  -0.13     0.12   0.06  -0.05
  24   6    -0.07  -0.02   0.05     0.06   0.03  -0.04    -0.05  -0.01   0.07
  25   8    -0.00   0.03  -0.01    -0.00   0.00  -0.00    -0.00   0.03  -0.01
  26   8     0.07   0.06  -0.07    -0.07  -0.04   0.08     0.04   0.06  -0.08
  27   6    -0.00  -0.07   0.03     0.02   0.04  -0.04     0.02  -0.07   0.05
  28   1     0.13   0.10  -0.02    -0.15  -0.12   0.01     0.01   0.01  -0.03
  29   1    -0.11  -0.14   0.02    -0.09  -0.06   0.07    -0.24  -0.24   0.12
  30   1    -0.07  -0.01  -0.05     0.09   0.07   0.05     0.01   0.04  -0.01
  31   1     0.11   0.01   0.10    -0.03   0.04  -0.03     0.12   0.05   0.10
  32   1    -0.14  -0.05  -0.11    -0.14  -0.03  -0.09     0.08   0.03   0.06
  33   1     0.14   0.05   0.10     0.06   0.03   0.05    -0.07  -0.06  -0.07
  34   1    -0.12   0.25   0.09    -0.11   0.23   0.08     0.10  -0.18  -0.07
  35   1    -0.18   0.20   0.01    -0.08   0.13   0.02     0.10  -0.13  -0.02
  36   1    -0.11   0.06   0.05     0.07  -0.02  -0.03    -0.11   0.07   0.05
  37   1     0.16  -0.03  -0.01    -0.21   0.07  -0.07     0.06   0.02  -0.05
  38   1    -0.04   0.03   0.01     0.06   0.07  -0.04     0.05   0.12  -0.04
  39   1     0.05   0.02  -0.01    -0.13  -0.09   0.08    -0.05  -0.09   0.07
  40   1     0.03   0.01   0.02    -0.06  -0.03  -0.02     0.02   0.01   0.01
  41   1     0.01  -0.03  -0.04    -0.01  -0.01   0.01    -0.01  -0.05  -0.06
  42   1     0.01   0.01   0.00     0.01  -0.00  -0.02    -0.07  -0.02   0.06
  43   1    -0.00  -0.00   0.00     0.01   0.01   0.00    -0.02   0.01   0.02
  44   1     0.01  -0.06  -0.04    -0.04   0.01   0.04    -0.04   0.04   0.06
  45   1     0.04   0.02   0.03     0.04  -0.01  -0.09    -0.03  -0.00  -0.00
  46   1     0.01   0.02   0.00    -0.09  -0.07  -0.11     0.04   0.04   0.01
  47   1     0.02   0.01   0.06     0.03   0.02  -0.01    -0.03  -0.01  -0.02
  48   1     0.01   0.03  -0.02     0.01   0.01   0.00     0.01   0.05  -0.05
  49   1    -0.02  -0.01   0.01    -0.01  -0.01   0.02    -0.02   0.01  -0.01
  50   1    -0.01  -0.01   0.02     0.00   0.02  -0.00    -0.04  -0.05   0.04
                     73                     74                     75
                        a                      a                      a 
 Frequencies --  1113.7680              1121.7676              1126.4540
 Red. masses --     3.9020                 9.1988                10.7150
 Frc consts  --     0.0000                 0.0000                 0.0000
 IR Inten    --     1.4653                42.0707                94.7149
 Raman Activ --     0.0000                 0.0000                 0.0000
 Depolar     --     0.0000                 0.0000                 0.0000
 Atom AN      X      Y      Z        X      Y      Z        X      Y      Z
   1   6    -0.00  -0.00  -0.01    -0.12  -0.08   0.05    -0.01  -0.05  -0.06
   2   6     0.01   0.01   0.01     0.10   0.05   0.01    -0.02   0.06   0.09
   3   6    -0.00  -0.02  -0.01     0.04   0.02   0.03    -0.01  -0.03  -0.02
   4   6     0.01   0.00   0.01    -0.03   0.03   0.00     0.03   0.01   0.02
   5   6     0.00   0.01   0.00    -0.06  -0.05  -0.06    -0.01   0.01   0.00
   6   6    -0.00  -0.01  -0.01     0.06  -0.00   0.02     0.01  -0.05  -0.02
   7   6     0.00   0.00   0.01     0.01   0.01   0.06     0.02   0.01   0.00
   8   6    -0.01   0.00  -0.00    -0.04  -0.02  -0.04    -0.03   0.01  -0.01
   9   7     0.03  -0.01  -0.00    -0.00  -0.03  -0.02     0.14  -0.04   0.00
  10   6    -0.03   0.00   0.02     0.04   0.06  -0.14    -0.12   0.05   0.02
  11   6    -0.03   0.01  -0.00    -0.07  -0.04   0.16    -0.38   0.12   0.14
  12   6     0.02   0.01  -0.01     0.18   0.31  -0.23    -0.09  -0.18   0.06
  13   6     0.02  -0.02   0.01     0.01  -0.04  -0.06     0.23  -0.17  -0.07
  14   6    -0.01   0.03  -0.02     0.01   0.09   0.10     0.24   0.23  -0.10
  15   6    -0.00  -0.02  -0.01    -0.23  -0.21  -0.01     0.17   0.08  -0.12
  16   6    -0.00  -0.00   0.00     0.06  -0.00  -0.02    -0.11  -0.01   0.11
  17   6     0.00   0.00  -0.00    -0.01  -0.01   0.02    -0.02  -0.04  -0.03
  18   6    -0.00  -0.00   0.00     0.08   0.02  -0.00    -0.06  -0.01   0.01
  19   7    -0.00   0.01   0.02    -0.08  -0.04   0.24    -0.01   0.04  -0.03
  20   6     0.00  -0.00  -0.01    -0.07   0.07  -0.21     0.05  -0.03   0.07
  21   6    -0.00   0.00   0.01     0.05  -0.06   0.15    -0.05   0.01  -0.05
  22   8     0.00  -0.00  -0.00     0.02  -0.01  -0.04    -0.00  -0.01   0.01
  23   1    -0.02  -0.00   0.01    -0.07  -0.05   0.05    -0.06   0.02   0.04
  24   6     0.00   0.00   0.02    -0.14  -0.05   0.11    -0.17  -0.07   0.18
  25   8    -0.01  -0.00  -0.01     0.01   0.02  -0.01     0.00   0.02  -0.01
  26   8    -0.12  -0.05  -0.19     0.14   0.15  -0.15     0.22   0.18  -0.21
  27   6     0.24   0.10   0.33     0.01  -0.17   0.04    -0.04  -0.20   0.06
  28   1    -0.01  -0.01   0.00    -0.06  -0.06   0.04    -0.04  -0.03  -0.02
  29   1     0.02   0.02  -0.01    -0.05  -0.06   0.01     0.10   0.12  -0.04
  30   1     0.01  -0.00   0.01     0.04   0.06   0.02    -0.08  -0.08  -0.04
  31   1    -0.01  -0.00  -0.01    -0.04  -0.02   0.00     0.01   0.04  -0.06
  32   1    -0.01  -0.00  -0.01     0.10  -0.01   0.05    -0.01  -0.01  -0.01
  33   1     0.01   0.01   0.01     0.02   0.06   0.05     0.03   0.04   0.04
  34   1    -0.01   0.02   0.01     0.02  -0.07  -0.03    -0.04   0.06   0.02
  35   1    -0.01   0.02   0.00    -0.00  -0.03  -0.00    -0.04   0.06   0.00
  36   1     0.01  -0.01  -0.01    -0.04   0.03   0.02     0.05  -0.02  -0.01
  37   1    -0.01  -0.00   0.01     0.01   0.02  -0.06     0.01  -0.02   0.10
  38   1     0.02  -0.00  -0.01     0.06   0.08  -0.03     0.03  -0.05   0.00
  39   1    -0.01  -0.00   0.00     0.06  -0.04   0.02     0.04  -0.09   0.02
  40   1    -0.01  -0.00  -0.00    -0.06  -0.02  -0.04    -0.10  -0.02   0.01
  41   1    -0.00   0.00   0.00    -0.00   0.03   0.06    -0.03  -0.04  -0.15
  42   1     0.01   0.00  -0.01    -0.04  -0.01   0.03    -0.01   0.00   0.01
  43   1    -0.00  -0.00  -0.00     0.15   0.07  -0.13    -0.04  -0.03   0.02
  44   1    -0.00  -0.00  -0.00     0.20  -0.06  -0.21    -0.05   0.03   0.07
  45   1     0.01   0.00  -0.00    -0.05   0.01   0.15     0.03  -0.00  -0.07
  46   1    -0.00  -0.01   0.00    -0.05  -0.00  -0.06     0.01  -0.01   0.02
  47   1     0.00  -0.00  -0.00    -0.01  -0.02   0.05     0.02   0.02  -0.01
  48   1    -0.14  -0.06  -0.19     0.04   0.11  -0.06     0.03   0.09  -0.04
  49   1     0.10   0.40  -0.42    -0.06  -0.04   0.04    -0.05  -0.05   0.05
  50   1    -0.29  -0.48   0.16    -0.03  -0.01   0.05    -0.00   0.01   0.03
                     76                     77                     78
                        a                      a                      a 
 Frequencies --  1136.2548              1141.2110              1147.0100
 Red. masses --     6.8496                 7.5776                 6.6799
 Frc consts  --     0.0000                 0.0000                 0.0000
 IR Inten    --     4.8916                 8.3331                 6.9567
 Raman Activ --     0.0000                 0.0000                 0.0000
 Depolar     --     0.0000                 0.0000                 0.0000
 Atom AN      X      Y      Z        X      Y      Z        X      Y      Z
   1   6     0.09   0.04  -0.05     0.06   0.01  -0.04     0.00   0.01   0.01
   2   6    -0.14  -0.04  -0.04    -0.10   0.03  -0.02     0.01   0.01   0.01
   3   6    -0.00  -0.00  -0.01     0.00   0.01   0.01     0.01  -0.01   0.00
   4   6    -0.05  -0.03  -0.05     0.01   0.03   0.02     0.02   0.02   0.02
   5   6     0.11   0.05   0.08    -0.05  -0.03  -0.04    -0.05  -0.04  -0.05
   6   6    -0.10   0.01  -0.04     0.04  -0.03   0.01     0.06  -0.00   0.03
   7   6    -0.19   0.02  -0.09     0.11  -0.01   0.01     0.07   0.02   0.05
   8   6     0.12  -0.01   0.06    -0.04   0.01  -0.01    -0.08   0.00  -0.04
   9   7    -0.06   0.09   0.07     0.06  -0.06  -0.04    -0.00  -0.04  -0.04
  10   6     0.05  -0.06  -0.04    -0.11   0.03   0.06    -0.03   0.01   0.06
  11   6     0.25  -0.04   0.08     0.13  -0.08  -0.00     0.12   0.05  -0.21
  12   6     0.17   0.10   0.12    -0.16  -0.12   0.21    -0.08   0.02  -0.01
  13   6    -0.16   0.02  -0.07    -0.06   0.02  -0.02    -0.01   0.03   0.07
  14   6     0.34   0.08   0.06     0.17   0.01   0.04    -0.09  -0.01  -0.03
  15   6    -0.09  -0.09   0.01     0.06   0.12  -0.03    -0.01  -0.01   0.00
  16   6    -0.08   0.02   0.06    -0.02   0.03   0.05     0.01  -0.01  -0.03
  17   6    -0.03  -0.04  -0.00     0.00  -0.06   0.02    -0.00   0.02  -0.01
  18   6    -0.00  -0.01   0.01     0.13   0.05  -0.05    -0.04   0.00   0.01
  19   7     0.01   0.06  -0.03    -0.33  -0.21   0.21     0.09  -0.00  -0.07
  20   6    -0.02  -0.07  -0.01     0.04   0.12  -0.08     0.02   0.07   0.04
  21   6     0.03   0.04  -0.01    -0.02  -0.00  -0.17    -0.02  -0.07  -0.00
  22   8     0.00  -0.01   0.01     0.05   0.04  -0.04    -0.01  -0.00   0.01
  23   1    -0.16  -0.04   0.03     0.18   0.03  -0.11     0.07   0.00  -0.03
  24   6    -0.04  -0.03   0.00     0.09   0.04  -0.09     0.02  -0.06   0.02
  25   8     0.03  -0.02  -0.01    -0.00   0.00   0.00     0.09  -0.13  -0.03
  26   8    -0.09   0.09   0.03    -0.10  -0.02   0.08    -0.27   0.25   0.12
  27   6     0.10  -0.09  -0.02     0.03   0.03  -0.03     0.23  -0.23  -0.10
  28   1     0.09   0.10  -0.08    -0.03  -0.01  -0.02    -0.03  -0.03   0.02
  29   1     0.03   0.05  -0.00     0.07   0.09  -0.01     0.04   0.04  -0.02
  30   1    -0.23  -0.11  -0.16    -0.05  -0.06  -0.03     0.05   0.02   0.04
  31   1     0.06   0.04  -0.01    -0.05   0.02  -0.08    -0.03  -0.01  -0.02
  32   1    -0.09   0.01  -0.04     0.05  -0.00   0.02     0.08  -0.01   0.03
  33   1    -0.10  -0.17  -0.15     0.05   0.09   0.07     0.07   0.12   0.10
  34   1     0.03   0.01   0.02    -0.01  -0.02  -0.02     0.02  -0.05  -0.03
  35   1     0.12  -0.14  -0.02    -0.07   0.09   0.02    -0.06   0.05   0.00
  36   1    -0.03   0.06   0.02     0.05  -0.06  -0.03     0.02  -0.05  -0.02
  37   1    -0.03  -0.00  -0.02    -0.06   0.02  -0.01     0.02  -0.01   0.05
  38   1    -0.24  -0.06   0.14    -0.08  -0.01   0.04    -0.00  -0.05  -0.01
  39   1     0.08  -0.03   0.02    -0.02  -0.04   0.04    -0.13  -0.01   0.03
  40   1    -0.10  -0.04  -0.00     0.05   0.06   0.02     0.01  -0.01  -0.00
  41   1    -0.02  -0.06  -0.12    -0.03  -0.07  -0.19     0.01   0.02   0.05
  42   1    -0.07  -0.03   0.06    -0.16  -0.05   0.15     0.08   0.03  -0.07
  43   1     0.02   0.00  -0.02     0.19   0.11  -0.17    -0.09  -0.04   0.09
  44   1    -0.01   0.02   0.01     0.24   0.01  -0.17    -0.11  -0.04   0.07
  45   1     0.01  -0.01  -0.04    -0.14  -0.01   0.14     0.05   0.03   0.01
  46   1    -0.07  -0.05  -0.10     0.07   0.06   0.04     0.06   0.05   0.07
  47   1     0.01   0.01  -0.00    -0.07  -0.03  -0.08    -0.04  -0.03   0.01
  48   1     0.05   0.16  -0.11     0.01   0.02  -0.01     0.15   0.39  -0.24
  49   1    -0.09  -0.01   0.04    -0.02   0.00   0.01    -0.23  -0.08   0.14
  50   1    -0.08  -0.04   0.09    -0.02  -0.01   0.02    -0.18  -0.05   0.21
                     79                     80                     81
                        a                      a                      a 
 Frequencies --  1151.0958              1162.5721              1167.5200
 Red. masses --     6.6882                 6.9383                 5.7813
 Frc consts  --     0.0000                 0.0000                 0.0000
 IR Inten    --    10.9673                 1.1854                 7.9200
 Raman Activ --     0.0000                 0.0000                 0.0000
 Depolar     --     0.0000                 0.0000                 0.0000
 Atom AN      X      Y      Z        X      Y      Z        X      Y      Z
   1   6     0.05  -0.12  -0.02    -0.05  -0.14  -0.07     0.10   0.00  -0.04
   2   6     0.02   0.07   0.09     0.07   0.05   0.16    -0.13   0.03  -0.07
   3   6    -0.02   0.03   0.00     0.04  -0.04   0.00     0.03  -0.05  -0.01
   4   6    -0.04   0.00  -0.02    -0.01   0.04   0.02     0.01   0.06   0.04
   5   6     0.04   0.03   0.04    -0.00  -0.07  -0.04    -0.01  -0.08  -0.05
   6   6    -0.08  -0.06  -0.07     0.04  -0.02   0.01     0.08  -0.06   0.00
   7   6    -0.02  -0.05  -0.03    -0.06   0.10   0.02    -0.06   0.08   0.03
   8   6     0.11  -0.00   0.06    -0.09   0.02  -0.04    -0.14   0.04  -0.04
   9   7     0.08  -0.00   0.04    -0.05  -0.02  -0.03     0.04  -0.05  -0.03
  10   6    -0.09   0.08   0.04     0.03   0.09   0.02    -0.11   0.06   0.07
  11   6    -0.17   0.03  -0.12     0.15  -0.23  -0.03     0.03  -0.06   0.05
  12   6     0.16   0.04   0.06     0.04   0.18   0.15     0.02   0.07  -0.20
  13   6     0.10   0.07   0.11    -0.13  -0.06   0.10     0.01   0.13  -0.05
  14   6    -0.19  -0.30  -0.28     0.09   0.15  -0.24     0.15  -0.23   0.09
  15   6    -0.04   0.10   0.10    -0.01  -0.08  -0.16    -0.06   0.05   0.22
  16   6    -0.01   0.01   0.02    -0.08  -0.00   0.06    -0.03   0.03   0.01
  17   6     0.11  -0.02  -0.05     0.01   0.01  -0.06    -0.00  -0.05  -0.00
  18   6    -0.02   0.00  -0.02    -0.13   0.01   0.03     0.03  -0.03  -0.03
  19   7    -0.10   0.03   0.15     0.10  -0.02   0.10    -0.01   0.14  -0.16
  20   6     0.01  -0.03  -0.10     0.06   0.16  -0.04    -0.02  -0.13   0.03
  21   6    -0.02   0.05  -0.02    -0.06  -0.15  -0.06     0.06   0.01   0.11
  22   8     0.02  -0.01  -0.02    -0.01  -0.01  -0.02     0.01  -0.01   0.03
  23   1    -0.15   0.04   0.24    -0.06   0.02   0.22    -0.14  -0.02  -0.04
  24   6     0.00  -0.02   0.04     0.01   0.04  -0.01    -0.03   0.00  -0.00
  25   8     0.02  -0.03  -0.01    -0.03   0.06  -0.00    -0.01   0.03   0.00
  26   8    -0.03   0.07  -0.00     0.05  -0.09  -0.01     0.04  -0.03  -0.02
  27   6     0.04  -0.07  -0.02    -0.06   0.07   0.01    -0.02   0.02   0.01
  28   1     0.03   0.05  -0.09     0.01   0.01  -0.06    -0.00   0.02  -0.06
  29   1    -0.07  -0.04   0.09    -0.02  -0.01   0.01    -0.01   0.02   0.05
  30   1     0.04  -0.02   0.04    -0.06  -0.06  -0.03    -0.05  -0.05  -0.04
  31   1     0.20   0.09   0.11     0.16   0.08   0.08     0.01   0.03  -0.04
  32   1    -0.07   0.02  -0.02     0.14  -0.03   0.05     0.13  -0.03   0.05
  33   1    -0.08  -0.13  -0.11     0.08   0.17   0.14     0.15   0.28   0.24
  34   1    -0.04   0.08   0.03     0.10  -0.17  -0.05     0.11  -0.20  -0.06
  35   1     0.04   0.00   0.01    -0.02  -0.00  -0.01    -0.06   0.06  -0.01
  36   1     0.08  -0.06  -0.04     0.01  -0.04  -0.02     0.03  -0.04  -0.02
  37   1    -0.13   0.03   0.05    -0.06   0.03   0.00    -0.10   0.05  -0.06
  38   1     0.10  -0.03  -0.06    -0.11  -0.10   0.06     0.02   0.07  -0.02
  39   1     0.02   0.17  -0.10     0.08   0.09  -0.06    -0.05  -0.03   0.04
  40   1     0.27   0.14   0.08     0.01  -0.01   0.03     0.16   0.09   0.05
  41   1     0.01  -0.05  -0.15    -0.01  -0.05  -0.14    -0.02  -0.10  -0.17
  42   1    -0.08  -0.03   0.11     0.16   0.07  -0.11    -0.19  -0.08   0.17
  43   1     0.02  -0.00  -0.04    -0.15  -0.09   0.12     0.01   0.00  -0.01
  44   1     0.07   0.02  -0.06    -0.08  -0.05   0.02    -0.15  -0.02   0.10
  45   1    -0.05  -0.02   0.01     0.00   0.04   0.10     0.15   0.01  -0.15
  46   1    -0.01  -0.02  -0.00     0.08   0.08   0.08    -0.08  -0.05  -0.08
  47   1     0.01   0.01  -0.05    -0.11  -0.08  -0.04     0.10   0.05   0.13
  48   1     0.04   0.09  -0.05    -0.04  -0.10   0.06    -0.02  -0.04   0.02
  49   1    -0.05  -0.03   0.04     0.06   0.02  -0.03     0.02   0.01  -0.02
  50   1    -0.03  -0.00   0.04     0.04   0.01  -0.05     0.02   0.00  -0.02
                     82                     83                     84
                        a                      a                      a 
 Frequencies --  1180.0754              1182.2348              1184.5423
 Red. masses --     7.0482                 3.5992                 3.2906
 Frc consts  --     0.0000                 0.0000                 0.0000
 IR Inten    --     4.8940                16.2930                 3.5252
 Raman Activ --     0.0000                 0.0000                 0.0000
 Depolar     --     0.0000                 0.0000                 0.0000
 Atom AN      X      Y      Z        X      Y      Z        X      Y      Z
   1   6     0.11  -0.06  -0.05     0.05  -0.03  -0.05    -0.02  -0.03   0.04
   2   6    -0.13   0.06  -0.08    -0.01  -0.02   0.01    -0.00   0.05  -0.03
   3   6    -0.00   0.04   0.02     0.00  -0.02  -0.01    -0.08   0.06  -0.01
   4   6    -0.02   0.01  -0.00     0.01   0.04   0.03     0.00   0.03   0.01
   5   6    -0.05  -0.02  -0.04     0.05  -0.03   0.01    -0.01   0.06   0.03
   6   6     0.01  -0.07  -0.04    -0.01  -0.01  -0.00     0.05  -0.01   0.02
   7   6     0.13  -0.08   0.04    -0.11   0.03  -0.06     0.03  -0.16  -0.06
   8   6     0.04   0.01   0.02    -0.03   0.03  -0.00     0.08  -0.01   0.03
   9   7     0.12  -0.07  -0.01     0.00   0.01   0.01     0.07  -0.02   0.01
  10   6    -0.19   0.10  -0.00    -0.02   0.04   0.04    -0.06   0.01  -0.12
  11   6    -0.03   0.02   0.24    -0.11   0.00  -0.00     0.01   0.10   0.20
  12   6    -0.00  -0.02  -0.18    -0.06  -0.15   0.08     0.06  -0.03  -0.12
  13   6     0.03   0.11  -0.14     0.05   0.01  -0.01    -0.02  -0.02  -0.05
  14   6     0.14  -0.28   0.19    -0.04  -0.05  -0.03    -0.02  -0.08   0.06
  15   6    -0.12   0.10   0.03     0.07   0.07  -0.07    -0.03   0.01   0.01
  16   6    -0.01   0.02  -0.03    -0.01  -0.00   0.00     0.01   0.00  -0.02
  17   6    -0.03   0.04   0.00     0.03   0.04   0.00    -0.01  -0.00   0.00
  18   6    -0.06   0.03   0.02    -0.04  -0.01   0.03     0.01   0.02  -0.01
  19   7     0.19  -0.13  -0.04     0.07  -0.02   0.09    -0.00  -0.06  -0.03
  20   6     0.00   0.13  -0.01    -0.07  -0.16  -0.04     0.01   0.11   0.02
  21   6    -0.05  -0.06   0.05     0.08   0.20   0.02    -0.06  -0.09  -0.01
  22   8    -0.03   0.02  -0.00    -0.02   0.01  -0.01     0.00   0.00  -0.00
  23   1     0.05   0.05   0.11     0.06   0.04   0.11    -0.03   0.00   0.02
  24   6     0.05   0.02  -0.08     0.10   0.03  -0.07     0.03   0.01  -0.05
  25   8    -0.01   0.01   0.01    -0.00  -0.02   0.00     0.00  -0.02   0.01
  26   8    -0.02   0.01   0.02    -0.08   0.02   0.05    -0.02   0.02   0.01
  27   6    -0.00   0.00   0.01     0.03  -0.00  -0.02     0.01  -0.01   0.00
  28   1     0.02   0.05  -0.11     0.08   0.09  -0.08    -0.05  -0.04   0.02
  29   1    -0.03   0.02   0.08    -0.06  -0.04   0.05     0.04   0.04  -0.01
  30   1    -0.15  -0.08  -0.12    -0.11  -0.03  -0.08     0.01   0.01   0.00
  31   1     0.11   0.07   0.02     0.17   0.05   0.11    -0.03  -0.00  -0.03
  32   1     0.13  -0.01   0.06    -0.14   0.02  -0.06    -0.60   0.10  -0.25
  33   1    -0.07  -0.11  -0.10     0.12   0.23   0.19     0.13   0.24   0.20
  34   1    -0.12   0.16   0.03     0.17  -0.24  -0.06     0.06  -0.08  -0.02
  35   1    -0.10   0.17   0.05     0.03  -0.05  -0.02     0.16  -0.22  -0.04
  36   1     0.06  -0.03  -0.03     0.03  -0.03  -0.02    -0.01   0.05   0.02
  37   1    -0.15   0.06  -0.06    -0.04   0.01   0.04     0.02  -0.01   0.00
  38   1    -0.00   0.10   0.01     0.04   0.01  -0.02    -0.03   0.03   0.03
  39   1     0.06  -0.04   0.03    -0.01  -0.00   0.00     0.15   0.05  -0.05
  40   1    -0.13  -0.09  -0.04    -0.24  -0.12  -0.07     0.08   0.03   0.02
  41   1     0.02   0.00   0.13     0.04   0.12   0.27    -0.00  -0.03  -0.04
  42   1     0.17   0.07  -0.14     0.13   0.04  -0.12    -0.00   0.00   0.01
  43   1    -0.11  -0.06   0.11     0.05   0.02  -0.06    -0.04  -0.02   0.04
  44   1    -0.00  -0.04  -0.02     0.23   0.08  -0.13    -0.05   0.00   0.03
  45   1    -0.09   0.00   0.13    -0.15  -0.08   0.01     0.01   0.03   0.06
  46   1     0.07   0.03   0.11    -0.18  -0.15  -0.21     0.15   0.09   0.19
  47   1    -0.06  -0.05  -0.05     0.11   0.09   0.03    -0.10  -0.07  -0.08
  48   1    -0.00  -0.01   0.00     0.01   0.02  -0.02     0.00   0.01  -0.00
  49   1    -0.00   0.00  -0.00    -0.03  -0.01   0.01    -0.01  -0.00   0.00
  50   1    -0.01  -0.01   0.00    -0.02  -0.01   0.02    -0.01  -0.01   0.01
                     85                     86                     87
                        a                      a                      a 
 Frequencies --  1188.2519              1199.7841              1206.1229
 Red. masses --     8.0491                 5.8712                 4.2983
 Frc consts  --     0.0000                 0.0000                 0.0000
 IR Inten    --   131.9709                52.2512                11.5898
 Raman Activ --     0.0000                 0.0000                 0.0000
 Depolar     --     0.0000                 0.0000                 0.0000
 Atom AN      X      Y      Z        X      Y      Z        X      Y      Z
   1   6    -0.07  -0.04   0.05     0.07   0.19  -0.06    -0.02   0.05   0.05
   2   6     0.06   0.02   0.02    -0.06  -0.19  -0.03    -0.04   0.03  -0.04
   3   6     0.04  -0.04  -0.00    -0.01   0.01   0.00     0.00   0.01   0.01
   4   6    -0.01  -0.01  -0.01     0.00   0.00   0.00    -0.01  -0.00  -0.00
   5   6    -0.00  -0.03  -0.02     0.00   0.01   0.00    -0.00   0.01   0.01
   6   6     0.04  -0.02   0.01    -0.02   0.01  -0.01     0.01   0.01   0.01
   7   6    -0.10   0.07  -0.01     0.04  -0.02   0.02    -0.01  -0.01  -0.03
   8   6    -0.06   0.03  -0.01     0.02  -0.02   0.00     0.01  -0.00   0.00
   9   7     0.03  -0.01   0.01    -0.02  -0.01  -0.00     0.00   0.01  -0.00
  10   6    -0.01   0.01  -0.18     0.04  -0.03   0.17     0.01  -0.05  -0.04
  11   6    -0.02   0.08   0.40    -0.30  -0.08   0.05     0.08   0.05  -0.01
  12   6    -0.09  -0.15  -0.14     0.05   0.09   0.03    -0.06  -0.08   0.02
  13   6    -0.07  -0.15  -0.03     0.14  -0.03  -0.06     0.02   0.06  -0.05
  14   6    -0.08   0.04  -0.04     0.16   0.18   0.03     0.07  -0.05   0.06
  15   6     0.17   0.02  -0.11     0.03  -0.03  -0.09    -0.12   0.04  -0.00
  16   6    -0.01   0.00   0.01    -0.01  -0.00   0.04    -0.02   0.02   0.02
  17   6     0.03  -0.01  -0.02    -0.03  -0.02  -0.00     0.00  -0.01  -0.08
  18   6    -0.03  -0.01  -0.00    -0.04   0.00   0.01    -0.20  -0.00   0.02
  19   7    -0.03   0.06   0.04     0.02  -0.02   0.02     0.28  -0.04   0.14
  20   6    -0.00  -0.07   0.01     0.01   0.04  -0.01    -0.01  -0.06  -0.11
  21   6     0.02   0.03   0.05    -0.00  -0.03   0.01     0.04   0.15   0.07
  22   8     0.00  -0.01   0.00    -0.00   0.00  -0.00    -0.04   0.02  -0.02
  23   1    -0.12   0.01   0.11    -0.12  -0.01   0.05     0.15   0.03  -0.03
  24   6     0.27   0.08  -0.28     0.21   0.07  -0.17    -0.09  -0.03   0.07
  25   8     0.00  -0.05   0.03    -0.01  -0.02   0.01     0.01   0.01  -0.00
  26   8    -0.20   0.03   0.14    -0.12   0.02   0.08     0.05  -0.01  -0.03
  27   6     0.06   0.01  -0.03     0.02   0.00  -0.02    -0.01  -0.00   0.01
  28   1    -0.05  -0.05   0.04     0.13   0.11  -0.02    -0.08  -0.07   0.07
  29   1     0.00  -0.01  -0.01    -0.31  -0.31   0.13     0.04   0.03  -0.03
  30   1     0.08   0.04   0.06     0.22   0.06   0.17     0.14   0.02   0.10
  31   1    -0.03  -0.01  -0.00    -0.11  -0.09  -0.04    -0.17  -0.05  -0.11
  32   1     0.22  -0.04   0.09    -0.07   0.01  -0.03    -0.04   0.01  -0.02
  33   1    -0.01  -0.02  -0.02    -0.00  -0.00  -0.00     0.00   0.00  -0.00
  34   1    -0.03   0.04   0.01     0.01  -0.01  -0.00     0.01  -0.01  -0.00
  35   1    -0.05   0.07   0.00     0.03  -0.03  -0.01     0.00  -0.01   0.01
  36   1    -0.10   0.17   0.07     0.04  -0.06  -0.04    -0.03   0.05   0.02
  37   1     0.11  -0.02   0.00    -0.14   0.10  -0.29     0.05  -0.02  -0.01
  38   1    -0.07   0.00   0.06     0.05  -0.00  -0.02    -0.08  -0.04   0.04
  39   1     0.33   0.14  -0.14    -0.11  -0.14   0.08    -0.05  -0.06   0.05
  40   1     0.11   0.06   0.04    -0.02   0.01   0.00     0.29   0.13   0.10
  41   1    -0.00  -0.02  -0.08    -0.03  -0.07  -0.15    -0.02  -0.17  -0.31
  42   1    -0.02  -0.01   0.03     0.02   0.01  -0.02     0.18   0.08  -0.10
  43   1     0.00  -0.01  -0.01    -0.03  -0.03   0.02    -0.21  -0.13   0.16
  44   1     0.02   0.02  -0.00    -0.03  -0.01   0.01     0.14   0.01  -0.11
  45   1     0.04  -0.01  -0.06     0.01   0.01   0.02    -0.25  -0.09   0.12
  46   1    -0.03  -0.05  -0.02     0.01   0.01   0.01    -0.17  -0.14  -0.18
  47   1     0.06   0.04   0.06    -0.06  -0.04  -0.04     0.08   0.06   0.02
  48   1     0.01   0.03  -0.03     0.01   0.01  -0.01    -0.00   0.00  -0.00
  49   1    -0.05  -0.01   0.03    -0.03  -0.01   0.02     0.01   0.01  -0.01
  50   1    -0.05  -0.02   0.05    -0.03  -0.01   0.03     0.01   0.00  -0.01
                     88                     89                     90
                        a                      a                      a 
 Frequencies --  1224.5430              1235.8234              1244.0723
 Red. masses --     6.8083                 5.0919                 5.6216
 Frc consts  --     0.0000                 0.0000                 0.0000
 IR Inten    --   100.2075                12.4776                19.7258
 Raman Activ --     0.0000                 0.0000                 0.0000
 Depolar     --     0.0000                 0.0000                 0.0000
 Atom AN      X      Y      Z        X      Y      Z        X      Y      Z
   1   6    -0.07  -0.09  -0.07     0.05  -0.01  -0.07    -0.01  -0.03   0.00
   2   6     0.07   0.06   0.07     0.01  -0.05   0.04     0.09  -0.09   0.03
   3   6    -0.02   0.04   0.01    -0.02   0.03   0.01    -0.01   0.07   0.03
   4   6     0.05  -0.02   0.01    -0.15   0.01  -0.07     0.04   0.03   0.04
   5   6    -0.04   0.04   0.01    -0.11  -0.05  -0.09    -0.02   0.01  -0.01
   6   6    -0.02   0.13   0.07     0.32  -0.23   0.01    -0.07   0.04  -0.01
   7   6     0.17  -0.06   0.06     0.08   0.00   0.05     0.16  -0.16  -0.01
   8   6     0.02  -0.07  -0.03     0.00   0.03   0.01     0.06  -0.04   0.01
   9   7    -0.07  -0.02  -0.03     0.07  -0.05  -0.03     0.04  -0.04  -0.00
  10   6     0.12   0.01   0.06    -0.08   0.11   0.15    -0.11   0.03  -0.08
  11   6    -0.27  -0.24   0.01     0.05  -0.10  -0.05     0.16   0.18   0.16
  12   6    -0.09   0.18  -0.06    -0.13   0.05  -0.04    -0.18   0.02  -0.10
  13   6    -0.04  -0.11   0.07     0.02  -0.01   0.03     0.02  -0.08  -0.03
  14   6     0.06   0.13   0.03    -0.02   0.12  -0.10    -0.17   0.26  -0.11
  15   6    -0.12  -0.05   0.10    -0.06  -0.03   0.06    -0.07  -0.10   0.07
  16   6     0.02   0.01  -0.00    -0.00  -0.01   0.01     0.02  -0.04  -0.01
  17   6    -0.04  -0.01   0.01     0.00  -0.01  -0.01    -0.00  -0.01  -0.01
  18   6    -0.02  -0.02  -0.02    -0.01  -0.02   0.00     0.04  -0.02  -0.03
  19   7     0.07   0.07  -0.02     0.03   0.08  -0.01    -0.02   0.11  -0.00
  20   6    -0.01  -0.02  -0.04    -0.05  -0.06   0.00     0.05  -0.03  -0.01
  21   6     0.07   0.01   0.09     0.05   0.02   0.02     0.02  -0.00   0.05
  22   8    -0.01  -0.01   0.00    -0.00  -0.01   0.00     0.01  -0.02  -0.00
  23   1     0.20  -0.01  -0.13     0.16   0.01  -0.04     0.29  -0.01  -0.14
  24   6     0.24   0.08  -0.19     0.00   0.00  -0.00    -0.09  -0.03   0.05
  25   8    -0.02   0.01   0.01    -0.01   0.02  -0.00     0.02  -0.02   0.00
  26   8    -0.11   0.01   0.08     0.00  -0.01   0.00     0.04   0.00  -0.03
  27   6     0.01   0.01  -0.02    -0.00   0.01  -0.00    -0.00  -0.01   0.01
  28   1    -0.04  -0.05   0.00     0.06   0.06  -0.06     0.14   0.14  -0.08
  29   1     0.14   0.14  -0.10    -0.09  -0.07   0.06    -0.13  -0.12   0.08
  30   1    -0.26  -0.08  -0.19    -0.05  -0.02  -0.02    -0.03   0.03  -0.02
  31   1     0.08   0.05   0.04     0.12   0.03   0.08     0.12  -0.00   0.13
  32   1    -0.12   0.03  -0.05    -0.02   0.01  -0.00    -0.10   0.03  -0.03
  33   1    -0.03  -0.09  -0.07     0.03   0.13   0.09    -0.02  -0.04  -0.03
  34   1    -0.00   0.01   0.00    -0.31   0.40   0.08     0.06  -0.10  -0.03
  35   1     0.02  -0.04  -0.01     0.17  -0.26  -0.05    -0.13   0.22   0.06
  36   1     0.08  -0.16  -0.07    -0.19   0.27   0.14     0.12  -0.15  -0.08
  37   1     0.11  -0.03   0.08     0.01   0.03   0.02    -0.20   0.06  -0.10
  38   1     0.24   0.14  -0.13    -0.06  -0.07   0.04    -0.24  -0.16   0.15
  39   1     0.03   0.03  -0.03    -0.05  -0.01   0.01     0.10   0.02  -0.03
  40   1     0.08   0.03   0.03     0.01   0.01   0.01     0.09   0.04   0.02
  41   1    -0.02  -0.07  -0.14    -0.01   0.01  -0.01    -0.01   0.04   0.00
  42   1    -0.02  -0.01   0.02    -0.02  -0.01   0.02    -0.06  -0.03   0.06
  43   1    -0.05  -0.01   0.04     0.00   0.02  -0.00    -0.02   0.03   0.03
  44   1    -0.04  -0.03   0.01     0.04   0.04  -0.02    -0.06  -0.04   0.04
  45   1     0.01  -0.00  -0.01     0.03  -0.00  -0.03    -0.00  -0.01  -0.04
  46   1    -0.10  -0.05  -0.13    -0.04  -0.02  -0.07    -0.06  -0.03  -0.08
  47   1    -0.01  -0.01   0.02     0.02   0.02   0.04     0.05   0.03   0.07
  48   1    -0.00  -0.01   0.01    -0.00  -0.00   0.00     0.00   0.01  -0.01
  49   1    -0.03  -0.01   0.02     0.00   0.00  -0.00     0.01   0.01  -0.01
  50   1    -0.02  -0.01   0.02     0.00   0.00  -0.00     0.01  -0.00  -0.00
                     91                     92                     93
                        a                      a                      a 
 Frequencies --  1257.7027              1264.1667              1280.0555
 Red. masses --     6.1073                 4.9248                 6.1652
 Frc consts  --     0.0000                 0.0000                 0.0000
 IR Inten    --     0.9563                 4.9001                 9.4899
 Raman Activ --     0.0000                 0.0000                 0.0000
 Depolar     --     0.0000                 0.0000                 0.0000
 Atom AN      X      Y      Z        X      Y      Z        X      Y      Z
   1   6    -0.03  -0.06   0.00    -0.01  -0.01  -0.01     0.05   0.07  -0.01
   2   6    -0.05   0.10   0.05    -0.04   0.06   0.03    -0.05  -0.03  -0.01
   3   6    -0.02   0.04   0.01     0.02   0.02   0.02     0.06   0.09   0.08
   4   6     0.03  -0.01   0.01    -0.02   0.00  -0.01    -0.06   0.04  -0.00
   5   6    -0.06   0.03  -0.01    -0.02   0.01  -0.01    -0.06  -0.01  -0.03
   6   6     0.03   0.12   0.09     0.03  -0.02   0.00     0.05  -0.15  -0.07
   7   6     0.22  -0.06   0.08     0.01  -0.04  -0.02     0.06  -0.26  -0.12
   8   6     0.01  -0.08  -0.04     0.02  -0.01   0.01     0.10  -0.02   0.05
   9   7    -0.06  -0.05  -0.06    -0.02   0.01  -0.00     0.02   0.05   0.04
  10   6     0.08  -0.04   0.01     0.09  -0.03   0.03     0.01  -0.01   0.05
  11   6     0.06  -0.08   0.06    -0.05  -0.08   0.03     0.13   0.09  -0.15
  12   6    -0.28   0.17  -0.00    -0.04   0.06  -0.02    -0.23   0.13   0.06
  13   6     0.07   0.12  -0.06     0.07   0.07  -0.02    -0.23  -0.14   0.11
  14   6     0.09  -0.18  -0.19     0.07  -0.10  -0.15     0.15  -0.03   0.01
  15   6     0.05   0.04   0.01     0.01   0.03   0.00     0.07  -0.03  -0.08
  16   6    -0.06   0.01   0.05    -0.04  -0.01   0.01     0.02   0.04   0.03
  17   6     0.05  -0.00  -0.03    -0.02   0.01   0.04     0.01   0.01   0.02
  18   6    -0.08  -0.03   0.08     0.16   0.02  -0.11    -0.09  -0.03   0.09
  19   7     0.07   0.09  -0.04    -0.19  -0.01   0.02     0.00   0.04  -0.05
  20   6    -0.19  -0.08   0.08     0.35   0.06  -0.18     0.02   0.01   0.00
  21   6     0.10  -0.03  -0.02    -0.01   0.03   0.13     0.07  -0.02   0.05
  22   8    -0.01  -0.01   0.01     0.02   0.00  -0.01    -0.01  -0.00   0.01
  23   1    -0.10   0.03   0.23     0.06   0.04   0.16    -0.05   0.01   0.15
  24   6     0.00   0.01  -0.01     0.04   0.01  -0.04    -0.08  -0.03   0.07
  25   8    -0.01   0.02   0.00    -0.01   0.01   0.00     0.01  -0.01  -0.01
  26   8     0.00  -0.01   0.00    -0.01  -0.00   0.01     0.02  -0.01  -0.02
  27   6    -0.00   0.01   0.00     0.00   0.00  -0.00    -0.00  -0.00   0.00
  28   1    -0.18  -0.17   0.08    -0.12  -0.12   0.06    -0.01  -0.00   0.01
  29   1     0.10   0.10  -0.05     0.06   0.05  -0.04    -0.05  -0.05   0.02
  30   1     0.14  -0.01   0.11     0.10  -0.01   0.08     0.04  -0.01   0.03
  31   1    -0.04   0.03  -0.07    -0.03   0.02  -0.05    -0.07  -0.02  -0.06
  32   1    -0.11   0.02  -0.04    -0.05   0.01  -0.02    -0.13   0.05  -0.04
  33   1    -0.03  -0.07  -0.05    -0.01  -0.00  -0.01    -0.02   0.02  -0.00
  34   1    -0.03   0.04   0.01    -0.01   0.01  -0.00     0.00  -0.04  -0.02
  35   1     0.03  -0.04  -0.03     0.00  -0.00   0.01    -0.16   0.30   0.08
  36   1     0.07  -0.15  -0.06    -0.06   0.07   0.04    -0.10   0.17   0.08
  37   1    -0.03   0.05  -0.19     0.03   0.01  -0.07    -0.06   0.01   0.02
  38   1    -0.21  -0.16   0.11    -0.10  -0.10   0.05     0.27   0.23  -0.15
  39   1    -0.03  -0.02   0.02    -0.04  -0.01   0.02     0.14   0.13  -0.10
  40   1    -0.10  -0.04  -0.01    -0.16  -0.07  -0.04    -0.10  -0.05  -0.02
  41   1     0.02   0.03   0.07     0.00   0.07   0.14    -0.00  -0.06  -0.10
  42   1     0.03   0.01  -0.04    -0.11  -0.04   0.10     0.05   0.01  -0.07
  43   1     0.10   0.03  -0.11    -0.06   0.03   0.08     0.13   0.03  -0.14
  44   1     0.17   0.06  -0.09    -0.39  -0.10   0.22    -0.06  -0.05   0.03
  45   1     0.22   0.06  -0.12    -0.33  -0.11   0.15     0.02   0.01  -0.03
  46   1    -0.02   0.04  -0.08    -0.16  -0.13  -0.14    -0.08  -0.01  -0.13
  47   1    -0.00   0.00   0.06     0.03   0.02   0.04    -0.02  -0.02  -0.00
  48   1    -0.00  -0.01   0.00    -0.00  -0.00   0.00     0.00   0.01  -0.01
  49   1     0.00   0.00  -0.00    -0.00  -0.00   0.00     0.01   0.00  -0.01
  50   1     0.00  -0.00  -0.00    -0.00   0.00   0.00     0.01   0.00  -0.01
                     94                     95                     96
                        a                      a                      a 
 Frequencies --  1283.0227              1292.7164              1304.3886
 Red. masses --     5.9200                 4.8693                 5.0595
 Frc consts  --     0.0000                 0.0000                 0.0000
 IR Inten    --    35.7545                 4.7919                41.9193
 Raman Activ --     0.0000                 0.0000                 0.0000
 Depolar     --     0.0000                 0.0000                 0.0000
 Atom AN      X      Y      Z        X      Y      Z        X      Y      Z
   1   6    -0.03  -0.01  -0.03     0.01   0.02  -0.02    -0.03  -0.02  -0.08
   2   6     0.03   0.04   0.04     0.01   0.01   0.03     0.10   0.05   0.08
   3   6     0.08   0.05   0.07     0.01   0.02   0.02    -0.05   0.03  -0.01
   4   6    -0.05   0.03  -0.01    -0.02   0.01  -0.00    -0.04  -0.00  -0.02
   5   6    -0.01  -0.00  -0.00    -0.02  -0.01  -0.01     0.03  -0.06  -0.02
   6   6    -0.01  -0.19  -0.13     0.02  -0.04  -0.01     0.03  -0.08  -0.04
   7   6    -0.12  -0.21  -0.18     0.04  -0.06  -0.02     0.07   0.01   0.05
   8   6     0.08   0.05   0.07     0.02  -0.01   0.01     0.02   0.00   0.01
   9   7    -0.01   0.10   0.07    -0.02   0.01   0.00    -0.15   0.06   0.01
  10   6     0.21  -0.03   0.05     0.04  -0.02   0.04     0.31  -0.12   0.12
  11   6    -0.21  -0.15   0.03     0.04   0.04  -0.05    -0.00   0.20  -0.01
  12   6     0.13   0.05   0.01    -0.10   0.06   0.05    -0.07  -0.01  -0.03
  13   6     0.20   0.12  -0.06    -0.08  -0.05   0.03    -0.00  -0.04  -0.02
  14   6    -0.08   0.02  -0.05     0.09   0.01  -0.00    -0.16   0.03   0.10
  15   6    -0.07   0.01   0.10     0.06   0.02  -0.07     0.15   0.02  -0.02
  16   6    -0.00  -0.01  -0.00    -0.09  -0.04  -0.02     0.01  -0.00  -0.02
  17   6     0.01  -0.01  -0.02    -0.07  -0.01   0.02     0.03  -0.00  -0.03
  18   6    -0.01   0.01   0.01     0.26   0.06  -0.35    -0.06   0.02   0.08
  19   7     0.04  -0.01  -0.00     0.06  -0.00   0.20    -0.01  -0.13   0.00
  20   6    -0.09   0.02   0.04    -0.13  -0.06   0.02     0.09   0.01  -0.01
  21   6     0.01  -0.03  -0.01     0.00  -0.01  -0.06    -0.05   0.01  -0.04
  22   8    -0.00   0.00   0.00     0.00  -0.00  -0.02    -0.00   0.03   0.00
  23   1     0.03  -0.02  -0.15    -0.15  -0.01  -0.01    -0.30  -0.07  -0.19
  24   6     0.10   0.04  -0.07    -0.02  -0.01   0.02    -0.02  -0.02   0.02
  25   8    -0.02   0.02   0.00     0.00  -0.01  -0.00     0.01  -0.02   0.00
  26   8    -0.03   0.01   0.02     0.00  -0.00  -0.00    -0.00   0.01   0.00
  27   6     0.00   0.00  -0.01     0.00  -0.00  -0.00     0.01  -0.00  -0.00
  28   1    -0.07  -0.08   0.04    -0.02  -0.02   0.01    -0.09  -0.11   0.05
  29   1     0.08   0.08  -0.06    -0.02  -0.02  -0.00     0.06   0.06  -0.06
  30   1    -0.06  -0.02  -0.04    -0.02  -0.01  -0.01    -0.22  -0.04  -0.16
  31   1     0.04   0.02   0.02    -0.04  -0.01  -0.04     0.03   0.02   0.01
  32   1    -0.05   0.03  -0.01    -0.03   0.01  -0.01     0.04   0.00   0.02
  33   1    -0.00   0.03   0.02    -0.00   0.01   0.00     0.03   0.07   0.05
  34   1     0.07  -0.11  -0.03    -0.01   0.01  -0.00    -0.06   0.09   0.02
  35   1    -0.19   0.34   0.09    -0.03   0.06   0.01     0.05  -0.07  -0.01
  36   1    -0.19   0.30   0.15    -0.02   0.02   0.01    -0.01  -0.05  -0.01
  37   1    -0.03  -0.00   0.05    -0.07   0.02  -0.06    -0.41   0.13  -0.29
  38   1    -0.17  -0.18   0.09     0.09   0.08  -0.05    -0.00   0.02   0.01
  39   1    -0.15  -0.10   0.08     0.05   0.04  -0.03     0.03   0.01  -0.02
  40   1     0.04   0.02   0.01    -0.01  -0.00   0.00     0.11   0.05   0.03
  41   1     0.00   0.02   0.02    -0.01   0.10   0.20     0.01  -0.00  -0.01
  42   1     0.01   0.01  -0.01    -0.18  -0.06   0.24     0.07   0.03  -0.09
  43   1    -0.01  -0.01   0.01    -0.42  -0.13   0.43     0.06  -0.03  -0.07
  44   1     0.08  -0.04  -0.07     0.20   0.04  -0.12    -0.03   0.01   0.03
  45   1     0.12   0.05  -0.07     0.09   0.02  -0.04    -0.14  -0.05   0.08
  46   1     0.05   0.04   0.04     0.02   0.04  -0.00     0.01  -0.01   0.03
  47   1    -0.05  -0.04  -0.06     0.08   0.05   0.08     0.11   0.07   0.12
  48   1    -0.00  -0.01   0.01     0.00   0.00  -0.00     0.00   0.01  -0.01
  49   1    -0.01  -0.01   0.01     0.00   0.00  -0.00    -0.00   0.00   0.00
  50   1    -0.01  -0.00   0.01     0.00   0.00  -0.00    -0.00  -0.00   0.00
                     97                     98                     99
                        a                      a                      a 
 Frequencies --  1306.0215              1315.1274              1320.9710
 Red. masses --     4.4247                 4.5378                 7.5412
 Frc consts  --     0.0000                 0.0000                 0.0000
 IR Inten    --     5.0639                13.6011                 2.9244
 Raman Activ --     0.0000                 0.0000                 0.0000
 Depolar     --     0.0000                 0.0000                 0.0000
 Atom AN      X      Y      Z        X      Y      Z        X      Y      Z
   1   6    -0.02  -0.02   0.02    -0.03  -0.03   0.03    -0.02  -0.05   0.05
   2   6     0.04  -0.01  -0.02     0.05  -0.02   0.01    -0.08  -0.03  -0.18
   3   6     0.00   0.00   0.00     0.07   0.01   0.04     0.01   0.02   0.02
   4   6    -0.00  -0.01  -0.01     0.00   0.01   0.01    -0.01   0.02   0.01
   5   6    -0.01   0.00  -0.00    -0.07   0.05  -0.00    -0.02  -0.01  -0.01
   6   6     0.03   0.02   0.03     0.05   0.04   0.05     0.02  -0.02  -0.00
   7   6     0.04  -0.02   0.01     0.04  -0.07  -0.02     0.05  -0.04   0.01
   8   6    -0.01   0.00  -0.00     0.00  -0.04  -0.02     0.03  -0.04  -0.01
   9   7     0.02  -0.02  -0.01     0.08  -0.05  -0.02    -0.00   0.00   0.01
  10   6    -0.08   0.05  -0.04    -0.20   0.11  -0.04     0.01   0.04  -0.03
  11   6     0.05  -0.05  -0.01     0.02  -0.18   0.00    -0.00  -0.11  -0.04
  12   6    -0.18  -0.01  -0.01    -0.11   0.23  -0.02    -0.10   0.14   0.07
  13   6     0.04   0.04  -0.03     0.03   0.04   0.01     0.08   0.07  -0.11
  14   6    -0.10   0.01   0.07    -0.04  -0.02  -0.09    -0.14   0.07   0.45
  15   6     0.23   0.07  -0.01     0.12   0.06   0.12     0.15  -0.14  -0.40
  16   6    -0.04  -0.02  -0.01     0.04   0.01   0.01    -0.02  -0.02  -0.04
  17   6     0.02  -0.01  -0.04     0.00   0.02   0.04     0.01  -0.04  -0.08
  18   6     0.02   0.04  -0.01    -0.03   0.03   0.03     0.01  -0.00   0.01
  19   7    -0.02  -0.11   0.06     0.03  -0.15   0.01    -0.06   0.09   0.01
  20   6    -0.03   0.10  -0.09     0.08  -0.01   0.00     0.06  -0.03   0.02
  21   6     0.24   0.06   0.25    -0.10  -0.06  -0.13    -0.05  -0.05  -0.05
  22   8     0.00   0.02  -0.00    -0.01   0.04   0.00     0.01  -0.02  -0.01
  23   1    -0.37  -0.07  -0.18    -0.39  -0.09  -0.27    -0.02   0.03   0.35
  24   6    -0.02  -0.00   0.03     0.02   0.02  -0.03     0.00   0.01  -0.00
  25   8    -0.00   0.01  -0.00    -0.00   0.01  -0.00    -0.00   0.01  -0.00
  26   8     0.02  -0.01  -0.01    -0.01  -0.00   0.00    -0.00  -0.00   0.00
  27   6    -0.01  -0.00   0.01     0.00   0.01  -0.00    -0.00   0.00  -0.00
  28   1     0.09   0.09  -0.04     0.12   0.13  -0.07     0.07   0.06  -0.03
  29   1    -0.00   0.00   0.01    -0.03  -0.03   0.02     0.09   0.10  -0.02
  30   1    -0.05   0.02  -0.04     0.01   0.04   0.01    -0.00   0.05  -0.02
  31   1     0.01  -0.01   0.02    -0.04  -0.02  -0.04     0.15   0.03   0.16
  32   1    -0.00   0.00  -0.00    -0.10   0.02  -0.04    -0.05   0.01  -0.02
  33   1     0.00  -0.00  -0.00    -0.03  -0.06  -0.05    -0.01  -0.01  -0.01
  34   1    -0.02   0.02   0.01     0.01  -0.03  -0.01    -0.01   0.00  -0.00
  35   1     0.01  -0.01  -0.01    -0.05   0.05   0.02    -0.02   0.04   0.00
  36   1     0.02  -0.03  -0.02     0.01   0.01  -0.00    -0.00   0.00   0.00
  37   1     0.06  -0.03   0.11     0.25  -0.06   0.15     0.00  -0.03   0.15
  38   1    -0.06  -0.04   0.03    -0.04  -0.06   0.02    -0.03   0.01   0.02
  39   1    -0.04  -0.04   0.03    -0.03  -0.01   0.02    -0.14  -0.15   0.11
  40   1     0.09   0.05   0.03    -0.07  -0.04  -0.02     0.24   0.13   0.06
  41   1     0.01   0.04   0.07    -0.00  -0.03  -0.05     0.01   0.01   0.04
  42   1     0.00   0.00  -0.02     0.05   0.02  -0.09    -0.03  -0.01   0.04
  43   1    -0.03  -0.07   0.03     0.02  -0.08  -0.03     0.01   0.04   0.00
  44   1    -0.08  -0.10  -0.02     0.02   0.00   0.00    -0.04   0.04   0.05
  45   1     0.06   0.04  -0.00    -0.16  -0.06   0.07    -0.00  -0.01  -0.00
  46   1    -0.17  -0.09  -0.23     0.04   0.03   0.05     0.00   0.01   0.00
  47   1    -0.37  -0.24  -0.37     0.26   0.17   0.34     0.10   0.06   0.13
  48   1     0.00   0.01  -0.00    -0.00  -0.01   0.00    -0.00  -0.00   0.00
  49   1     0.01   0.01  -0.01    -0.00  -0.00   0.01    -0.00  -0.00   0.00
  50   1     0.01   0.01  -0.01    -0.01  -0.01   0.00    -0.00  -0.00  -0.00
                    100                    101                    102
                        a                      a                      a 
 Frequencies --  1328.8806              1331.5040              1343.0198
 Red. masses --     4.9637                 5.5159                10.0784
 Frc consts  --     0.0000                 0.0000                 0.0000
 IR Inten    --    73.4898                16.8965                12.5520
 Raman Activ --     0.0000                 0.0000                 0.0000
 Depolar     --     0.0000                 0.0000                 0.0000
 Atom AN      X      Y      Z        X      Y      Z        X      Y      Z
   1   6    -0.03   0.09   0.09     0.00  -0.12   0.01    -0.05   0.01   0.04
   2   6    -0.03  -0.05  -0.07    -0.10  -0.01  -0.08     0.00  -0.01  -0.03
   3   6    -0.16   0.06  -0.04     0.06  -0.02   0.02     0.33  -0.09   0.12
   4   6    -0.01   0.06   0.03    -0.00  -0.03  -0.02    -0.10  -0.27  -0.20
   5   6     0.10  -0.16  -0.04    -0.03   0.06   0.02    -0.18   0.31   0.09
   6   6    -0.09  -0.08  -0.09     0.04   0.03   0.03     0.32   0.00   0.17
   7   6     0.12   0.05   0.09    -0.04  -0.02  -0.04    -0.12  -0.21  -0.19
   8   6     0.10  -0.08   0.01    -0.04   0.04   0.00    -0.24   0.33   0.05
   9   7    -0.11   0.06   0.05     0.02  -0.01  -0.02    -0.07  -0.02  -0.01
  10   6     0.21   0.01  -0.21    -0.04  -0.02   0.09     0.11   0.01  -0.06
  11   6    -0.04  -0.08   0.06     0.03   0.08  -0.03    -0.04   0.02   0.02
  12   6    -0.05   0.04  -0.03    -0.00  -0.04   0.01     0.03  -0.01   0.01
  13   6     0.01   0.03  -0.02     0.02   0.01  -0.01     0.00  -0.00  -0.00
  14   6    -0.04  -0.06  -0.06    -0.24  -0.00   0.08     0.02  -0.02  -0.01
  15   6     0.01   0.02   0.03     0.07  -0.00  -0.07    -0.02  -0.00   0.00
  16   6     0.15   0.05  -0.01     0.34   0.08  -0.06    -0.00   0.00   0.00
  17   6    -0.05   0.06   0.15    -0.10   0.11   0.29    -0.00  -0.00   0.00
  18   6     0.01  -0.02  -0.07     0.02  -0.03  -0.14     0.00  -0.00  -0.00
  19   7     0.02   0.02   0.02     0.01   0.03   0.06    -0.00   0.01  -0.00
  20   6    -0.02  -0.01  -0.00    -0.03  -0.01  -0.00    -0.00  -0.00  -0.00
  21   6     0.01   0.00   0.00     0.02   0.01   0.03    -0.00  -0.00  -0.00
  22   8     0.00  -0.00  -0.00     0.00  -0.01  -0.01    -0.00  -0.00  -0.00
  23   1    -0.01   0.01   0.01    -0.05  -0.01  -0.01     0.03   0.01   0.02
  24   6     0.03   0.01  -0.03    -0.02  -0.01   0.02     0.00   0.00  -0.00
  25   8    -0.01   0.01   0.00     0.01  -0.01  -0.00     0.00  -0.00   0.00
  26   8    -0.01   0.00   0.00     0.00  -0.00  -0.00    -0.00   0.00  -0.00
  27   6     0.00   0.00  -0.00    -0.00  -0.00   0.00     0.00   0.00  -0.00
  28   1     0.11   0.09   0.02    -0.06  -0.06  -0.01     0.09   0.08  -0.01
  29   1     0.05   0.05  -0.02     0.09   0.09  -0.01     0.04   0.05  -0.02
  30   1     0.12   0.05   0.08     0.06   0.07   0.04     0.04   0.02   0.03
  31   1    -0.06  -0.04  -0.03     0.27   0.10   0.19    -0.06  -0.02  -0.03
  32   1     0.05   0.00   0.03    -0.01  -0.00  -0.01     0.02  -0.02   0.00
  33   1     0.03   0.09   0.07    -0.01  -0.02  -0.02    -0.00  -0.03  -0.02
  34   1    -0.06   0.08   0.02     0.02  -0.02  -0.01     0.00   0.02   0.00
  35   1     0.04  -0.03  -0.00    -0.00   0.00  -0.00     0.02  -0.05  -0.01
  36   1     0.03  -0.06  -0.03    -0.01   0.02   0.01     0.10  -0.20  -0.08
  37   1    -0.40  -0.07   0.52     0.12   0.05  -0.27    -0.26   0.01   0.15
  38   1    -0.05  -0.03   0.02    -0.01  -0.01   0.01    -0.00   0.00   0.00
  39   1     0.02   0.01  -0.01    -0.02  -0.02   0.02     0.02   0.01  -0.01
  40   1    -0.20  -0.11  -0.08    -0.28  -0.16  -0.12    -0.01  -0.00  -0.00
  41   1    -0.03  -0.10  -0.18    -0.06  -0.21  -0.39     0.00   0.00   0.00
  42   1    -0.02  -0.01   0.01    -0.04  -0.03   0.02    -0.00  -0.00   0.01
  43   1    -0.04  -0.03   0.02    -0.08  -0.07   0.05    -0.00   0.01   0.00
  44   1     0.02   0.01  -0.01     0.02  -0.00  -0.02    -0.00   0.01   0.00
  45   1     0.01   0.00  -0.00     0.03   0.01  -0.02     0.00   0.00   0.00
  46   1    -0.01  -0.00  -0.01    -0.01  -0.01  -0.02     0.01   0.00   0.01
  47   1     0.00   0.00   0.01    -0.03  -0.02  -0.04     0.00   0.00  -0.00
  48   1    -0.00  -0.01   0.00     0.00   0.01  -0.00    -0.00  -0.00  -0.00
  49   1    -0.00  -0.00   0.01     0.01   0.00  -0.01    -0.00  -0.00   0.00
  50   1    -0.00  -0.00   0.00     0.01   0.00  -0.00    -0.00  -0.00   0.00
                    103                    104                    105
                        a                      a                      a 
 Frequencies --  1344.2067              1352.6845              1377.1752
 Red. masses --     4.6965                 4.3357                 2.5793
 Frc consts  --     0.0000                 0.0000                 0.0000
 IR Inten    --    33.0325                 1.5235                16.2799
 Raman Activ --     0.0000                 0.0000                 0.0000
 Depolar     --     0.0000                 0.0000                 0.0000
 Atom AN      X      Y      Z        X      Y      Z        X      Y      Z
   1   6     0.27   0.28  -0.16    -0.15  -0.06   0.00    -0.01  -0.00   0.00
   2   6     0.08   0.02   0.15     0.32   0.09   0.16    -0.00   0.00  -0.00
   3   6     0.06  -0.04   0.01    -0.01   0.01   0.00    -0.00   0.00  -0.00
   4   6     0.03  -0.01   0.01    -0.02   0.01  -0.01    -0.00  -0.00  -0.00
   5   6    -0.06   0.08   0.01     0.02  -0.02  -0.01     0.00  -0.00  -0.00
   6   6     0.02   0.07   0.05     0.00  -0.03  -0.02    -0.00  -0.00  -0.00
   7   6    -0.00   0.02   0.01    -0.01  -0.01  -0.01    -0.00  -0.00  -0.00
   8   6    -0.05   0.01  -0.02     0.02  -0.00   0.01     0.00   0.00   0.00
   9   7     0.05  -0.10  -0.05     0.01   0.04   0.02    -0.01   0.01   0.00
  10   6    -0.09  -0.01  -0.10    -0.04   0.03   0.09     0.01  -0.00   0.00
  11   6     0.04  -0.04   0.00    -0.00   0.00  -0.01    -0.02  -0.02   0.01
  12   6    -0.02   0.02   0.01    -0.00  -0.00   0.01     0.01   0.01  -0.00
  13   6     0.05   0.04  -0.02     0.08   0.06  -0.02     0.00  -0.00   0.00
  14   6    -0.16  -0.02   0.06    -0.18  -0.17   0.04     0.01   0.00  -0.00
  15   6     0.05  -0.03  -0.08     0.02  -0.02  -0.11    -0.00   0.00   0.00
  16   6     0.09   0.02  -0.02     0.12   0.04  -0.03    -0.00  -0.00   0.00
  17   6    -0.01   0.03   0.06    -0.02   0.04   0.09     0.00  -0.00  -0.00
  18   6     0.00  -0.01  -0.03     0.01  -0.03  -0.05    -0.00   0.00   0.00
  19   7    -0.01   0.03   0.02    -0.02   0.08   0.02     0.00  -0.00  -0.00
  20   6     0.00  -0.01   0.00    -0.01  -0.02   0.00     0.00  -0.00   0.00
  21   6     0.00  -0.00   0.00     0.01  -0.00   0.01    -0.01  -0.00  -0.01
  22   8     0.00  -0.01  -0.00     0.00  -0.01  -0.01     0.00   0.00   0.00
  23   1    -0.01   0.01   0.08     0.08   0.05   0.25     0.00   0.00  -0.00
  24   6    -0.02   0.00   0.01    -0.00  -0.00   0.01     0.05   0.04  -0.05
  25   8     0.00  -0.00  -0.00    -0.00   0.00  -0.00     0.02  -0.03  -0.00
  26   8     0.01  -0.01  -0.00     0.00  -0.00  -0.00    -0.09  -0.06   0.09
  27   6    -0.00  -0.00   0.01    -0.00  -0.00   0.00    -0.18  -0.19   0.20
  28   1    -0.34  -0.33   0.17     0.23   0.24  -0.13     0.01   0.01  -0.00
  29   1    -0.29  -0.28   0.14     0.00  -0.02  -0.06     0.01   0.01  -0.00
  30   1    -0.25  -0.13  -0.17    -0.23  -0.12  -0.20     0.01   0.00   0.00
  31   1    -0.05  -0.02  -0.02    -0.45  -0.17  -0.29    -0.00  -0.00  -0.00
  32   1    -0.03  -0.00  -0.02     0.00   0.00   0.00     0.00  -0.00   0.00
  33   1    -0.02  -0.06  -0.05     0.01   0.02   0.02     0.00   0.00   0.00
  34   1     0.03  -0.05  -0.01    -0.01   0.02   0.01    -0.00   0.00   0.00
  35   1     0.00  -0.02  -0.01    -0.00   0.02   0.00     0.00   0.00   0.00
  36   1    -0.01   0.01   0.00     0.01  -0.00  -0.00     0.00  -0.00  -0.00
  37   1    -0.06  -0.07   0.26     0.11   0.03  -0.15     0.00  -0.00   0.00
  38   1    -0.05  -0.04   0.03    -0.07  -0.04   0.05    -0.00   0.00   0.00
  39   1    -0.05  -0.03   0.03    -0.05   0.01  -0.00    -0.00   0.00  -0.00
  40   1    -0.02  -0.02  -0.02    -0.07  -0.05  -0.03     0.00   0.00   0.00
  41   1    -0.01  -0.05  -0.09    -0.01  -0.07  -0.11     0.00   0.00   0.00
  42   1    -0.01  -0.01   0.01    -0.02  -0.01   0.03     0.00   0.00  -0.00
  43   1    -0.01  -0.01   0.00    -0.01   0.01   0.01     0.00   0.00  -0.00
  44   1    -0.00   0.01   0.01    -0.01   0.02   0.01     0.00   0.00  -0.00
  45   1     0.01   0.00  -0.01     0.04   0.01  -0.01    -0.00  -0.00  -0.00
  46   1    -0.00  -0.01  -0.01    -0.01  -0.00  -0.01     0.01   0.00   0.01
  47   1     0.00   0.00   0.01    -0.01  -0.01  -0.01     0.01   0.01   0.02
  48   1    -0.00   0.01  -0.01     0.00   0.00   0.00     0.08   0.51  -0.24
  49   1     0.01   0.00  -0.01     0.00   0.00  -0.00     0.28   0.19  -0.38
  50   1     0.01   0.00  -0.01     0.00   0.00   0.00     0.39   0.24  -0.26
                    106                    107                    108
                        a                      a                      a 
 Frequencies --  1386.1511              1427.0227              1429.7139
 Red. masses --     6.6827                 1.9773                 1.5206
 Frc consts  --     0.0000                 0.0000                 0.0000
 IR Inten    --    48.7778                 2.4383                 8.1986
 Raman Activ --     0.0000                 0.0000                 0.0000
 Depolar     --     0.0000                 0.0000                 0.0000
 Atom AN      X      Y      Z        X      Y      Z        X      Y      Z
   1   6     0.08   0.03  -0.01     0.00  -0.00   0.00     0.00   0.00  -0.00
   2   6    -0.01   0.00   0.01    -0.00  -0.01   0.00    -0.00  -0.00   0.00
   3   6    -0.11   0.14   0.02     0.01   0.00   0.01     0.00  -0.00  -0.00
   4   6    -0.15  -0.15  -0.17    -0.01   0.01  -0.00     0.00   0.00   0.00
   5   6     0.19  -0.13   0.02     0.00  -0.01  -0.01    -0.00   0.00   0.00
   6   6    -0.02  -0.05  -0.03     0.02  -0.00   0.01     0.00  -0.00  -0.00
   7   6    -0.03  -0.24  -0.15    -0.01   0.02   0.01     0.00   0.00   0.00
   8   6     0.12   0.09   0.12     0.00  -0.02  -0.01    -0.00  -0.00  -0.00
   9   7    -0.13   0.32   0.19    -0.01   0.01   0.00    -0.00  -0.00   0.00
  10   6    -0.08  -0.08  -0.14    -0.00  -0.00  -0.00     0.00  -0.00  -0.00
  11   6    -0.00  -0.02   0.03     0.00  -0.00   0.00     0.00   0.00   0.00
  12   6    -0.01   0.07   0.03    -0.00   0.01  -0.01    -0.00  -0.00  -0.00
  13   6     0.01   0.02  -0.01     0.00   0.00  -0.00    -0.00   0.00  -0.00
  14   6    -0.01   0.02   0.00    -0.00   0.00   0.00    -0.00  -0.00   0.00
  15   6     0.00  -0.01  -0.01     0.03   0.00   0.02     0.00   0.00   0.00
  16   6    -0.00  -0.00   0.00    -0.01  -0.01  -0.02     0.00  -0.00  -0.00
  17   6     0.00  -0.00  -0.00     0.01   0.01   0.02     0.00   0.00   0.00
  18   6    -0.00   0.00   0.00    -0.10  -0.22  -0.13    -0.00  -0.00  -0.00
  19   7     0.00  -0.00   0.00    -0.00  -0.03  -0.02     0.00  -0.00  -0.00
  20   6     0.00   0.00   0.00     0.01   0.05   0.05     0.00  -0.00   0.00
  21   6    -0.01  -0.02  -0.01     0.01   0.01  -0.01    -0.00  -0.00   0.00
  22   8    -0.00   0.00  -0.00     0.00   0.01  -0.00    -0.00   0.00  -0.00
  23   1    -0.01  -0.00  -0.00    -0.09  -0.02  -0.04    -0.00  -0.00  -0.00
  24   6    -0.00   0.01  -0.00    -0.00  -0.00   0.00    -0.00   0.00  -0.00
  25   8     0.00  -0.00   0.00     0.00   0.00  -0.00     0.00  -0.00   0.00
  26   8     0.00   0.00  -0.00     0.00   0.00  -0.00    -0.03  -0.01  -0.03
  27   6    -0.00  -0.00  -0.00     0.00   0.00   0.00    -0.12  -0.06  -0.16
  28   1    -0.12  -0.09   0.03    -0.00  -0.00  -0.00    -0.00  -0.00   0.00
  29   1    -0.07  -0.08   0.03     0.00  -0.00  -0.00    -0.00  -0.00   0.00
  30   1    -0.01  -0.02  -0.00    -0.00   0.01   0.00    -0.00   0.00  -0.00
  31   1     0.03   0.01   0.03     0.01   0.01  -0.01     0.00   0.00  -0.00
  32   1     0.16   0.02   0.09    -0.01   0.00  -0.01    -0.00  -0.00  -0.00
  33   1     0.10   0.23   0.18    -0.00   0.00  -0.00    -0.00  -0.00  -0.00
  34   1    -0.10   0.21   0.07    -0.01   0.01   0.00     0.00  -0.00  -0.00
  35   1     0.01   0.06   0.04     0.00  -0.01  -0.00     0.00  -0.00  -0.00
  36   1     0.24  -0.27  -0.15     0.01  -0.01  -0.01     0.00  -0.00  -0.00
  37   1     0.34  -0.06  -0.05     0.00  -0.00   0.00    -0.00  -0.00   0.01
  38   1    -0.01  -0.03  -0.01    -0.00   0.00   0.00     0.00  -0.00  -0.00
  39   1     0.00  -0.03   0.02    -0.00   0.00  -0.00     0.00  -0.00   0.00
  40   1     0.01   0.00   0.00    -0.00  -0.01  -0.00    -0.00  -0.00  -0.00
  41   1    -0.00   0.00   0.00    -0.00  -0.02  -0.03    -0.00  -0.00  -0.00
  42   1    -0.00  -0.00  -0.00     0.46   0.17   0.43     0.01   0.00   0.01
  43   1     0.00  -0.00  -0.00    -0.05   0.63   0.11    -0.00   0.01   0.00
  44   1    -0.00   0.00   0.00     0.02  -0.16  -0.05    -0.00  -0.00   0.00
  45   1    -0.00  -0.00   0.00    -0.08  -0.02  -0.14    -0.00  -0.00   0.00
  46   1    -0.00   0.02  -0.01     0.00  -0.04   0.02    -0.00   0.01  -0.01
  47   1     0.03   0.01   0.01    -0.03  -0.00   0.04     0.02   0.00  -0.01
  48   1     0.00  -0.00   0.00    -0.01  -0.00  -0.01     0.42   0.19   0.55
  49   1    -0.00  -0.00   0.00    -0.01  -0.00   0.01     0.42  -0.00  -0.21
  50   1    -0.00  -0.00   0.00     0.01  -0.00  -0.01    -0.32   0.05   0.33
                    109                    110                    111
                        a                      a                      a 
 Frequencies --  1439.8688              1452.5570              1455.0963
 Red. masses --     2.3516                 1.7901                 1.8805
 Frc consts  --     0.0000                 0.0000                 0.0000
 IR Inten    --     4.8074                 1.3594                 2.4868
 Raman Activ --     0.0000                 0.0000                 0.0000
 Depolar     --     0.0000                 0.0000                 0.0000
 Atom AN      X      Y      Z        X      Y      Z        X      Y      Z
   1   6     0.00   0.00   0.00    -0.00  -0.00  -0.01    -0.01  -0.01  -0.02
   2   6    -0.00   0.00  -0.00     0.00   0.00   0.00     0.01   0.00   0.00
   3   6     0.07   0.00   0.04     0.02  -0.01   0.01     0.01  -0.00   0.00
   4   6    -0.05   0.04   0.00    -0.01   0.01   0.00    -0.01   0.00  -0.00
   5   6    -0.00  -0.05  -0.03    -0.00  -0.01  -0.01     0.00  -0.01  -0.00
   6   6     0.07  -0.03   0.02     0.02  -0.00   0.01     0.01   0.01   0.01
   7   6    -0.05   0.08   0.02    -0.02   0.04   0.01    -0.02   0.03   0.01
   8   6     0.00  -0.07  -0.03    -0.00  -0.02  -0.01    -0.00  -0.01  -0.01
   9   7    -0.04   0.04   0.02    -0.01   0.00  -0.00    -0.00  -0.01  -0.01
  10   6     0.01  -0.01  -0.01    -0.00   0.00  -0.00     0.00   0.00   0.00
  11   6     0.00   0.00   0.00     0.01   0.00   0.00    -0.00   0.00   0.00
  12   6     0.02  -0.01  -0.01     0.01  -0.02   0.00     0.00  -0.02   0.00
  13   6     0.01  -0.01  -0.00    -0.02   0.03   0.00    -0.03   0.04   0.00
  14   6     0.00  -0.01   0.01    -0.01  -0.00   0.00    -0.01  -0.01   0.00
  15   6    -0.02  -0.00  -0.02     0.00   0.00  -0.01     0.00   0.00  -0.01
  16   6     0.00   0.00   0.00     0.00   0.00  -0.00     0.00   0.00  -0.00
  17   6    -0.00  -0.00  -0.01     0.00  -0.00  -0.00     0.00  -0.00  -0.00
  18   6     0.03   0.06   0.03     0.00   0.01   0.01     0.00   0.01   0.01
  19   7     0.01   0.03   0.02     0.01   0.00   0.00     0.01   0.00   0.00
  20   6     0.04   0.17   0.17     0.02   0.06   0.07     0.03   0.06   0.08
  21   6     0.04   0.07  -0.08    -0.08  -0.09   0.10    -0.10  -0.12   0.13
  22   8     0.00  -0.01  -0.00     0.00  -0.00  -0.00     0.00  -0.00  -0.00
  23   1     0.03   0.01   0.05     0.00   0.00   0.01     0.00   0.00   0.01
  24   6    -0.00  -0.00   0.00     0.01  -0.01  -0.00     0.00   0.02  -0.01
  25   8     0.00   0.00  -0.00    -0.02   0.02   0.01     0.01  -0.02  -0.00
  26   8     0.00   0.00  -0.00     0.01  -0.04   0.01    -0.02   0.03   0.00
  27   6    -0.01   0.01  -0.00     0.10  -0.14  -0.03    -0.07   0.11   0.03
  28   1    -0.01  -0.00  -0.01     0.02  -0.01   0.02     0.03  -0.01   0.03
  29   1     0.00  -0.01  -0.01    -0.01   0.02   0.03    -0.01   0.03   0.04
  30   1     0.00  -0.01   0.00    -0.00  -0.00  -0.00    -0.01  -0.00  -0.00
  31   1    -0.00  -0.00   0.00    -0.01  -0.00  -0.00    -0.01  -0.00  -0.01
  32   1    -0.07   0.01  -0.03    -0.02   0.00  -0.01    -0.01   0.00  -0.00
  33   1    -0.02  -0.00  -0.01    -0.01  -0.01  -0.01    -0.00  -0.00  -0.00
  34   1    -0.03   0.04   0.00    -0.01   0.01   0.00    -0.00   0.01   0.00
  35   1    -0.00  -0.01  -0.02     0.01  -0.02  -0.00     0.01  -0.03  -0.00
  36   1     0.04  -0.06  -0.03     0.01  -0.01  -0.01    -0.00  -0.00  -0.00
  37   1     0.01  -0.00  -0.00    -0.00   0.00   0.00    -0.01   0.00  -0.00
  38   1    -0.01   0.03   0.02     0.02  -0.06  -0.04     0.03  -0.09  -0.06
  39   1    -0.02   0.02  -0.02     0.05  -0.04   0.04     0.08  -0.05   0.06
  40   1     0.00   0.00   0.00     0.00   0.00   0.00     0.00   0.00   0.00
  41   1     0.00   0.00   0.01     0.00   0.00   0.00     0.00   0.00   0.00
  42   1    -0.13  -0.05  -0.11    -0.02  -0.01  -0.02    -0.02  -0.01  -0.02
  43   1     0.01  -0.16  -0.03     0.00  -0.03  -0.01     0.00  -0.03  -0.01
  44   1     0.07  -0.53  -0.18     0.02  -0.19  -0.06     0.02  -0.21  -0.06
  45   1    -0.23  -0.05  -0.49    -0.10  -0.02  -0.17    -0.11  -0.03  -0.18
  46   1     0.03  -0.26   0.15    -0.03   0.32  -0.14    -0.04   0.43  -0.19
  47   1    -0.21  -0.02   0.21     0.26   0.03  -0.22     0.36   0.04  -0.30
  48   1     0.01   0.01   0.00    -0.03  -0.17   0.07     0.01   0.13  -0.07
  49   1     0.03  -0.02   0.01    -0.36   0.31  -0.24     0.27  -0.24   0.18
  50   1    -0.01  -0.03  -0.01     0.01   0.47   0.24    -0.00  -0.37  -0.19
                    112                    113                    114
                        a                      a                      a 
 Frequencies --  1459.1871              1469.7531              1483.4725
 Red. masses --     9.1474                 1.9302                 1.9748
 Frc consts  --     0.0000                 0.0000                 0.0000
 IR Inten    --   121.0049                 3.2653                 6.8150
 Raman Activ --     0.0000                 0.0000                 0.0000
 Depolar     --     0.0000                 0.0000                 0.0000
 Atom AN      X      Y      Z        X      Y      Z        X      Y      Z
   1   6    -0.02  -0.01  -0.01     0.05   0.05   0.17     0.01   0.01   0.04
   2   6     0.00  -0.00   0.00    -0.01   0.03  -0.02     0.02   0.21  -0.13
   3   6    -0.31   0.09  -0.11     0.01  -0.00   0.00    -0.02  -0.02  -0.02
   4   6     0.08  -0.29  -0.12    -0.00   0.00   0.00     0.03   0.00   0.02
   5   6     0.08   0.18   0.14    -0.00   0.00  -0.00    -0.02   0.03   0.01
   6   6    -0.27   0.28   0.02     0.00  -0.00   0.00    -0.01  -0.05  -0.04
   7   6     0.13  -0.28  -0.09     0.00   0.01   0.01     0.04  -0.02   0.01
   8   6     0.08   0.16   0.14    -0.00  -0.00  -0.00    -0.02   0.04   0.01
   9   7     0.17  -0.26  -0.13    -0.00  -0.00   0.00     0.00   0.01   0.01
  10   6    -0.02   0.03   0.07     0.01   0.00   0.00     0.00  -0.00   0.02
  11   6    -0.01  -0.01  -0.02    -0.01  -0.02   0.02     0.00   0.01  -0.01
  12   6    -0.05   0.09   0.02     0.00  -0.00  -0.00    -0.01   0.01  -0.01
  13   6     0.01  -0.01   0.00     0.12  -0.16  -0.03    -0.07   0.07   0.01
  14   6     0.00  -0.00   0.01     0.02   0.01  -0.00    -0.00   0.03  -0.02
  15   6     0.00  -0.01  -0.01    -0.00   0.01   0.01    -0.00   0.00   0.01
  16   6    -0.00   0.00   0.00    -0.00  -0.00   0.00     0.00   0.00  -0.00
  17   6    -0.00  -0.00  -0.00    -0.00  -0.00   0.00    -0.00   0.00   0.01
  18   6     0.00   0.00   0.00    -0.00   0.00  -0.00    -0.00  -0.00  -0.00
  19   7     0.00   0.01   0.00     0.01  -0.02   0.00     0.00  -0.00   0.00
  20   6     0.01   0.04   0.04     0.00   0.01   0.01     0.00   0.00  -0.00
  21   6     0.00  -0.01  -0.02    -0.03  -0.03   0.04     0.01   0.01  -0.01
  22   8     0.00  -0.00  -0.00     0.00   0.00  -0.00     0.00   0.00   0.00
  23   1    -0.01   0.00   0.03    -0.01  -0.00  -0.02    -0.03  -0.01  -0.04
  24   6    -0.00   0.00   0.00     0.01  -0.00  -0.00    -0.00  -0.00   0.00
  25   8     0.00  -0.00  -0.00    -0.00   0.01  -0.00     0.00  -0.00   0.00
  26   8     0.00  -0.00  -0.00     0.00   0.00  -0.00    -0.00   0.00   0.00
  27   6     0.00  -0.00  -0.00    -0.00   0.00   0.00     0.00   0.00  -0.00
  28   1     0.03   0.01   0.01    -0.27   0.10  -0.32    -0.06   0.05  -0.11
  29   1     0.01   0.03   0.00     0.11  -0.27  -0.34     0.03  -0.07  -0.10
  30   1    -0.00   0.01  -0.00     0.04  -0.09   0.02     0.17  -0.58   0.02
  31   1    -0.00   0.00  -0.01    -0.01  -0.03   0.11    -0.22  -0.23   0.53
  32   1     0.26  -0.02   0.12    -0.00  -0.00  -0.00     0.01  -0.01   0.00
  33   1     0.12   0.08   0.11    -0.00  -0.00  -0.00    -0.00  -0.01  -0.01
  34   1     0.09  -0.04   0.02    -0.00   0.00  -0.00     0.02  -0.03  -0.01
  35   1     0.12  -0.10   0.01     0.00  -0.01  -0.00     0.02  -0.03  -0.00
  36   1    -0.16   0.20   0.11     0.00  -0.01  -0.00    -0.00   0.01   0.01
  37   1    -0.08   0.02   0.01    -0.01  -0.00   0.01    -0.01   0.00  -0.00
  38   1     0.00   0.03   0.01    -0.14   0.38   0.29     0.08  -0.18  -0.14
  39   1    -0.02   0.01  -0.01    -0.33   0.22  -0.23     0.18  -0.11   0.11
  40   1     0.00   0.00   0.00    -0.00  -0.00  -0.00    -0.02  -0.01  -0.01
  41   1    -0.00   0.00   0.00    -0.00   0.00  -0.00    -0.00  -0.00  -0.00
  42   1    -0.01  -0.00  -0.01     0.00   0.00  -0.00     0.01   0.00   0.01
  43   1     0.00  -0.01  -0.00    -0.00  -0.00  -0.00    -0.00   0.01   0.00
  44   1     0.02  -0.13  -0.04     0.01  -0.03  -0.01     0.00  -0.00  -0.00
  45   1    -0.07  -0.02  -0.12    -0.02  -0.01  -0.02    -0.00  -0.00  -0.00
  46   1     0.00  -0.02   0.01    -0.01   0.12  -0.06     0.00  -0.03   0.02
  47   1    -0.01   0.01   0.05     0.11   0.01  -0.09    -0.03  -0.00   0.03
  48   1     0.00  -0.01   0.01    -0.00   0.00  -0.00    -0.00  -0.00  -0.00
  49   1    -0.01   0.01  -0.01     0.00  -0.00   0.00    -0.00   0.00   0.00
  50   1    -0.00   0.01   0.01    -0.00  -0.01  -0.00    -0.00   0.00   0.00
                    115                    116                    117
                        a                      a                      a 
 Frequencies --  1495.9335              1499.9612              1581.8901
 Red. masses --     2.1003                 9.9763                11.5771
 Frc consts  --     0.0000                 0.0000                 0.0000
 IR Inten    --    19.7238               199.7022                28.6526
 Raman Activ --     0.0000                 0.0000                 0.0000
 Depolar     --     0.0000                 0.0000                 0.0000
 Atom AN      X      Y      Z        X      Y      Z        X      Y      Z
   1   6    -0.05  -0.05  -0.18    -0.01   0.01   0.04     0.00  -0.00  -0.00
   2   6     0.00   0.09  -0.07     0.00   0.01  -0.00    -0.00  -0.00   0.00
   3   6     0.02   0.03   0.03     0.11   0.16   0.14     0.44   0.00   0.23
   4   6    -0.04  -0.01  -0.02    -0.19  -0.09  -0.15    -0.27  -0.21  -0.26
   5   6     0.03  -0.04  -0.01     0.18  -0.20  -0.02     0.19   0.01   0.10
   6   6     0.02   0.07   0.05     0.06   0.43   0.29    -0.44  -0.04  -0.25
   7   6    -0.06   0.02  -0.02    -0.29   0.10  -0.10     0.29   0.15   0.25
   8   6     0.03  -0.06  -0.02     0.14  -0.30  -0.09    -0.20   0.03  -0.09
   9   7    -0.00  -0.02  -0.02     0.04  -0.25  -0.17     0.06   0.00   0.03
  10   6    -0.01  -0.00  -0.02     0.02   0.02   0.05    -0.02  -0.00   0.00
  11   6     0.00  -0.01   0.01    -0.01   0.01  -0.02     0.01  -0.00   0.00
  12   6     0.02  -0.00   0.00     0.08  -0.03   0.03    -0.03  -0.00  -0.02
  13   6     0.09  -0.12  -0.01    -0.02   0.03   0.01    -0.00  -0.00  -0.00
  14   6     0.02   0.01  -0.00    -0.01   0.00   0.00     0.00  -0.00  -0.00
  15   6    -0.00   0.01   0.01     0.00  -0.00   0.00    -0.01   0.00   0.00
  16   6     0.00   0.00  -0.00     0.00  -0.00  -0.00     0.00   0.00   0.00
  17   6    -0.00   0.00   0.00     0.00   0.00   0.00    -0.00  -0.00  -0.00
  18   6    -0.00   0.00  -0.00     0.00  -0.00  -0.00    -0.00   0.00   0.00
  19   7     0.00  -0.01  -0.00    -0.00   0.00  -0.00     0.00  -0.00   0.00
  20   6    -0.00  -0.00  -0.00    -0.01  -0.02  -0.02    -0.00  -0.00  -0.00
  21   6    -0.01  -0.01   0.01     0.01  -0.00   0.00    -0.01   0.00  -0.00
  22   8     0.00   0.00  -0.00    -0.00   0.00   0.00     0.00   0.00   0.00
  23   1    -0.02  -0.00  -0.02     0.00  -0.00  -0.01     0.00   0.00  -0.00
  24   6    -0.00  -0.00   0.00    -0.00   0.00   0.00     0.00  -0.00  -0.00
  25   8    -0.00   0.00  -0.00     0.00  -0.00  -0.00    -0.00   0.00   0.00
  26   8     0.00  -0.00  -0.00    -0.00  -0.00  -0.00    -0.00   0.00   0.00
  27   6     0.00   0.00  -0.00    -0.00  -0.00  -0.00    -0.00  -0.00   0.00
  28   1     0.30  -0.12   0.37    -0.05   0.03  -0.08     0.00  -0.00   0.00
  29   1    -0.11   0.30   0.36     0.04  -0.05  -0.09    -0.00   0.00   0.00
  30   1     0.08  -0.25   0.01     0.01  -0.03   0.00    -0.00   0.00  -0.00
  31   1    -0.11  -0.10   0.22    -0.01  -0.01   0.03     0.00   0.00  -0.00
  32   1    -0.02   0.01  -0.00    -0.09   0.06  -0.01    -0.10   0.03  -0.03
  33   1     0.00   0.02   0.01     0.02   0.12   0.08     0.01   0.09   0.05
  34   1    -0.02   0.04   0.01    -0.11   0.19   0.06     0.02   0.03   0.03
  35   1    -0.03   0.04   0.01    -0.14   0.19   0.03    -0.03  -0.03  -0.03
  36   1     0.00  -0.01  -0.01    -0.05  -0.02   0.02    -0.04   0.09   0.03
  37   1     0.02  -0.00  -0.01    -0.12   0.02   0.02     0.03  -0.00  -0.00
  38   1    -0.10   0.29   0.21     0.03  -0.06  -0.05    -0.00  -0.00   0.00
  39   1    -0.26   0.19  -0.19     0.06  -0.04   0.04     0.00   0.00  -0.00
  40   1    -0.01  -0.00  -0.00     0.00   0.00  -0.00    -0.00  -0.00   0.00
  41   1    -0.00  -0.00  -0.00     0.00   0.00  -0.00     0.00  -0.00   0.00
  42   1     0.01   0.00   0.00     0.00   0.00   0.00     0.00   0.00  -0.00
  43   1    -0.00   0.00   0.00    -0.00   0.00   0.00     0.00  -0.00  -0.00
  44   1     0.00   0.01   0.00    -0.01   0.05   0.02     0.00   0.01   0.00
  45   1     0.00  -0.00   0.01     0.03   0.01   0.05     0.01   0.00   0.00
  46   1    -0.00   0.03  -0.02     0.00  -0.01   0.00    -0.00   0.00   0.00
  47   1     0.03   0.00  -0.03    -0.01  -0.00  -0.00    -0.00   0.00  -0.00
  48   1     0.00  -0.00   0.00     0.00   0.00   0.00    -0.00   0.00  -0.00
  49   1     0.00  -0.00   0.00     0.00   0.00  -0.00    -0.00  -0.00  -0.00
  50   1    -0.00  -0.00   0.00    -0.00   0.00   0.00     0.00   0.00  -0.00
                    118                    119                    120
                        a                      a                      a 
 Frequencies --  1599.1674              1696.9126              1711.9146
 Red. masses --    11.5113                11.6417                13.4142
 Frc consts  --     0.0000                 0.0000                 0.0000
 IR Inten    --   160.8913                 9.2288               671.7558
 Raman Activ --     0.0000                 0.0000                 0.0000
 Depolar     --     0.0000                 0.0000                 0.0000
 Atom AN      X      Y      Z        X      Y      Z        X      Y      Z
   1   6    -0.01   0.00   0.00     0.00   0.00   0.00    -0.00  -0.00  -0.00
   2   6    -0.00   0.00  -0.00    -0.01  -0.00  -0.00     0.00  -0.00   0.00
   3   6     0.18  -0.20  -0.02    -0.00   0.00   0.00    -0.00   0.00   0.00
   4   6    -0.00   0.35   0.20    -0.00  -0.00  -0.00    -0.00  -0.00  -0.00
   5   6     0.22  -0.45  -0.16    -0.00   0.00   0.00    -0.00   0.01   0.00
   6   6    -0.15   0.25   0.07     0.00  -0.00   0.00     0.00  -0.01  -0.00
   7   6     0.05  -0.30  -0.15    -0.00   0.00   0.00     0.00   0.01   0.00
   8   6    -0.25   0.40   0.10     0.00  -0.00  -0.00     0.00  -0.01  -0.00
   9   7     0.02  -0.05  -0.04    -0.00   0.00  -0.00    -0.00   0.00  -0.00
  10   6     0.01  -0.01   0.01    -0.00  -0.00   0.00     0.01  -0.00   0.02
  11   6    -0.01   0.00  -0.00     0.00   0.00  -0.00    -0.02  -0.07   0.03
  12   6    -0.01   0.03   0.01     0.00  -0.00  -0.00    -0.00  -0.01   0.00
  13   6     0.00  -0.00  -0.00    -0.01  -0.00   0.01     0.00   0.00  -0.00
  14   6     0.00   0.00   0.00    -0.07  -0.03  -0.02     0.01  -0.00  -0.00
  15   6    -0.00  -0.01  -0.00     0.01   0.01   0.00     0.00   0.00   0.00
  16   6     0.00   0.00   0.00     0.43   0.38   0.38    -0.01  -0.01  -0.01
  17   6    -0.00  -0.00  -0.00    -0.30  -0.38  -0.49     0.01   0.01   0.01
  18   6     0.00  -0.00   0.00     0.02   0.03   0.06    -0.00  -0.00  -0.00
  19   7     0.00   0.00  -0.00    -0.00  -0.01  -0.01    -0.00   0.00  -0.00
  20   6     0.00   0.00   0.00     0.00   0.00   0.00     0.00  -0.00  -0.00
  21   6     0.00  -0.01  -0.01     0.00  -0.00  -0.00     0.00   0.00  -0.00
  22   8     0.00  -0.00  -0.00    -0.00   0.00   0.00     0.00  -0.00   0.00
  23   1    -0.00  -0.00   0.01    -0.00   0.00  -0.00     0.00   0.00  -0.00
  24   6    -0.00   0.01   0.00    -0.01   0.01   0.00    -0.31   0.73  -0.02
  25   8     0.00  -0.01  -0.00     0.01  -0.01  -0.00     0.25  -0.54  -0.00
  26   8     0.00  -0.00  -0.00     0.00  -0.00  -0.00     0.04  -0.04  -0.02
  27   6    -0.00   0.00  -0.00     0.00   0.00  -0.00     0.00   0.01  -0.00
  28   1    -0.00  -0.00   0.00    -0.00   0.00  -0.00     0.00   0.00  -0.00
  29   1     0.01   0.00  -0.00     0.00   0.00   0.00     0.00   0.00  -0.01
  30   1     0.00  -0.00  -0.00     0.00   0.00   0.00     0.00  -0.00   0.00
  31   1    -0.00  -0.00   0.00     0.00   0.00   0.00    -0.00  -0.00   0.00
  32   1    -0.05  -0.04  -0.04    -0.00   0.00  -0.00    -0.00   0.00   0.00
  33   1    -0.07  -0.04  -0.06     0.00  -0.00  -0.00     0.00   0.00   0.00
  34   1    -0.08   0.09   0.01     0.00  -0.00  -0.00     0.00  -0.00   0.00
  35   1     0.06  -0.10  -0.02    -0.00   0.00   0.00    -0.00   0.00  -0.00
  36   1    -0.03   0.02   0.02     0.00  -0.00  -0.00    -0.00   0.00   0.00
  37   1    -0.01  -0.00  -0.00    -0.00   0.00   0.00    -0.01   0.00  -0.00
  38   1     0.00   0.00  -0.00     0.00   0.00  -0.00     0.00   0.01  -0.00
  39   1     0.00  -0.00   0.00     0.00   0.00  -0.00    -0.00   0.01  -0.00
  40   1     0.00   0.00   0.00    -0.09  -0.00   0.06     0.00   0.00  -0.00
  41   1    -0.00   0.00   0.00    -0.08   0.00   0.08     0.00  -0.00  -0.00
  42   1    -0.00  -0.00   0.00    -0.00   0.00   0.05    -0.00  -0.00  -0.00
  43   1     0.00   0.00  -0.00    -0.04   0.04   0.06     0.00  -0.00  -0.00
  44   1     0.00  -0.01  -0.00    -0.00  -0.00   0.00     0.00   0.00  -0.00
  45   1    -0.01  -0.00  -0.01    -0.00   0.00   0.00     0.00   0.00   0.00
  46   1     0.00  -0.00   0.00     0.00   0.00   0.00    -0.00  -0.01   0.00
  47   1     0.00   0.00   0.01    -0.00  -0.00  -0.00    -0.01  -0.00   0.00
  48   1     0.00  -0.00   0.00    -0.00  -0.00   0.00    -0.01  -0.03   0.02
  49   1     0.00   0.00  -0.00    -0.00   0.00   0.00    -0.03   0.01   0.00
  50   1    -0.00   0.00   0.00    -0.00   0.00   0.00    -0.01   0.02   0.02
                    121                    122                    123
                        a                      a                      a 
 Frequencies --  2886.7275              2917.8388              2961.6108
 Red. masses --     1.7483                 1.7611                 1.7961
 Frc consts  --     0.0000                 0.0000                 0.0000
 IR Inten    --    78.9288                41.5256                29.3773
 Raman Activ --     0.0000                 0.0000                 0.0000
 Depolar     --     0.0000                 0.0000                 0.0000
 Atom AN      X      Y      Z        X      Y      Z        X      Y      Z
   1   6    -0.01   0.00   0.01    -0.00   0.00  -0.00     0.03  -0.03   0.00
   2   6    -0.00   0.00   0.00    -0.00   0.00  -0.00    -0.05   0.06   0.05
   3   6    -0.00  -0.00  -0.00     0.00   0.00   0.00     0.00   0.00   0.00
   4   6     0.00   0.00   0.00     0.00   0.00   0.00    -0.00   0.00   0.00
   5   6     0.00  -0.00  -0.00    -0.00  -0.00  -0.00    -0.00  -0.00  -0.00
   6   6     0.00   0.00   0.00     0.00  -0.00  -0.00    -0.00  -0.00  -0.00
   7   6    -0.00   0.00   0.00     0.00   0.00   0.00     0.00   0.00  -0.00
   8   6    -0.00   0.00  -0.00    -0.00  -0.00  -0.00     0.00   0.00  -0.00
   9   7     0.01  -0.01  -0.01    -0.00   0.00   0.00     0.00   0.00  -0.00
  10   6    -0.04  -0.25  -0.06     0.00   0.00   0.00     0.00  -0.00  -0.00
  11   6    -0.00  -0.01  -0.00     0.00  -0.00   0.00     0.00  -0.00   0.00
  12   6    -0.00   0.00   0.00    -0.00   0.00  -0.00     0.00  -0.01  -0.00
  13   6     0.00   0.00   0.00     0.00  -0.00   0.00    -0.00   0.00  -0.00
  14   6    -0.00   0.00   0.00    -0.00   0.00  -0.00    -0.00  -0.00   0.00
  15   6    -0.00   0.00  -0.00    -0.00   0.02  -0.00     0.03  -0.24   0.04
  16   6     0.00   0.00   0.00     0.00   0.00   0.00    -0.00  -0.00  -0.00
  17   6    -0.00  -0.00   0.00     0.00  -0.01  -0.00    -0.00  -0.00  -0.00
  18   6    -0.00  -0.00  -0.00     0.10  -0.24   0.02    -0.00  -0.01  -0.01
  19   7     0.00  -0.00   0.00     0.00  -0.01   0.00     0.00  -0.01   0.00
  20   6    -0.00   0.00  -0.00    -0.00   0.01  -0.00    -0.01   0.03  -0.00
  21   6    -0.00  -0.00  -0.00    -0.00   0.00   0.00     0.00   0.00  -0.00
  22   8    -0.00   0.00  -0.00    -0.00  -0.00   0.00    -0.00   0.00   0.00
  23   1     0.00  -0.01   0.00     0.01  -0.07   0.01    -0.12   0.88  -0.14
  24   6    -0.00  -0.00  -0.00     0.00   0.00  -0.00     0.00   0.00  -0.00
  25   8    -0.00   0.00   0.00    -0.00   0.00  -0.00    -0.00  -0.00   0.00
  26   8     0.00   0.00  -0.00    -0.00   0.00   0.00    -0.00  -0.00   0.00
  27   6     0.00   0.00   0.00    -0.00  -0.00   0.00    -0.00  -0.00  -0.00
  28   1     0.03  -0.04  -0.03    -0.00   0.00   0.00    -0.03   0.06   0.04
  29   1     0.00  -0.00   0.00     0.00  -0.00   0.00    -0.07   0.04  -0.05
  30   1     0.00  -0.00  -0.00    -0.00  -0.00   0.00     0.08   0.03  -0.12
  31   1     0.00  -0.00  -0.00     0.00  -0.00  -0.00     0.11  -0.22  -0.05
  32   1    -0.00   0.00   0.00     0.00  -0.00  -0.00     0.00  -0.00  -0.00
  33   1    -0.00   0.00  -0.00     0.00  -0.00   0.00     0.00  -0.00   0.00
  34   1    -0.00  -0.00  -0.00     0.00  -0.00   0.00     0.00   0.00   0.00
  35   1     0.00   0.00   0.00     0.00   0.00   0.00    -0.00   0.00  -0.00
  36   1     0.00   0.00  -0.00    -0.00  -0.00   0.00    -0.00  -0.00   0.00
  37   1     0.14   0.92   0.23    -0.00  -0.00  -0.00     0.00   0.01   0.00
  38   1    -0.00   0.00  -0.00    -0.00   0.00  -0.01     0.01  -0.00   0.01
  39   1    -0.00  -0.00  -0.00     0.00  -0.00  -0.00    -0.00  -0.01  -0.00
  40   1     0.00  -0.00  -0.00    -0.00   0.00  -0.00     0.00   0.00   0.00
  41   1     0.00   0.00  -0.00     0.00  -0.00  -0.00     0.00   0.00  -0.00
  42   1    -0.00   0.00  -0.00    -0.33   0.90  -0.03    -0.02   0.06  -0.00
  43   1     0.00  -0.00   0.00    -0.04  -0.03  -0.05     0.03  -0.00   0.02
  44   1     0.00  -0.00   0.00     0.00   0.00  -0.00     0.00   0.00   0.01
  45   1     0.00  -0.00   0.00     0.01  -0.03   0.00     0.04  -0.13   0.00
  46   1     0.00  -0.00  -0.00     0.00  -0.00  -0.00    -0.00   0.00   0.00
  47   1     0.00  -0.00   0.00     0.00  -0.00   0.00     0.00  -0.00   0.00
  48   1     0.00  -0.00  -0.00     0.00  -0.00  -0.00     0.00  -0.00  -0.00
  49   1    -0.00  -0.00  -0.00     0.00   0.00   0.00     0.00   0.00   0.00
  50   1    -0.00   0.00  -0.00    -0.00   0.00  -0.00    -0.00   0.00  -0.00
                    124                    125                    126
                        a                      a                      a 
 Frequencies --  2964.9472              2974.4488              2976.8473
 Red. masses --     1.9355                 1.8844                 1.7314
 Frc consts  --     0.0000                 0.0000                 0.0000
 IR Inten    --    19.3056                44.5608                50.9552
 Raman Activ --     0.0000                 0.0000                 0.0000
 Depolar     --     0.0000                 0.0000                 0.0000
 Atom AN      X      Y      Z        X      Y      Z        X      Y      Z
   1   6    -0.11   0.11  -0.02    -0.17   0.13  -0.08    -0.01   0.01  -0.01
   2   6     0.14  -0.12  -0.14    -0.11   0.03   0.12    -0.01  -0.00   0.02
   3   6     0.00  -0.00   0.00    -0.00   0.00  -0.00     0.00   0.00   0.00
   4   6    -0.00  -0.00  -0.00    -0.00   0.00   0.00    -0.00  -0.00  -0.00
   5   6     0.00   0.00   0.00     0.00   0.00   0.00     0.00   0.00   0.00
   6   6    -0.00  -0.00  -0.00     0.00  -0.00  -0.00     0.00   0.00   0.00
   7   6    -0.00   0.00  -0.00    -0.00   0.00   0.00     0.00   0.00   0.00
   8   6    -0.00   0.00  -0.00     0.00   0.00   0.00    -0.01  -0.00  -0.00
   9   7     0.00  -0.00   0.00     0.00  -0.00   0.00     0.00  -0.00   0.00
  10   6    -0.00   0.01   0.00    -0.00   0.01  -0.00    -0.00   0.00  -0.00
  11   6     0.00   0.00   0.00     0.00   0.00   0.00    -0.00   0.00  -0.00
  12   6     0.00  -0.00   0.00    -0.00   0.00  -0.00     0.00   0.00  -0.00
  13   6    -0.00  -0.00  -0.00     0.00  -0.00  -0.00    -0.00   0.00  -0.00
  14   6     0.00  -0.01  -0.00    -0.00   0.00   0.00    -0.00   0.00   0.00
  15   6     0.01  -0.08   0.01    -0.00   0.01  -0.00    -0.00   0.04  -0.01
  16   6    -0.00   0.00   0.00     0.00  -0.00  -0.00     0.00  -0.00  -0.00
  17   6    -0.00  -0.00  -0.00    -0.00   0.00   0.00     0.00   0.00  -0.00
  18   6    -0.00  -0.00  -0.00     0.00   0.00   0.00    -0.01   0.01  -0.01
  19   7     0.00  -0.00   0.00     0.00  -0.00   0.00    -0.00   0.01  -0.00
  20   6    -0.01   0.02  -0.00     0.01  -0.03   0.00    -0.07   0.24  -0.00
  21   6     0.00  -0.00  -0.00    -0.00   0.00  -0.00     0.02  -0.03   0.00
  22   8    -0.00   0.00   0.00     0.00  -0.00  -0.00    -0.00  -0.00   0.00
  23   1    -0.04   0.30  -0.05     0.00  -0.03   0.00     0.02  -0.14   0.02
  24   6     0.00  -0.00  -0.00    -0.00  -0.00   0.00    -0.00   0.00   0.00
  25   8    -0.00   0.00   0.00     0.00  -0.00  -0.00     0.00  -0.00  -0.00
  26   8    -0.00   0.00   0.00     0.00  -0.00  -0.00    -0.00  -0.00  -0.00
  27   6     0.00  -0.00   0.00     0.00   0.00   0.00     0.00  -0.00  -0.00
  28   1     0.12  -0.23  -0.18     0.06  -0.13  -0.12    -0.00  -0.00  -0.00
  29   1     0.29  -0.17   0.23     0.53  -0.33   0.41     0.05  -0.03   0.04
  30   1    -0.25  -0.07   0.37     0.29   0.06  -0.43     0.05   0.01  -0.07
  31   1    -0.25   0.52   0.12     0.08  -0.17  -0.03     0.00  -0.00   0.00
  32   1    -0.00   0.00   0.00     0.00   0.00  -0.00     0.00  -0.00  -0.00
  33   1     0.00  -0.00   0.00     0.00  -0.00   0.00    -0.00   0.00  -0.00
  34   1    -0.00  -0.00  -0.00    -0.00  -0.00  -0.00    -0.00   0.00  -0.00
  35   1     0.00   0.00   0.00    -0.00  -0.00  -0.00     0.01   0.01   0.01
  36   1    -0.00  -0.00  -0.00     0.00  -0.00  -0.00     0.00   0.00  -0.00
  37   1    -0.00  -0.01  -0.00    -0.00  -0.02  -0.00    -0.00  -0.00  -0.00
  38   1     0.00  -0.00   0.00    -0.01   0.00  -0.01     0.01  -0.01   0.01
  39   1     0.00   0.01   0.01     0.00   0.01   0.01    -0.00   0.00   0.00
  40   1     0.00  -0.00  -0.01    -0.00   0.00   0.01    -0.00   0.00   0.00
  41   1     0.00   0.00  -0.00     0.00   0.00  -0.00    -0.00  -0.00   0.00
  42   1    -0.01   0.02  -0.00     0.00  -0.00   0.00     0.01  -0.03   0.00
  43   1     0.01  -0.00   0.01    -0.01   0.00  -0.01     0.03  -0.00   0.02
  44   1     0.00   0.00   0.00    -0.00  -0.00  -0.00    -0.01   0.03   0.00
  45   1     0.02  -0.06   0.00    -0.03   0.10   0.00     0.27  -0.89  -0.00
  46   1    -0.00   0.00   0.00     0.00  -0.00  -0.00    -0.04   0.01   0.03
  47   1    -0.00   0.00  -0.00     0.00  -0.01   0.00    -0.04   0.13  -0.03
  48   1     0.00  -0.00  -0.00    -0.00   0.00   0.00    -0.00   0.00   0.00
  49   1     0.00   0.00   0.00    -0.00  -0.00  -0.00     0.00   0.00   0.00
  50   1    -0.00   0.00  -0.00    -0.00   0.00  -0.00    -0.00   0.00  -0.00
                    127                    128                    129
                        a                      a                      a 
 Frequencies --  2979.5738              2982.6934              2986.0290
 Red. masses --     1.9585                 1.7001                 1.5629
 Frc consts  --     0.0000                 0.0000                 0.0000
 IR Inten    --    12.3718                19.3953                73.2253
 Raman Activ --     0.0000                 0.0000                 0.0000
 Depolar     --     0.0000                 0.0000                 0.0000
 Atom AN      X      Y      Z        X      Y      Z        X      Y      Z
   1   6    -0.00   0.00  -0.00    -0.01   0.01   0.00    -0.06   0.08   0.02
   2   6    -0.00   0.00   0.00     0.00   0.01  -0.01     0.01   0.18  -0.09
   3   6     0.00   0.00   0.00     0.00  -0.00   0.00    -0.00   0.00   0.00
   4   6    -0.00  -0.00  -0.00     0.00  -0.00  -0.00     0.00   0.00   0.00
   5   6     0.00   0.00   0.00     0.00   0.00   0.00     0.00   0.00   0.00
   6   6     0.00  -0.00  -0.00    -0.00  -0.00  -0.00     0.00   0.00  -0.00
   7   6    -0.00   0.00   0.00    -0.00   0.00  -0.00    -0.00  -0.00  -0.00
   8   6     0.00   0.00   0.00     0.00   0.00   0.00    -0.00  -0.00   0.00
   9   7     0.00   0.00   0.00     0.00   0.00   0.00     0.00  -0.00   0.00
  10   6    -0.00  -0.00  -0.00    -0.00   0.00   0.00    -0.00   0.01   0.00
  11   6    -0.00  -0.00  -0.00     0.00   0.00  -0.00     0.00   0.00   0.00
  12   6    -0.00  -0.00   0.00     0.00  -0.00   0.00    -0.00   0.00  -0.00
  13   6     0.00   0.00   0.00     0.00  -0.00   0.00     0.01  -0.01   0.00
  14   6    -0.00   0.00   0.00     0.00  -0.00  -0.00    -0.00   0.00  -0.00
  15   6     0.00   0.00  -0.00     0.00  -0.01   0.00    -0.00   0.01  -0.00
  16   6    -0.00  -0.00   0.00    -0.00  -0.00  -0.00    -0.00   0.00   0.00
  17   6    -0.00  -0.00   0.00    -0.00  -0.00   0.01     0.00   0.00  -0.00
  18   6     0.00  -0.00   0.00     0.18  -0.01   0.17    -0.02   0.00  -0.01
  19   7     0.00  -0.00   0.00     0.01   0.00   0.00    -0.00   0.00  -0.00
  20   6     0.00  -0.00   0.00    -0.01   0.01  -0.01    -0.00   0.01   0.00
  21   6    -0.00  -0.00   0.00     0.00  -0.00   0.00     0.00  -0.00   0.00
  22   8    -0.00   0.00   0.00    -0.00   0.00   0.00    -0.00   0.00   0.00
  23   1    -0.00  -0.00   0.00    -0.01   0.03  -0.01     0.01  -0.06   0.01
  24   6     0.00   0.00   0.00    -0.00  -0.00   0.00    -0.00  -0.00   0.00
  25   8    -0.00  -0.00  -0.00    -0.00   0.00  -0.00     0.00   0.00  -0.00
  26   8    -0.00  -0.00  -0.00     0.00   0.00  -0.00     0.00   0.00  -0.00
  27   6    -0.17  -0.07  -0.23     0.00   0.00   0.00    -0.00   0.00  -0.00
  28   1     0.00  -0.00  -0.00     0.01  -0.02  -0.01     0.12  -0.21  -0.16
  29   1     0.00  -0.00   0.00     0.01  -0.00   0.01     0.11  -0.06   0.09
  30   1     0.00   0.00  -0.00    -0.03  -0.00   0.04    -0.34  -0.04   0.48
  31   1     0.00  -0.00  -0.00     0.02  -0.04  -0.01     0.32  -0.59  -0.17
  32   1     0.00  -0.00  -0.00    -0.00   0.00   0.00     0.00  -0.00  -0.00
  33   1     0.00  -0.00   0.00    -0.00   0.00  -0.00    -0.00   0.00  -0.00
  34   1    -0.00  -0.00  -0.00    -0.00  -0.00  -0.00    -0.00  -0.00  -0.00
  35   1    -0.00  -0.00  -0.00    -0.00  -0.00  -0.00     0.00   0.00  -0.00
  36   1    -0.00  -0.00  -0.00     0.00   0.00   0.00     0.00   0.00  -0.00
  37   1     0.00   0.00   0.00    -0.00  -0.00  -0.00    -0.00  -0.02  -0.00
  38   1    -0.00   0.00  -0.00    -0.01   0.00  -0.01    -0.02   0.01  -0.03
  39   1     0.00  -0.00  -0.00     0.00   0.00   0.00     0.00   0.01   0.02
  40   1     0.00  -0.00  -0.00     0.00   0.00  -0.00     0.00  -0.00  -0.00
  41   1     0.00   0.00  -0.00     0.03   0.01  -0.01    -0.00  -0.00   0.00
  42   1     0.00  -0.00   0.00     0.05  -0.07   0.03    -0.00  -0.00  -0.00
  43   1    -0.00   0.00  -0.00    -0.70   0.08  -0.64     0.06  -0.01   0.05
  44   1    -0.00   0.00  -0.00     0.01  -0.00   0.02    -0.00   0.00  -0.00
  45   1    -0.00   0.00   0.00     0.01  -0.04  -0.00     0.01  -0.03   0.00
  46   1     0.01  -0.00  -0.00     0.00  -0.00  -0.00    -0.00   0.00   0.00
  47   1    -0.00   0.01  -0.00    -0.00   0.01  -0.00    -0.00   0.01  -0.00
  48   1    -0.03  -0.01  -0.03    -0.00   0.00   0.00    -0.00   0.00   0.00
  49   1     0.16   0.51   0.39    -0.00  -0.01  -0.00    -0.00  -0.01  -0.01
  50   1     0.47  -0.25   0.44     0.00   0.00   0.00     0.01  -0.00   0.01
                    130                    131                    132
                        a                      a                      a 
 Frequencies --  2990.4014              2995.8810              3003.1273
 Red. masses --     1.3911                 1.5801                 1.7471
 Frc consts  --     0.0000                 0.0000                 0.0000
 IR Inten    --    20.1305                70.8776                26.2273
 Raman Activ --     0.0000                 0.0000                 0.0000
 Depolar     --     0.0000                 0.0000                 0.0000
 Atom AN      X      Y      Z        X      Y      Z        X      Y      Z
   1   6    -0.00   0.00   0.01     0.02  -0.11  -0.18     0.00  -0.00  -0.00
   2   6    -0.00   0.00  -0.00     0.04   0.01  -0.06     0.00   0.00  -0.00
   3   6     0.00  -0.00  -0.00     0.00  -0.00  -0.00    -0.00   0.00  -0.00
   4   6     0.00  -0.00   0.00     0.00  -0.00   0.00     0.00  -0.00   0.00
   5   6     0.00   0.00   0.00     0.00  -0.00   0.00     0.00   0.00   0.00
   6   6    -0.00   0.00   0.00     0.00   0.00   0.00     0.00  -0.00  -0.00
   7   6    -0.00   0.00  -0.00    -0.00  -0.00  -0.00    -0.00   0.00   0.00
   8   6    -0.00   0.00  -0.00    -0.00   0.00  -0.00     0.00   0.00   0.00
   9   7    -0.00  -0.00   0.00     0.00  -0.00  -0.00    -0.00   0.00   0.00
  10   6    -0.00   0.00   0.00    -0.00  -0.01  -0.01     0.00  -0.00  -0.00
  11   6     0.00  -0.00  -0.00     0.00   0.00   0.00    -0.00   0.00  -0.00
  12   6     0.00  -0.00   0.00     0.00   0.00  -0.00     0.00  -0.00   0.00
  13   6    -0.00   0.00  -0.00     0.01   0.01   0.03    -0.02   0.01  -0.03
  14   6    -0.00   0.00  -0.00     0.00  -0.00  -0.00    -0.00   0.00  -0.00
  15   6    -0.00   0.00  -0.00    -0.00  -0.00   0.00     0.00  -0.00   0.00
  16   6    -0.00   0.00   0.00    -0.00   0.00   0.00     0.00   0.00   0.00
  17   6    -0.00  -0.00   0.00    -0.00  -0.00   0.00     0.00   0.00  -0.00
  18   6     0.00   0.00   0.00    -0.00   0.00   0.00    -0.00  -0.00  -0.00
  19   7     0.00  -0.00  -0.00     0.00  -0.00  -0.00    -0.00  -0.00  -0.00
  20   6    -0.00  -0.00  -0.00    -0.00   0.00  -0.00    -0.03  -0.02  -0.06
  21   6     0.00  -0.00   0.00    -0.00   0.00  -0.00     0.09  -0.22   0.05
  22   8    -0.00   0.00  -0.00     0.00   0.00   0.00     0.00   0.00  -0.00
  23   1     0.00  -0.00   0.00    -0.00   0.01  -0.00    -0.00   0.02  -0.00
  24   6     0.00  -0.00  -0.00    -0.00  -0.00  -0.00    -0.00   0.00   0.00
  25   8    -0.00   0.00   0.00    -0.00   0.00   0.00     0.00  -0.00  -0.00
  26   8    -0.01  -0.01   0.01     0.00  -0.00   0.00    -0.00   0.00  -0.00
  27   6     0.05  -0.18   0.01     0.00  -0.01  -0.00     0.00   0.00   0.00
  28   1     0.01  -0.02  -0.02    -0.36   0.61   0.44    -0.01   0.02   0.01
  29   1    -0.01   0.00  -0.00     0.30  -0.20   0.20     0.01  -0.00   0.00
  30   1    -0.00  -0.00   0.00    -0.15  -0.03   0.21    -0.00  -0.00   0.01
  31   1     0.01  -0.01  -0.00     0.02  -0.03  -0.01     0.00  -0.00  -0.00
  32   1    -0.00   0.00   0.00    -0.00   0.00   0.00    -0.00   0.00   0.00
  33   1    -0.00   0.00  -0.00    -0.00   0.00  -0.00    -0.00   0.00  -0.00
  34   1    -0.00  -0.00  -0.00    -0.00  -0.00  -0.00    -0.00  -0.00  -0.00
  35   1     0.00   0.00   0.00     0.00   0.00   0.00    -0.00  -0.00  -0.00
  36   1    -0.00  -0.00  -0.00     0.00  -0.00  -0.00     0.00   0.00   0.00
  37   1    -0.00  -0.00  -0.00     0.01   0.05   0.01     0.00   0.00   0.00
  38   1     0.00  -0.00   0.00    -0.06   0.03  -0.06     0.08  -0.03   0.09
  39   1     0.00  -0.00  -0.00     0.00  -0.05  -0.06    -0.00   0.00   0.00
  40   1     0.00  -0.00  -0.00     0.00  -0.00  -0.01     0.00  -0.00  -0.00
  41   1     0.00   0.00  -0.00     0.00   0.00  -0.00     0.00  -0.00  -0.00
  42   1     0.00  -0.00   0.00     0.00  -0.00   0.00    -0.00   0.01  -0.00
  43   1    -0.00   0.00  -0.00    -0.00   0.00  -0.00     0.01  -0.00   0.01
  44   1     0.00  -0.00   0.00     0.00   0.00   0.00     0.15  -0.07   0.24
  45   1    -0.00   0.00  -0.00     0.00  -0.01   0.00    -0.05   0.13  -0.01
  46   1     0.00  -0.00  -0.00     0.00   0.00  -0.00    -0.02  -0.02   0.03
  47   1    -0.01   0.02  -0.00     0.00  -0.01   0.00    -0.29   0.83  -0.19
  48   1     0.08  -0.05  -0.04     0.00  -0.00  -0.00    -0.01   0.00   0.00
  49   1     0.21   0.51   0.43     0.01   0.02   0.01    -0.01  -0.02  -0.01
  50   1    -0.46   0.20  -0.46    -0.01   0.01  -0.01     0.00  -0.00   0.00
                    133                    134                    135
                        a                      a                      a 
 Frequencies --  3009.1979              3014.4419              3026.6220
 Red. masses --     1.7627                 1.7962                 1.7196
 Frc consts  --     0.0000                 0.0000                 0.0000
 IR Inten    --    17.0734                30.8810                29.4605
 Raman Activ --     0.0000                 0.0000                 0.0000
 Depolar     --     0.0000                 0.0000                 0.0000
 Atom AN      X      Y      Z        X      Y      Z        X      Y      Z
   1   6     0.00   0.01   0.02    -0.00   0.00   0.00    -0.00   0.00  -0.00
   2   6    -0.00  -0.01   0.01    -0.00   0.00   0.00    -0.00   0.00   0.00
   3   6    -0.00   0.00   0.00    -0.00  -0.00  -0.00    -0.00   0.00   0.00
   4   6    -0.00   0.00  -0.00    -0.00   0.00  -0.00    -0.00  -0.00  -0.00
   5   6    -0.00  -0.00  -0.00    -0.00  -0.00  -0.00     0.00   0.00   0.00
   6   6    -0.00  -0.00  -0.00     0.00   0.00   0.00     0.00  -0.00   0.00
   7   6     0.00   0.00   0.00     0.00   0.00  -0.00     0.00   0.00  -0.00
   8   6     0.00  -0.00  -0.00    -0.00  -0.00  -0.00    -0.00  -0.00  -0.00
   9   7    -0.00   0.00  -0.00     0.00  -0.00   0.00    -0.00  -0.00  -0.00
  10   6    -0.00   0.00   0.00    -0.00   0.00   0.00    -0.00   0.00   0.00
  11   6     0.00  -0.00   0.00     0.00  -0.00   0.00    -0.00  -0.00  -0.00
  12   6     0.00  -0.00   0.00    -0.00   0.00   0.00    -0.00   0.00   0.00
  13   6     0.16  -0.07   0.19     0.01  -0.00   0.01     0.00  -0.00  -0.00
  14   6     0.00  -0.00   0.01    -0.00   0.00   0.00    -0.00  -0.00  -0.00
  15   6     0.00  -0.00   0.00    -0.00   0.00  -0.00     0.00   0.00  -0.00
  16   6    -0.00   0.00   0.00    -0.00   0.00   0.00    -0.00   0.00   0.00
  17   6     0.00   0.00  -0.00     0.00   0.00  -0.00    -0.00  -0.00   0.00
  18   6    -0.00   0.00  -0.00    -0.00   0.00  -0.00    -0.00   0.00  -0.00
  19   7    -0.00   0.00  -0.00    -0.00   0.00  -0.01     0.00  -0.00   0.00
  20   6     0.00  -0.00  -0.00    -0.13   0.07  -0.20     0.01   0.01   0.02
  21   6     0.01  -0.03   0.01    -0.05   0.08  -0.01    -0.20   0.04   0.15
  22   8     0.00   0.00   0.00    -0.00  -0.00   0.00     0.00  -0.00   0.00
  23   1    -0.00   0.01  -0.00     0.00  -0.02   0.00    -0.00  -0.00   0.00
  24   6     0.00   0.00  -0.00    -0.00  -0.00  -0.00    -0.00   0.00   0.00
  25   8    -0.00   0.00   0.00     0.00   0.00   0.00     0.00  -0.00  -0.00
  26   8    -0.00  -0.00   0.00     0.00   0.00   0.00     0.00  -0.00  -0.00
  27   6     0.00   0.00   0.00    -0.00  -0.00  -0.00     0.00   0.00   0.00
  28   1     0.03  -0.05  -0.03     0.00  -0.01  -0.00    -0.00   0.00   0.00
  29   1    -0.04   0.03  -0.03    -0.00   0.00  -0.00     0.00  -0.00   0.00
  30   1     0.02   0.00  -0.03     0.00   0.00  -0.00     0.00   0.00  -0.00
  31   1    -0.02   0.03   0.01     0.00  -0.00  -0.00     0.00  -0.00  -0.00
  32   1    -0.00  -0.00  -0.00     0.00   0.00  -0.00     0.00  -0.00  -0.00
  33   1     0.00  -0.00   0.00     0.00  -0.00   0.00    -0.00   0.00  -0.00
  34   1     0.00   0.00   0.00     0.00   0.00   0.00    -0.00  -0.00  -0.00
  35   1    -0.00   0.00  -0.00     0.01   0.00   0.00     0.00   0.00   0.00
  36   1     0.00   0.00   0.00     0.00   0.00  -0.00     0.00   0.00   0.00
  37   1    -0.00  -0.01  -0.00    -0.00  -0.00  -0.00    -0.00  -0.00   0.00
  38   1    -0.60   0.27  -0.69    -0.02   0.01  -0.03     0.00  -0.00  -0.00
  39   1     0.02  -0.03  -0.00     0.00  -0.00  -0.00    -0.00   0.01   0.01
  40   1     0.00  -0.00  -0.00    -0.00   0.00   0.00     0.00  -0.00  -0.00
  41   1    -0.00  -0.00   0.00    -0.00  -0.00   0.00     0.00   0.00  -0.00
  42   1     0.00  -0.01   0.00    -0.00  -0.00  -0.00     0.00  -0.00   0.00
  43   1     0.01  -0.00   0.01     0.02  -0.00   0.02     0.00   0.00   0.00
  44   1     0.00  -0.00   0.00     0.47  -0.22   0.76    -0.04   0.02  -0.07
  45   1     0.00  -0.00  -0.00    -0.01  -0.03  -0.02     0.01  -0.03   0.00
  46   1    -0.01  -0.00   0.01     0.07  -0.01  -0.06     0.78  -0.22  -0.52
  47   1    -0.04   0.12  -0.03     0.09  -0.26   0.06    -0.05   0.08   0.00
  48   1     0.00  -0.00  -0.00     0.00  -0.00  -0.00    -0.01   0.00   0.01
  49   1    -0.00  -0.00  -0.00     0.00   0.00   0.00    -0.00  -0.01  -0.00
  50   1    -0.00   0.00  -0.00     0.00  -0.00   0.00    -0.00   0.00  -0.00
                    136                    137                    138
                        a                      a                      a 
 Frequencies --  3036.2549              3047.4092              3063.5904
 Red. masses --     1.7346                 1.7915                 1.7834
 Frc consts  --     0.0000                 0.0000                 0.0000
 IR Inten    --    70.2909                 4.8874                48.8843
 Raman Activ --     0.0000                 0.0000                 0.0000
 Depolar     --     0.0000                 0.0000                 0.0000
 Atom AN      X      Y      Z        X      Y      Z        X      Y      Z
   1   6     0.01  -0.01  -0.01    -0.00   0.00  -0.00    -0.00   0.00  -0.00
   2   6     0.00  -0.00  -0.00    -0.00   0.00   0.00     0.00   0.00  -0.00
   3   6     0.00  -0.00  -0.00    -0.00   0.00   0.00     0.00   0.01   0.01
   4   6     0.00  -0.00   0.00    -0.00   0.00  -0.00     0.08  -0.05   0.01
   5   6     0.00   0.00   0.00     0.00   0.00   0.00    -0.18  -0.08  -0.14
   6   6     0.00   0.00  -0.00     0.00  -0.00   0.00    -0.00  -0.01  -0.01
   7   6    -0.00  -0.00  -0.00    -0.00  -0.00  -0.00     0.00   0.00   0.00
   8   6     0.00   0.00   0.00    -0.00  -0.00  -0.00    -0.00   0.00   0.00
   9   7     0.00   0.00  -0.00     0.00   0.00  -0.00     0.00   0.00   0.00
  10   6    -0.00  -0.00  -0.00    -0.00   0.00   0.00     0.00   0.00  -0.00
  11   6    -0.00  -0.00  -0.00     0.00   0.00   0.00     0.00   0.00   0.00
  12   6     0.00   0.00   0.00    -0.00  -0.00   0.00    -0.00  -0.00  -0.00
  13   6     0.02  -0.17  -0.19    -0.00   0.00   0.00    -0.00  -0.00  -0.00
  14   6     0.00  -0.00  -0.00    -0.00   0.00   0.00    -0.00  -0.00  -0.00
  15   6     0.00  -0.00   0.00    -0.00   0.00  -0.00    -0.00   0.00  -0.00
  16   6    -0.00   0.00   0.01     0.00  -0.00  -0.00    -0.00   0.00   0.00
  17   6     0.00   0.00  -0.00    -0.00  -0.00   0.00     0.00   0.00  -0.00
  18   6    -0.00  -0.00  -0.00     0.00   0.00   0.00     0.00   0.00   0.00
  19   7     0.00   0.00  -0.00     0.00   0.00   0.00     0.00  -0.00   0.00
  20   6    -0.00  -0.00  -0.00     0.00   0.00   0.00     0.00  -0.00   0.00
  21   6     0.00   0.00  -0.00    -0.00  -0.00   0.00    -0.00  -0.00   0.00
  22   8    -0.00   0.00  -0.00    -0.00  -0.00  -0.00    -0.00   0.00  -0.00
  23   1    -0.00   0.00  -0.00     0.00  -0.00   0.00     0.00  -0.00   0.00
  24   6     0.00  -0.00  -0.00    -0.00   0.00  -0.00    -0.00  -0.00   0.00
  25   8    -0.00   0.00   0.00     0.00  -0.00  -0.00    -0.00   0.00  -0.00
  26   8    -0.00   0.00   0.00    -0.01  -0.00   0.00     0.00   0.00   0.00
  27   6    -0.00   0.00   0.00    -0.21   0.12   0.12    -0.00   0.00   0.00
  28   1    -0.04   0.06   0.04     0.00  -0.00  -0.00     0.00  -0.00  -0.00
  29   1     0.01  -0.01   0.00     0.00  -0.00   0.00     0.00  -0.00   0.00
  30   1    -0.01  -0.00   0.01    -0.00   0.00   0.00    -0.00  -0.00   0.00
  31   1    -0.00   0.01   0.00     0.00  -0.00  -0.00     0.00  -0.00  -0.00
  32   1    -0.00   0.00   0.00     0.00  -0.00  -0.00     0.00  -0.04  -0.02
  33   1    -0.00   0.00  -0.00     0.00  -0.00   0.00    -0.32   0.21  -0.04
  34   1    -0.00  -0.00  -0.00    -0.00  -0.00  -0.00     0.66   0.30   0.51
  35   1    -0.00  -0.00  -0.00     0.00   0.00   0.00     0.00   0.00   0.00
  36   1     0.00   0.00   0.00    -0.00  -0.00  -0.00    -0.00   0.00   0.00
  37   1     0.00   0.01   0.00    -0.00  -0.00  -0.00     0.00   0.00   0.00
  38   1    -0.02  -0.01  -0.05     0.00  -0.00   0.00     0.00  -0.00   0.00
  39   1    -0.04   0.62   0.73     0.00  -0.01  -0.01    -0.00   0.00   0.00
  40   1     0.01  -0.01  -0.02    -0.00   0.00   0.00     0.00  -0.00  -0.00
  41   1    -0.00  -0.00   0.00     0.00   0.00  -0.00    -0.00  -0.00   0.00
  42   1    -0.00   0.00   0.00     0.00  -0.00   0.00     0.00  -0.00   0.00
  43   1     0.00   0.00   0.00    -0.00   0.00  -0.00    -0.00   0.00  -0.00
  44   1     0.00  -0.00   0.01    -0.00   0.00  -0.00    -0.00   0.00  -0.00
  45   1    -0.00   0.00   0.00     0.00  -0.00   0.00    -0.00   0.00   0.00
  46   1    -0.02   0.00   0.01     0.01  -0.00  -0.01     0.00  -0.00  -0.00
  47   1     0.00  -0.01   0.00    -0.00   0.01  -0.00    -0.00   0.00  -0.00
  48   1     0.01  -0.00  -0.01     0.76  -0.38  -0.44     0.00  -0.00  -0.00
  49   1     0.00   0.00   0.00    -0.04  -0.03  -0.03     0.00   0.00   0.00
  50   1    -0.00   0.00  -0.00     0.02  -0.00   0.06     0.00  -0.00   0.00
                    139                    140                    141
                        a                      a                      a 
 Frequencies --  3071.2180              3075.7689              3085.9994
 Red. masses --     1.7637                 1.7985                 1.9006
 Frc consts  --     0.0000                 0.0000                 0.0000
 IR Inten    --    19.2265                57.3458                96.3709
 Raman Activ --     0.0000                 0.0000                 0.0000
 Depolar     --     0.0000                 0.0000                 0.0000
 Atom AN      X      Y      Z        X      Y      Z        X      Y      Z
   1   6    -0.00   0.00   0.00    -0.00   0.00  -0.00    -0.00   0.00   0.00
   2   6    -0.00  -0.00   0.00    -0.00   0.00  -0.00    -0.00  -0.00   0.00
   3   6    -0.00  -0.00  -0.00     0.01  -0.17  -0.09    -0.00   0.01   0.01
   4   6    -0.00   0.00  -0.00    -0.14   0.09  -0.02    -0.01   0.01  -0.00
   5   6     0.00   0.00   0.00    -0.07  -0.03  -0.05    -0.00  -0.00  -0.00
   6   6    -0.00   0.00   0.00     0.00  -0.00  -0.00     0.00  -0.00  -0.00
   7   6     0.00  -0.00   0.00     0.00   0.00   0.00    -0.00  -0.00  -0.00
   8   6    -0.00  -0.00  -0.00     0.02   0.01   0.01    -0.00  -0.00  -0.00
   9   7     0.00  -0.00  -0.00    -0.00   0.00   0.00    -0.00  -0.00  -0.00
  10   6     0.00   0.00   0.00     0.00  -0.00  -0.00     0.00   0.00   0.00
  11   6    -0.00  -0.00   0.00     0.00  -0.00   0.00     0.00  -0.00   0.00
  12   6    -0.00   0.00   0.00    -0.00  -0.00  -0.00     0.00   0.00   0.00
  13   6    -0.00   0.00   0.00    -0.00  -0.00  -0.00    -0.00   0.00   0.00
  14   6    -0.00   0.00   0.01     0.00   0.00  -0.00     0.00   0.00   0.00
  15   6    -0.00  -0.00  -0.00    -0.00   0.00  -0.00    -0.00   0.00  -0.00
  16   6    -0.08   0.07   0.18     0.00  -0.00  -0.00    -0.07   0.06   0.15
  17   6     0.15   0.04  -0.03    -0.00  -0.00   0.00    -0.21  -0.06   0.03
  18   6     0.01   0.00   0.00    -0.00  -0.00  -0.00    -0.01  -0.00  -0.01
  19   7    -0.00  -0.00  -0.00    -0.00   0.00   0.00     0.00   0.00  -0.00
  20   6     0.00   0.00   0.00    -0.00   0.00   0.00    -0.00  -0.00  -0.00
  21   6    -0.00   0.00  -0.00    -0.00  -0.00   0.00     0.00  -0.00  -0.00
  22   8    -0.00  -0.00  -0.00    -0.00   0.00   0.00     0.00  -0.00  -0.00
  23   1    -0.00   0.00  -0.00     0.00  -0.00   0.00     0.00  -0.00   0.00
  24   6    -0.00   0.00  -0.00    -0.00  -0.00   0.00     0.00   0.00  -0.00
  25   8     0.00  -0.00  -0.00    -0.00   0.00   0.00     0.00  -0.00   0.00
  26   8    -0.00  -0.00   0.00     0.00   0.00   0.00    -0.00  -0.00   0.00
  27   6    -0.00   0.00   0.00    -0.00   0.00  -0.00     0.00   0.00   0.00
  28   1     0.00  -0.00  -0.00     0.00   0.00   0.00     0.00  -0.00  -0.00
  29   1     0.00  -0.00   0.00     0.00  -0.00   0.00    -0.00   0.00  -0.00
  30   1     0.00   0.00  -0.01    -0.00  -0.00   0.00     0.00   0.00  -0.01
  31   1    -0.00   0.00   0.00     0.00  -0.00  -0.00     0.00  -0.00  -0.00
  32   1    -0.00   0.00   0.00    -0.05   0.61   0.32     0.00  -0.04  -0.02
  33   1     0.00  -0.00   0.00     0.50  -0.32   0.07     0.04  -0.02   0.00
  34   1    -0.00  -0.00  -0.00     0.22   0.10   0.17     0.01   0.00   0.01
  35   1     0.00   0.00   0.00    -0.07  -0.03  -0.06     0.01   0.00   0.01
  36   1    -0.00  -0.00  -0.00    -0.00   0.00   0.00    -0.00   0.00  -0.00
  37   1    -0.00  -0.00  -0.00     0.00   0.00   0.00    -0.00  -0.00  -0.00
  38   1     0.00  -0.00   0.01     0.00  -0.00   0.00    -0.00   0.00  -0.00
  39   1     0.00  -0.01  -0.02     0.00   0.00   0.00     0.00  -0.01  -0.01
  40   1     0.31  -0.25  -0.64    -0.00   0.00   0.00     0.24  -0.19  -0.50
  41   1    -0.56  -0.14   0.12     0.00   0.00  -0.00     0.72   0.18  -0.15
  42   1     0.00   0.00   0.00     0.00   0.00  -0.00    -0.00  -0.00   0.00
  43   1    -0.01   0.00  -0.01     0.00  -0.00   0.00     0.02  -0.00   0.02
  44   1    -0.00   0.00  -0.00    -0.00   0.00  -0.00     0.00  -0.00   0.00
  45   1     0.00  -0.00  -0.00     0.00  -0.00   0.00     0.00  -0.00  -0.00
  46   1    -0.00   0.00   0.00     0.00  -0.00  -0.00    -0.00   0.00   0.00
  47   1     0.00  -0.00   0.00    -0.00   0.00  -0.00     0.00   0.00  -0.00
  48   1     0.00  -0.00  -0.00     0.00  -0.00  -0.00    -0.00   0.00   0.00
  49   1    -0.00  -0.00  -0.00     0.00   0.00   0.00    -0.00  -0.00  -0.00
  50   1     0.00  -0.00   0.00     0.00  -0.00   0.00     0.00  -0.00   0.00
                    142                    143                    144
                        a                      a                      a 
 Frequencies --  3087.6511              3112.1399              3432.9251
 Red. masses --     1.8845                 1.8364                 1.8322
 Frc consts  --     0.0000                 0.0000                 0.0000
 IR Inten    --   117.0161                77.9477                 1.7324
 Raman Activ --     0.0000                 0.0000                 0.0000
 Depolar     --     0.0000                 0.0000                 0.0000
 Atom AN      X      Y      Z        X      Y      Z        X      Y      Z
   1   6     0.00   0.00   0.00     0.00   0.00   0.00     0.00   0.00  -0.00
   2   6    -0.00  -0.00   0.00    -0.00   0.00   0.00     0.00  -0.00   0.00
   3   6     0.01  -0.16  -0.09     0.00  -0.06  -0.03     0.00   0.00   0.00
   4   6     0.16  -0.10   0.02     0.02  -0.01   0.00    -0.00  -0.00  -0.00
   5   6     0.05   0.03   0.04     0.01   0.00   0.01    -0.00   0.00   0.00
   6   6    -0.00   0.00   0.00     0.00   0.00   0.00    -0.01  -0.00  -0.01
   7   6     0.00   0.00   0.00    -0.01   0.00  -0.00     0.00   0.00   0.00
   8   6     0.04   0.02   0.03    -0.19  -0.09  -0.15    -0.00  -0.00   0.00
   9   7     0.00  -0.00  -0.00    -0.00  -0.00  -0.00    -0.18  -0.05  -0.16
  10   6    -0.00   0.00   0.00    -0.00   0.00   0.00    -0.00  -0.00  -0.01
  11   6     0.00  -0.00   0.00     0.00  -0.00   0.00     0.00   0.00   0.00
  12   6    -0.00   0.00  -0.00    -0.00  -0.00  -0.00     0.00  -0.00   0.00
  13   6     0.00   0.00   0.00    -0.00   0.00  -0.00    -0.00   0.00  -0.00
  14   6     0.00   0.00   0.00    -0.00   0.00   0.00     0.00   0.00   0.00
  15   6    -0.00  -0.00  -0.00     0.00  -0.00   0.00     0.00  -0.00   0.00
  16   6    -0.00   0.00   0.01    -0.00  -0.00  -0.00     0.00  -0.00   0.00
  17   6    -0.01  -0.00   0.00    -0.00  -0.00   0.00    -0.00  -0.00   0.00
  18   6    -0.00  -0.00  -0.00     0.00   0.00   0.00    -0.00  -0.00  -0.00
  19   7    -0.00   0.00  -0.00     0.00  -0.00   0.00     0.00   0.00   0.00
  20   6    -0.00   0.00  -0.00     0.00  -0.00   0.00     0.00  -0.00   0.00
  21   6    -0.00   0.00   0.00     0.00  -0.00  -0.00     0.00   0.00  -0.00
  22   8     0.00   0.00   0.00     0.00  -0.00  -0.00    -0.00  -0.00  -0.00
  23   1    -0.00  -0.00   0.00     0.00   0.00  -0.00    -0.00   0.00  -0.00
  24   6    -0.00   0.00  -0.00    -0.00   0.00  -0.00    -0.00  -0.00   0.00
  25   8     0.00  -0.00   0.00     0.00  -0.00   0.00     0.00   0.00   0.00
  26   8    -0.00  -0.00  -0.00     0.00  -0.00   0.00     0.00  -0.00   0.00
  27   6    -0.00   0.00   0.00    -0.00  -0.00  -0.00    -0.00  -0.00  -0.00
  28   1     0.00  -0.00  -0.00     0.00  -0.00  -0.00     0.00  -0.00  -0.00
  29   1    -0.00   0.00  -0.00    -0.00   0.00   0.00     0.00  -0.00   0.00
  30   1     0.00   0.00  -0.00    -0.00   0.00   0.00     0.00   0.00  -0.00
  31   1    -0.00  -0.00   0.00     0.00  -0.00  -0.00    -0.00   0.00  -0.00
  32   1    -0.04   0.55   0.29    -0.01   0.20   0.10     0.00   0.00  -0.00
  33   1    -0.53   0.35  -0.07    -0.08   0.05  -0.01    -0.00   0.00   0.00
  34   1    -0.18  -0.08  -0.14    -0.02  -0.01  -0.02     0.00  -0.00  -0.00
  35   1    -0.17  -0.08  -0.13     0.68   0.32   0.55    -0.00  -0.00  -0.00
  36   1     0.00  -0.00  -0.00     0.00  -0.00  -0.00     0.70   0.19   0.64
  37   1    -0.00  -0.00  -0.00    -0.00  -0.00  -0.00     0.00   0.00   0.00
  38   1    -0.00   0.00  -0.00     0.00  -0.00   0.00     0.00  -0.00   0.00
  39   1     0.00  -0.00  -0.00    -0.00   0.00   0.00     0.00  -0.00  -0.00
  40   1     0.02  -0.01  -0.03    -0.00  -0.00  -0.00    -0.00  -0.00  -0.00
  41   1     0.05   0.01  -0.01     0.00   0.00  -0.00    -0.00   0.00  -0.00
  42   1    -0.00   0.00  -0.00     0.00  -0.00   0.00     0.00   0.00   0.00
  43   1     0.00  -0.00   0.00    -0.00   0.00  -0.00     0.00   0.00   0.00
  44   1     0.00  -0.00   0.00    -0.00   0.00  -0.00    -0.00   0.00  -0.00
  45   1     0.00  -0.01   0.00    -0.01   0.02  -0.00     0.00   0.00   0.00
  46   1     0.00   0.00  -0.00    -0.00  -0.00   0.00    -0.00   0.00   0.00
  47   1     0.00  -0.00   0.00    -0.00   0.00  -0.00     0.00  -0.00   0.00
  48   1     0.00   0.00  -0.00    -0.00   0.00   0.00     0.00  -0.00  -0.00
  49   1    -0.00  -0.00  -0.00     0.00   0.00   0.00     0.00   0.00   0.00
  50   1     0.00  -0.00   0.00     0.00  -0.00   0.00     0.00  -0.00   0.00
