      -----------------------------------------------------------      
     |                   =====================                   |     
     |                           x T B                           |     
     |                   =====================                   |     
     |                         S. Grimme                         |     
     |          Mulliken Center for Theoretical Chemistry        |     
     |                    University of Bonn                     |     
      -----------------------------------------------------------      

   * xtb version 6.7.1 (edcfbbe) compiled by 'albert@albert-system' on 2024-07-22

   xtb is free software: you can redistribute it and/or modify it under
   the terms of the GNU Lesser General Public License as published by
   the Free Software Foundation, either version 3 of the License, or
   (at your option) any later version.
   
   xtb is distributed in the hope that it will be useful,
   but WITHOUT ANY WARRANTY; without even the implied warranty of
   MERCHANTABILITY or FITNESS FOR A PARTICULAR PURPOSE.  See the
   GNU Lesser General Public License for more details.
   
   Cite this work as:
   * C. Bannwarth, E. Caldeweyher, S. Ehlert, A. Hansen, P. Pracht,
     J. Seibert, S. Spicher, S. Grimme, WIREs Comput. Mol. Sci., 2020, 11,
     e01493. DOI: 10.1002/wcms.1493
   
   for GFN2-xTB:
   * C. Bannwarth, S. Ehlert and S. Grimme., J. Chem. Theory Comput., 2019,
     15, 1652-1671. DOI: 10.1021/acs.jctc.8b01176
   for GFN1-xTB:
   * S. Grimme, C. Bannwarth, P. Shushkov, J. Chem. Theory Comput., 2017,
     13, 1989-2009. DOI: 10.1021/acs.jctc.7b00118
   for GFN0-xTB:
   * P. Pracht, E. Caldeweyher, S. Ehlert, S. Grimme, ChemRxiv, 2019, preprint.
     DOI: 10.26434/chemrxiv.8326202.v1
   for GFN-FF:
   * S. Spicher and S. Grimme, Angew. Chem. Int. Ed., 2020, 59, 15665-15673.
     DOI: 10.1002/anie.202004239
   
   for ALPB and GBSA implicit solvation:
   * S. Ehlert, M. Stahn, S. Spicher, S. Grimme, J. Chem. Theory Comput.,
     2021, 17, 4250-4261. DOI: 10.1021/acs.jctc.1c00471
   
   for ddCOSMO and CPCM-X implicit solvation:
   * M. Stahn, S. Ehlert, S. Grimme, J. Phys. Chem. A,
     2023, XX, XXXX-XXXX. DOI: 10.1021/acs.jpca.3c04382
   
   for DFT-D4:
   * E. Caldeweyher, C. Bannwarth and S. Grimme, J. Chem. Phys., 2017,
     147, 034112. DOI: 10.1063/1.4993215
   * E. Caldeweyher, S. Ehlert, A. Hansen, H. Neugebauer, S. Spicher,
     C. Bannwarth and S. Grimme, J. Chem. Phys., 2019, 150, 154122.
     DOI: 10.1063/1.5090222
   * E. Caldeweyher, J.-M. Mewes, S. Ehlert and S. Grimme, Phys. Chem. Chem. Phys.
     2020, 22, 8499-8512. DOI: 10.1039/D0CP00502A
   
   for sTDA-xTB:
   * S. Grimme and C. Bannwarth, J. Chem. Phys., 2016, 145, 054103.
     DOI: 10.1063/1.4959605
   
   in the mass-spec context:
   * V. Asgeirsson, C. Bauer and S. Grimme, Chem. Sci., 2017, 8, 4879.
     DOI: 10.1039/c7sc00601b
   * J. Koopman and S. Grimme, ACS Omega 2019, 4, 12, 15120-15133.
     DOI: 10.1021/acsomega.9b02011
   
   for metadynamics refer to:
   * S. Grimme, J. Chem. Theory Comput., 2019, 155, 2847-2862
     DOI: 10.1021/acs.jctc.9b00143
   
   for SPH calculations refer to:
   * S. Spicher and S. Grimme, J. Chem. Theory Comput., 2021, 17, 1701-1714
     DOI: 10.1021/acs.jctc.0c01306
   
   for ONIOM refer to:
   * C. Plett, A. Katbashev, S. Ehlert, S. Grimme, M. Bursch,
     Phys. Chem. Chem. Phys., 2023, 25, 17860-17868. DOI: 10.1039/D3CP02178E
   
   for DIPRO refer to:
   * J. Kohn, N. Gildemeister, S. Grimme, D. Fazzi, A. Hansen,
     J. Chem. Phys., 2023, just accepted.
   
   for PTB refer to:
   * S. Grimme, M. Mueller, A. Hansen, J. Chem. Phys., 2023, 158, 124111.
     DOI: 10.1063/5.0137838
   
   with help from (in alphabetical order)
   P. Atkinson, C. Bannwarth, F. Bohle, G. Brandenburg, E. Caldeweyher
   M. Checinski, S. Dohm, S. Ehlert, S. Ehrlich, I. Gerasimov, C. Hölzer
   A. Katbashev, J. Kohn, J. Koopman, C. Lavigne, S. Lehtola, F. März, M. Müller,
   F. Musil, H. Neugebauer, J. Pisarek, C. Plett, P. Pracht, F. Pultar,
   J. Seibert, P. Shushkov, S. Spicher, M. Stahn, M. Steiner, T. Strunk,
   J. Stückrath, T. Rose, and J. Unsleber
   
 * started run on 2026/08/09 at 18:20:22.032     
   ID    Z sym.   atoms
    1    6 c      1-8, 10-13, 16
    2    8 o      9, 15
    3    1 h      14, 17-35

           -------------------------------------------------
          |                Calculation Setup                |
           -------------------------------------------------

          program call               : /home/dinglab/software/xtb_6.7.1/xtb_dist/bin/xtb coord --gfn2 --ohess vtight --alpb chcl3 --chrg 0 --enso --norestart -I xcontrol-inp --parallel 12
          hostname                   : localhost
          coordinate file            : coord
          omp threads                :                    12


           -------------------------------------------------
          |                 G F N 2 - x T B                 |
           -------------------------------------------------

        Reference                      10.1021/acs.jctc.8b01176
      * Hamiltonian:
        H0-scaling (s, p, d)           1.850000    2.230000    2.230000
        zeta-weighting                 0.500000
      * Dispersion:
        s8                             2.700000
        a1                             0.520000
        a2                             5.000000
        s9                             5.000000
      * Repulsion:
        kExp                           1.500000    1.000000
        rExp                           1.000000
      * Coulomb:
        alpha                          2.000000
        third order                    shell-resolved
        anisotropic                    true
        a3                             3.000000
        a5                             4.000000
        cn-shift                       1.200000
        cn-exp                         4.000000
        max-rad                        5.000000

      * Solvation model:               ALPB
        Solvent                        chcl3
        Parameter file                 internal GFN2-xTB/ALPB
        Dielectric constant                4.8100E+00
        Reference state                gsolv [1 M gas/solution]
        Free energy shift                  3.8910E-03 Eh       2.4417E+00 kcal/mol
        Temperature                        2.9815E+02 K
        Density                            1.4900E+00 kg/L
        Solvent mass                       1.1938E+02 g/mol
        Interaction kernel             P16
        Born radius scaling (c1)           1.3274E+00
        Born radii integrator          GBOBC
        Born offset                        0.0000E+00 a0       0.0000E+00 AA
        H-bond correction              false
        Ion screening                  false
        Surface tension                    1.0000E-05 Eh       1.5569E+01 dyn/cm
        Grid points                               974 per atom

          ...................................................
          :                      SETUP                      :
          :.................................................:
          :  # basis functions                  80          :
          :  # atomic orbitals                  80          :
          :  # shells                           50          :
          :  # electrons                        84          :
          :  max. iterations                   250          :
          :  Hamiltonian                  GFN2-xTB          :
          :  restarted?                      false          :
          :  GBSA solvation                   true          :
          :  PC potential                    false          :
          :  electronic temp.          300.0000000     K    :
          :  accuracy                    1.0000000          :
          :  -> integral cutoff          0.2500000E+02      :
          :  -> integral neglect         0.1000000E-07      :
          :  -> SCF convergence          0.1000000E-05 Eh   :
          :  -> wf. convergence          0.1000000E-03 e    :
          :  Broyden damping             0.4000000          :
          :  net charge                          0          :
          :  unpaired electrons                  0          :
          ...................................................

 iter      E             dE          RMSdq      gap      omega  full diag
   1    -46.6616231 -0.466616E+02  0.351E+00    5.00       0.0  T
   2    -46.7032433 -0.416202E-01  0.198E+00    4.80       1.0  T
   3    -46.6978102  0.543308E-02  0.810E-01    4.72       1.0  T
   4    -46.7048295 -0.701925E-02  0.375E-01    4.65       1.0  T
   5    -46.7075537 -0.272422E-02  0.827E-02    4.67       1.0  T
   6    -46.7076067 -0.529856E-04  0.462E-02    4.67       1.0  T
   7    -46.7076133 -0.656738E-05  0.177E-02    4.67       1.0  T
   8    -46.7076168 -0.354815E-05  0.715E-03    4.67       2.4  T
   9    -46.7076179 -0.105512E-05  0.231E-03    4.67       7.3  T
  10    -46.7076179 -0.201733E-07  0.939E-04    4.67      18.0  T
  11    -46.7076179 -0.339735E-08  0.403E-04    4.67      41.9  T

   *** convergence criteria satisfied after 11 iterations ***

         #    Occupation            Energy/Eh            Energy/eV
      -------------------------------------------------------------
         1        2.0000           -0.6951389             -18.9157
       ...           ...                  ...                  ...
        36        2.0000           -0.4240803             -11.5398
        37        2.0000           -0.4204141             -11.4400
        38        2.0000           -0.4149346             -11.2909
        39        2.0000           -0.4099851             -11.1563
        40        2.0000           -0.4054757             -11.0336
        41        2.0000           -0.3931668             -10.6986
        42        2.0000           -0.3790749             -10.3152 (HOMO)
        43                         -0.2075981              -5.6490 (LUMO)
        44                         -0.1988924              -5.4121
        45                         -0.0130069              -0.3539
        46                          0.0030792               0.0838
        47                          0.0196449               0.5346
       ...                                ...                  ...
        80                          0.5962623              16.2251
      -------------------------------------------------------------
                  HL-Gap            0.1714768 Eh            4.6661 eV
             Fermi-level           -0.2933365 Eh           -7.9821 eV

 SCC (total)                   0 d,  0 h,  0 min,  0.056 sec
 SCC setup                      ...        0 min,  0.001 sec (  1.335%)
 Dispersion                     ...        0 min,  0.000 sec (  0.829%)
 classical contributions        ...        0 min,  0.000 sec (  0.052%)
 integral evaluation            ...        0 min,  0.002 sec (  2.872%)
 iterations                     ...        0 min,  0.049 sec ( 87.777%)
 molecular gradient             ...        0 min,  0.004 sec (  6.673%)
 printout                       ...        0 min,  0.000 sec (  0.375%)

         :::::::::::::::::::::::::::::::::::::::::::::::::::::
         ::                     SUMMARY                     ::
         :::::::::::::::::::::::::::::::::::::::::::::::::::::
         :: total energy             -46.149846376366 Eh    ::
         :: total w/o Gsasa/hb       -46.137413566962 Eh    ::
         :: gradient norm              0.050973422760 Eh/a0 ::
         :: HOMO-LUMO gap              4.666121316767 eV    ::
         ::.................................................::
         :: SCC energy               -46.706946231270 Eh    ::
         :: -> isotropic ES            0.061133105187 Eh    ::
         :: -> anisotropic ES          0.008273349671 Eh    ::
         :: -> anisotropic XC          0.019460484760 Eh    ::
         :: -> dispersion             -0.035822809628 Eh    ::
         :: -> Gsolv                  -0.020522375698 Eh    ::
         ::    -> Gelec               -0.008089566294 Eh    ::
         ::    -> Gsasa               -0.016323828647 Eh    ::
         ::    -> Ghb                  0.000000000000 Eh    ::
         ::    -> Gshift               0.003891019244 Eh    ::
         :: repulsion energy           0.557099854904 Eh    ::
         :: add. restraining           0.000000000000 Eh    ::
         :: total charge               0.000000000000 e     ::
         :::::::::::::::::::::::::::::::::::::::::::::::::::::

      ----------------------------------------------------------- 
     |                   =====================                   |
     |                        A N C O P T                        |
     |                   =====================                   |
     |               Approximate Normal Coordinate               |
     |                Rational Function Optimizer                |
      ----------------------------------------------------------- 
      ----------------------------------------------------------- 
     |                   =====================                   |
     |                        A N C O P T                        |
     |                   =====================                   |
     |               Approximate Normal Coordinate               |
     |                Rational Function Optimizer                |
      ----------------------------------------------------------- 

          ...................................................
          :                      SETUP                      :
          :.................................................:
          :   optimization level         verytight          :
          :   max. optcycles                   700          :
          :   ANC micro-cycles                  20          :
          :   degrees of freedom                99          :
          :.................................................:
          :   RF solver                   davidson          :
          :   write xtbopt.log                true          :
          :   linear?                        false          :
          :   energy convergence         0.1000000E-06 Eh   :
          :   grad. convergence          0.2000000E-03 Eh/α :
          :   maxmium RF displ.          1.0000000          :
          :   Hlow (freq-cutoff)         0.1000000E-01      :
          :   Hmax (freq-cutoff)         5.0000000          :
          :   S6 in model hess.         20.0000000          :
          ...................................................

generating ANC from exact Hessian ...
Using Lindh-Hessian (1995)
 Shifting diagonal of input Hessian by   8.905882572329639E-003
 Lowest  eigenvalues of input Hessian
    0.000000    0.000000    0.000000    0.000000    0.000000    0.000000
    0.010000    0.010138    0.011015    0.012338    0.012495    0.013632
    0.014619    0.016008    0.016694    0.017048    0.018087    0.018794
 Highest eigenvalues
    1.398500    1.406128    1.409603    1.464462    1.783218    1.862349
 

........................................................................
.............................. CYCLE    1 ..............................
........................................................................

 iter      E             dE          RMSdq      gap      omega  full diag
   1    -46.7076179 -0.467076E+02  0.935E-05    4.67       0.0  T
   2    -46.7076179 -0.363514E-10  0.543E-05    4.67     311.3  T
   3    -46.7076179  0.192557E-11  0.392E-05    4.67     430.7  T
     SCC iter.                  ...        0 min,  0.007 sec
     gradient                   ...        0 min,  0.004 sec
 * total energy  :   -46.1498464 Eh     change       -0.1057984E-08 Eh
   gradient norm :     0.0509770 Eh/α   predicted     0.0000000E+00 (-100.00%)
   displ. norm   :     0.3103086 α      lambda       -0.9731438E-02
   maximum displ.:     0.0945224 α      in ANC's #39, #4, #10, ...

........................................................................
.............................. CYCLE    2 ..............................
........................................................................

 iter      E             dE          RMSdq      gap      omega  full diag
   1    -46.7582598 -0.467583E+02  0.156E-01    4.81       0.0  T
   2    -46.7582928 -0.330405E-04  0.961E-02    4.81       1.0  T
   3    -46.7582652  0.276204E-04  0.618E-02    4.81       1.0  T
   4    -46.7583298 -0.645924E-04  0.706E-03    4.81       2.4  T
   5    -46.7583303 -0.484750E-06  0.312E-03    4.81       5.4  T
   6    -46.7583303  0.124021E-07  0.172E-03    4.81       9.8  T
   7    -46.7583303 -0.358973E-07  0.598E-04    4.81      28.3  T
   8    -46.7583303 -0.499419E-08  0.213E-04    4.81      79.5  T
     SCC iter.                  ...        0 min,  0.015 sec
     gradient                   ...        0 min,  0.004 sec
 * total energy  :   -46.1561168 Eh     change       -0.6270425E-02 Eh
   gradient norm :     0.0145374 Eh/α   predicted    -0.5334624E-02 ( -14.92%)
   displ. norm   :     0.2453449 α      lambda       -0.1686874E-02
   maximum displ.:     0.1340004 α      in ANC's #4, #10, #2, ...

........................................................................
.............................. CYCLE    3 ..............................
........................................................................

 iter      E             dE          RMSdq      gap      omega  full diag
   1    -46.7773101 -0.467773E+02  0.766E-02    4.84       0.0  T
   2    -46.7773184 -0.835825E-05  0.473E-02    4.84       1.0  T
   3    -46.7773118  0.657695E-05  0.295E-02    4.84       1.0  T
   4    -46.7773267 -0.148382E-04  0.380E-03    4.84       4.4  T
   5    -46.7773268 -0.146915E-06  0.148E-03    4.84      11.4  T
   6    -46.7773268 -0.236805E-08  0.790E-04    4.84      21.4  T
   7    -46.7773268 -0.543934E-08  0.362E-04    4.84      46.7  T
     SCC iter.                  ...        0 min,  0.012 sec
     gradient                   ...        0 min,  0.003 sec
 * total energy  :   -46.1570509 Eh     change       -0.9340622E-03 Eh
   gradient norm :     0.0047174 Eh/α   predicted    -0.8948888E-03 (  -4.19%)
   displ. norm   :     0.1329604 α      lambda       -0.2425349E-03
   maximum displ.:     0.0839281 α      in ANC's #4, #5, #10, ...

........................................................................
.............................. CYCLE    4 ..............................
........................................................................

 iter      E             dE          RMSdq      gap      omega  full diag
   1    -46.7777980 -0.467778E+02  0.400E-02    4.83       0.0  T
   2    -46.7777986 -0.599475E-06  0.238E-02    4.83       1.0  T
   3    -46.7777976  0.102174E-05  0.683E-03    4.83       2.5  T
   4    -46.7777989 -0.126422E-05  0.154E-03    4.83      11.0  T
   5    -46.7777989 -0.241088E-07  0.597E-04    4.83      28.3  T
   6    -46.7777989 -0.104043E-08  0.213E-04    4.83      79.5  T
     SCC iter.                  ...        0 min,  0.011 sec
     gradient                   ...        0 min,  0.003 sec
 * total energy  :   -46.1572037 Eh     change       -0.1528681E-03 Eh
   gradient norm :     0.0027701 Eh/α   predicted    -0.1234162E-03 ( -19.27%)
   displ. norm   :     0.1477643 α      lambda       -0.1675294E-03
   maximum displ.:     0.0986421 α      in ANC's #4, #5, #7, ...

........................................................................
.............................. CYCLE    5 ..............................
........................................................................

 iter      E             dE          RMSdq      gap      omega  full diag
   1    -46.7759560 -0.467760E+02  0.445E-02    4.82       0.0  T
   2    -46.7759565 -0.487905E-06  0.264E-02    4.82       1.0  T
   3    -46.7759564  0.892300E-07  0.357E-03    4.82       4.7  T
   4    -46.7759567 -0.259565E-06  0.147E-03    4.82      11.5  T
   5    -46.7759567 -0.183538E-07  0.682E-04    4.82      24.8  T
   6    -46.7759567 -0.323082E-08  0.190E-04    4.82      88.8  T
     SCC iter.                  ...        0 min,  0.011 sec
     gradient                   ...        0 min,  0.003 sec
 * total energy  :   -46.1572966 Eh     change       -0.9289147E-04 Eh
   gradient norm :     0.0025491 Eh/α   predicted    -0.8561158E-04 (  -7.84%)
   displ. norm   :     0.0708842 α      lambda       -0.5477272E-04
   maximum displ.:     0.0337482 α      in ANC's #4, #5, #7, ...

........................................................................
.............................. CYCLE    6 ..............................
........................................................................

 iter      E             dE          RMSdq      gap      omega  full diag
   1    -46.7750967 -0.467751E+02  0.240E-02    4.82       0.0  T
   2    -46.7750968 -0.157746E-06  0.144E-02    4.82       1.2  T
   3    -46.7750967  0.923784E-07  0.246E-03    4.82       6.9  T
   4    -46.7750969 -0.145090E-06  0.848E-04    4.82      19.9  T
   5    -46.7750969 -0.791154E-08  0.420E-04    4.82      40.2  T
     SCC iter.                  ...        0 min,  0.009 sec
     gradient                   ...        0 min,  0.004 sec
 * total energy  :   -46.1573321 Eh     change       -0.3545600E-04 Eh
   gradient norm :     0.0021067 Eh/α   predicted    -0.2752618E-04 ( -22.37%)
   displ. norm   :     0.0703479 α      lambda       -0.3454379E-04
   maximum displ.:     0.0299744 α      in ANC's #2, #6, #3, ...

........................................................................
.............................. CYCLE    7 ..............................
........................................................................

 iter      E             dE          RMSdq      gap      omega  full diag
   1    -46.7751691 -0.467752E+02  0.222E-02    4.83       0.0  T
   2    -46.7751692 -0.127461E-06  0.132E-02    4.83       1.3  T
   3    -46.7751692  0.345818E-07  0.179E-03    4.83       9.5  T
   4    -46.7751692 -0.690660E-07  0.792E-04    4.83      21.3  T
   5    -46.7751692 -0.785889E-08  0.324E-04    4.83      52.1  T
     SCC iter.                  ...        0 min,  0.009 sec
     gradient                   ...        0 min,  0.003 sec
 * total energy  :   -46.1573553 Eh     change       -0.2320051E-04 Eh
   gradient norm :     0.0014564 Eh/α   predicted    -0.1735777E-04 ( -25.18%)
   displ. norm   :     0.0951655 α      lambda       -0.1969732E-04
   maximum displ.:     0.0405189 α      in ANC's #6, #2, #3, ...

........................................................................
.............................. CYCLE    8 ..............................
........................................................................

 iter      E             dE          RMSdq      gap      omega  full diag
   1    -46.7759107 -0.467759E+02  0.320E-02    4.84       0.0  T
   2    -46.7759109 -0.151976E-06  0.189E-02    4.84       1.0  T
   3    -46.7759108  0.121075E-06  0.264E-03    4.84       6.4  T
   4    -46.7759110 -0.177179E-06  0.739E-04    4.84      22.9  T
   5    -46.7759110 -0.421707E-08  0.356E-04    4.84      47.5  T
     SCC iter.                  ...        0 min,  0.009 sec
     gradient                   ...        0 min,  0.004 sec
 * total energy  :   -46.1573696 Eh     change       -0.1430222E-04 Eh
   gradient norm :     0.0012268 Eh/α   predicted    -0.9895018E-05 ( -30.81%)
   displ. norm   :     0.0450216 α      lambda       -0.9526148E-05
   maximum displ.:     0.0189671 α      in ANC's #7, #3, #6, ...

........................................................................
.............................. CYCLE    9 ..............................
........................................................................

 iter      E             dE          RMSdq      gap      omega  full diag
   1    -46.7760736 -0.467761E+02  0.179E-02    4.84       0.0  T
   2    -46.7760737 -0.360990E-07  0.106E-02    4.84       1.6  T
   3    -46.7760735  0.135112E-06  0.233E-03    4.84       7.3  T
   4    -46.7760737 -0.158214E-06  0.287E-04    4.84      58.9  T
   5    -46.7760737 -0.646601E-09  0.148E-04    4.84     113.9  T
     SCC iter.                  ...        0 min,  0.009 sec
     gradient                   ...        0 min,  0.004 sec
 * total energy  :   -46.1573744 Eh     change       -0.4821099E-05 Eh
   gradient norm :     0.0011680 Eh/α   predicted    -0.4769563E-05 (  -1.07%)
   displ. norm   :     0.0246832 α      lambda       -0.6657111E-05
   maximum displ.:     0.0138715 α      in ANC's #7, #4, #20, ...

........................................................................
.............................. CYCLE   10 ..............................
........................................................................

 iter      E             dE          RMSdq      gap      omega  full diag
   1    -46.7758403 -0.467758E+02  0.111E-02    4.84       0.0  T
   2    -46.7758404 -0.271935E-07  0.659E-03    4.84       2.6  T
   3    -46.7758404 -0.928438E-09  0.552E-04    4.84      30.6  T
   4    -46.7758404 -0.500692E-08  0.247E-04    4.84      68.3  T
     SCC iter.                  ...        0 min,  0.007 sec
     gradient                   ...        0 min,  0.004 sec
 * total energy  :   -46.1573792 Eh     change       -0.4780376E-05 Eh
   gradient norm :     0.0006948 Eh/α   predicted    -0.3329826E-05 ( -30.34%)
   displ. norm   :     0.0125187 α      lambda       -0.1674995E-05
   maximum displ.:     0.0066615 α      in ANC's #4, #7, #2, ...

........................................................................
.............................. CYCLE   11 ..............................
........................................................................

 iter      E             dE          RMSdq      gap      omega  full diag
   1    -46.7757573 -0.467758E+02  0.557E-03    4.84       0.0  T
   2    -46.7757573 -0.131293E-07  0.331E-03    4.84       5.1  T
   3    -46.7757573  0.160216E-07  0.862E-04    4.84      19.6  T
   4    -46.7757573 -0.190886E-07  0.214E-04    4.84      79.1  T
     SCC iter.                  ...        0 min,  0.007 sec
     gradient                   ...        0 min,  0.004 sec
 * total energy  :   -46.1573806 Eh     change       -0.1428881E-05 Eh
   gradient norm :     0.0003499 Eh/α   predicted    -0.8422231E-06 ( -41.06%)
   displ. norm   :     0.0148513 α      lambda       -0.9002060E-06
   maximum displ.:     0.0083925 α      in ANC's #4, #2, #10, ...

........................................................................
.............................. CYCLE   12 ..............................
........................................................................

 iter      E             dE          RMSdq      gap      omega  full diag
   1    -46.7757903 -0.467758E+02  0.512E-03    4.84       0.0  T
   2    -46.7757903 -0.542588E-08  0.305E-03    4.84       5.5  T
   3    -46.7757903  0.105371E-07  0.708E-04    4.84      23.9  T
   4    -46.7757903 -0.132175E-07  0.155E-04    4.84     109.4  T
     SCC iter.                  ...        0 min,  0.007 sec
     gradient                   ...        0 min,  0.004 sec
 * total energy  :   -46.1573814 Eh     change       -0.8227501E-06 Eh
   gradient norm :     0.0002793 Eh/α   predicted    -0.4525482E-06 ( -45.00%)
   displ. norm   :     0.0123910 α      lambda       -0.4077574E-06
   maximum displ.:     0.0080036 α      in ANC's #4, #2, #5, ...

........................................................................
.............................. CYCLE   13 ..............................
........................................................................

 iter      E             dE          RMSdq      gap      omega  full diag
   1    -46.7758310 -0.467758E+02  0.380E-03    4.84       0.0  T
   2    -46.7758310 -0.236837E-08  0.227E-03    4.84       7.5  T
   3    -46.7758310  0.129638E-08  0.314E-04    4.84      53.8  T
   4    -46.7758310 -0.237118E-08  0.106E-04    4.84     159.5  T
     SCC iter.                  ...        0 min,  0.007 sec
     gradient                   ...        0 min,  0.004 sec
 * total energy  :   -46.1573818 Eh     change       -0.3538849E-06 Eh
   gradient norm :     0.0001279 Eh/α   predicted    -0.2073655E-06 ( -41.40%)
   displ. norm   :     0.0058268 α      lambda       -0.9861665E-07
   maximum displ.:     0.0032671 α      in ANC's #4, #5, #8, ...

........................................................................
.............................. CYCLE   14 ..............................
........................................................................

 iter      E             dE          RMSdq      gap      omega  full diag
   1    -46.7758152 -0.467758E+02  0.157E-03    4.84       0.0  T
   2    -46.7758152 -0.802608E-09  0.939E-04    4.84      18.0  T
   3    -46.7758152  0.592685E-09  0.181E-04    4.84      93.5  T
     SCC iter.                  ...        0 min,  0.006 sec
     gradient                   ...        0 min,  0.004 sec
 * total energy  :   -46.1573819 Eh     change       -0.7283332E-07 Eh
   gradient norm :     0.0000735 Eh/α   predicted    -0.5397304E-07 ( -25.90%)
   displ. norm   :     0.0017294 α      lambda       -0.2471466E-07
   maximum displ.:     0.0007156 α      in ANC's #9, #14, #5, ...

   *** GEOMETRY OPTIMIZATION CONVERGED AFTER 14 ITERATIONS ***

------------------------------------------------------------------------
 total energy gain   :        -0.0075355 Eh       -4.7286 kcal/mol
 total RMSD          :         0.1449916 a0        0.0767 Å
 total power (kW/mol):        -1.4131726 (step)  -64.7780 (real)
------------------------------------------------------------------------

 ANCopt (total)                0 d,  0 h,  0 min,  0.305 sec
 optimizer setup                ...        0 min,  0.000 sec (  0.071%)
 model hessian                  ...        0 min,  0.089 sec ( 29.105%)
 ANC generation                 ...        0 min,  0.002 sec (  0.672%)
 coordinate transformation      ...        0 min,  0.000 sec (  0.094%)
 single point calculation       ...        0 min,  0.208 sec ( 68.165%)
 optimization log               ...        0 min,  0.003 sec (  0.941%)
 hessian update                 ...        0 min,  0.000 sec (  0.083%)
 rational function              ...        0 min,  0.002 sec (  0.529%)

================
 final structure:
================
$coord
        0.05579571745994       -1.46927615706191       -0.06312140399938      c
        1.23700912783594        0.77890625547548       -1.54589592048001      c
       -0.74804636857903        2.87216385029878       -1.91643468409470      c
       -2.34563072969733        3.41939833209513        0.42673957557519      c
       -3.34721053544521        0.95496041579205        1.57510346081042      c
       -1.11168833338462       -0.64754211157321        2.48032041865822      c
       -2.34861563996508       -2.36509225083931       -1.45527114448777      c
       -4.43875178512983       -0.69499460757253       -0.46748953654668      c
        0.45157639180886        0.65646388165932        4.18691035355121      o
        1.93155624699404       -3.65204613628504        0.28588037472042      c
       -6.80280505973179       -0.68079558590319       -1.26550314649810      c
        3.76225805349200        1.71718302630704       -0.54686837482969      c
        5.86715148291833        0.53563446276009       -1.22818889250098      c
        1.66766358232131        0.00669194099706       -3.42245000590408      h
        2.78105153063519       -4.70967832011703       -2.01085620451251      o
        3.90066388774607        4.03446015966330        1.07861091570955      c
        0.18531899944939        4.59662891641876       -2.54953027005777      h
       -2.02443668303868        2.29519519365659       -3.43220871967084      h
       -1.25353404116080        4.40482160764760        1.86422901366330      h
       -3.93744669076599        4.61756062249207       -0.10938266570385      h
       -4.68110602698759        1.36742773479911        3.09223324380136      h
       -1.85331249419535       -2.35378410489752        3.42761574674394      h
       -2.17767464083836       -2.24389721737737       -3.50511838027270      h
       -2.76160934314061       -4.33144009517355       -0.96410508186679      h
        1.89654478706369       -0.38798258999242        4.56356799575660      h
        1.04388385715507       -5.12817539831332        1.45360594642635      h
        3.64030225064577       -2.99834545618523        1.24303523029114      h
       -7.43721339958842       -1.89942932039049       -2.76824623935082      h
       -8.19821985577022        0.55418885035049       -0.44904285556502      h
        7.69751852982016        1.14970311296679       -0.57744617438895      h
        5.85653790398362       -1.10105982627897       -2.43900128527618      h
        1.32152211431690       -5.26347819216181       -2.95742568079702      h
        2.74635503442803        3.82514329162787        2.76252860185070      h
        5.84581567245846        4.37565874935838        1.64830366718539      h
        3.23799776591600        5.68709890814372        0.04772943877949      h
$end
 
 Bond Distances (Angstroems)
 ---------------------------
C1-C2=1.5562         C1-C6=1.5435         C1-C7=1.5448         C1-C10=1.5341        C2-C1=1.5562         C2-C3=1.5391         
C2-C12=1.5204        C2-H14=1.0977        C3-C2=1.5391         C3-C4=1.5284         C3-H17=1.0904        C3-H18=1.0922        
C4-C3=1.5284         C4-C5=1.5333         C4-H19=1.0884        C4-H20=1.0918        C5-C4=1.5333         C5-C6=1.5323         
C5-C8=1.5048         C5-H21=1.0911        C6-C1=1.5435         C6-C5=1.5323         C6-O9=1.4057         C6-H22=1.1048        
C7-C1=1.5448         C7-C8=1.5092         C7-H23=1.0904        C7-H24=1.0946        C8-C5=1.5048         C8-C7=1.5092         
C8-C11=1.3204        O9-C6=1.4057         O9-H25=0.9643        C10-C1=1.5341        C10-O15=1.4115       C10-H26=1.1012       
C10-H27=1.0926       C11-C8=1.3204        C11-H28=1.0775       C11-H29=1.0766       C12-C2=1.5204        C12-C13=1.3273       
C12-C16=1.4996       C13-C12=1.3273       C13-H30=1.0781       C13-H31=1.0774       H14-C2=1.0977        O15-C10=1.4115       
O15-H32=0.9661       C16-C12=1.4996       C16-H33=1.0860       C16-H34=1.0877       C16-H35=1.0888       H17-C3=1.0904        
H18-C3=1.0922        H19-C4=1.0884        H20-C4=1.0918        H21-C5=1.0911        H22-C6=1.1048        H23-C7=1.0904        
H24-C7=1.0946        H25-O9=0.9643        H26-C10=1.1012       H27-C10=1.0926       H28-C11=1.0775       H29-C11=1.0766       
H30-C13=1.0781       H31-C13=1.0774       H32-O15=0.9661       H33-C16=1.0860       H34-C16=1.0877       H35-C16=1.0888       
 C  H  Rav=1.0893 sigma=0.0078  Rmin=1.0766  Rmax=1.1048    18
 C  C  Rav=1.4995 sigma=0.0734  Rmin=1.3204  Rmax=1.5562    14
 O  H  Rav=0.9652 sigma=0.0009  Rmin=0.9643  Rmax=0.9661     2
 O  C  Rav=1.4086 sigma=0.0029  Rmin=1.4057  Rmax=1.4115     2
 
 selected bond angles (degree)
 --------------------
C6-C1-C2=112.65                C7-C1-C2=108.96                C7-C1-C6= 99.94                C10-C1-C2=112.11               
C10-C1-C6=111.48               C10-C1-C7=111.06               C3-C2-C1=109.90                C12-C2-C1=115.30               
C12-C2-C3=114.15               H14-C2-C1=104.77               H14-C2-C3=107.12               H14-C2-C12=104.69              
C4-C3-C2=114.24                H17-C3-C2=109.41               H17-C3-C4=109.95               H18-C3-C2=108.33               
H18-C3-C4=107.86               H18-C3-H17=106.76              C5-C4-C3=110.58                H19-C4-C3=111.35               
H19-C4-C5=108.30               H20-C4-C3=109.02               H20-C4-C5=109.28               H20-C4-H19=108.24              
C6-C5-C4=109.13                C8-C5-C4=109.97                C8-C5-C6=101.52                H21-C5-C4=110.19               
H21-C5-C6=112.34               H21-C5-C8=113.35               C5-C6-C1=101.09                O9-C6-C1=117.58                
O9-C6-C5=112.55                H22-C6-C1=107.92               H22-C6-C5=108.66               H22-C6-O9=108.59               
C8-C7-C1=105.00                H23-C7-C1=112.83               H23-C7-C8=111.77               H24-C7-C1=110.06               
H24-C7-C8=109.16               H24-C7-H23=107.98              C7-C8-C5=107.89                C11-C8-C5=126.17               
C11-C8-C7=125.94               H25-O9-C6=108.55               O15-C10-C1=113.64              H26-C10-C1=109.00              
H26-C10-O15=109.74             H27-C10-C1=110.66              H27-C10-O15=105.14             H27-C10-H26=108.51             
 
 selected dihedral angles (degree)
 ---------------------------------
C3-C2-C1-C6=304.85            C3-C2-C1-C7= 54.80            C3-C2-C1-C10=178.14           C12-C2-C1-C6= 75.57           
C12-C2-C1-C7=185.51           C12-C2-C1-C10=308.86          H14-C2-C1-C6=190.07           H14-C2-C1-C7=300.02           
H14-C2-C1-C10= 63.36          C4-C3-C2-C1= 43.10            C4-C3-C2-C12=271.77           C4-C3-C2-H14=156.37           
H17-C3-C2-C1=166.84           H17-C3-C2-C12= 35.51          H17-C3-C2-H14=280.11          H18-C3-C2-C1=282.87           
H18-C3-C2-C12=151.55          H18-C3-C2-H14= 36.14          C5-C4-C3-C2=311.99            C5-C4-C3-H17=188.54           
C5-C4-C3-H18= 72.48           H19-C4-C3-C2= 72.45           H19-C4-C3-H17=309.01          H19-C4-C3-H18=192.94          
H20-C4-C3-C2=191.81           H20-C4-C3-H17= 68.37          H20-C4-C3-H18=312.30          C6-C5-C4-C3= 63.58            
C6-C5-C4-H19=301.32           C6-C5-C4-H20=183.60           C8-C5-C4-C3=313.03            C8-C5-C4-H19=190.76           
C8-C5-C4-H20= 73.05           H21-C5-C4-C3=187.38           H21-C5-C4-H19= 65.11          H21-C5-C4-H20=307.40          
C5-C6-C1-C2= 67.63            C5-C6-C1-C7=312.12            C5-C6-C1-C10=194.68           O9-C6-C1-C2=304.73            
O9-C6-C1-C7=189.22            O9-C6-C1-C10= 71.77           H22-C6-C1-C2=181.58           H22-C6-C1-C7= 66.07           
H22-C6-C1-C10=308.63          C1-C6-C5-C4=289.36            C1-C6-C5-C8= 45.44            C1-C6-C5-H21=166.85           
O9-C6-C5-C4= 55.68            O9-C6-C5-C8=171.76            O9-C6-C5-H21=293.16           H22-C6-C5-C4=175.97           
H22-C6-C5-C8=292.05           H22-C6-C5-H21= 53.46          C8-C7-C1-C2=273.94            C8-C7-C1-C6= 32.21            
C8-C7-C1-C10=149.97           H23-C7-C1-C2= 35.91           H23-C7-C1-C6=154.18           H23-C7-C1-C10=271.94          
H24-C7-C1-C2=156.59           H24-C7-C1-C6=274.86           H24-C7-C1-C10= 32.62          C7-C8-C5-C4= 90.16            
C7-C8-C5-C6=334.70            C7-C8-C5-H21=214.00           C11-C8-C5-C4=270.42           C11-C8-C5-C6=154.96           
C11-C8-C5-H21= 34.26          C5-C8-C7-C1=355.43            C5-C8-C7-H23=232.77           C5-C8-C7-H24=113.39           
C11-C8-C7-C1=175.17           C11-C8-C7-H23= 52.51          C11-C8-C7-H24=293.13          H25-O9-C6-C1=302.05           
H25-O9-C6-C5=185.18           H25-O9-C6-H22= 64.85          O15-C10-C1-C2=298.87          O15-C10-C1-C6=171.54          
O15-C10-C1-C7= 61.03          H26-C10-C1-C2=176.15          H26-C10-C1-C6= 48.81          H26-C10-C1-C7=298.31          
H27-C10-C1-C2= 56.89          H27-C10-C1-C6=289.55          H27-C10-C1-C7=179.05          
           -------------------------------------------------
          |                Final Singlepoint                |
           -------------------------------------------------

          ...................................................
          :                      SETUP                      :
          :.................................................:
          :  # basis functions                  80          :
          :  # atomic orbitals                  80          :
          :  # shells                           50          :
          :  # electrons                        84          :
          :  max. iterations                   250          :
          :  Hamiltonian                  GFN2-xTB          :
          :  restarted?                      false          :
          :  GBSA solvation                   true          :
          :  PC potential                    false          :
          :  electronic temp.          300.0000000     K    :
          :  accuracy                    1.0000000          :
          :  -> integral cutoff          0.2500000E+02      :
          :  -> integral neglect         0.1000000E-07      :
          :  -> SCF convergence          0.1000000E-05 Eh   :
          :  -> wf. convergence          0.1000000E-03 e    :
          :  Broyden damping             0.4000000          :
          :  net charge                          0          :
          :  unpaired electrons                  0          :
          ...................................................

 iter      E             dE          RMSdq      gap      omega  full diag
   1    -46.7758152 -0.467758E+02  0.548E-05    4.84       0.0  T
   2    -46.7758152 -0.164633E-10  0.385E-05    4.84     438.5  T
   3    -46.7758152 -0.265672E-10  0.197E-05    4.84     857.8  T

   *** convergence criteria satisfied after 3 iterations ***

         #    Occupation            Energy/Eh            Energy/eV
      -------------------------------------------------------------
         1        2.0000           -0.6988855             -19.0176
       ...           ...                  ...                  ...
        36        2.0000           -0.4225832             -11.4991
        37        2.0000           -0.4204150             -11.4401
        38        2.0000           -0.4133917             -11.2490
        39        2.0000           -0.4095287             -11.1438
        40        2.0000           -0.4051887             -11.0257
        41        2.0000           -0.3940657             -10.7231
        42        2.0000           -0.3805139             -10.3543 (HOMO)
        43                         -0.2026481              -5.5143 (LUMO)
        44                         -0.1937507              -5.2722
        45                          0.0074228               0.2020
        46                          0.0240508               0.6545
        47                          0.0411147               1.1188
       ...                                ...                  ...
        80                          0.6470791              17.6079
      -------------------------------------------------------------
                  HL-Gap            0.1778658 Eh            4.8400 eV
             Fermi-level           -0.2915810 Eh           -7.9343 eV

 SCC (total)                   0 d,  0 h,  0 min,  0.012 sec
 SCC setup                      ...        0 min,  0.001 sec (  6.323%)
 Dispersion                     ...        0 min,  0.000 sec (  1.834%)
 classical contributions        ...        0 min,  0.000 sec (  0.207%)
 integral evaluation            ...        0 min,  0.001 sec ( 10.357%)
 iterations                     ...        0 min,  0.006 sec ( 49.169%)
 molecular gradient             ...        0 min,  0.004 sec ( 30.319%)
 printout                       ...        0 min,  0.000 sec (  1.413%)

         :::::::::::::::::::::::::::::::::::::::::::::::::::::
         ::                     SUMMARY                     ::
         :::::::::::::::::::::::::::::::::::::::::::::::::::::
         :: total energy             -46.157381863314 Eh    ::
         :: total w/o Gsasa/hb       -46.145362272863 Eh    ::
         :: gradient norm              0.000073704999 Eh/a0 ::
         :: HOMO-LUMO gap              4.839974631484 eV    ::
         ::.................................................::
         :: SCC energy               -46.775151529197 Eh    ::
         :: -> isotropic ES            0.060793736336 Eh    ::
         :: -> anisotropic ES          0.005720117889 Eh    ::
         :: -> anisotropic XC          0.017222668262 Eh    ::
         :: -> dispersion             -0.036681427374 Eh    ::
         :: -> Gsolv                  -0.019753895333 Eh    ::
         ::    -> Gelec               -0.007734304882 Eh    ::
         ::    -> Gsasa               -0.015910609695 Eh    ::
         ::    -> Ghb                  0.000000000000 Eh    ::
         ::    -> Gshift               0.003891019244 Eh    ::
         :: repulsion energy           0.617769665883 Eh    ::
         :: add. restraining           0.000000000000 Eh    ::
         :: total charge              -0.000000000000 e     ::
         :::::::::::::::::::::::::::::::::::::::::::::::::::::

           ------------------------------------------------- 
          |                Numerical Hessian                |
           ------------------------------------------------- 
step length          :   0.00500
SCC accuracy         :   0.30000
Hessian scale factor :   1.00000
frozen atoms in %    :   0.00000    0
RMS gradient         :   0.00007
estimated CPU  time      1.63 min
estimated wall time      0.14 min

writing file <hessian>.

 projected vibrational frequencies (cm⁻¹)
eigval :       -0.00    -0.00     0.00     0.00     0.00     0.00
eigval :       63.91    99.94   112.81   121.52   158.31   181.97
eigval :      208.64   215.15   255.50   281.18   285.15   300.62
eigval :      313.70   331.97   344.41   349.50   402.84   415.02
eigval :      470.21   495.44   505.69   527.43   573.35   599.54
eigval :      612.70   688.66   704.27   724.25   797.57   823.33
eigval :      875.78   890.64   899.16   910.77   918.15   931.38
eigval :      943.36   954.80   962.52   998.28  1015.86  1039.39
eigval :     1044.26  1052.92  1069.94  1077.87  1097.30  1121.34
eigval :     1134.47  1138.02  1154.98  1165.96  1194.11  1210.27
eigval :     1230.92  1240.59  1262.90  1268.85  1279.29  1280.91
eigval :     1298.92  1311.44  1325.72  1329.56  1339.64  1350.43
eigval :     1354.07  1367.68  1395.75  1411.09  1430.11  1459.94
eigval :     1464.96  1470.88  1479.59  1492.50  1506.37  1701.10
eigval :     1740.40  2804.90  2852.50  2902.17  2932.88  2965.91
eigval :     2969.82  2976.35  2976.61  2982.29  2997.27  3011.21
eigval :     3024.03  3034.89  3057.06  3091.21  3098.83  3117.61
eigval :     3122.18  3511.97  3536.23
           -------------------------------------------------
          |                Property Printout                |
           -------------------------------------------------

    * Orbital Energies and Occupations

         #    Occupation            Energy/Eh            Energy/eV
      -------------------------------------------------------------
         1        2.0000           -0.6988855             -19.0176
       ...           ...                  ...                  ...
        30        2.0000           -0.4644163             -12.6374
        31        2.0000           -0.4524910             -12.3129
        32        2.0000           -0.4513918             -12.2830
        33        2.0000           -0.4436795             -12.0731
        34        2.0000           -0.4395359             -11.9604
        35        2.0000           -0.4365719             -11.8797
        36        2.0000           -0.4225831             -11.4991
        37        2.0000           -0.4204149             -11.4401
        38        2.0000           -0.4133916             -11.2490
        39        2.0000           -0.4095287             -11.1438
        40        2.0000           -0.4051887             -11.0257
        41        2.0000           -0.3940657             -10.7231
        42        2.0000           -0.3805138             -10.3543 (HOMO)
        43                         -0.2026481              -5.5143 (LUMO)
        44                         -0.1937506              -5.2722
        45                          0.0074229               0.2020
        46                          0.0240508               0.6545
        47                          0.0411148               1.1188
        48                          0.0496526               1.3511
        49                          0.0693422               1.8869
        50                          0.0760704               2.0700
        51                          0.0862285               2.3464
        52                          0.0887807               2.4158
        53                          0.0996934               2.7128
       ...                                ...                  ...
        80                          0.6470791              17.6079
      -------------------------------------------------------------
                  HL-Gap            0.1778658 Eh            4.8400 eV
             Fermi-level           -0.2915810 Eh           -7.9343 eV

     #   Z          covCN         q      C6AA      α(0)
     1   6 c        3.931    -0.010    20.691     6.464
     2   6 c        3.858    -0.026    20.992     6.516
     3   6 c        3.804    -0.059    21.636     6.622
     4   6 c        3.808    -0.058    21.603     6.616
     5   6 c        3.889    -0.028    21.022     6.518
     6   6 c        3.784     0.118    18.667     6.154
     7   6 c        3.842    -0.072    21.841     6.648
     8   6 c        2.981     0.010    27.796     8.648
     9   8 o        1.656    -0.469    22.228     6.364
    10   6 c        3.677     0.078    19.488     6.324
    11   6 c        2.838    -0.112    30.835     9.100
    12   6 c        2.935     0.013    27.732     8.637
    13   6 c        2.848    -0.115    30.902     9.111
    14   1 h        0.924     0.046     2.376     2.411
    15   8 o        1.655    -0.478    22.415     6.391
    16   6 c        3.760    -0.117    22.783     6.805
    17   1 h        0.924     0.040     2.451     2.448
    18   1 h        0.924     0.036     2.508     2.477
    19   1 h        0.925     0.056     2.252     2.347
    20   1 h        0.924     0.035     2.512     2.478
    21   1 h        0.924     0.041     2.442     2.444
    22   1 h        0.922     0.004     2.985     2.702
    23   1 h        0.924     0.053     2.287     2.365
    24   1 h        0.924     0.045     2.387     2.416
    25   1 h        0.805     0.308     0.697     1.312
    26   1 h        0.923     0.018     2.762     2.599
    27   1 h        0.924     0.047     2.357     2.401
    28   1 h        0.926     0.037     2.491     2.468
    29   1 h        0.926     0.038     2.471     2.458
    30   1 h        0.926     0.025     2.662     2.551
    31   1 h        0.926     0.034     2.528     2.486
    32   1 h        0.805     0.310     0.692     1.306
    33   1 h        0.925     0.068     2.108     2.271
    34   1 h        0.925     0.037     2.489     2.467
    35   1 h        0.925     0.047     2.358     2.402

 Mol. C6AA /au·bohr⁶  :      10403.546760
 Mol. C8AA /au·bohr⁸  :     233752.519645
 Mol. α(0) /au        :        153.728017


Wiberg/Mayer (AO) data.
largest (>0.10) Wiberg bond orders for each atom

 ---------------------------------------------------------------------------
     #   Z sym  total        # sym  WBO       # sym  WBO       # sym  WBO
 ---------------------------------------------------------------------------
     1   6 c    3.988 --    10 c    0.981     7 c    0.980     6 c    0.959
                             2 c    0.958
     2   6 c    3.992 --    12 c    0.995     3 c    0.992    14 h    0.958
                             1 c    0.958
     3   6 c    3.997 --     4 c    1.009     2 c    0.992    18 h    0.976
                            17 h    0.973
     4   6 c    3.995 --     3 c    1.009     5 c    0.978    20 h    0.976
                            19 h    0.969
     5   6 c    3.994 --     8 c    0.996     4 c    0.978     6 c    0.975
                            21 h    0.965
     6   6 c    3.950 --     9 o    0.987     5 c    0.975     1 c    0.959
                            22 h    0.958
     7   6 c    3.996 --     8 c    1.003     1 c    0.980    23 h    0.964
                            24 h    0.959
     8   6 c    3.986 --    11 c    1.938     7 c    1.003     5 c    0.996
     9   8 o    1.958 --     6 c    0.987    25 h    0.887
    10   6 c    3.951 --    15 o    0.993     1 c    0.981    26 h    0.966
                            27 h    0.966
    11   6 c    3.987 --     8 c    1.938    28 h    0.975    29 h    0.974
    12   6 c    3.986 --    13 c    1.924    16 c    1.028     2 c    0.995
    13   6 c    3.988 --    12 c    1.924    30 h    0.976    31 h    0.974
    14   1 h    0.998 --     2 c    0.958
    15   8 o    1.942 --    10 c    0.993    32 h    0.886
    16   6 c    3.995 --    12 c    1.028    34 h    0.984    35 h    0.966
                            33 h    0.960
    17   1 h    0.998 --     3 c    0.973
    18   1 h    0.998 --     3 c    0.976
    19   1 h    0.997 --     4 c    0.969
    20   1 h    0.998 --     4 c    0.976
    21   1 h    0.998 --     5 c    0.965
    22   1 h    1.000 --     6 c    0.958
    23   1 h    0.997 --     7 c    0.964
    24   1 h    0.998 --     7 c    0.959
    25   1 h    0.905 --     9 o    0.887
    26   1 h    0.999 --    10 c    0.966
    27   1 h    0.998 --    10 c    0.966
    28   1 h    0.998 --    11 c    0.975
    29   1 h    0.998 --    11 c    0.974
    30   1 h    0.999 --    13 c    0.976
    31   1 h    0.999 --    13 c    0.974
    32   1 h    0.904 --    15 o    0.886
    33   1 h    0.995 --    16 c    0.960
    34   1 h    0.998 --    16 c    0.984
    35   1 h    0.998 --    16 c    0.966
 ---------------------------------------------------------------------------

Topologies differ in total number of bonds
Writing topology from bond orders to xtbtopo.mol

molecular dipole:
                 x           y           z       tot (Debye)
 q only:       -0.562      -0.039      -0.110
   full:       -0.633      -0.336      -0.092       1.836
molecular quadrupole (traceless):
                xx          xy          yy          xz          yz          zz
 q only:       -3.917       3.968       2.922       5.141      -1.478       0.995
  q+dip:       -3.270       5.119       3.134       6.628      -2.151       0.136
   full:       -4.163       5.242       3.338       6.600      -2.577       0.825

           -------------------------------------------------
          |                Geometry Summary                 |
           -------------------------------------------------

      molecular mass/u    :      208.2971915
   center of mass at/Å    :       -0.0004201       0.0001716      -0.0000348
  moments of inertia/u·Å² :        0.5852508E+03   0.8540214E+03   0.1071979E+04
rotational constants/cm⁻¹ :        0.2880412E-01   0.1973912E-01   0.1572572E-01

 * 30 selected distances

     #   Z          #   Z                                           value/Å
     2   6 c        3   6 c                                       1.5391211
     3   6 c        4   6 c                                       1.5284163
     4   6 c        5   6 c                                       1.5332774
     1   6 c        6   6 c                                       1.5434716 (max)
     5   6 c        6   6 c                                       1.5323307
     6   6 c        9   8 o                                       1.4057280
     1   6 c       10   6 c                                       1.5341363
     8   6 c       11   6 c                                       1.3203768
    12   6 c       13   6 c                                       1.3272575
     2   6 c       14   1 h                                       1.0977378
    10   6 c       15   8 o                                       1.4115477
     3   6 c       17   1 h                                       1.0903826
     3   6 c       18   1 h                                       1.0921629
     4   6 c       19   1 h                                       1.0883711
     4   6 c       20   1 h                                       1.0918118
     5   6 c       21   1 h                                       1.0910667
     6   6 c       22   1 h                                       1.1047818
     7   6 c       23   1 h                                       1.0903855
     7   6 c       24   1 h                                       1.0945570
     9   8 o       25   1 h                                       0.9643046 (min)
    10   6 c       26   1 h                                       1.1012105
    10   6 c       27   1 h                                       1.0926303
    11   6 c       28   1 h                                       1.0774677
    11   6 c       29   1 h                                       1.0765833
    13   6 c       30   1 h                                       1.0781186
    13   6 c       31   1 h                                       1.0773596
    15   8 o       32   1 h                                       0.9660803
    16   6 c       33   1 h                                       1.0860158
    16   6 c       34   1 h                                       1.0876597
    16   6 c       35   1 h                                       1.0887503

 * 4 distinct bonds (by element types)

   Z      Z             #   av. dist./Å        max./Å        min./Å
   1 H    6 C          18     1.0892807     1.1047818     1.0765833
   6 C    6 C           8     1.4822985     1.5434716     1.3203768
   1 H    8 O           2     0.9651925     0.9660803     0.9643046
   6 C    8 O           2     1.4086379     1.4115477     1.4057280

           -------------------------------------------------
          |               Frequency Printout                |
           -------------------------------------------------
 projected vibrational frequencies (cm⁻¹)
eigval :       -0.00    -0.00     0.00     0.00     0.00     0.00
eigval :       63.91    99.94   112.81   121.52   158.31   181.97
eigval :      208.64   215.15   255.50   281.18   285.15   300.62
eigval :      313.70   331.97   344.41   349.50   402.84   415.02
eigval :      470.21   495.44   505.69   527.43   573.35   599.54
eigval :      612.70   688.66   704.27   724.25   797.57   823.33
eigval :      875.78   890.64   899.16   910.77   918.15   931.38
eigval :      943.36   954.80   962.52   998.28  1015.86  1039.39
eigval :     1044.26  1052.92  1069.94  1077.87  1097.30  1121.34
eigval :     1134.47  1138.02  1154.98  1165.96  1194.11  1210.27
eigval :     1230.92  1240.59  1262.90  1268.85  1279.29  1280.91
eigval :     1298.92  1311.44  1325.72  1329.56  1339.64  1350.43
eigval :     1354.07  1367.68  1395.75  1411.09  1430.11  1459.94
eigval :     1464.96  1470.88  1479.59  1492.50  1506.37  1701.10
eigval :     1740.40  2804.90  2852.50  2902.17  2932.88  2965.91
eigval :     2969.82  2976.35  2976.61  2982.29  2997.27  3011.21
eigval :     3024.03  3034.89  3057.06  3091.21  3098.83  3117.61
eigval :     3122.18  3511.97  3536.23
 reduced masses (amu)
   1: 10.82   2: 11.41   3: 11.82   4: 11.02   5: 11.52   6: 11.25   7:  9.94   8:  9.52
   9: 11.81  10:  9.91  11: 12.21  12:  6.87  13:  9.18  14:  8.59  15:  9.44  16:  8.10
  17:  6.99  18:  5.87  19:  9.88  20:  8.26  21:  5.51  22:  8.20  23:  7.86  24:  8.58
  25:  7.65  26: 10.25  27: 11.28  28:  8.60  29: 10.17  30:  9.67  31: 10.09  32:  7.52
  33:  2.36  34:  3.98  35:  7.67  36:  9.09  37:  8.12  38:  4.11  39:  7.45  40:  4.07
  41:  6.54  42:  6.28  43:  7.31  44:  6.11  45:  6.36  46:  6.53  47:  4.98  48:  6.41
  49:  5.31  50:  9.72  51:  8.14  52:  6.37  53:  5.60  54:  7.99  55:  5.96  56:  7.98
  57:  4.43  58:  3.52  59:  6.02  60:  5.16  61:  5.96  62:  7.14  63:  8.90  64:  5.01
  65:  7.41  66:  4.58  67:  7.06  68:  4.88  69:  4.18  70:  3.75  71:  4.35  72:  3.88
  73:  4.29  74:  3.39  75:  3.07  76:  2.36  77:  2.56  78:  1.85  79:  1.79  80:  1.82
  81:  1.73  82:  1.71  83:  1.84  84: 11.21  85: 11.59  86:  1.71  87:  1.73  88:  1.75
  89:  1.83  90:  1.88  91:  1.79  92:  1.79  93:  1.73  94:  1.66  95:  1.56  96:  1.81
  97:  1.68  98:  1.67  99:  1.63 100:  1.59 101:  1.54 102:  2.02 103:  2.06 104:  1.87
 105:  1.87
 IR intensities (km·mol⁻¹)
   1:  0.12   2:  0.02   3:  0.04   4:  0.08   5:  0.04   6:  0.08   7:  1.96   8:  0.10
   9:  2.86  10:  3.14  11:  2.96  12:  3.97  13:  6.42  14:  5.10  15: 39.53  16: 11.31
  17: 15.94  18:127.48  19: 11.06  20:  4.93  21:102.66  22: 12.49  23: 73.54  24:  8.28
  25:  0.87  26:  5.78  27: 13.24  28:  1.51  29:  4.68  30:  4.10  31:  2.50  32:  1.11
  33:  0.24  34:  3.57  35: 13.01  36:  8.20  37:  1.82  38: 26.20  39: 10.93  40: 27.83
  41:  4.22  42:  2.44  43:  4.78  44:  5.83  45:  5.50  46:  2.53  47:  7.40  48: 22.08
  49: 16.43  50:118.50  51: 27.79  52: 12.35  53:  8.52  54: 51.06  55: 72.25  56:  3.21
  57: 33.59  58:  2.74  59: 15.34  60: 29.22  61: 10.22  62:  2.49  63: 47.49  64:  4.10
  65:  2.58  66:  9.85  67: 18.15  68: 12.42  69: 36.86  70: 17.03  71: 14.48  72: 61.56
  73:  3.38  74: 17.64  75:  8.29  76:  5.29  77:  9.55  78:  0.11  79:  6.73  80:  6.67
  81:  3.68  82:  1.86  83:  0.83  84: 25.28  85: 30.24  86:141.42  87:115.42  88: 62.06
  89: 57.30  90: 36.22  91: 56.74  92: 52.30  93: 89.76  94: 55.24  95: 60.48  96: 56.26
  97: 48.42  98: 50.33  99: 13.09 100: 64.31 101: 39.98 102: 56.79 103: 56.70 104: 35.02
 105: 30.56
 Raman intensities (Ä⁴*amu⁻¹)
   1:  0.00   2:  0.00   3:  0.00   4:  0.00   5:  0.00   6:  0.00   7:  0.00   8:  0.00
   9:  0.00  10:  0.00  11:  0.00  12:  0.00  13:  0.00  14:  0.00  15:  0.00  16:  0.00
  17:  0.00  18:  0.00  19:  0.00  20:  0.00  21:  0.00  22:  0.00  23:  0.00  24:  0.00
  25:  0.00  26:  0.00  27:  0.00  28:  0.00  29:  0.00  30:  0.00  31:  0.00  32:  0.00
  33:  0.00  34:  0.00  35:  0.00  36:  0.00  37:  0.00  38:  0.00  39:  0.00  40:  0.00
  41:  0.00  42:  0.00  43:  0.00  44:  0.00  45:  0.00  46:  0.00  47:  0.00  48:  0.00
  49:  0.00  50:  0.00  51:  0.00  52:  0.00  53:  0.00  54:  0.00  55:  0.00  56:  0.00
  57:  0.00  58:  0.00  59:  0.00  60:  0.00  61:  0.00  62:  0.00  63:  0.00  64:  0.00
  65:  0.00  66:  0.00  67:  0.00  68:  0.00  69:  0.00  70:  0.00  71:  0.00  72:  0.00
  73:  0.00  74:  0.00  75:  0.00  76:  0.00  77:  0.00  78:  0.00  79:  0.00  80:  0.00
  81:  0.00  82:  0.00  83:  0.00  84:  0.00  85:  0.00  86:  0.00  87:  0.00  88:  0.00
  89:  0.00  90:  0.00  91:  0.00  92:  0.00  93:  0.00  94:  0.00  95:  0.00  96:  0.00
  97:  0.00  98:  0.00  99:  0.00 100:  0.00 101:  0.00 102:  0.00 103:  0.00 104:  0.00
 105:  0.00
 output can be read by thermo (or use thermo option).
 writing <g98.out> molden fake output.
 recommended (thermochemical) frequency scaling factor: 1.0
           -------------------------------------------------
          |             Thermodynamic Functions             |
           -------------------------------------------------

Molecule has no symmetry elements
It seems to be the C1 point group
c1  symmetry found (for desy threshold:  0.10E+00) used in thermo

          ...................................................
          :                      SETUP                      :
          :.................................................:
          :  # frequencies                          99      :
          :  # imaginary freq.                       0      :
          :  linear?                             false      :
          :  only rotor calc.                    false      :
          :  symmetry                               c1      :
          :  rotational number                       1      :
          :  scaling factor                  1.0000000      :
          :  rotor cutoff                   50.0000000 cm⁻¹ :
          :  imag. cutoff                  -50.0000000 cm⁻¹ :
          :.................................................:

    mode    ω/cm⁻¹     T·S(HO)/kcal·mol⁻¹    T·S(FR)/kcal·mol⁻¹   T·S(vib)
   ------------------------------------------------------------------------
       1     63.91    -1.29177 ( 72.75%)    -0.98374 ( 27.25%)    -1.20783
       2     99.94    -1.03026 ( 94.10%)    -0.85133 (  5.90%)    -1.01971
       3    112.81    -0.96005 ( 96.28%)    -0.81546 (  3.72%)    -0.95468
       4    121.52    -0.91711 ( 97.21%)    -0.79341 (  2.79%)    -0.91366
       5    158.31    -0.76622 ( 99.01%)    -0.71509 (  0.99%)    -0.76572
       6    181.97    -0.68817 ( 99.43%)    -0.67383 (  0.57%)    -0.68809
       7    208.64    -0.61285 ( 99.67%)    -0.63331 (  0.33%)    -0.61291
       8    215.15    -0.59616 ( 99.71%)    -0.62422 (  0.29%)    -0.59625
       9    255.50    -0.50456 ( 99.85%)    -0.57329 (  0.15%)    -0.50466
      10    281.18    -0.45511 ( 99.90%)    -0.54492 (  0.10%)    -0.45520
      11    285.15    -0.44799 ( 99.91%)    -0.54077 (  0.09%)    -0.44808
   ------------------------------------------------------------------------

   temp. (K)  partition function   enthalpy   heat capacity  entropy
                                   cal/mol     cal/K/mol   cal/K/mol   J/K/mol
 298.15  VIB  0.112E+05             7571.683     54.245     43.587
         ROT  0.177E+07              888.752      2.981     31.569
         INT  0.199E+11             8460.435     57.226     75.156
         TR   0.291E+28             1481.254      4.968     41.886
         TOT                        9941.6891    62.1940   117.0423   489.7048

       T/K    H(0)-H(T)+PV         H(T)/Eh          T*S/Eh         G(T)/Eh
   ------------------------------------------------------------------------
    298.15    0.158431E-01    0.317759E+00    0.556106E-01    0.262148E+00
   ------------------------------------------------------------------------

         :::::::::::::::::::::::::::::::::::::::::::::::::::::
         ::                  THERMODYNAMIC                  ::
         :::::::::::::::::::::::::::::::::::::::::::::::::::::
         :: total free energy         -45.895233642104 Eh   ::
         ::.................................................::
         :: total energy              -46.157381863487 Eh   ::
         :: zero point energy           0.301915685534 Eh   ::
         :: G(RRHO) w/o ZPVE           -0.039767464151 Eh   ::
         :: G(RRHO) contrib.            0.262148221383 Eh   ::
         :::::::::::::::::::::::::::::::::::::::::::::::::::::

optimized geometry written to: xtbopt.coord


           -------------------------------------------------
          | TOTAL ENERGY              -46.157381863487 Eh   |
          | TOTAL ENTHALPY            -45.839623087863 Eh   |
          | TOTAL FREE ENERGY         -45.895233642104 Eh   |
          | GRADIENT NORM               0.000073759996 Eh/α |
          | HOMO-LUMO GAP               4.839973485851 eV   |
           -------------------------------------------------

------------------------------------------------------------------------
 * finished run on 2026/08/09 at 18:20:23.459     
------------------------------------------------------------------------
 total:
 * wall-time:     0 d,  0 h,  0 min,  1.426 sec
 *  cpu-time:     0 d,  0 h,  0 min, 15.753 sec
 * ratio c/w:    11.048 speedup
 SCF:
 * wall-time:     0 d,  0 h,  0 min,  0.056 sec
 *  cpu-time:     0 d,  0 h,  0 min,  0.653 sec
 * ratio c/w:    11.572 speedup
 ANC optimizer:
 * wall-time:     0 d,  0 h,  0 min,  0.319 sec
 *  cpu-time:     0 d,  0 h,  0 min,  3.819 sec
 * ratio c/w:    11.970 speedup
 analytical hessian:
 * wall-time:     0 d,  0 h,  0 min,  1.018 sec
 *  cpu-time:     0 d,  0 h,  0 min, 10.966 sec
 * ratio c/w:    10.767 speedup

normal termination of xtb
