
                                 *****************
                                 * O   R   C   A *
                                 *****************

                                            #,                                       
                                            ###                                      
                                            ####                                     
                                            #####                                    
                                            ######                                   
                                           ########,                                 
                                     ,,################,,,,,                         
                               ,,#################################,,                 
                          ,,##########################################,,             
                       ,#########################################, ''#####,          
                    ,#############################################,,   '####,        
                  ,##################################################,,,,####,       
                ,###########''''           ''''###############################       
              ,#####''   ,,,,##########,,,,          '''####'''          '####       
            ,##' ,,,,###########################,,,                        '##       
           ' ,,###''''                  '''############,,,                           
         ,,##''                                '''############,,,,        ,,,,,,###''
      ,#''                                            '''#######################'''  
     '                                                          ''''####''''         
             ,#######,   #######,   ,#######,      ##                                
            ,#'     '#,  ##    ##  ,#'     '#,    #''#        ,####,    ,#,          
            ##       ##  ##   ,#'  ##            #'  '#       #'       ,# #          
            ##       ##  #######   ##           ,######,      #####,      #          
            '#,     ,#'  ##    ##  '#,     ,#' ,#      #,     #,   #      #          
             '#######'   ##     ##  '#######'  #'      '#     '####' #    #          



                #########################################################
                #                        -***-                          #
                #          Department of theory and spectroscopy        #
                #                                                       #
                #                      Frank Neese                      #
                #                                                       #
                #     Directorship, Architecture, Infrastructure        #
                #                    SHARK, DRIVERS                     #
                #        Core code/Algorithms in most modules           #
                #                                                       #
                #        Max Planck Institute fuer Kohlenforschung      #
                #                Kaiser Wilhelm Platz 1                 #
                #                 D-45470 Muelheim/Ruhr                 #
                #                      Germany                          #
                #                                                       #
                #                  All rights reserved                  #
                #                        -***-                          #
                #########################################################


                         Program Version 6.1.1  -  RELEASE   -
                                (GIT: $487d211c$)
                          ($2025-11-21 10:33:24 +0100$)


 With contributions from (in alphabetic order):
[Max-Planck-Institut fuer Kohlenforschung]                               
  Daniel Aravena         : Magnetic Suceptibility                        
  Michael Atanasov       : Ab Initio Ligand Field Theory (pilot matlab implementation)
  Alexander A. Auer      : GIAO ZORA, VPT2 properties, NMR spectrum      
  Ute Becker             : All parallelization in ORCA, NUMFREQ, NUMCALC 
  Giovanni Bistoni       : ED, misc. LED, open-shell LED, HFLD           
  Dmytro Bykov           : pre 5.0 version of the SCF Hessian            
  Marcos Casanova-Páez   : Triplet and SCS-CIS(D). UHF-(DLPNO)-IP/EA/STEOM-CCSD. UHF-CVS-IP/STEOM-CCSD   
  Vijay G. Chilkuri      : MRCI spin determinant printing, contributions to CSF-ICE 
  Pauline Colinet        : FMM embedding                                 
  Dipayan Datta          : RHF DLPNO-CCSD density                        
  Achintya Kumar Dutta   : EOM-CC, STEOM-CC                              
  Nicolas Foglia         : Exact transition moments, OPA infrastructure, MCD improvements    
  Dmitry Ganyushin       : Spin-Orbit,Spin-Spin,Magnetic field MRCI      
  Miquel Garcia-Rates    : C-PCM and meta-GGA Hessian, CCSD/C-PCM, Gaussian charge scheme 
  Tiago L. C. Gouveia    : GS-ROHF, GS-ROCIS                             
  Yang Guo               : DLPNO-NEVPT2, F12-NEVPT2, CIM, IAO-localization        
  Andreas Hansen         : Spin unrestricted coupled pair/coupled cluster methods 
  Ingolf Harden          : AUTO-CI MPn and infrastructure                
  Benjamin Helmich-Paris : MC-RPA, TRAH-(SCF,CASSCF), AVAS, COSX integrals, SCF dyn. polar., MC-PDFT, srDFT 
  Lee Huntington         : MR-EOM, pCC                                   
  Robert Izsak           : Overlap fitted RIJCOSX, COSX-SCS-MP3, EOM     
  Riya Kayal             : Wick's Theorem for AUTO-CI, AUTO-CI UHF-CCSDT 
  Emily Kempfer          : AUTO-CI RHF CISDT and CCSDT, approximate NEVPT4
  Christian Kollmar      : KDIIS, OOCD, Brueckner-CCSD(T), CCSD density, CASPT2, CASPT2-K, improved NEVPT2 
  Axel Koslowski         : Symmetry handling                             
  Simone Kossmann        : meta-GGA functionals, TD-DFT gradient, OOMP2, (MP2 Hessian; deprecated post 5.0) 
  Lucas Lang             : DCDCAS, Hyperfine gauge corrections, ICE-SOC+SSC
  Marvin Lechner         : AUTO-CI (C++ implementation), FIC-MRCC        
  Spencer Leger          : CASSCF response                               
  Dagmar Lenk            : GEPOL surface, SMD, ORCA-2-JSON               
  Dimitrios Liakos       : Extrapolation schemes; Compound Job, Property file
  Dimitrios Manganas     : Further ROCIS development; embedding schemes. LFT, Crystal Embedding 
  Dimitrios Pantazis     : SARC Basis sets                               
  Anastasios Papadopoulos: AUTO-CI, single reference methods and gradients 
  Taras Petrenko         : pre 6.0 DFT Hessian and TD-DFT gradient,  ECA, NRVS 
  Petra Pikulova         : Analytic Raman intensities                    
  Peter Pinski           : DLPNO-MP2, DLPNO-MP2 Gradient                 
  Shashank Vittal Rao    : ES-AILFT, MagRelax                            
  Christoph Reimann      : Effective Core Potentials                     
  Marius Retegan         : Local ZFS, SOC                                
  Christoph Riplinger    : Optimizer, TS searches, QM/MM, DLPNO-CCSD(T), (RO)-DLPNO pert. Triples 
  Michael Roemelt        : Original ROCIS implementation, recursive CI coupling coefficients
  Masaaki Saitow         : Open-shell DLPNO-CCSD energy and density      
  Barbara Sandhoefer     : DKH picture change effects                    
  Yorick L. A. Schmerwitz: GMF and freeze-and-release deltaSCF, NEB S-IDPP initial path                    
  Kantharuban Sivalingam : CASSCF convergence/infrastructure, NEVPT2, NEVPT3, NEVPT4(SD), FIC-MRCI and CEPA variants
  Bernardo de Souza      : ESD, SOC TD-DFT                               
  Georgi L. Stoychev     : AutoAux, RI-MP2 NMR, DLPNO-MP2 response, X2C  
  Van Anh Tran           : RI-MP2 g-tensors                              
  Willem Van den Heuvel  : Paramagnetic NMR                              
  Zikuan Wang            : NOTCH, Electric field optimization            
  Frank Wennmohs         : Technical directorship and infrastructure     
  Hang Xu                : AUTO-CI-Response properties                   
                                                                         
[FACCTs GmbH]                                                            
  Markus Bursch, Nicolas Foglia, Miquel Garcia-Rates, Ingolf Harden, Hagen Neugebauer, Anastasios Papadopoulos, 
  Christoph Riplinger, Bernardo de Souza, Georgi L. Stoychev                                                    
                                                                 
  APM, various basis sets, CI-OPT, improved COSX, DLPNO-Multilevel,           
  DOCKER, DRACO, updates on ESD, Fragmentator, GOAT, IRC, LR-CPCM, L-BFGS, MBIS, meta-GGA TD-DFT gradient, ML-optimized integration grids, 
  MM, NACMEs, nearIR, NEB, NEB-TS, NL-DFT gradient (VV10), 2- and 3-layer-ONIOM, interface openCOSMO-RS, QMMM,   
  Crystal-QMMM, RESP, rigid body optimization, SF, symmetry and pop. for TD-DFT, various functionals, SOLVATOR                                   
                                                                         
[Other institutions]                                                     
  V. Asgeirsson          : NEB                                           
  Christoph Bannwarth    : sTDA-DFT, sTD-DFT, PBEh-3c, B97-3c, D3        
  Giovanni Bistoni       : ETS/NOCV, ADLD/ADEX, COVALED                  
  Martin Brehm           : Molecular dynamics                            
  Ronald Cardenas        : ETS/NOCV                                      
  Martina Colucci        : COVALED                                       
  Sebastian Ehlert       : rSCAN, r2SCAN, r2SCAN-3c, D4, dhf basis sets  
  Marvin Friede          : D4 for Fr, Ra, Ac-Lr                          
  Lars Goerigk           : TD-DFT with DH, B97 family of functionals     
  Stefan Grimme          : VdW corrections, initial TS optimization, DFT functionals, gCP, sTDA/sTD-DF 
  Waldemar Hujo          : DFT-NL                                        
  H. Jonsson             : NEB                                           
  Holger Kruse           : gCP                                           
  Marcel Mueller         : wB97X-3c, vDZP basis set                      
  Hagen Neugebauer       : wr2SCAN, Native XTB                           
  Gianluca Regni         : ADLD/ADEX                                     
  Tobias Risthaus        : pre 6.0 range-separated hybrid DFT and stability analysis
  Lukas Wittmann         : regularized MP2, r2SCAN double-hybrids, wr2SCAN        
                                                                         
We gratefully acknowledge several colleagues who have allowed us to      
interface, adapt or use parts of their codes:                            
  Ed Valeev, F. Pavosevic, A. Kumar             : LibInt (2-el integral package), F12 methods 
  Garnet Chan, S. Sharma, J. Yang, R. Olivares  : DMRG                   
  Ulf Ekstrom                                   : XCFun DFT Library      
  Mihaly Kallay                                 : mrcc  (arbitrary order and MRCC methods)
  Frank Weinhold                                : gennbo (NPA and NBO analysis)           
  Simon Mueller                                 : openCOSMO-RS                            
  Christopher J. Cramer and Donald G. Truhlar   : smd solvation model                     
  S Lehtola, MJT Oliveira, MAL Marques          : LibXC Library                           
  Liviu Ungur et al                             : ANISO software                          


 Your calculation uses the libint2 library for the computation of 2-el integrals
 For citations please refer to: http://libint.valeyev.net

 Your ORCA version has been built with support for libXC version: 7.0.0
 For citations please refer to: https://libxc.gitlab.io

 This ORCA versions uses:
   CBLAS   interface :  Fast vector & matrix operations
   LAPACKE interface :  Fast linear algebra routines
   SCALAPACK package :  Parallel linear algebra routines
   Shared memory     :  Shared parallel matrices
   BLAS/LAPACK       :  OpenBLAS 0.3.29  USE64BITINT DYNAMIC_ARCH NO_AFFINITY Haswell SINGLE_THREADED
        Core in use  :  Haswell
   Copyright (c) 2011-2014, The OpenBLAS Project


  ***********************************
  * Starting time: Sun Aug  9 17:20:48 2026
  * Host name:     localhost.localdomain
  * Process ID:    2970057
  * Working dir.:  /home/dinglab/calculation/templates/NMR_modules/autohnmr/alpha_diol_screening/CONF37/part3
  ***********************************

NOTE: MaxCore=2500 MB was set to SCF,MP2,MDCI,CIPSI,MRCI,RASCI and CIS
      => If you want to overwrite this, your respective input block should be placed after the MaxCore statement
Your calculation utilizes the DFT-NL dispersion correction.
Cite in your paper:
Vydrov, O. A.; Van Voorhis, T. J. Chem. Phys. 2010, 133, 244103
Hujo, W.; Grimme, S. J. Chem. Theory Comput. 2011, 7, 3866 
   

Your calculation utilizes the SMD solvation module
Please cite in your paper:
Marenich, A. V.; Cramer, C. J.; Truhlar, D. G. J. Phys. Chem. B 2009, 113, 6378 

================================================================================

----- Orbital basis set information -----
Your calculation utilizes the basis: def2-TZVP
   F. Weigend and R. Ahlrichs, Phys. Chem. Chem. Phys. 7, 3297 (2005).

----- AuxJ basis set information -----
Your calculation utilizes the auxiliary basis: def2/J
   H-Rn: F. Weigend, Phys. Chem. Chem. Phys. 8, 1057 (2006).
   Fr-Lr: K. Eichkorn, F. Weigend, O. Treutler, R. Ahlrichs; Theor. Chem. Acc. 97, 119 (1997).

================================================================================
                                        WARNINGS
                       Please study these warnings very carefully!
================================================================================


WARNING: B97M-V or wB97M-V functional requested.
  ===> : libXC variant has now been activated.
         Any manually given DFX/HFX/RangeSep scaling parameters are IGNORED!


================================================================================
                                       INPUT FILE
================================================================================
NAME = inp
|  1> ! wb97m-v
|  2> ! def2-TZVP
|  3> ! def2/J RIJCOSX
|  4> ! DEFGRID2
|  5> ! scfconv7
|  6> ! miniprint nopop noautostart
|  7> %MaxCore 2500
|  8> %pal
|  9>     nprocs 12
| 10> end
| 11> %cpcm
| 12>     smd    true
| 13>     smdsolvent "CHLOROFORM"
| 14> end
| 15> *xyz 0 1
| 16> C    0.1440774273  -0.6129537422   0.3566491584
| 17> C   -0.9342252247   0.4889150493   0.7117112748
| 18> C   -0.3548195467   1.9313457178   0.5518321005
| 19> C    0.5619469916   2.1224858382  -0.6750170111
| 20> C    1.5482429391   0.9347108347  -0.8248836310
| 21> C    0.7389798650  -0.3605376560  -1.0550854253
| 22> C    1.3983794311  -0.3710816784   1.2645206879
| 23> C    2.2509146104   0.6423267251   0.4977187667
| 24> O    1.5936467488  -1.4674011323  -1.3778600023
| 25> C   -0.4109918818  -2.0418214724   0.5501448313
| 26> C    3.4060653131   1.1756191409   0.9093634540
| 27> C   -2.3130068447   0.3228428564   0.0508968373
| 28> C   -2.5963754485   0.6117827858  -1.2325693842
| 29> H   -1.1146681652   0.3533762496   1.7915857792
| 30> O   -1.2928411142  -2.5032531167  -0.4804339404
| 31> C   -3.4141807471  -0.1410001036   0.9902877901
| 32> H   -1.1816926498   2.6576315016   0.5257410077
| 33> H    0.2290975877   2.1663953837   1.4559983595
| 34> H   -0.0285622751   2.2175176992  -1.6016936580
| 35> H    1.1261573853   3.0626461991  -0.5649477053
| 36> H    2.2552881371   1.1398307631  -1.6461757318
| 37> H   -0.0339542700  -0.2378436355  -1.8318823902
| 38> H    1.9597522266  -1.3097906184   1.3979488473
| 39> H    1.1269296903  -0.0165514683   2.2713913555
| 40> H    2.0869563172  -1.2338670615  -2.1905073607
| 41> H   -0.8976352777  -2.0989615889   1.5456528885
| 42> H    0.4255017272  -2.7552753677   0.5603965941
| 43> H    3.8418441077   0.9296264097   1.8811305970
| 44> H    3.9641849917   1.8811548960   0.2886573899
| 45> H   -3.6115856280   0.5004020938  -1.6209494630
| 46> H   -1.8544910236   0.9794818224  -1.9408811716
| 47> H   -1.9203521300  -1.7835991440  -0.6984993982
| 48> H   -4.3766138426  -0.2573134679   0.4713635573
| 49> H   -3.1612619418  -1.1018774493   1.4685887622
| 50> H   -3.5486095614   0.5875707879   1.8081191835
| 51> *
| 52> 
| 53>                          ****END OF INPUT****
================================================================================

                       ****************************
                       * Single Point Calculation *
                       ****************************

---------------------------------
CARTESIAN COORDINATES (ANGSTROEM)
---------------------------------
  C      0.144077   -0.612954    0.356649
  C     -0.934225    0.488915    0.711711
  C     -0.354820    1.931346    0.551832
  C      0.561947    2.122486   -0.675017
  C      1.548243    0.934711   -0.824884
  C      0.738980   -0.360538   -1.055085
  C      1.398379   -0.371082    1.264521
  C      2.250915    0.642327    0.497719
  O      1.593647   -1.467401   -1.377860
  C     -0.410992   -2.041821    0.550145
  C      3.406065    1.175619    0.909363
  C     -2.313007    0.322843    0.050897
  C     -2.596375    0.611783   -1.232569
  H     -1.114668    0.353376    1.791586
  O     -1.292841   -2.503253   -0.480434
  C     -3.414181   -0.141000    0.990288
  H     -1.181693    2.657632    0.525741
  H      0.229098    2.166395    1.455998
  H     -0.028562    2.217518   -1.601694
  H      1.126157    3.062646   -0.564948
  H      2.255288    1.139831   -1.646176
  H     -0.033954   -0.237844   -1.831882
  H      1.959752   -1.309791    1.397949
  H      1.126930   -0.016551    2.271391
  H      2.086956   -1.233867   -2.190507
  H     -0.897635   -2.098962    1.545653
  H      0.425502   -2.755275    0.560397
  H      3.841844    0.929626    1.881131
  H      3.964185    1.881155    0.288657
  H     -3.611586    0.500402   -1.620949
  H     -1.854491    0.979482   -1.940881
  H     -1.920352   -1.783599   -0.698499
  H     -4.376614   -0.257313    0.471364
  H     -3.161262   -1.101877    1.468589
  H     -3.548610    0.587571    1.808119

----------------------------
CARTESIAN COORDINATES (A.U.)
----------------------------
  NO LB      ZA    FRAG     MASS         X           Y           Z
   0 C     6.0000    0    12.011    0.272267   -1.158315    0.673969
   1 C     6.0000    0    12.011   -1.765430    0.923916    1.344939
   2 C     6.0000    0    12.011   -0.670512    3.649714    1.042812
   3 C     6.0000    0    12.011    1.061926    4.010917   -1.275597
   4 C     6.0000    0    12.011    2.925755    1.766347   -1.558804
   5 C     6.0000    0    12.011    1.396470   -0.681317   -1.993823
   6 C     6.0000    0    12.011    2.642554   -0.701243    2.389598
   7 C     6.0000    0    12.011    4.253612    1.213822    0.940552
   8 O     8.0000    0    15.999    3.011556   -2.772986   -2.603778
   9 C     6.0000    0    12.011   -0.776662   -3.858483    1.039623
  10 C     6.0000    0    12.011    6.436531    2.221598    1.718448
  11 C     6.0000    0    12.011   -4.370949    0.610085    0.096181
  12 C     6.0000    0    12.011   -4.906439    1.156102   -2.329219
  13 H     1.0000    0     1.008   -2.106418    0.667784    3.385606
  14 O     8.0000    0    15.999   -2.443116   -4.730463   -0.907889
  15 C     6.0000    0    12.011   -6.451867   -0.266452    1.871373
  16 H     1.0000    0     1.008   -2.233075    5.022196    0.993507
  17 H     1.0000    0     1.008    0.432932    4.093894    2.751438
  18 H     1.0000    0     1.008   -0.053975    4.190501   -3.026762
  19 H     1.0000    0     1.008    2.128129    5.787563   -1.067596
  20 H     1.0000    0     1.008    4.261877    2.153968   -3.110821
  21 H     1.0000    0     1.008   -0.064164   -0.449459   -3.461756
  22 H     1.0000    0     1.008    3.703395   -2.475146    2.641740
  23 H     1.0000    0     1.008    2.129588   -0.031278    4.292308
  24 H     1.0000    0     1.008    3.943776   -2.331671   -4.139459
  25 H     1.0000    0     1.008   -1.696285   -3.966463    2.920861
  26 H     1.0000    0     1.008    0.804082   -5.206716    1.058996
  27 H     1.0000    0     1.008    7.260033    1.756739    3.554822
  28 H     1.0000    0     1.008    7.491224    3.554868    0.545483
  29 H     1.0000    0     1.008   -6.824908    0.945623   -3.063151
  30 H     1.0000    0     1.008   -3.504480    1.850952   -3.667734
  31 H     1.0000    0     1.008   -3.628940   -3.370514   -1.319973
  32 H     1.0000    0     1.008   -8.270602   -0.486252    0.890748
  33 H     1.0000    0     1.008   -5.973919   -2.082247    2.775231
  34 H     1.0000    0     1.008   -6.705900    1.110348    3.416850



           ************************************************************
           *        Program running with 12 parallel MPI-processes    *
           *              working on a common directory               *
           ************************************************************
------------------------------------------------------------------------------
                   ___                                                        
                  /   \      - P O W E R E D   B Y -                         
                 /     \                                                     
                 |  |  |   _    _      __       _____    __    __             
                 |  |  |  | |  | |    /  \     |  _  \  |  |  /  |          
                  \  \/   | |  | |   /    \    | | | |  |  | /  /          
                 / \  \   | |__| |  /  /\  \   | |_| |  |  |/  /          
                |  |  |   |  __  | /  /__\  \  |    /   |      \           
                |  |  |   | |  | | |   __   |  |    \   |  |\   \          
                \     /   | |  | | |  |  |  |  | |\  \  |  | \   \       
                 \___/    |_|  |_| |__|  |__|  |_| \__\ |__|  \__/        
                                                                              
                      - O R C A' S   B I G   F R I E N D -                    
                                      &                                       
                       - I N T E G R A L  F E E D E R -                       
                                                                              
 v1 FN, 2020, v2 2021, v3 2022-2024                                           
------------------------------------------------------------------------------


----------------------
SHARK INTEGRAL PACKAGE
----------------------

Number of atoms                             ...     35
Number of basis functions                   ...    585
Number of shells                            ...    245
Maximum angular momentum                    ...      3
Integral batch strategy                     ... SHARK/LIBINT Hybrid
RI-J (if used) integral strategy            ... SPLIT-RIJ (Revised 2003 algorithm where possible)
Printlevel                                  ...      1
Contraction scheme used                     ... SEGMENTED contraction
Prescreening option                         ... SCHWARTZ
   Thresh                                   ... 3.000e-11
   Tcut                                     ... 1.000e-12
   Tpresel                                  ... 1.000e-12 
Coulomb Range Separation                    ... NOT USED
Exchange Range Separation                   ... Long Range
   Mu parameter                             ... 3.000e-01
   Scaling (regular/separated)              ... 1.500e-01 8.500e-01
Robust (split-)RI terms used:
  metric    (central integrals)             ... YES
  density   (r.h.s.  integrals)             ... YES
  potential (l.h.s.  integrals)             ... YES
Multipole approximations                    ... NOT USED
Finite Nucleus Model                        ... NOT USED
CABS basis                                  ... NOT available
Auxiliary Coulomb fitting basis             ... AVAILABLE
   # of basis functions in Aux-J            ...    955
   # of shells in Aux-J                     ...    325
   Maximum angular momentum in Aux-J        ...      4
Auxiliary J/K fitting basis                 ... NOT available
Auxiliary Correlation fitting basis         ... NOT available
Auxiliary 'external' fitting basis          ... NOT available

Checking pre-screening integrals            ... done (  0.0 sec) Dimension = 245
   => SHARK Basis and OBASIS are compatible. Storing Pre-screening
Shell pair information
Shell pair cut-off parameter TPreSel        ...   1.0e-12
Total number of shell pairs                 ...     30135
Shell pairs after pre-screening             ...     26001
Total number of primitive shell pairs       ...     88800
Primitive shell pairs kept                  ...     54393
          la=0 lb=0:   7645 shell pairs
          la=1 lb=0:   7625 shell pairs
          la=1 lb=1:   1932 shell pairs
          la=2 lb=0:   3510 shell pairs
          la=2 lb=1:   1757 shell pairs
          la=2 lb=2:    429 shell pairs
          la=3 lb=0:   1712 shell pairs
          la=3 lb=1:    875 shell pairs
          la=3 lb=2:    407 shell pairs
          la=3 lb=3:    109 shell pairs

Checking whether 4 symmetric matrices of dimension 585 fit in memory
:Max Core in MB      =   2500.00
 MB in use           =     34.97
 MB left             =   2465.03
 MB needed           =      5.23
 Data fit in memory  = YES
Calculating RI/J V-Matrix + Cholesky decomp.... done (  0.0 sec)
Calculating Nuclear repulsion               ... done (  0.0 sec) ENN=   1110.575077729072 Eh

Diagonalization of the overlap matrix:
Smallest eigenvalue                        ... 2.578e-05
Time for diagonalization                   ...    0.087 sec
Threshold for overlap eigenvalues          ... 1.000e-07
Number of eigenvalues below threshold      ... 0
Time for construction of square roots      ...    0.032 sec
Total time needed                          ...    0.123 sec

-------------------
DFT GRID GENERATION
-------------------

General Integration Accuracy     IntAcc      ... 4.388
Radial Grid Type                 RadialGrid  ... OptM3 with GC (2021)
Angular Grid (max. ang.)         AngularGrid ... 4 (Lebedev-302)
Angular grid pruning method      GridPruning ... 4 (adaptive)
Weight generation scheme         WeightScheme... mBecke (2022)
Basis function cutoff            BFCut       ... 1.0000e-11
Integration weight cutoff        WCut        ... 1.0000e-14
Partially contracted basis set               ... off
Rotationally invariant grid construction     ... off
Angular grids for H and He will be reduced by one unit

Total number of grid points                  ...   152273
Total number of batches                      ...     2396
Average number of points per batch           ...       63
Average number of grid points per atom       ...     4351

--------------------
COSX GRID GENERATION
--------------------

GRIDX 1
-------
General Integration Accuracy     IntAcc      ... 3.816
Radial Grid Type                 RadialGrid  ... OptM3 with GC (2021)
Angular Grid (max. ang.)         AngularGrid ... 1 (Lebedev-50)
Angular grid pruning method      GridPruning ... 4 (adaptive)
Weight generation scheme         WeightScheme... mBecke (2022)
Basis function cutoff            BFCut       ... 1.0000e-11
Integration weight cutoff        WCut        ... 1.0000e-14
Partially contracted basis set               ... on
Rotationally invariant grid construction     ... off
Angular grids for H and He will be reduced by one unit

Total number of grid points                  ...    19383
Total number of batches                      ...      175
Average number of points per batch           ...      110
Average number of grid points per atom       ...      554
UseSFitting                                  ... on

GRIDX 2
-------
General Integration Accuracy     IntAcc      ... 4.020
Radial Grid Type                 RadialGrid  ... OptM3 with GC (2021)
Angular Grid (max. ang.)         AngularGrid ... 2 (Lebedev-110)
Angular grid pruning method      GridPruning ... 4 (adaptive)
Weight generation scheme         WeightScheme... mBecke (2022)
Basis function cutoff            BFCut       ... 1.0000e-11
Integration weight cutoff        WCut        ... 1.0000e-14
Partially contracted basis set               ... on
Rotationally invariant grid construction     ... off
Angular grids for H and He will be reduced by one unit

Total number of grid points                  ...    40612
Total number of batches                      ...      334
Average number of points per batch           ...      121
Average number of grid points per atom       ...     1160
UseSFitting                                  ... on

GRIDX 3
-------
General Integration Accuracy     IntAcc      ... 4.338
Radial Grid Type                 RadialGrid  ... OptM3 with GC (2021)
Angular Grid (max. ang.)         AngularGrid ... 3 (Lebedev-194)
Angular grid pruning method      GridPruning ... 4 (adaptive)
Weight generation scheme         WeightScheme... mBecke (2022)
Basis function cutoff            BFCut       ... 1.0000e-11
Integration weight cutoff        WCut        ... 1.0000e-14
Partially contracted basis set               ... on
Rotationally invariant grid construction     ... off
Angular grids for H and He will be reduced by one unit

Total number of grid points                  ...    88287
Total number of batches                      ...      711
Average number of points per batch           ...      124
Average number of grid points per atom       ...     2522
UseSFitting                                  ... on
Grids setup in   2.2 sec
Initializing property integral containers    ... done (  0.0 sec)

SHARK setup successfully completed in   2.8 seconds

Maximum memory used throughout the entire STARTUP-calculation: 64.0 MB


           ************************************************************
           *        Program running with 12 parallel MPI-processes    *
           *              working on a common directory               *
           ************************************************************
Loading Hartree-Fock densities                     ... done
Calculating cut-offs                               ... done
Initializing the effective Hamiltonian             ... done
Setting up the integral package (SHARK)            ... done
Starting the Coulomb interaction                   ... done (   0.3 sec)
Making the grid                                    ... done (   0.3 sec)
Mapping shells                                     ... done
Starting the XC term evaluation                    ... done (   0.2 sec)
  promolecular density results
     # of electrons  =    113.981733957
     EX              =    -88.659472859
     EC              =     -3.807903941
     EX+EC           =    -92.467376800
Transforming the Hamiltonian                       ... done (   0.0 sec)
Diagonalizing the Hamiltonian                      ... done (   0.1 sec)
Back transforming the eigenvectors                 ... done (   0.0 sec)
Now organizing SCF variables                       ... done
             **** ENERGY FILE WAS UPDATED (inp.en.tmp) ****
Finished Guess after   1.3 sec
Maximum memory used throughout the entire GUESS-calculation: 47.0 MB


           ************************************************************
           *        Program running with 12 parallel MPI-processes    *
           *              working on a common directory               *
           ************************************************************
--------------------
CPCM SOLVATION MODEL
--------------------
CPCM parameters:
  Epsilon                                         ...       4.7113
  Refrac                                          ...       1.4459
  Rsolv                                           ...       1.3000
  Surface type                                    ... GAUSSIAN VDW
  Discretization scheme                           ... Constant charge density
    Threshold for H atoms                         ...       5.0000 (charges/Ang^2)
    Threshold for non-H atoms                     ...       5.0000 (charges/Ang^2)
  Epsilon function type                           ...         CPCM
Solvent:                                          ... CHLOROFORM
SMD-CDS solvent descriptors:
  Soln                                            ...       1.4459
  Soln25                                          ...       1.4431
  Sola                                            ...       0.1500
  Solb                                            ...       0.0200
  Solg                                            ...      38.3900
  Solc                                            ...       0.0000
  Solh                                            ...       0.7500
Radii:
  Scheme                                          ... Element-dependent radii
  Radius for C  used is    3.4960 Bohr (=   1.8500 Ang.)
  Radius for O  used is    3.8248 Bohr (=   2.0240 Ang.)
  Radius for H  used is    2.2677 Bohr (=   1.2000 Ang.)
Calculating surface                               ...        done! (  0.0s)
Cavity surface points                             ...         2505
Cavity Volume                                     ...    1648.6101
Cavity Surface-area                               ...     902.5937
Calculating surface distance matrix               ...        done! (  0.1s)
Performing Cholesky decomposition & store         ...        done! (  0.2s)
Overall time for CPCM initialization              ...                 0.2s

----------------------------------------D-I-I-S--------------------------------------------
Iteration    Energy (Eh)           Delta-E    RMSDP     MaxDP     DIISErr   Damp  Time(sec)
-------------------------------------------------------------------------------------------
               ***  Starting incremental Fock matrix formation  ***
    1    -657.8015968023642017     0.00e+00  4.77e-03  1.03e-01  2.45e-01  0.700  13.8
    2    -657.9693005902706773    -1.68e-01  4.09e-03  1.08e-01  1.25e-01  0.700   7.6
                               ***Turning on AO-DIIS***
    3    -658.0554799345457013    -8.62e-02  2.34e-03  4.53e-02  5.67e-02  0.700   7.4
    4    -658.1069491233381541    -5.15e-02  5.33e-03  9.10e-02  3.74e-02  0.000   7.1
    5    -658.2178370748483758    -1.11e-01  4.97e-04  9.02e-03  4.43e-03  0.000   7.4
                              *** Initializing SOSCF ***
---------------------------------------S-O-S-C-F--------------------------------------
Iteration    Energy (Eh)           Delta-E    RMSDP     MaxDP     MaxGrad    Time(sec)
--------------------------------------------------------------------------------------
    6    -658.2180242184583676    -1.87e-04  2.17e-04  2.83e-03  2.24e-03     6.7
               *** Restarting incremental Fock matrix formation ***
    7    -658.2180714965629704    -4.73e-05  1.92e-04  2.79e-03  1.77e-04    13.4
    8    -658.2180777802554985    -6.28e-06  1.10e-04  1.63e-03  7.79e-05     9.9
    9    -658.2180789919525523    -1.21e-06  4.79e-05  5.88e-04  3.74e-05     9.4
   10    -658.2180793047298266    -3.13e-07  4.31e-06  7.43e-05  7.49e-06     9.0
                  *** Gradient check signals convergence ***

               *****************************************************
               *                     SUCCESS                       *
               *           SCF CONVERGED AFTER  10 CYCLES          *
               *****************************************************


------------------
NL GRID GENERATION
------------------

General Integration Accuracy     IntAcc      ... 4.004
Radial Grid Type                 RadialGrid  ... OptM3 with GC (2021)
Angular Grid (max. ang.)         AngularGrid ... 2 (Lebedev-110)
Angular grid pruning method      GridPruning ... 4 (adaptive)
Weight generation scheme         WeightScheme... mBecke (2022)
Basis function cutoff            BFCut       ... 1.0000e-10
Integration weight cutoff        WCut        ... 1.0000e-14
Partially contracted basis set               ... off
Rotationally invariant grid construction     ... off
Angular grids for H and He will be reduced by one unit

Total number of grid points                  ...    46103
Total number of batches                      ...      738
Average number of points per batch           ...       62
Average number of grid points per atom       ...     1317
Final grid set up in    0.2 sec

-------------------------------------------------------------------------------
                    post-SCF DFT-NL dispersion correction                      
-------------------------------------------------------------------------------

SCF Energy:     -658.218079317 
NL    Energy:      0.413519906 
SC+NL Energy:   -657.804559411 
NL done in  :              1.6 sec
-------------------------------------------------------------------------------
Recomputing exchange energy using gridx3       ... done (   21.555 sec)
Old exchange energy                            :    -28.782072620 Eh
New exchange energy                            :    -28.782065341 Eh
Exchange energy change after final integration :      0.000007279 Eh
Total energy after final integration           :   -657.804552132 Eh

SMD CDS free energy correction energy :                -3.21232     Kcal/mol
Total Energy after SMD CDS correction =              -657.809671297 Eh
             **** ENERGY FILE WAS UPDATED (inp.en.tmp) ****

----------------
TOTAL SCF ENERGY
----------------

Total Energy       :       -657.80967129697785 Eh          -17899.91117 eV

Components:
Nuclear Repulsion  :       1110.57507772907161 Eh           30220.28423 eV
Electronic Energy  :      -1768.77701689780929 Eh          -48130.86956 eV
One Electron Energy:      -3097.68415692100143 Eh          -84292.27125 eV
Two Electron Energy:       1328.90714002319214 Eh           36161.40169 eV
CPCM Dielectric    :         -0.01614014839171 Eh              -0.43920 eV
SMD CDS (Gcds)     :         -0.00511916490532 Eh              -0.13930 eV

Virial components:
Potential Energy   :      -1312.94187460714511 Eh          -35726.96473 eV
Kinetic Energy     :        655.13220331016737 Eh           17827.05356 eV
Virial Ratio       :          2.00408691249382

DFT components:
N(Alpha)           :       57.000104835119 electrons
N(Beta)            :       57.000104835119 electrons
N(Total)           :      114.000209670238 electrons
NL Energy, E(C,NL) :        0.413519905717 Eh       
E(XC)              :      -66.246839753830 Eh       

CPCM Solvation Model Properties:
Surface-charge          :         -0.05389045142674
Corrected charge        :          0.00000000000000
Outlying charge corr.   :          0.00014604122900 Eh               0.00397 eV
Free-energy (cav+disp)  :         -0.00511916490532 Eh              -0.13930 eV

---------------
SCF CONVERGENCE
---------------

  Last Energy change         ...    3.1278e-07  Tolerance :   1.0000e-07
  Last MAX-Density change    ...    7.4291e-05  Tolerance :   1.0000e-05
  Last RMS-Density change    ...    4.3065e-06  Tolerance :   1.0000e-06
  Last DIIS Error            ...    2.2415e-03  Tolerance :   1.0000e-07
  Last Orbital Gradient      ...    7.4943e-06  Tolerance :   1.0000e-04
  Last Orbital Rotation      ...    1.8063e-05  Tolerance :   1.0000e-04


----------------
ORBITAL ENERGIES
----------------

  NO   OCC          E(Eh)            E(eV) 
   0   2.0000     -19.327818      -525.9367 
   1   2.0000     -19.321455      -525.7635 
   2   2.0000     -10.389527      -282.7134 
   3   2.0000     -10.380994      -282.4812 
   4   2.0000     -10.363592      -282.0077 
   5   2.0000     -10.360481      -281.9230 
   6   2.0000     -10.355476      -281.7868 
   7   2.0000     -10.354755      -281.7672 
   8   2.0000     -10.346855      -281.5522 
   9   2.0000     -10.341096      -281.3955 
  10   2.0000     -10.340985      -281.3925 
  11   2.0000     -10.339842      -281.3614 
  12   2.0000     -10.337196      -281.2894 
  13   2.0000     -10.333204      -281.1808 
  14   2.0000     -10.326642      -281.0022 
  15   2.0000      -1.143965       -31.1289 
  16   2.0000      -1.131834       -30.7988 
  17   2.0000      -0.986719       -26.8500 
  18   2.0000      -0.932822       -25.3834 
  19   2.0000      -0.888731       -24.1836 
  20   2.0000      -0.881468       -23.9860 
  21   2.0000      -0.841058       -22.8863 
  22   2.0000      -0.802472       -21.8364 
  23   2.0000      -0.787739       -21.4355 
  24   2.0000      -0.784886       -21.3578 
  25   2.0000      -0.735264       -20.0075 
  26   2.0000      -0.706894       -19.2356 
  27   2.0000      -0.665457       -18.1080 
  28   2.0000      -0.645127       -17.5548 
  29   2.0000      -0.621821       -16.9206 
  30   2.0000      -0.609465       -16.5844 
  31   2.0000      -0.603092       -16.4110 
  32   2.0000      -0.582317       -15.8457 
  33   2.0000      -0.569205       -15.4889 
  34   2.0000      -0.547871       -14.9083 
  35   2.0000      -0.542196       -14.7539 
  36   2.0000      -0.536879       -14.6092 
  37   2.0000      -0.531826       -14.4717 
  38   2.0000      -0.516026       -14.0418 
  39   2.0000      -0.510708       -13.8971 
  40   2.0000      -0.499428       -13.5901 
  41   2.0000      -0.492294       -13.3960 
  42   2.0000      -0.488810       -13.3012 
  43   2.0000      -0.480802       -13.0833 
  44   2.0000      -0.467389       -12.7183 
  45   2.0000      -0.462797       -12.5933 
  46   2.0000      -0.454046       -12.3552 
  47   2.0000      -0.453343       -12.3361 
  48   2.0000      -0.429348       -11.6831 
  49   2.0000      -0.411107       -11.1868 
  50   2.0000      -0.403616       -10.9829 
  51   2.0000      -0.397992       -10.8299 
  52   2.0000      -0.391434       -10.6515 
  53   2.0000      -0.377126       -10.2621 
  54   2.0000      -0.364158        -9.9092 
  55   2.0000      -0.342156        -9.3105 
  56   2.0000      -0.338991        -9.2244 
  57   0.0000       0.079031         2.1506 
  58   0.0000       0.080714         2.1963 
  59   0.0000       0.095213         2.5909 
  60   0.0000       0.108944         2.9645 
  61   0.0000       0.114760         3.1228 
  62   0.0000       0.123151         3.3511 
  63   0.0000       0.140957         3.8356 
  64   0.0000       0.144650         3.9361 
  65   0.0000       0.146039         3.9739 
  66   0.0000       0.151096         4.1115 
  67   0.0000       0.157556         4.2873 
*Only the first 10 virtual orbitals were printed.
Total SCF time: 0 days 0 hours 2 min 3 sec 
Finished LeanSCF after 123.2 sec

Maximum memory used throughout the entire LEANSCF-calculation: 82.9 MB

-------------------------   --------------------
FINAL SINGLE POINT ENERGY      -657.809671296978
-------------------------   --------------------



           ************************************************************
           *        Program running with 12 parallel MPI-processes    *
           *              working on a common directory               *
           ************************************************************

------------------------------------------------------------------------------
                              ORCA PROPERTY CALCULATIONS
------------------------------------------------------------------------------

GBWName                                 ... inp.gbw
Number of atoms                         ...     35
Number of basis functions               ...    585
Max core memory                         ...   2500 MB

Electric properties:
Dipole moment                           ... YES
Quadrupole moment                       ...  NO
Static polarizability (Dipole/Dipole)   ...  NO
Static polarizability (Dipole/Quad.)    ...  NO
Static polarizability (Quad./Quad.)     ...  NO
Static polarizability (Velocity)        ...  NO
Static hyperpolarizability              ...  NO

Atomic electric properties:
Dipole moment                           ...  NO
Quadrupole moment                       ...  NO
Static polarizability                   ...  NO

Choice of electric origin               ... Center of mass
Position of electric origin             ...     0.003280    -0.011949    -0.010550

General magnetic properties:
Magnetizability                         ...  NO

EPR properties:
g-Tensor (aka g-matrix)                 ...  NO
Zero-Field splitting spin-orbit         ...  NO
Zero-field splitting spin-spin          ...  NO
Hyperfine couplings                     ...  NO (   0 nuclei)
Quadrupole couplings                    ...  NO (   0 nuclei)
Contact density                         ...  NO (   0 nuclei)

NMR properties:
Chemical shifts                         ...  NO (   0 nuclei)
Spin-rotation constants                 ...  NO (   0 nuclei)
Spin-spin couplings                     ...  NO (   0 nuclei,    0 pairs)

Choice of magnetic origin               ... GIAO
Position of magnetic origin             ...     0.000000     0.000000     0.000000

Properties with geometric perturbations:
SCF Hessian                             ...  NO
IR spectrum                             ...  NO
VCD spectrum                            ...  NO
X-ray spectroscopy properties:
SCF XES/XAS/RIXS spectra                ...  NO

SCF SOC stabilization energy            ...  NO
Diagonal Born-Oppenheimer correction    ...  NO

-------------
DIPOLE MOMENT
-------------

Method             : SCF
Type of density    : Electron Density
Multiplicity       :   1
Irrep              :   0
Energy             :  -657.8096712969778537 Eh
Basis              : AO
                                X                 Y                 Z
Electronic contribution:      4.188772336      -3.970808767      -3.154612433
Nuclear contribution   :     -4.450464073       5.389473844       3.240067775
                        -----------------------------------------
Total Dipole Moment    :     -0.261691736       1.418665078       0.085455342
                        -----------------------------------------
Magnitude (a.u.)       :      1.445128293
Magnitude (Debye)      :      3.673224204



--------------------
Rotational spectrum 
--------------------
 
Rotational constants in cm-1:             0.030674             0.017874             0.014894 
Rotational constants in MHz :           919.577769           535.863148           446.514276 

Dipole components along the rotational axes: 
x,y,z [a.u.] :     0.066418     1.439573    -0.107769 
x,y,z [Debye]:     0.168820     3.659104    -0.273927 

 

Dipole moment calculation done in   0.0 sec 

Maximum memory used throughout the entire PROP-calculation: 48.0 MB

--------------------------------
SUGGESTED CITATIONS FOR THIS RUN
--------------------------------

Below you find a list of papers that are relevant to this ORCA run
We neither can nor want to force you to cite these papers, but we appreciate if you do
You receive ORCA, which is the product of decades of hard work by many enthusiastic individuals, for free
The only thing we kindly ask in return is that you cite our papers,
We deeply appreciate it, if you show your appreciation for ORCA by not just citing the generic ORCA reference.

Please note that relegating all ORCA citations to the supporting information does *not* help us.
SI sections are not indexed - citations you put there will not count into any citation statistics
But we need these citations in order to attract the funding resources that allow us to do what we are doing

Therefore, if you are a happy ORCA user, please consider citing a few of the papers listed below in the main body of your paper

In addition to the list printed below, the program has created the file inp.bibtex that contains the list in bibtex format
You can import this file easily into all common literature databanks and citation aid programs

It goes without saying that in many instances, there are alternative algorithms to achieve similar
results as the ones you have gotten from ORCA. It is, of course, also the case that in some instances
ORCA just re-implements algorithms worked out by others. We are fully aware of that and we are also
fully appreciative of our colleagues work. Hence this citation list should not be read as indicating
that the listed papers, which are focused on our own work, are the only ones worth citing. It simply
meant to make it easier for users to cite ORCA specific papers. It is not a substitute for doing your
own literature research and citing the relevant literature in a scientifically appropriate manner.

List of essential papers. We consider these as the minimum necessary citations

  1. Neese, F.
     Software update: the ORCA program system, version 6.0
     WIRES Comput. Molec. Sci. 2025 15(1), e70019
     doi.org/10.1002/wcms.70019

List of papers to cite with high priority. The work reported in these papers was absolutely
necessary for this run to complete.
Our perspective: the developers of density functionals and basis sets usually get cited in chemistry papers
Good! But without the algorithms to do something with them, the functionals or basis sets would not do anything.
Hence, in our opinion, the algorithm design and method developments papers are equally worthy of getting cited

  1. Neese, F.
     An improvement of the resolution of the identity approximation for the formation of the Coulomb matrix
     J. Comp. Chem. 2003 24(14), 1740-1747
     doi.org/10.1002/jcc.10318
  2. Neese, F.; Wennmohs, F.; Hansen, A.; Becker, U.
     Efficient, approximate and parallel Hartree-Fock and hybrid DFT calculations. A 'chain-of-spheres' algorithm for the Hartree-Fock exchange
     Chem. Phys. 2009 356(1-3), 98-109
     doi.org/10.1016/j.chemphys.2008.10.036
  3. Lehtola, S.; Steigemann, C.; Oliveira, M.; Marques, M.
     Recent developments in Libxc - A comprehensive library of functionals for density functional theory
     Software X 2018 7 , 
     doi.org/10.1016/j.softx.2017.11.002
  4. Garcia-Rates, M.; Neese, F.
     Effect of the Solute Cavity on the Solvation Energy and its Derivatives within the Framework of the Gaussian Charge Scheme
     J. Comput. Chem. 2020 41 , 922-939
     doi.org/10.1002/jcc.26139
  5. Helmich-Paris, B.; de Souza, B.; Neese, F.; Izsák, R.
     An improved chain of spheres for exchange algorithm
     J. Chem. Phys. 2021 155(10), 104109
     doi.org/10.1063/5.0058766
  6. Neese, F.
     The SHARK Integral Generation and Digestion System
     J. Comp. Chem. 2022 44(3), 381
     doi.org/10.1002/jcc.26942

List of suggested additional citations. These are papers that are important in the 'surrounding' of 
of this run, or papers that preceded the highly important papers. If you like your results we are grateful for a citation.

  1. Izsak, R.; Neese, F.
     An overlap fitted chain of spheres exchange method
     J. Chem. Phys. 2011 135 , 144105
     doi.org/10.1063/1.3646921
  2. Izsak, R.; Hansen, A.; Neese, F.
     The resolution of identity and chain of spheres approximations for the LPNO-CCSD singles Fock term
     Molec. Phys. 2012 110 , 2413-2417
     doi.org/10.1080/00268976.2012.687466
  3. Neese, F.
     The ORCA program system
     WIRES Comput. Molec. Sci. 2012 2(1), 73-78
     doi.org/10.1002/wcms.81
  4. Izsak, R.; Neese, F.; Klopper, W.
     Robust fitting techniques in the chain of spheres approximation to the Fock exchange: The role of the complementary space
     J. Chem. Phys. 2013 139 , 
     doi.org/10.1063/1.4819264
  5. Neese, F.
     Software update: the ORCA program system, version 4.0
     WIRES Comput. Molec. Sci. 2018 8(1), 1-6
     doi.org/10.1002/wcms.1327
  6. Neese, F.; Wennmohs, F.; Becker, U.; Riplinger, C.
     The ORCA quantum chemistry program package
     J. Chem. Phys. 2020 152(22), 224108
     doi.org/10.1063/5.0004608
  7. Neese, F.
     Software update: The ORCA program system—Version 5.0
     WIRES Comput. Molec. Sci. 2022 12(1), e1606
     doi.org/10.1002/wcms.1606

List of optional additional citations

  1. Neese, F.
     Approximate second-order SCF convergence for spin unrestricted wavefunctions
     Chem. Phys. Lett. 2000 325(1-3), 93-98
     doi.org/10.1016/s0009-2614(00)00662-x

Timings for individual modules:

Sum of individual times          ...      128.391 sec (=   2.140 min)
Startup calculation              ...        3.071 sec (=   0.051 min)   2.4 %
SCF iterations                   ...      124.832 sec (=   2.081 min)  97.2 %
Property calculations            ...        0.488 sec (=   0.008 min)   0.4 %
                             ****ORCA TERMINATED NORMALLY****
TOTAL RUN TIME: 0 days 0 hours 2 minutes 8 seconds 704 msec
