51
 xtb: 6.7.1 (edcfbbe)
c            1.40566983115018        1.26365878883730        2.18023583091142
c            2.55814278946035        1.42907535027340        1.16408573879247
c            2.20031866760426        0.95307794146561       -0.27719093392912
c            1.61888954809615       -0.51368455521812       -0.25140161163817
c            0.34204097883092       -0.45130617644464        0.62479766211928
c            0.73705345592161       -0.12578790742587        2.08926953057396
c            1.25234846278027       -0.96771223816468       -1.68060916917861
c            0.46658011165776       -2.29233043379463       -1.64772753917150
c           -0.87419868506312       -2.10745232513315       -0.91015884501090
c           -0.68909607410220       -1.63670374347508        0.56336742787429
c           -0.51452371306957        0.67481425055104        0.10988823989597
c           -2.02464858708184       -0.91911673980159        0.97180194086328
c           -1.84739775111540        0.45791442510015        0.34894114825741
c           -2.78019515268504        1.40428708476652       -0.05185954011169
c           -2.31151271865538        2.55086382787989       -0.71384945031893
c           -0.96184609163888        2.73479192565970       -0.98042426007109
c           -0.03480321568667        1.77376664048758       -0.56171909596133
o            1.29026089795212        1.89113566762252       -0.86434704622792
o           -4.11586709444537        1.17793140625736        0.19031762370937
c            3.47356278129400        1.05775590371365       -1.15594026530230
c            2.67862134610215       -1.48984395775902        0.31218903239705
c           -1.71836489945076       -3.39818605885978       -1.01783408598839
c           -0.37469972723986       -2.81770446032780        1.50233993462113
h            1.78829142246468        1.42007691923663        3.18199544364902
h            0.65799937879742        2.02529350556025        2.00165050755186
h            3.42739965462187        0.88125364583214        1.49916249362193
h            2.84342692718566        2.47247191306504        1.10251156786272
h           -0.14825328761019       -0.12983568810177        2.70888936168116
h            1.40192426240046       -0.88759008388136        2.46635586256109
h            0.65280761872623       -0.20923889618563       -2.16541104837703
h            2.15574758448566       -1.09130294770199       -2.26003213118665
h            0.26439941853602       -2.61820105315081       -2.66041926726329
h            1.05069583370106       -3.06822654083413       -1.17391127784902
h           -1.40703226745007       -1.31808497498213       -1.42123354468235
h           -2.12533592754050       -0.85631773749154        2.05002422412316
h           -2.89592917205069       -1.43442666137155        0.58914339123418
h           -3.01860481512826        3.29705439407208       -1.04255158102747
h           -0.62232269897082        3.60841492195118       -1.51688729243464
h           -4.65153698063200        1.91412883360353       -0.15825565721406
h            3.83301076715987        2.07992310170568       -1.13290356417318
h            4.25130135663937        0.40662899776818       -0.77966621000570
h            3.25039839017636        0.79519750345501       -2.18186170056489
h            3.13248119327627       -1.12228452817427        1.21857390751668
h            2.22568512279711       -2.44418508322667        0.53274761045476
h            3.45918804327656       -1.65120526233276       -0.41837373249081
h           -2.63963134728888       -3.31702866248764       -0.45551386770746
h           -1.96854930184518       -3.58396780688315       -2.05552600459181
h           -1.16404088646585       -4.25059822644174       -0.64811272712391
h           -1.23090826199068       -3.47641119421164        1.56130588742913
h            0.46701152371254       -3.39368611445759        1.14351208847639
h           -0.15457903612703       -2.46910354857830        2.50120737299376
