 Entering Gaussian System
 *********************************************
 Gaussian 98:
 frequency output generated by the xtb code
 *********************************************
                         Standard orientation:
 --------------------------------------------------------------------
  Center     Atomic     Atomic              Coordinates (Angstroms)
  Number     Number      Type              X           Y           Z
 --------------------------------------------------------------------
    1          6             0        0.092651   -0.618024    0.112200
    2          6             0       -0.945895    0.399817    0.651690
    3          6             0       -0.337284    1.814568    0.738832
    4          6             0        0.566182    2.208687   -0.430632
    5          6             0        1.493081    1.052708   -0.818412
    6          6             0        0.635878   -0.141194   -1.249890
    7          6             0        1.356288   -0.575582    0.997439
    8          6             0        2.200945    0.525309    0.404341
    9          8             0        1.386576   -1.123605   -1.936591
   10          6             0       -0.500185   -2.028827    0.015415
   11          6             0        3.363678    0.946155    0.868629
   12          6             0       -2.278696    0.357793   -0.069818
   13          6             0       -2.542929    0.952750   -1.223365
   14          1             0       -1.162917    0.086295    1.679818
   15          8             0       -0.959362   -2.535538    1.252292
   16          6             0       -3.358585   -0.375036    0.674088
   17          1             0       -1.148465    2.538947    0.830760
   18          1             0        0.256317    1.874105    1.653551
   19          1             0       -0.021908    2.496501   -1.302080
   20          1             0        1.165895    3.073235   -0.137870
   21          1             0        2.184334    1.366906   -1.603958
   22          1             0       -0.163983    0.121484   -1.941524
   23          1             0        1.893686   -1.528063    0.947352
   24          1             0        1.126302   -0.382372    2.045974
   25          1             0        2.190110   -1.295516   -1.427390
   26          1             0        0.247754   -2.707403   -0.416613
   27          1             0       -1.366641   -2.021041   -0.648875
   28          1             0        3.806376    0.528802    1.757987
   29          1             0        3.917196    1.730589    0.380860
   30          1             0       -3.524790    0.892116   -1.664668
   31          1             0       -1.824544    1.527785   -1.777680
   32          1             0       -0.212228   -2.560640    1.863871
   33          1             0       -4.242987   -0.507344    0.056083
   34          1             0       -3.006588   -1.348949    1.007258
   35          1             0       -3.639812    0.194362    1.561051
 --------------------------------------------------------------------
     1 basis functions        1 primitive gaussians
     1 alpha electrons        1 beta electrons
 
 Harmonic frequencies (cm**-1), IR intensities (km*mol⁻¹),
 Raman scattering activities (A**4/amu), Raman depolarization ratios,
 reduced masses (AMU), force constants (mDyne/A) and normal coordinates:
                      1                      2                      3
                        a                      a                      a 
 Frequencies --    65.8101                91.7459               114.4034
 Red. masses --     9.5557                 9.8497                11.5514
 Frc consts  --     0.0000                 0.0000                 0.0000
 IR Inten    --     0.0735                 1.3739                 2.5209
 Raman Activ --     0.0000                 0.0000                 0.0000
 Depolar     --     0.0000                 0.0000                 0.0000
 Atom AN      X      Y      Z        X      Y      Z        X      Y      Z
   1   6    -0.02   0.03   0.10     0.01   0.04   0.00    -0.04  -0.06  -0.03
   2   6    -0.08   0.01   0.03    -0.06  -0.05   0.01    -0.03  -0.06  -0.01
   3   6    -0.06  -0.00   0.09    -0.13  -0.03   0.11     0.02  -0.10   0.14
   4   6    -0.01   0.03   0.13    -0.13   0.05   0.15    -0.05  -0.02   0.12
   5   6    -0.06   0.03   0.02    -0.06   0.12   0.07    -0.09  -0.02   0.00
   6   6    -0.09   0.03   0.07     0.05   0.06   0.03    -0.08  -0.02  -0.03
   7   6    -0.01   0.11   0.09    -0.02   0.09   0.04    -0.01  -0.08  -0.07
   8   6     0.05  -0.03  -0.07     0.04   0.00  -0.04    -0.06  -0.03  -0.02
   9   8    -0.15   0.04   0.02     0.22   0.13   0.13    -0.10   0.03  -0.10
  10   6     0.08  -0.01   0.16     0.03   0.03  -0.03    -0.02  -0.07   0.07
  11   6     0.22  -0.23  -0.31     0.26  -0.30  -0.30    -0.12   0.07   0.05
  12   6     0.00   0.00  -0.12    -0.05  -0.06  -0.03     0.02   0.10  -0.12
  13   6     0.05   0.25  -0.00     0.05  -0.38  -0.21     0.17   0.03  -0.19
  14   1    -0.05   0.00   0.00    -0.02  -0.03  -0.00    -0.03  -0.04  -0.01
  15   8     0.08   0.05   0.22    -0.08   0.05  -0.08     0.55  -0.17   0.27
  16   6    -0.00  -0.30  -0.42    -0.13   0.24   0.14    -0.15   0.37  -0.11
  17   1    -0.02   0.00   0.02    -0.04  -0.02   0.04     0.01  -0.02   0.08
  18   1    -0.03  -0.01   0.03    -0.04  -0.02   0.04     0.02  -0.06   0.03
  19   1     0.01   0.04   0.04    -0.04   0.01   0.05    -0.03   0.02   0.05
  20   1     0.01  -0.01   0.06    -0.05   0.02   0.05    -0.00  -0.02   0.04
  21   1    -0.04   0.01  -0.01    -0.03   0.06   0.02    -0.03   0.01  -0.00
  22   1    -0.04   0.01   0.03     0.02  -0.01  -0.01    -0.03  -0.00  -0.00
  23   1    -0.02   0.02   0.07    -0.01   0.02   0.05     0.00  -0.02  -0.05
  24   1    -0.00   0.08   0.02    -0.02   0.06   0.00     0.01  -0.05  -0.01
  25   1    -0.03   0.01  -0.01     0.05   0.06   0.05    -0.02   0.00  -0.03
  26   1     0.04   0.00   0.07     0.02   0.01   0.01    -0.04  -0.00  -0.07
  27   1     0.03  -0.04   0.04     0.02   0.01  -0.03    -0.08  -0.02   0.12
  28   1     0.09  -0.08  -0.11     0.11  -0.13  -0.12    -0.04   0.02   0.02
  29   1     0.08  -0.10  -0.12     0.09  -0.11  -0.11    -0.05   0.04   0.02
  30   1     0.03   0.06  -0.03     0.02  -0.12  -0.06     0.05   0.04  -0.06
  31   1     0.01   0.14   0.06     0.03  -0.18  -0.11     0.08  -0.04  -0.07
  32   1     0.01   0.05   0.06    -0.04   0.02  -0.00     0.21  -0.05  -0.02
  33   1     0.05  -0.14  -0.19    -0.07   0.13   0.08    -0.04   0.12  -0.05
  34   1     0.04  -0.06  -0.10    -0.09   0.05   0.03    -0.09   0.10   0.02
  35   1    -0.11  -0.11  -0.14     0.04   0.10   0.05    -0.04   0.15  -0.06
                      4                      5                      6
                        a                      a                      a 
 Frequencies --   119.1084               141.8197               170.8731
 Red. masses --    10.5811                11.6293                11.9967
 Frc consts  --     0.0000                 0.0000                 0.0000
 IR Inten    --     1.7957                 1.6164                 0.3691
 Raman Activ --     0.0000                 0.0000                 0.0000
 Depolar     --     0.0000                 0.0000                 0.0000
 Atom AN      X      Y      Z        X      Y      Z        X      Y      Z
   1   6     0.09  -0.10   0.03     0.01   0.05  -0.01     0.02  -0.06  -0.21
   2   6     0.08  -0.14   0.08     0.03   0.06  -0.00    -0.03  -0.14  -0.15
   3   6     0.09  -0.17   0.23     0.00   0.08  -0.04    -0.07  -0.14  -0.02
   4   6    -0.08  -0.04   0.14     0.15   0.06   0.06    -0.05  -0.05   0.03
   5   6    -0.10   0.00  -0.05     0.11   0.01   0.08     0.04   0.03   0.01
   6   6    -0.06  -0.05  -0.00    -0.05   0.14  -0.01     0.12   0.00  -0.14
   7   6     0.18  -0.06  -0.09    -0.00  -0.07  -0.01    -0.02  -0.11  -0.14
   8   6     0.02   0.06  -0.10     0.04  -0.06   0.08    -0.01  -0.06  -0.00
   9   8    -0.07   0.01  -0.11    -0.39   0.19  -0.37     0.34   0.12  -0.13
  10   6     0.06  -0.09   0.10    -0.05   0.08   0.05     0.01  -0.06   0.06
  11   6    -0.08   0.34  -0.08     0.02  -0.13   0.21    -0.02  -0.15   0.13
  12   6     0.13  -0.03  -0.03     0.05  -0.13  -0.03    -0.11  -0.04  -0.02
  13   6     0.25  -0.04  -0.06     0.06  -0.40  -0.17    -0.23   0.16   0.11
  14   1     0.00  -0.07   0.01     0.01   0.03   0.00     0.01  -0.07  -0.05
  15   8    -0.45   0.21   0.05    -0.01   0.25   0.15     0.06   0.47   0.32
  16   6    -0.00   0.07  -0.12     0.09  -0.13   0.04    -0.08  -0.03   0.04
  17   1     0.03  -0.05   0.13    -0.00   0.02  -0.05    -0.02  -0.05   0.01
  18   1     0.06  -0.09   0.05    -0.03   0.04   0.01    -0.03  -0.06   0.00
  19   1    -0.06   0.01   0.07     0.07   0.04   0.00    -0.01  -0.02   0.01
  20   1    -0.01  -0.02   0.04     0.05   0.00   0.04    -0.03  -0.01   0.03
  21   1    -0.06   0.02  -0.03     0.04  -0.00   0.03     0.02   0.04   0.02
  22   1    -0.04  -0.03   0.02    -0.03   0.11   0.04     0.05   0.00  -0.06
  23   1     0.07  -0.01  -0.07    -0.01  -0.02  -0.03    -0.00  -0.03  -0.06
  24   1     0.08  -0.05  -0.01     0.00  -0.04  -0.00    -0.02  -0.05  -0.04
  25   1    -0.01   0.00  -0.05    -0.10  -0.05  -0.13     0.07   0.04  -0.01
  26   1     0.04  -0.07   0.13    -0.03   0.00   0.02    -0.00  -0.06   0.07
  27   1     0.08  -0.04  -0.05    -0.02   0.02   0.03    -0.00  -0.07   0.03
  28   1     0.00   0.13  -0.02    -0.02  -0.06   0.06    -0.03  -0.08   0.03
  29   1    -0.07   0.13  -0.03     0.03  -0.03   0.09     0.01  -0.03   0.08
  30   1     0.08   0.00  -0.03     0.03  -0.18  -0.07    -0.08   0.09   0.07
  31   1     0.09  -0.03  -0.01     0.00  -0.10  -0.06    -0.07   0.04   0.02
  32   1    -0.17   0.07   0.09     0.01   0.07   0.03     0.02   0.19   0.07
  33   1    -0.01   0.09  -0.04     0.06  -0.13  -0.01    -0.07   0.07   0.06
  34   1    -0.05  -0.01  -0.07     0.06   0.01   0.10    -0.05  -0.05  -0.07
  35   1     0.03   0.00  -0.01    -0.04   0.02  -0.05     0.06  -0.05   0.07
                      7                      8                      9
                        a                      a                      a 
 Frequencies --   180.6018               218.2089               257.8700
 Red. masses --     6.5162                 5.4696                11.0335
 Frc consts  --     0.0000                 0.0000                 0.0000
 IR Inten    --     1.2466                 1.3599                 0.3927
 Raman Activ --     0.0000                 0.0000                 0.0000
 Depolar     --     0.0000                 0.0000                 0.0000
 Atom AN      X      Y      Z        X      Y      Z        X      Y      Z
   1   6    -0.06   0.02  -0.07    -0.09   0.07  -0.02    -0.01   0.13  -0.08
   2   6     0.05   0.06   0.07     0.02   0.13   0.07    -0.12  -0.04  -0.02
   3   6     0.07   0.03   0.12     0.07   0.10   0.07     0.03  -0.12   0.13
   4   6    -0.06   0.04   0.03     0.01   0.08   0.02     0.23  -0.09   0.27
   5   6    -0.09   0.05  -0.04    -0.07   0.03  -0.03     0.17  -0.06  -0.07
   6   6     0.00  -0.01  -0.05    -0.07   0.02  -0.01     0.06   0.02  -0.06
   7   6     0.02  -0.15  -0.18    -0.03  -0.09  -0.12     0.02   0.11  -0.04
   8   6    -0.05  -0.03  -0.09    -0.07  -0.04  -0.06     0.18  -0.03  -0.09
   9   8     0.28  -0.02   0.23     0.01  -0.06   0.21    -0.17  -0.35   0.19
  10   6    -0.30   0.12  -0.05    -0.22   0.13  -0.02     0.01   0.16  -0.16
  11   6    -0.08  -0.01  -0.07    -0.09  -0.04  -0.01     0.06   0.22  -0.01
  12   6     0.06  -0.01   0.05     0.07   0.03   0.02    -0.17  -0.06   0.02
  13   6     0.08  -0.07   0.02     0.14  -0.13  -0.08    -0.17  -0.09   0.00
  14   1     0.02   0.00   0.02     0.01   0.03   0.02    -0.03  -0.05  -0.01
  15   8    -0.03   0.15   0.06     0.09   0.07   0.07     0.14   0.23  -0.14
  16   6     0.08  -0.12  -0.02     0.17  -0.21  -0.09    -0.22  -0.05  -0.02
  17   1     0.03   0.01   0.08     0.03   0.04   0.04     0.04   0.00   0.02
  18   1     0.05  -0.02   0.01     0.04   0.02   0.01    -0.03  -0.08   0.06
  19   1    -0.04   0.01   0.03    -0.01   0.03   0.02     0.09   0.06   0.09
  20   1    -0.01   0.01  -0.01     0.02   0.01  -0.01     0.10  -0.07   0.15
  21   1    -0.03   0.02  -0.01    -0.02   0.00  -0.01     0.03   0.02  -0.02
  22   1     0.02  -0.05  -0.06    -0.00  -0.02  -0.03     0.04   0.03  -0.04
  23   1     0.00  -0.04  -0.12    -0.02  -0.03  -0.09    -0.03   0.01   0.02
  24   1     0.04  -0.10  -0.04     0.02  -0.07  -0.02     0.00   0.07  -0.02
  25   1     0.06   0.07   0.09     0.00   0.02   0.07    -0.08  -0.15   0.09
  26   1    -0.15   0.01  -0.09    -0.11   0.04  -0.08    -0.02   0.04  -0.07
  27   1    -0.14   0.09   0.06    -0.11   0.07   0.05    -0.01   0.06  -0.03
  28   1    -0.01  -0.02  -0.03    -0.03  -0.03  -0.01     0.02   0.13   0.03
  29   1    -0.04   0.02   0.00    -0.03   0.00   0.02     0.00   0.06  -0.04
  30   1     0.03  -0.05  -0.01     0.06  -0.09  -0.06    -0.05  -0.02  -0.00
  31   1     0.01   0.00   0.02     0.04  -0.02  -0.01    -0.04  -0.03   0.00
  32   1     0.06  -0.06  -0.07     0.07  -0.02  -0.05     0.05   0.09  -0.05
  33   1     0.16  -0.35  -0.14    -0.09   0.26   0.10    -0.05  -0.01  -0.02
  34   1     0.14   0.11   0.29    -0.03  -0.22  -0.39    -0.07  -0.02  -0.00
  35   1    -0.25   0.13  -0.20     0.30  -0.31   0.21    -0.08  -0.02  -0.01
                     10                     11                     12
                        a                      a                      a 
 Frequencies --   272.9139               287.6191               298.1571
 Red. masses --     7.4022                 9.2247                 6.5595
 Frc consts  --     0.0000                 0.0000                 0.0000
 IR Inten    --     5.6735                 0.8133                56.4103
 Raman Activ --     0.0000                 0.0000                 0.0000
 Depolar     --     0.0000                 0.0000                 0.0000
 Atom AN      X      Y      Z        X      Y      Z        X      Y      Z
   1   6    -0.06   0.05  -0.05    -0.05  -0.07   0.01     0.12   0.01   0.08
   2   6    -0.00   0.07  -0.03    -0.02   0.07  -0.18    -0.00  -0.04  -0.04
   3   6     0.33  -0.11   0.27     0.08   0.01   0.04     0.08  -0.12   0.07
   4   6    -0.15  -0.04  -0.05     0.31   0.08   0.24    -0.20  -0.14  -0.12
   5   6    -0.05   0.03  -0.06    -0.02  -0.08   0.02     0.11   0.02   0.12
   6   6    -0.03   0.00  -0.04    -0.04  -0.04   0.01     0.13   0.00   0.08
   7   6    -0.16   0.14   0.06    -0.08  -0.02   0.07     0.14   0.01   0.09
   8   6    -0.10   0.06  -0.01    -0.02  -0.10  -0.01     0.13   0.09   0.15
   9   8    -0.08  -0.11   0.05     0.18   0.16  -0.06    -0.06   0.02  -0.14
  10   6     0.17  -0.03  -0.04    -0.10  -0.09   0.12    -0.21   0.14   0.04
  11   6    -0.08  -0.14   0.11    -0.06   0.18  -0.17     0.21   0.08  -0.01
  12   6     0.04   0.17  -0.10    -0.03   0.07  -0.20    -0.01  -0.00  -0.11
  13   6    -0.18  -0.04  -0.16    -0.32   0.00  -0.17    -0.25   0.01  -0.06
  14   1    -0.03  -0.01  -0.02    -0.04   0.02  -0.06    -0.03  -0.03  -0.02
  15   8     0.06   0.04  -0.08    -0.12  -0.18   0.13    -0.08   0.06   0.07
  16   6     0.24  -0.00   0.03     0.23  -0.01   0.09    -0.02  -0.00  -0.11
  17   1     0.16   0.02   0.27     0.03   0.02  -0.01     0.05  -0.01   0.11
  18   1     0.23  -0.17   0.00    -0.03  -0.04   0.05     0.10  -0.08  -0.02
  19   1    -0.15  -0.10   0.03     0.13   0.15   0.08    -0.12  -0.19  -0.04
  20   1    -0.07   0.04  -0.11     0.17  -0.06   0.16    -0.14   0.05  -0.14
  21   1    -0.01   0.01  -0.01    -0.01  -0.04  -0.00     0.04   0.02   0.04
  22   1    -0.00  -0.00  -0.02    -0.02  -0.02   0.01     0.03   0.04   0.05
  23   1    -0.04   0.04   0.08    -0.03  -0.01   0.06     0.05   0.01  -0.01
  24   1    -0.08   0.08   0.00    -0.04   0.03   0.01     0.04  -0.04   0.03
  25   1    -0.04  -0.04   0.03     0.07   0.11  -0.04    -0.03  -0.09  -0.04
  26   1     0.11   0.01   0.05    -0.03  -0.02   0.03    -0.16  -0.00  -0.09
  27   1     0.09  -0.08  -0.06    -0.03  -0.03   0.04    -0.11   0.16   0.08
  28   1    -0.08  -0.07   0.04     0.04   0.14  -0.04     0.10   0.03  -0.02
  29   1     0.04  -0.07   0.06    -0.08   0.05  -0.13     0.03   0.03  -0.03
  30   1    -0.07  -0.07   0.00    -0.11  -0.03   0.01    -0.10  -0.01   0.05
  31   1    -0.11   0.00  -0.10    -0.13   0.01  -0.09    -0.12   0.01  -0.08
  32   1    -0.04   0.20   0.06    -0.01  -0.14   0.01     0.10  -0.44  -0.14
  33   1     0.07  -0.09   0.03     0.02  -0.05   0.10    -0.02   0.05  -0.01
  34   1     0.15   0.03   0.03     0.12   0.02   0.02    -0.03  -0.02  -0.07
  35   1     0.05   0.00  -0.00     0.12   0.01   0.04     0.03  -0.02  -0.00
                     13                     14                     15
                        a                      a                      a 
 Frequencies --   319.2656               327.8945               344.2256
 Red. masses --     9.1038                 8.4735                 5.4434
 Frc consts  --     0.0000                 0.0000                 0.0000
 IR Inten    --     7.4844                16.4741                61.6202
 Raman Activ --     0.0000                 0.0000                 0.0000
 Depolar     --     0.0000                 0.0000                 0.0000
 Atom AN      X      Y      Z        X      Y      Z        X      Y      Z
   1   6    -0.03  -0.03  -0.09    -0.07   0.05   0.07     0.02   0.04  -0.06
   2   6     0.02  -0.06   0.05    -0.07   0.11   0.10    -0.01  -0.04  -0.03
   3   6     0.08  -0.09   0.05     0.32   0.00   0.00    -0.04  -0.02   0.01
   4   6     0.03  -0.11  -0.00     0.17  -0.00  -0.14     0.04   0.08   0.09
   5   6     0.01  -0.10  -0.05     0.09  -0.04  -0.11    -0.04   0.09  -0.20
   6   6     0.06  -0.08  -0.11    -0.03   0.03   0.01    -0.05   0.01  -0.10
   7   6    -0.31   0.26   0.29     0.02   0.03  -0.04     0.00   0.22  -0.13
   8   6    -0.13  -0.00   0.06     0.07  -0.02  -0.08     0.03   0.12  -0.23
   9   8     0.16   0.07  -0.31     0.15   0.21  -0.04    -0.04  -0.12   0.07
  10   6    -0.15   0.04  -0.09     0.02  -0.00   0.11     0.14  -0.06   0.11
  11   6    -0.10   0.05  -0.11     0.00  -0.01   0.06    -0.05  -0.16   0.22
  12   6     0.03  -0.04   0.15    -0.18   0.04   0.20    -0.00  -0.03  -0.00
  13   6     0.29  -0.02   0.11    -0.10  -0.19   0.06     0.05   0.02   0.01
  14   1     0.04  -0.04   0.01     0.00   0.06   0.04     0.01  -0.03  -0.01
  15   8     0.03   0.14   0.01    -0.05  -0.17   0.05    -0.12   0.05   0.09
  16   6    -0.01  -0.08   0.05    -0.40  -0.06  -0.15     0.02  -0.00   0.05
  17   1     0.03  -0.02   0.03     0.16   0.06   0.09    -0.02  -0.01  -0.01
  18   1     0.04  -0.03   0.01     0.17  -0.08  -0.04    -0.04  -0.01   0.02
  19   1     0.00  -0.01   0.01     0.02  -0.02  -0.03     0.02   0.11   0.05
  20   1     0.02  -0.04  -0.00     0.05   0.01  -0.07     0.05  -0.02   0.09
  21   1     0.02  -0.03   0.00     0.02  -0.05  -0.05    -0.05   0.04  -0.08
  22   1     0.02  -0.02  -0.03    -0.02  -0.00   0.01    -0.01  -0.02  -0.04
  23   1    -0.08   0.07   0.29    -0.02  -0.00  -0.05     0.01   0.06   0.01
  24   1    -0.21   0.23   0.03     0.05  -0.00  -0.00    -0.01   0.10  -0.05
  25   1     0.01  -0.04  -0.05     0.18   0.28  -0.15     0.03   0.06  -0.01
  26   1    -0.09  -0.01  -0.07     0.04   0.03   0.04     0.06  -0.02   0.08
  27   1    -0.08   0.05   0.02     0.02  -0.02   0.01     0.07  -0.04  -0.01
  28   1    -0.02   0.10   0.00    -0.04   0.00   0.04    -0.17  -0.14   0.10
  29   1    -0.02  -0.05  -0.12     0.03  -0.01   0.04     0.12  -0.07   0.18
  30   1     0.11   0.02  -0.03    -0.01  -0.09  -0.01     0.02   0.02  -0.01
  31   1     0.13  -0.01   0.09    -0.03  -0.05   0.02     0.03  -0.00   0.02
  32   1     0.06  -0.09  -0.07    -0.04   0.01   0.05     0.07  -0.63  -0.13
  33   1     0.01  -0.00  -0.00    -0.06   0.04  -0.13    -0.00  -0.01   0.02
  34   1    -0.01  -0.03   0.00    -0.16  -0.05  -0.09     0.01   0.01   0.02
  35   1    -0.02  -0.04   0.02    -0.18  -0.08  -0.02     0.02   0.01   0.01
                     16                     17                     18
                        a                      a                      a 
 Frequencies --   358.9156               391.0607               424.2129
 Red. masses --     4.2361                 8.1916                10.1517
 Frc consts  --     0.0000                 0.0000                 0.0000
 IR Inten    --   118.9171                75.3828                11.8432
 Raman Activ --     0.0000                 0.0000                 0.0000
 Depolar     --     0.0000                 0.0000                 0.0000
 Atom AN      X      Y      Z        X      Y      Z        X      Y      Z
   1   6     0.03   0.04   0.05     0.05   0.02   0.05     0.03  -0.13   0.02
   2   6    -0.01  -0.01   0.02    -0.01  -0.02   0.00     0.03  -0.23  -0.15
   3   6    -0.11   0.00   0.03    -0.13  -0.02   0.08     0.20  -0.29  -0.21
   4   6    -0.07  -0.11   0.04    -0.08  -0.08   0.10     0.12   0.17  -0.14
   5   6    -0.03  -0.10   0.03     0.01   0.02  -0.14     0.02   0.12  -0.04
   6   6    -0.01  -0.05   0.03     0.06  -0.09  -0.05    -0.12   0.16   0.14
   7   6    -0.01  -0.04   0.09     0.12   0.23  -0.03    -0.00   0.07   0.05
   8   6    -0.02  -0.07   0.06     0.21   0.10  -0.21    -0.06   0.15   0.03
   9   8    -0.14  -0.22   0.06     0.07  -0.07  -0.15    -0.19   0.14   0.31
  10   6     0.06   0.10  -0.09    -0.30   0.13   0.10    -0.16  -0.05  -0.08
  11   6    -0.01  -0.00  -0.01     0.10  -0.02   0.20     0.02  -0.02  -0.00
  12   6     0.04   0.01  -0.05     0.04  -0.04  -0.07     0.06  -0.33  -0.16
  13   6     0.00   0.04  -0.03    -0.01   0.05  -0.02     0.06   0.07   0.05
  14   1    -0.02  -0.01  -0.00    -0.02  -0.03  -0.01    -0.01  -0.01  -0.03
  15   8     0.08   0.22  -0.09    -0.08  -0.34   0.04     0.00   0.03   0.01
  16   6     0.09   0.03   0.02     0.08  -0.01   0.01    -0.01  -0.01   0.07
  17   1    -0.04  -0.01  -0.03    -0.05  -0.02  -0.03     0.08  -0.08   0.06
  18   1    -0.06   0.03   0.02    -0.08   0.03   0.04     0.12  -0.17  -0.10
  19   1    -0.02  -0.05   0.00    -0.03  -0.01   0.04     0.06   0.11  -0.04
  20   1    -0.02  -0.03  -0.01    -0.02  -0.03   0.03     0.02   0.03   0.05
  21   1    -0.01   0.00   0.02    -0.06   0.05  -0.07     0.02  -0.04  -0.03
  22   1    -0.03  -0.03   0.04     0.00  -0.04  -0.00    -0.05   0.04   0.06
  23   1    -0.01  -0.02  -0.01     0.02   0.06   0.06     0.04   0.04   0.04
  24   1     0.00  -0.02   0.03     0.05   0.16  -0.02    -0.02   0.04   0.01
  25   1     0.40   0.59  -0.46     0.08   0.05  -0.11     0.02   0.16   0.02
  26   1     0.03   0.04  -0.03    -0.17   0.02  -0.09    -0.11  -0.05  -0.08
  27   1     0.02   0.03  -0.03    -0.14   0.14   0.10    -0.09   0.06   0.03
  28   1     0.01   0.03   0.00    -0.10  -0.07   0.10    -0.01  -0.03  -0.00
  29   1    -0.02  -0.01  -0.03     0.14  -0.03   0.15     0.03  -0.02   0.01
  30   1    -0.00   0.01   0.00    -0.01   0.02   0.01     0.01   0.10   0.01
  31   1    -0.01   0.01  -0.02    -0.01   0.02  -0.01     0.04   0.02   0.05
  32   1     0.04  -0.01  -0.06    -0.10   0.37   0.12     0.01   0.12  -0.00
  33   1     0.01  -0.01   0.03     0.01  -0.00   0.03    -0.04   0.03   0.06
  34   1     0.04   0.02   0.02     0.02  -0.00   0.01    -0.07  -0.01   0.07
  35   1     0.04   0.02   0.00     0.05   0.01   0.00     0.08   0.08  -0.01
                     19                     20                     21
                        a                      a                      a 
 Frequencies --   445.9580               457.6640               509.3985
 Red. masses --    10.3072                 9.1863                 8.7388
 Frc consts  --     0.0000                 0.0000                 0.0000
 IR Inten    --    19.0557                 0.8742                10.9924
 Raman Activ --     0.0000                 0.0000                 0.0000
 Depolar     --     0.0000                 0.0000                 0.0000
 Atom AN      X      Y      Z        X      Y      Z        X      Y      Z
   1   6    -0.08   0.02  -0.19     0.19  -0.12   0.03     0.07   0.06   0.26
   2   6    -0.04   0.04  -0.12     0.27   0.01   0.00    -0.18   0.08  -0.06
   3   6     0.04   0.01   0.02     0.06   0.15   0.04     0.04  -0.01  -0.01
   4   6     0.01   0.16   0.04     0.06   0.26   0.07     0.04   0.02  -0.01
   5   6     0.10   0.16   0.11    -0.18   0.06  -0.02    -0.18  -0.11  -0.07
   6   6     0.22   0.02  -0.14     0.04  -0.16  -0.01    -0.03  -0.26   0.13
   7   6    -0.10   0.05  -0.14     0.06   0.00   0.13     0.18  -0.04   0.10
   8   6    -0.14   0.33   0.31    -0.23   0.17   0.07    -0.15   0.17   0.06
   9   8    -0.08  -0.35  -0.09     0.02  -0.21  -0.11     0.15   0.01  -0.21
  10   6    -0.07  -0.10   0.09    -0.01   0.00  -0.06     0.10   0.22   0.01
  11   6     0.14   0.00  -0.09    -0.10  -0.12  -0.04    -0.04  -0.10  -0.01
  12   6    -0.13   0.05   0.06     0.23  -0.10   0.05    -0.23  -0.06  -0.12
  13   6     0.11   0.01  -0.01    -0.25  -0.12   0.15     0.07   0.10  -0.11
  14   1     0.02  -0.01  -0.03     0.08   0.01   0.00    -0.08   0.06  -0.01
  15   8    -0.09  -0.21   0.12     0.04   0.06  -0.05     0.07   0.12  -0.13
  16   6    -0.05  -0.08   0.09    -0.09   0.10  -0.22    -0.08  -0.11   0.17
  17   1     0.03   0.01   0.07    -0.03  -0.01  -0.00     0.07   0.05   0.09
  18   1     0.04  -0.06  -0.01    -0.01   0.07   0.03     0.06  -0.11  -0.03
  19   1     0.01   0.08   0.02     0.02   0.17   0.05     0.04   0.12   0.02
  20   1     0.01   0.04   0.04     0.10   0.00   0.06     0.09  -0.07   0.06
  21   1     0.08   0.07   0.09    -0.03   0.00   0.01    -0.05  -0.07  -0.04
  22   1     0.10   0.05  -0.07    -0.03  -0.08   0.03    -0.06  -0.13   0.07
  23   1     0.03   0.05  -0.19     0.09   0.04   0.05     0.09   0.02  -0.16
  24   1    -0.04  -0.16  -0.01    -0.02  -0.00   0.03     0.15  -0.16   0.07
  25   1     0.09   0.01  -0.16     0.02  -0.06  -0.05    -0.02  -0.13  -0.01
  26   1    -0.01  -0.02   0.04    -0.05  -0.03  -0.05     0.02   0.07  -0.03
  27   1    -0.02  -0.07   0.03    -0.02   0.06   0.01     0.04   0.12  -0.01
  28   1     0.10   0.00  -0.06    -0.05  -0.09  -0.03    -0.06  -0.07   0.00
  29   1     0.02  -0.02  -0.08     0.01  -0.05   0.01     0.05  -0.06   0.02
  30   1     0.06   0.04  -0.07    -0.13  -0.09   0.17     0.06   0.10  -0.14
  31   1     0.10  -0.02   0.06    -0.17  -0.02  -0.07     0.12   0.01   0.07
  32   1    -0.05   0.03   0.06     0.01   0.05  -0.02     0.01   0.01  -0.03
  33   1    -0.01  -0.05   0.03     0.02   0.13  -0.15    -0.07  -0.08   0.12
  34   1     0.03  -0.01   0.01    -0.15  -0.01  -0.05     0.04  -0.01   0.06
  35   1    -0.03  -0.04   0.03    -0.06   0.03  -0.08     0.03  -0.01   0.05
                     22                     23                     24
                        a                      a                      a 
 Frequencies --   539.1858               561.0164               608.5710
 Red. masses --     9.4003                 8.4033                 9.6623
 Frc consts  --     0.0000                 0.0000                 0.0000
 IR Inten    --     6.6336                 3.0758                 2.3424
 Raman Activ --     0.0000                 0.0000                 0.0000
 Depolar     --     0.0000                 0.0000                 0.0000
 Atom AN      X      Y      Z        X      Y      Z        X      Y      Z
   1   6    -0.01   0.23  -0.01     0.13  -0.13  -0.00    -0.17  -0.15  -0.09
   2   6    -0.00   0.14  -0.04     0.03   0.06  -0.20    -0.02   0.18  -0.01
   3   6     0.04   0.15   0.12     0.03   0.13  -0.02     0.05   0.28   0.13
   4   6    -0.05   0.03   0.01    -0.13   0.36  -0.02    -0.01   0.01   0.02
   5   6     0.06   0.04   0.02    -0.11   0.18   0.12    -0.16  -0.15   0.10
   6   6     0.10   0.08  -0.13     0.09  -0.04   0.05    -0.20  -0.18   0.04
   7   6    -0.10  -0.08  -0.01     0.11  -0.13   0.14    -0.03   0.09  -0.10
   8   6    -0.03  -0.23  -0.06     0.20  -0.31  -0.18     0.23   0.13   0.09
   9   8     0.02  -0.08  -0.05    -0.05  -0.16  -0.04     0.05   0.02  -0.03
  10   6     0.09   0.22   0.18    -0.02  -0.10  -0.05    -0.09  -0.32  -0.20
  11   6    -0.14  -0.01  -0.04    -0.03   0.06   0.06     0.31   0.10   0.12
  12   6     0.14  -0.53  -0.24    -0.19   0.09   0.04     0.02  -0.21  -0.10
  13   6     0.00   0.08   0.12     0.05   0.02  -0.07    -0.00   0.04   0.03
  14   1    -0.01   0.03  -0.02     0.02   0.04  -0.05    -0.01   0.06   0.00
  15   8    -0.03  -0.13   0.01     0.00   0.03   0.01     0.04   0.13  -0.02
  16   6    -0.06  -0.01   0.03    -0.12  -0.09   0.09    -0.05  -0.02   0.02
  17   1     0.05   0.07   0.10     0.01   0.02   0.14     0.03   0.09   0.04
  18   1     0.06  -0.03   0.01     0.09  -0.06  -0.05     0.02   0.06   0.03
  19   1    -0.04  -0.06   0.00    -0.03   0.08  -0.02    -0.03  -0.05   0.01
  20   1    -0.03   0.04  -0.06    -0.04   0.11  -0.02     0.04   0.01  -0.10
  21   1     0.04   0.05   0.05    -0.04   0.07   0.03    -0.10  -0.07  -0.04
  22   1     0.05   0.03  -0.05     0.00  -0.04   0.03    -0.04  -0.04  -0.00
  23   1    -0.10  -0.06   0.01    -0.04  -0.08   0.27     0.01   0.03  -0.00
  24   1    -0.02   0.00  -0.00    -0.02   0.20  -0.01    -0.05   0.02  -0.04
  25   1     0.01  -0.03  -0.02     0.03  -0.02  -0.08    -0.00   0.03   0.02
  26   1     0.07   0.10   0.07    -0.04  -0.06  -0.03     0.01  -0.08  -0.01
  27   1     0.05   0.01   0.02    -0.02   0.01   0.00    -0.02  -0.15  -0.06
  28   1     0.01   0.03  -0.03     0.09  -0.09  -0.08     0.07   0.03   0.05
  29   1    -0.10   0.03  -0.03    -0.12   0.17   0.13     0.12   0.02   0.04
  30   1     0.03  -0.00  -0.02     0.03   0.10  -0.07     0.05  -0.10  -0.09
  31   1    -0.01   0.12   0.12     0.10  -0.07   0.02    -0.02   0.15   0.12
  32   1    -0.05  -0.05   0.05     0.01  -0.00  -0.01     0.06   0.01  -0.07
  33   1    -0.07   0.09   0.06    -0.03  -0.07   0.03    -0.05   0.05   0.04
  34   1    -0.18  -0.02   0.12     0.03  -0.01  -0.01    -0.10  -0.01   0.07
  35   1     0.12   0.17  -0.06    -0.06  -0.08   0.05     0.07   0.09  -0.03
                     25                     26                     27
                        a                      a                      a 
 Frequencies --   680.0241               685.0936               715.7240
 Red. masses --     8.2585                 5.8024                 4.8025
 Frc consts  --     0.0000                 0.0000                 0.0000
 IR Inten    --     6.6247                 4.3948                 3.3215
 Raman Activ --     0.0000                 0.0000                 0.0000
 Depolar     --     0.0000                 0.0000                 0.0000
 Atom AN      X      Y      Z        X      Y      Z        X      Y      Z
   1   6     0.02   0.14  -0.16    -0.17   0.08   0.06    -0.13   0.02   0.09
   2   6     0.13  -0.01  -0.25    -0.17  -0.06   0.22    -0.10  -0.01   0.07
   3   6    -0.01  -0.03  -0.06    -0.07  -0.26  -0.22    -0.11  -0.06  -0.12
   4   6    -0.05  -0.02  -0.01    -0.04   0.08  -0.09    -0.14   0.28  -0.04
   5   6    -0.26  -0.20   0.12    -0.08   0.03   0.06    -0.01   0.08   0.00
   6   6    -0.31  -0.08  -0.20    -0.01  -0.09  -0.00     0.05  -0.05   0.08
   7   6    -0.05   0.01  -0.05    -0.09   0.02  -0.06    -0.12  -0.04   0.03
   8   6     0.13  -0.01   0.20     0.09  -0.01   0.04     0.18  -0.18  -0.07
   9   8     0.00   0.04   0.04     0.10  -0.09  -0.12     0.06  -0.07  -0.09
  10   6     0.08   0.28   0.15     0.01   0.09   0.03    -0.03  -0.03  -0.03
  11   6     0.21   0.05   0.11     0.10   0.05   0.05     0.08   0.05   0.07
  12   6     0.06  -0.02   0.06     0.10   0.07   0.06     0.09  -0.02   0.03
  13   6     0.04  -0.06   0.07    -0.02  -0.04   0.06     0.01  -0.03   0.08
  14   1     0.07  -0.03  -0.07    -0.04   0.01   0.07    -0.03   0.04   0.03
  15   8    -0.00  -0.07  -0.04     0.02   0.02  -0.03     0.02   0.03  -0.01
  16   6     0.01   0.00  -0.02     0.15   0.10  -0.08     0.09   0.06  -0.06
  17   1     0.01  -0.01   0.07     0.02  -0.05   0.07    -0.00  -0.01   0.15
  18   1     0.04  -0.08  -0.04     0.09  -0.12  -0.12     0.09  -0.12  -0.11
  19   1     0.02   0.06  -0.00     0.11   0.20  -0.05     0.04   0.14  -0.04
  20   1     0.05  -0.06   0.02     0.03  -0.07   0.18    -0.04   0.04   0.10
  21   1    -0.08  -0.07   0.02    -0.01  -0.01   0.02    -0.04   0.04  -0.03
  22   1    -0.07  -0.04  -0.08     0.01  -0.01  -0.02     0.01  -0.04   0.01
  23   1    -0.06  -0.02   0.01    -0.10  -0.03   0.01    -0.06  -0.02  -0.12
  24   1    -0.10  -0.02  -0.03    -0.00   0.05  -0.02     0.04  -0.11   0.04
  25   1    -0.04   0.09   0.10     0.02  -0.04  -0.04     0.02  -0.07  -0.04
  26   1     0.04   0.10   0.03     0.05   0.07   0.03     0.03   0.02   0.02
  27   1     0.03   0.07   0.03     0.02  -0.02  -0.01     0.01  -0.05  -0.03
  28   1     0.12   0.01  -0.00     0.21  -0.20  -0.17    -0.17   0.37   0.28
  29   1     0.01   0.06   0.04    -0.14   0.24   0.19     0.23  -0.32  -0.28
  30   1    -0.08   0.24   0.18     0.04  -0.29  -0.05    -0.04   0.04   0.11
  31   1     0.09  -0.25  -0.12    -0.13   0.22   0.09    -0.00  -0.08  -0.06
  32   1    -0.04  -0.02   0.04     0.00  -0.01  -0.01     0.02   0.00  -0.02
  33   1     0.05  -0.01  -0.07     0.03   0.06  -0.02     0.04   0.02  -0.04
  34   1     0.02  -0.01  -0.05    -0.01   0.02   0.01     0.02   0.01  -0.02
  35   1    -0.07  -0.07   0.01     0.06   0.07  -0.04     0.01   0.00  -0.01
                     28                     29                     30
                        a                      a                      a 
 Frequencies --   720.5923               794.7658               825.5639
 Red. masses --     4.8609                 9.8450                 7.5455
 Frc consts  --     0.0000                 0.0000                 0.0000
 IR Inten    --     6.9666                10.1976                 7.2297
 Raman Activ --     0.0000                 0.0000                 0.0000
 Depolar     --     0.0000                 0.0000                 0.0000
 Atom AN      X      Y      Z        X      Y      Z        X      Y      Z
   1   6     0.23  -0.02  -0.14     0.06   0.01   0.00    -0.05  -0.03   0.02
   2   6     0.13  -0.02  -0.18    -0.12  -0.10   0.50     0.13  -0.27   0.15
   3   6    -0.04  -0.06  -0.04     0.01   0.06   0.07     0.22  -0.12   0.07
   4   6    -0.08   0.01   0.01     0.01   0.11  -0.15     0.13   0.32  -0.02
   5   6    -0.09  -0.05   0.01     0.01   0.02  -0.16    -0.02   0.11   0.02
   6   6    -0.13   0.06  -0.21    -0.17   0.16  -0.42    -0.10  -0.15   0.13
   7   6     0.13  -0.09   0.10     0.17  -0.17   0.19    -0.23   0.02  -0.16
   8   6     0.01  -0.05   0.08    -0.00   0.01   0.16     0.07  -0.05   0.02
   9   8    -0.03   0.01   0.08     0.07  -0.10  -0.05     0.06  -0.06  -0.07
  10   6     0.08   0.10   0.08    -0.00  -0.06  -0.04     0.07   0.18   0.11
  11   6     0.03  -0.02   0.03     0.10  -0.01   0.05     0.06   0.02   0.07
  12   6    -0.09   0.18   0.09    -0.05  -0.05  -0.14    -0.06   0.04  -0.07
  13   6    -0.01  -0.02  -0.04    -0.04   0.09  -0.14    -0.02   0.07  -0.13
  14   1     0.08  -0.05  -0.06    -0.07  -0.02   0.13     0.03  -0.11   0.03
  15   8    -0.02  -0.06   0.00    -0.02  -0.01   0.04     0.02   0.01  -0.06
  16   6    -0.05  -0.00   0.04    -0.05  -0.04   0.01    -0.10  -0.06   0.05
  17   1    -0.03  -0.04   0.03     0.00   0.02   0.00    -0.10  -0.18  -0.24
  18   1     0.01  -0.02  -0.02     0.04   0.10  -0.01    -0.13   0.22   0.13
  19   1     0.01   0.02  -0.01     0.02   0.12  -0.02    -0.12  -0.12   0.03
  20   1    -0.01  -0.01   0.02     0.04  -0.02   0.02    -0.07   0.22  -0.17
  21   1    -0.01   0.01   0.02     0.08   0.00   0.02    -0.03  -0.08  -0.06
  22   1    -0.06   0.01  -0.03    -0.02   0.03  -0.14    -0.06  -0.11   0.05
  23   1     0.07  -0.01   0.06     0.08  -0.03   0.16    -0.11  -0.02  -0.06
  24   1    -0.05  -0.03   0.01    -0.04   0.02   0.02    -0.08  -0.02  -0.04
  25   1    -0.04   0.08   0.09    -0.03   0.10   0.11     0.02  -0.04  -0.03
  26   1    -0.05  -0.02  -0.02    -0.03  -0.04  -0.02     0.01   0.06  -0.00
  27   1    -0.00   0.11   0.05    -0.01   0.00   0.01     0.02   0.08   0.03
  28   1    -0.09   0.17   0.14     0.04   0.05   0.03     0.08   0.06   0.01
  29   1     0.10  -0.16  -0.13     0.01   0.00  -0.01    -0.02  -0.01  -0.06
  30   1     0.14  -0.38  -0.27    -0.05   0.10   0.02     0.01  -0.02  -0.07
  31   1    -0.12   0.39   0.25     0.01  -0.07  -0.12    -0.03   0.07  -0.02
  32   1    -0.04  -0.00   0.05    -0.00   0.00   0.00    -0.03  -0.01   0.03
  33   1    -0.02   0.03   0.02    -0.07  -0.07   0.09    -0.06  -0.06   0.07
  34   1    -0.05  -0.00   0.03     0.05   0.02   0.01     0.01  -0.00   0.02
  35   1     0.00   0.03  -0.00     0.05   0.00   0.01     0.01  -0.00   0.02
                     31                     32                     33
                        a                      a                      a 
 Frequencies --   875.4457               886.9440               892.6310
 Red. masses --     8.4307                 7.2392                 3.9523
 Frc consts  --     0.0000                 0.0000                 0.0000
 IR Inten    --     0.2683                 4.5756                36.2906
 Raman Activ --     0.0000                 0.0000                 0.0000
 Depolar     --     0.0000                 0.0000                 0.0000
 Atom AN      X      Y      Z        X      Y      Z        X      Y      Z
   1   6    -0.07   0.07   0.08     0.13  -0.05  -0.08     0.02  -0.02   0.01
   2   6    -0.01   0.07  -0.26     0.08  -0.02   0.05    -0.04  -0.05   0.03
   3   6     0.00  -0.08   0.08    -0.13   0.14   0.15    -0.08   0.07   0.07
   4   6    -0.02   0.04   0.04    -0.13  -0.05  -0.15     0.01   0.04  -0.04
   5   6     0.12   0.15  -0.49     0.08  -0.05  -0.29     0.07  -0.03  -0.03
   6   6    -0.05   0.01  -0.08     0.20  -0.06   0.23     0.01  -0.02   0.04
   7   6    -0.10  -0.20   0.40    -0.20  -0.14  -0.16    -0.03   0.01  -0.07
   8   6     0.06   0.03   0.06    -0.00   0.07   0.09    -0.02   0.02   0.03
   9   8     0.01   0.01  -0.02    -0.09   0.15   0.10     0.01   0.00   0.00
  10   6    -0.11  -0.02  -0.05     0.09   0.03   0.05     0.03  -0.01   0.01
  11   6     0.17   0.01   0.05     0.17  -0.14  -0.04     0.07  -0.13  -0.08
  12   6     0.01  -0.00   0.07     0.01  -0.01  -0.04    -0.03   0.09   0.05
  13   6     0.01  -0.08   0.09    -0.05   0.14   0.01     0.10  -0.36  -0.21
  14   1    -0.02   0.01  -0.07     0.04  -0.08  -0.01    -0.02  -0.03  -0.00
  15   8     0.00  -0.01   0.03    -0.00  -0.01  -0.01    -0.00   0.01  -0.01
  16   6     0.07   0.04  -0.02    -0.06  -0.03   0.03     0.03  -0.01  -0.02
  17   1    -0.03  -0.04  -0.10    -0.03   0.03   0.13    -0.01   0.03   0.08
  18   1    -0.13  -0.01   0.10     0.07   0.02  -0.02     0.03  -0.01  -0.01
  19   1    -0.16   0.00   0.11     0.02   0.23   0.00     0.04   0.01  -0.04
  20   1    -0.06   0.06  -0.03     0.11  -0.16   0.10     0.01   0.01  -0.01
  21   1    -0.00   0.01  -0.17    -0.03  -0.06  -0.14     0.02  -0.03  -0.01
  22   1    -0.09  -0.10   0.02     0.02  -0.02   0.10    -0.02   0.01   0.04
  23   1    -0.07  -0.07  -0.08    -0.06  -0.05   0.07    -0.01   0.00   0.01
  24   1     0.05  -0.19   0.15    -0.20   0.01  -0.08    -0.03   0.02  -0.03
  25   1    -0.02   0.02   0.04     0.01  -0.05  -0.06     0.00  -0.00  -0.00
  26   1     0.07   0.04   0.07    -0.04  -0.03  -0.04    -0.02  -0.02  -0.02
  27   1     0.02  -0.13  -0.07    -0.01   0.08   0.06    -0.01   0.04   0.02
  28   1     0.12  -0.01  -0.02    -0.01   0.21   0.14    -0.08   0.16   0.11
  29   1    -0.04   0.13   0.10    -0.15   0.17   0.10    -0.13   0.15   0.10
  30   1     0.02   0.01  -0.01     0.05  -0.16  -0.10    -0.16   0.47   0.28
  31   1     0.03   0.01   0.09     0.03  -0.13  -0.11    -0.14   0.44   0.28
  32   1     0.05   0.01  -0.05    -0.05  -0.01   0.05    -0.01  -0.00   0.02
  33   1     0.05   0.05  -0.06    -0.02  -0.03   0.02    -0.01   0.02   0.01
  34   1    -0.02  -0.01  -0.01     0.01  -0.00   0.00    -0.03  -0.01   0.03
  35   1    -0.02   0.00  -0.01    -0.02  -0.02   0.02     0.04   0.04  -0.02
                     34                     35                     36
                        a                      a                      a 
 Frequencies --   895.5874               913.1332               934.8539
 Red. masses --     4.7058                 6.3524                 6.7156
 Frc consts  --     0.0000                 0.0000                 0.0000
 IR Inten    --    17.5450                18.3160                 0.5944
 Raman Activ --     0.0000                 0.0000                 0.0000
 Depolar     --     0.0000                 0.0000                 0.0000
 Atom AN      X      Y      Z        X      Y      Z        X      Y      Z
   1   6    -0.08   0.01   0.04     0.12  -0.07   0.05    -0.01  -0.08  -0.06
   2   6    -0.08   0.03  -0.04    -0.25  -0.03  -0.06    -0.22  -0.02   0.00
   3   6     0.05  -0.10  -0.10    -0.15   0.10   0.08    -0.08  -0.00   0.07
   4   6     0.08   0.07   0.11     0.11   0.13   0.01     0.12   0.09  -0.02
   5   6    -0.01   0.02   0.17     0.17  -0.01  -0.07     0.09   0.01  -0.03
   6   6    -0.11  -0.01  -0.07    -0.16  -0.04  -0.08    -0.01  -0.08   0.10
   7   6     0.14   0.04  -0.01    -0.06   0.21  -0.06     0.12  -0.33  -0.18
   8   6    -0.06   0.05   0.01    -0.01  -0.09   0.04    -0.07   0.17   0.05
   9   8     0.05  -0.07  -0.05     0.03  -0.03  -0.02    -0.01   0.01  -0.00
  10   6    -0.05   0.02  -0.00     0.25  -0.18   0.04    -0.03   0.18   0.07
  11   6     0.13  -0.27  -0.26    -0.06  -0.08   0.09    -0.01   0.11  -0.03
  12   6     0.00  -0.04   0.02    -0.02  -0.03   0.07    -0.11  -0.05   0.07
  13   6    -0.02   0.07   0.11    -0.02  -0.02   0.15    -0.12  -0.11   0.13
  14   1    -0.03   0.06   0.00    -0.08  -0.01  -0.02    -0.08  -0.03  -0.01
  15   8     0.01   0.00  -0.01    -0.01   0.06  -0.06     0.02  -0.02  -0.02
  16   6     0.05   0.04  -0.02     0.16   0.10  -0.08     0.23   0.14  -0.13
  17   1     0.02  -0.02  -0.06     0.02   0.09   0.10     0.02   0.05   0.02
  18   1    -0.04  -0.04   0.01    -0.02  -0.11   0.01    -0.05  -0.06   0.04
  19   1    -0.02  -0.15   0.00    -0.01  -0.11  -0.02    -0.02  -0.08  -0.00
  20   1    -0.09   0.13  -0.06    -0.06   0.13  -0.09    -0.04   0.10  -0.08
  21   1     0.03   0.02   0.08     0.08  -0.06  -0.01     0.04  -0.09  -0.04
  22   1    -0.01  -0.01  -0.05    -0.09  -0.07   0.01    -0.00  -0.03   0.02
  23   1     0.05   0.01   0.05    -0.03   0.05  -0.15     0.09  -0.07   0.32
  24   1     0.06   0.08  -0.01     0.06  -0.06   0.02    -0.23   0.17  -0.15
  25   1    -0.00   0.02   0.02    -0.02   0.06   0.07     0.01  -0.00  -0.03
  26   1     0.03   0.04   0.03    -0.20  -0.19  -0.23     0.07   0.09   0.07
  27   1     0.01  -0.05  -0.03    -0.08   0.27   0.19     0.03  -0.04  -0.03
  28   1    -0.31   0.34   0.30     0.17   0.01  -0.06    -0.06  -0.08  -0.03
  29   1    -0.21   0.31   0.27    -0.16   0.02  -0.08     0.19  -0.13  -0.04
  30   1     0.05  -0.13  -0.07     0.04  -0.06  -0.04     0.04   0.08  -0.12
  31   1     0.05  -0.14  -0.06     0.07  -0.11   0.04     0.14  -0.09   0.20
  32   1     0.03   0.01  -0.03    -0.11  -0.02   0.12     0.01  -0.01  -0.01
  33   1     0.03   0.01  -0.03     0.06   0.04  -0.06     0.09   0.07  -0.08
  34   1     0.02   0.01  -0.02     0.03   0.02  -0.03     0.04   0.03  -0.04
  35   1    -0.01  -0.01  -0.00     0.02   0.01  -0.02     0.04   0.04  -0.04
                     37                     38                     39
                        a                      a                      a 
 Frequencies --   942.1594               951.4238               955.1358
 Red. masses --     7.2359                 5.5410                 5.6186
 Frc consts  --     0.0000                 0.0000                 0.0000
 IR Inten    --     9.6314                 0.8785                 1.1071
 Raman Activ --     0.0000                 0.0000                 0.0000
 Depolar     --     0.0000                 0.0000                 0.0000
 Atom AN      X      Y      Z        X      Y      Z        X      Y      Z
   1   6     0.04  -0.10   0.09    -0.01   0.02  -0.06     0.01  -0.05  -0.01
   2   6    -0.05   0.26   0.06    -0.04  -0.15   0.02    -0.12   0.04  -0.11
   3   6     0.22  -0.10  -0.25    -0.02   0.08   0.08    -0.19   0.03  -0.03
   4   6    -0.07  -0.24   0.20     0.07   0.08  -0.08     0.11   0.07   0.09
   5   6    -0.13   0.24  -0.02    -0.08  -0.12   0.13     0.19   0.01  -0.06
   6   6     0.01   0.04  -0.03     0.09   0.08  -0.03    -0.11  -0.08   0.02
   7   6    -0.16  -0.22  -0.08    -0.22  -0.11   0.25    -0.00  -0.15  -0.03
   8   6     0.02   0.08   0.01     0.07   0.03  -0.14    -0.04   0.10   0.00
   9   8     0.01  -0.05  -0.03    -0.02   0.01   0.02     0.03  -0.03  -0.03
  10   6     0.21  -0.09   0.06     0.13  -0.03   0.03    -0.01   0.05   0.04
  11   6     0.09   0.05  -0.00     0.09   0.23  -0.26    -0.00   0.08  -0.05
  12   6     0.02  -0.02  -0.01    -0.02  -0.00   0.01     0.15   0.05  -0.00
  13   6     0.02  -0.03  -0.02    -0.02  -0.01   0.02     0.33   0.12  -0.02
  14   1    -0.06   0.25   0.06     0.01  -0.10  -0.01    -0.03   0.02  -0.02
  15   8     0.01   0.06  -0.07    -0.01   0.01  -0.01     0.01   0.01  -0.03
  16   6    -0.00  -0.03   0.01     0.04   0.03  -0.04    -0.21  -0.10   0.11
  17   1     0.11   0.05  -0.21    -0.03  -0.00   0.04     0.04   0.09   0.12
  18   1    -0.02   0.02  -0.02     0.01   0.02   0.01    -0.01  -0.18  -0.02
  19   1    -0.06  -0.03   0.09     0.04  -0.02  -0.05    -0.00  -0.14  -0.01
  20   1    -0.06  -0.05   0.10     0.07   0.01  -0.09    -0.09   0.12  -0.03
  21   1    -0.11   0.23  -0.01    -0.01  -0.06   0.04     0.07  -0.05  -0.02
  22   1    -0.03  -0.06   0.01     0.08   0.09  -0.05    -0.08  -0.05   0.05
  23   1    -0.07  -0.07   0.10    -0.14  -0.07  -0.13     0.03  -0.03   0.11
  24   1    -0.18  -0.00  -0.06    -0.03  -0.19   0.10    -0.11   0.02  -0.04
  25   1     0.00  -0.01  -0.01     0.01  -0.01  -0.02    -0.01   0.04   0.04
  26   1    -0.12  -0.10  -0.17    -0.08  -0.06  -0.10     0.02   0.03   0.02
  27   1    -0.05   0.18   0.16    -0.04   0.10   0.10     0.01  -0.01  -0.00
  28   1    -0.03   0.03   0.04    -0.36  -0.21   0.00    -0.06  -0.09  -0.04
  29   1     0.09  -0.02   0.02     0.32   0.09   0.32     0.10  -0.02   0.04
  30   1    -0.02   0.08   0.05     0.01  -0.02  -0.02    -0.06  -0.24   0.34
  31   1    -0.00   0.01   0.00     0.02  -0.02   0.02    -0.26   0.14  -0.34
  32   1    -0.10  -0.04   0.11    -0.08  -0.02   0.09    -0.00  -0.00  -0.00
  33   1    -0.00   0.02  -0.00     0.00  -0.00   0.00    -0.09  -0.08   0.09
  34   1    -0.04  -0.02   0.02     0.02   0.01  -0.01     0.00  -0.01   0.02
  35   1     0.01   0.02  -0.01     0.02   0.01  -0.01    -0.03  -0.04   0.05
                     40                     41                     42
                        a                      a                      a 
 Frequencies --   999.1850              1022.0124              1039.8752
 Red. masses --     6.8949                 5.7528                 6.8560
 Frc consts  --     0.0000                 0.0000                 0.0000
 IR Inten    --     4.9861                18.4773                58.3707
 Raman Activ --     0.0000                 0.0000                 0.0000
 Depolar     --     0.0000                 0.0000                 0.0000
 Atom AN      X      Y      Z        X      Y      Z        X      Y      Z
   1   6    -0.03   0.07  -0.13    -0.22  -0.01   0.08    -0.17  -0.07  -0.02
   2   6    -0.32  -0.08  -0.10    -0.04   0.11  -0.10     0.12   0.10  -0.07
   3   6     0.14   0.00   0.02     0.01  -0.14   0.11     0.03  -0.05   0.03
   4   6     0.07   0.04  -0.07    -0.09   0.13  -0.10    -0.13   0.04   0.00
   5   6    -0.36  -0.05  -0.02     0.03  -0.17  -0.02     0.15  -0.06  -0.02
   6   6     0.24   0.13   0.05     0.03   0.10   0.01    -0.00  -0.11  -0.04
   7   6     0.16  -0.02   0.05     0.14  -0.04  -0.04     0.08   0.01   0.04
   8   6     0.01  -0.02   0.04    -0.03   0.02   0.04    -0.01  -0.00   0.01
   9   8    -0.05   0.04   0.06     0.03  -0.03  -0.03    -0.04   0.06   0.03
  10   6     0.06   0.02  -0.07     0.05  -0.10   0.15    -0.05  -0.08   0.28
  11   6     0.01  -0.08   0.09    -0.01  -0.00  -0.00    -0.02   0.01  -0.02
  12   6    -0.05  -0.02   0.07     0.14   0.04  -0.05    -0.11   0.13   0.12
  13   6     0.18  -0.03   0.13     0.02   0.06  -0.10     0.02  -0.04   0.09
  14   1    -0.06  -0.07  -0.04    -0.13   0.08  -0.03     0.09   0.05   0.00
  15   8    -0.03  -0.03   0.07     0.05   0.09  -0.16     0.10   0.12  -0.28
  16   6     0.01   0.05  -0.13     0.06  -0.10   0.28    -0.03  -0.15  -0.30
  17   1     0.06   0.06  -0.16    -0.10  -0.14  -0.04    -0.06  -0.08  -0.00
  18   1    -0.11  -0.00   0.10    -0.09   0.04   0.08    -0.00   0.05   0.01
  19   1    -0.15   0.02   0.10    -0.09   0.13   0.05    -0.03   0.09   0.03
  20   1     0.16  -0.04  -0.17     0.03  -0.02  -0.00    -0.05  -0.01   0.09
  21   1    -0.19  -0.08  -0.12     0.06  -0.20  -0.03     0.11  -0.04   0.05
  22   1     0.17   0.12  -0.08     0.17   0.22  -0.11     0.05   0.04  -0.05
  23   1     0.02  -0.02   0.04     0.00  -0.03   0.08     0.03   0.01   0.02
  24   1     0.05   0.04   0.01     0.09   0.12  -0.02     0.09   0.05   0.02
  25   1     0.05  -0.11  -0.12     0.02  -0.00  -0.02    -0.01   0.04   0.02
  26   1    -0.03  -0.03  -0.04    -0.03   0.01  -0.10     0.00   0.04  -0.02
  27   1    -0.02   0.03   0.02    -0.07  -0.00   0.15    -0.08  -0.08   0.15
  28   1     0.09   0.10   0.04    -0.01  -0.00   0.00    -0.02  -0.02  -0.01
  29   1    -0.08  -0.03  -0.08     0.02  -0.03  -0.02     0.02  -0.01   0.01
  30   1    -0.03  -0.12   0.22    -0.00   0.02  -0.02    -0.01   0.01   0.06
  31   1    -0.10   0.05  -0.09    -0.03   0.04  -0.05     0.04  -0.12  -0.03
  32   1    -0.03  -0.02   0.05    -0.08  -0.05   0.08    -0.07  -0.04   0.05
  33   1    -0.07  -0.07   0.10     0.18   0.18  -0.22    -0.23  -0.06   0.25
  34   1     0.11   0.06  -0.01    -0.26  -0.14   0.04    -0.00   0.05   0.16
  35   1     0.12   0.05  -0.02    -0.23  -0.08   0.02     0.36   0.26  -0.14
                     43                     44                     45
                        a                      a                      a 
 Frequencies --  1050.5134              1053.8987              1064.7139
 Red. masses --     5.3456                 9.3178                 5.4325
 Frc consts  --     0.0000                 0.0000                 0.0000
 IR Inten    --    18.2039                25.7351                15.6494
 Raman Activ --     0.0000                 0.0000                 0.0000
 Depolar     --     0.0000                 0.0000                 0.0000
 Atom AN      X      Y      Z        X      Y      Z        X      Y      Z
   1   6     0.11   0.08  -0.12     0.06   0.16   0.07    -0.01   0.04   0.08
   2   6    -0.11  -0.00   0.08     0.08   0.25  -0.05    -0.19  -0.05  -0.13
   3   6    -0.04  -0.03  -0.04     0.04  -0.19   0.04     0.15   0.01   0.17
   4   6     0.09   0.01   0.00    -0.16   0.12  -0.01    -0.07  -0.04  -0.23
   5   6    -0.07   0.04   0.02     0.13  -0.19   0.00     0.03   0.13   0.09
   6   6     0.02  -0.05   0.03    -0.10   0.06   0.09     0.07  -0.28  -0.16
   7   6     0.01   0.02   0.03     0.02   0.01  -0.12     0.02   0.01  -0.10
   8   6     0.01  -0.03  -0.00    -0.03  -0.02   0.07    -0.00  -0.04   0.04
   9   8    -0.03   0.03   0.03     0.07  -0.07  -0.06    -0.12   0.15   0.08
  10   6     0.04   0.04  -0.17     0.17   0.02  -0.42     0.00  -0.02  -0.04
  11   6    -0.00  -0.00  -0.00    -0.02   0.04  -0.06     0.02   0.05  -0.04
  12   6    -0.01   0.25   0.09    -0.02  -0.01   0.02    -0.00  -0.02   0.01
  13   6    -0.02   0.07  -0.09     0.01  -0.03   0.06     0.08  -0.00   0.05
  14   1    -0.00  -0.11  -0.01     0.00   0.14   0.01    -0.10  -0.10  -0.07
  15   8    -0.06  -0.07   0.16    -0.13  -0.12   0.37    -0.01  -0.01   0.03
  16   6     0.15  -0.36   0.04    -0.06   0.01  -0.10     0.03   0.02   0.03
  17   1     0.05   0.07  -0.02    -0.09  -0.15  -0.04     0.01  -0.01  -0.14
  18   1    -0.00  -0.04  -0.01    -0.06   0.04   0.05    -0.06   0.13   0.10
  19   1     0.02  -0.06  -0.02    -0.09   0.12   0.06    -0.01   0.19   0.00
  20   1    -0.02   0.04  -0.02    -0.08   0.02   0.10     0.13  -0.13   0.03
  21   1    -0.03   0.00  -0.01     0.13  -0.25   0.01     0.30   0.21   0.35
  22   1    -0.05  -0.13   0.03    -0.01   0.07   0.04    -0.15  -0.27   0.07
  23   1     0.01   0.01  -0.02    -0.09  -0.05   0.02    -0.14  -0.08   0.00
  24   1    -0.05  -0.05   0.01    -0.02   0.06  -0.05     0.13   0.13  -0.02
  25   1     0.01  -0.04  -0.04    -0.00   0.02   0.03    -0.04   0.05   0.04
  26   1     0.01  -0.03   0.02    -0.03  -0.06  -0.10    -0.01  -0.02  -0.00
  27   1     0.03   0.02  -0.06     0.05   0.14  -0.10     0.01   0.02  -0.03
  28   1    -0.00  -0.00   0.00    -0.08  -0.06  -0.01    -0.07   0.01   0.03
  29   1    -0.01   0.01   0.00     0.06  -0.01   0.03     0.09  -0.03   0.01
  30   1    -0.01   0.06  -0.02    -0.00   0.01   0.03    -0.01  -0.07   0.09
  31   1     0.04  -0.13  -0.13     0.01  -0.02   0.02    -0.04   0.03  -0.03
  32   1     0.03   0.01  -0.02     0.02   0.01   0.02     0.03   0.01  -0.03
  33   1     0.03   0.26  -0.06    -0.09  -0.06   0.10     0.04   0.02  -0.04
  34   1    -0.45  -0.17   0.28     0.08   0.04   0.00    -0.01  -0.01  -0.02
  35   1     0.13   0.28  -0.19     0.09   0.04  -0.01    -0.04  -0.02   0.01
                     46                     47                     48
                        a                      a                      a 
 Frequencies --  1073.8207              1087.2344              1098.2266
 Red. masses --    10.4256                 6.0515                 6.2179
 Frc consts  --     0.0000                 0.0000                 0.0000
 IR Inten    --   131.5478                23.2015                25.7142
 Raman Activ --     0.0000                 0.0000                 0.0000
 Depolar     --     0.0000                 0.0000                 0.0000
 Atom AN      X      Y      Z        X      Y      Z        X      Y      Z
   1   6    -0.01  -0.02   0.14    -0.11   0.37  -0.32    -0.18   0.04   0.29
   2   6     0.00  -0.15  -0.19     0.06   0.05   0.07     0.22  -0.14  -0.04
   3   6     0.03   0.11   0.14    -0.02  -0.05  -0.00    -0.16   0.05  -0.04
   4   6     0.00  -0.19  -0.17     0.05  -0.06  -0.01     0.18  -0.02   0.08
   5   6     0.01   0.18   0.07     0.01   0.13   0.00    -0.09  -0.02  -0.07
   6   6    -0.28   0.40   0.24    -0.11  -0.06   0.20     0.11  -0.04  -0.17
   7   6    -0.04  -0.06  -0.06     0.21  -0.04   0.12    -0.04  -0.15  -0.08
   8   6    -0.01   0.05  -0.00    -0.04   0.02   0.06    -0.08   0.20   0.05
   9   8     0.25  -0.34  -0.23     0.03  -0.02  -0.02    -0.06   0.07   0.03
  10   6    -0.03  -0.02   0.04     0.04  -0.11  -0.12     0.09  -0.02  -0.15
  11   6     0.00  -0.01   0.00    -0.03  -0.02  -0.01     0.04  -0.01   0.06
  12   6    -0.04   0.06   0.06     0.03  -0.06  -0.05     0.02   0.07   0.02
  13   6     0.03  -0.00   0.05    -0.03   0.00  -0.03    -0.05   0.00  -0.02
  14   1    -0.02  -0.14  -0.08     0.14  -0.21  -0.02     0.05   0.06   0.02
  15   8     0.01   0.01  -0.02     0.01   0.03   0.01    -0.03   0.00   0.11
  16   6     0.03  -0.05  -0.05    -0.03   0.05   0.02    -0.04  -0.05  -0.03
  17   1     0.01   0.04  -0.01     0.04   0.04  -0.02    -0.10  -0.09   0.21
  18   1     0.01   0.07   0.03     0.03   0.02  -0.03     0.04  -0.10  -0.06
  19   1     0.09   0.07  -0.06     0.09  -0.04  -0.07     0.06  -0.17  -0.04
  20   1     0.13  -0.15  -0.01    -0.10   0.03   0.09     0.10   0.02  -0.18
  21   1    -0.05   0.08  -0.01    -0.02  -0.02  -0.04    -0.07   0.15  -0.00
  22   1    -0.12   0.15   0.15    -0.11  -0.20   0.07     0.08  -0.01  -0.11
  23   1    -0.10  -0.06   0.02    -0.08  -0.09   0.06    -0.29  -0.19   0.07
  24   1     0.07   0.08  -0.02     0.11   0.07   0.03     0.29   0.26  -0.00
  25   1    -0.02   0.06   0.11     0.04  -0.09  -0.09    -0.00  -0.01  -0.01
  26   1     0.01   0.02   0.01    -0.01   0.06  -0.19     0.02   0.04  -0.11
  27   1     0.01   0.01  -0.01    -0.19  -0.24   0.22    -0.01   0.05   0.00
  28   1    -0.01   0.03   0.02    -0.02   0.01   0.01     0.07   0.05   0.01
  29   1     0.01  -0.02  -0.02     0.00  -0.03  -0.02     0.01  -0.04  -0.06
  30   1     0.01  -0.05   0.02    -0.00   0.03  -0.02     0.01   0.00  -0.06
  31   1     0.01  -0.05  -0.04     0.00   0.02   0.02     0.02  -0.02   0.02
  32   1     0.01   0.01  -0.02    -0.22  -0.12   0.26    -0.03  -0.03   0.05
  33   1    -0.02   0.02   0.03     0.01  -0.03  -0.01    -0.04  -0.01   0.04
  34   1    -0.04  -0.01   0.05     0.05   0.01  -0.04    -0.01   0.00   0.03
  35   1     0.07   0.07  -0.04    -0.05  -0.06   0.04     0.04   0.03  -0.02
                     49                     50                     51
                        a                      a                      a 
 Frequencies --  1123.6287              1135.6220              1156.6372
 Red. masses --     7.9172                 5.3507                 3.4820
 Frc consts  --     0.0000                 0.0000                 0.0000
 IR Inten    --     9.2734                 0.9355                17.2785
 Raman Activ --     0.0000                 0.0000                 0.0000
 Depolar     --     0.0000                 0.0000                 0.0000
 Atom AN      X      Y      Z        X      Y      Z        X      Y      Z
   1   6     0.34   0.30   0.01    -0.02  -0.03  -0.06    -0.04  -0.00  -0.09
   2   6     0.02   0.13   0.09    -0.03  -0.27   0.04    -0.06   0.16  -0.05
   3   6    -0.10  -0.14  -0.03     0.15   0.26  -0.24     0.06  -0.07   0.19
   4   6     0.09   0.04  -0.01    -0.22   0.03   0.22     0.03  -0.04  -0.10
   5   6    -0.17  -0.07  -0.03     0.13  -0.12  -0.05     0.04   0.14   0.09
   6   6     0.07   0.19  -0.00    -0.01  -0.11   0.04    -0.07  -0.15  -0.04
   7   6    -0.02   0.03  -0.13     0.00  -0.01  -0.01    -0.00  -0.10   0.09
   8   6    -0.03  -0.03   0.14    -0.05   0.04   0.08    -0.03   0.11  -0.04
   9   8     0.02  -0.02   0.01    -0.00  -0.00  -0.02    -0.04   0.05   0.03
  10   6    -0.19  -0.29   0.25     0.01   0.03   0.02     0.07  -0.04   0.11
  11   6     0.01   0.03  -0.03    -0.01   0.02  -0.03    -0.01  -0.03   0.02
  12   6     0.02   0.00  -0.00    -0.05  -0.02   0.00     0.02  -0.02  -0.02
  13   6    -0.02  -0.00  -0.01    -0.00   0.02  -0.04     0.02  -0.01   0.03
  14   1     0.04   0.00   0.02     0.14  -0.17   0.01    -0.03  -0.14  -0.07
  15   8     0.04   0.03  -0.21    -0.01  -0.01   0.01    -0.04  -0.03  -0.01
  16   6    -0.02   0.00  -0.01     0.06   0.01   0.02    -0.02   0.01   0.00
  17   1     0.02   0.02   0.00     0.24   0.30  -0.13    -0.01  -0.03  -0.06
  18   1    -0.07  -0.11   0.02     0.05   0.00  -0.06     0.05   0.17   0.01
  19   1    -0.09  -0.04   0.06    -0.20   0.09   0.19     0.33  -0.05  -0.26
  20   1     0.01   0.03  -0.07    -0.16   0.05   0.15    -0.25   0.08   0.25
  21   1     0.05  -0.17   0.01     0.03  -0.12  -0.05    -0.20  -0.08  -0.21
  22   1    -0.11  -0.15   0.08     0.06   0.18   0.02     0.16   0.05  -0.18
  23   1    -0.29  -0.15  -0.03    -0.21  -0.12  -0.02    -0.10  -0.08   0.00
  24   1     0.04   0.10  -0.04     0.26   0.15   0.03     0.13   0.07   0.04
  25   1     0.03  -0.07  -0.06    -0.04   0.10   0.09     0.02  -0.02  -0.05
  26   1    -0.08  -0.19   0.16    -0.01  -0.03   0.04    -0.09  -0.16   0.08
  27   1     0.03  -0.02  -0.04     0.05   0.07  -0.05     0.12   0.25  -0.11
  28   1    -0.05  -0.02   0.01    -0.03  -0.02  -0.00     0.02   0.02   0.01
  29   1     0.06  -0.02   0.02     0.03  -0.02  -0.00    -0.03  -0.01  -0.04
  30   1     0.00   0.03  -0.02     0.01   0.00  -0.03    -0.01  -0.02   0.05
  31   1     0.01  -0.00   0.01    -0.02   0.02  -0.02     0.01  -0.01   0.00
  32   1     0.14   0.09  -0.20     0.04   0.02  -0.05     0.16   0.09  -0.20
  33   1    -0.02  -0.02   0.02     0.05   0.03  -0.05    -0.01  -0.02   0.01
  34   1     0.02   0.01  -0.00    -0.02  -0.01  -0.00     0.01   0.00  -0.01
  35   1     0.01  -0.01   0.01    -0.02  -0.00  -0.00    -0.00  -0.01   0.01
                     52                     53                     54
                        a                      a                      a 
 Frequencies --  1173.5723              1194.4586              1197.2670
 Red. masses --     4.2168                 6.6747                 5.6181
 Frc consts  --     0.0000                 0.0000                 0.0000
 IR Inten    --    37.0571                14.0087                 1.4391
 Raman Activ --     0.0000                 0.0000                 0.0000
 Depolar     --     0.0000                 0.0000                 0.0000
 Atom AN      X      Y      Z        X      Y      Z        X      Y      Z
   1   6     0.16   0.08  -0.12     0.04  -0.32  -0.03     0.18  -0.13   0.18
   2   6    -0.09   0.16   0.09     0.07   0.19   0.07    -0.09  -0.09  -0.09
   3   6     0.01  -0.13   0.02    -0.18  -0.14   0.10     0.14   0.08   0.06
   4   6     0.03   0.09  -0.02     0.12  -0.05  -0.19    -0.09   0.04   0.09
   5   6     0.00  -0.07   0.07    -0.15   0.17   0.10    -0.08  -0.19  -0.00
   6   6     0.22  -0.24   0.02     0.09   0.02  -0.08     0.22   0.24  -0.21
   7   6    -0.03  -0.02   0.03    -0.15  -0.01   0.02    -0.09   0.03  -0.09
   8   6    -0.01   0.10  -0.07     0.03   0.03  -0.10    -0.01   0.02   0.04
   9   8    -0.06  -0.05  -0.12    -0.03  -0.03  -0.01    -0.02  -0.00   0.04
  10   6    -0.05  -0.01  -0.01     0.00   0.14  -0.05    -0.11   0.07  -0.08
  11   6    -0.03  -0.04   0.02     0.04  -0.00   0.03     0.02   0.01   0.01
  12   6    -0.06  -0.05  -0.00     0.26   0.08  -0.02    -0.08  -0.00   0.01
  13   6     0.02   0.01   0.00    -0.10  -0.03  -0.01     0.05   0.00   0.04
  14   1     0.02   0.01   0.02    -0.00  -0.09  -0.03    -0.16   0.07  -0.02
  15   8     0.02   0.00  -0.02     0.02   0.00   0.03     0.05   0.03  -0.01
  16   6     0.03   0.01   0.00    -0.13  -0.03   0.01     0.04   0.00  -0.00
  17   1    -0.08  -0.12   0.01     0.22   0.28  -0.12    -0.01  -0.02  -0.04
  18   1    -0.02   0.02   0.01    -0.17  -0.22   0.12     0.10   0.19  -0.04
  19   1     0.04  -0.03  -0.05    -0.05   0.05   0.02     0.23  -0.08  -0.18
  20   1     0.06   0.01  -0.09    -0.07   0.02   0.05    -0.24   0.09   0.22
  21   1    -0.19   0.16  -0.08     0.12  -0.27   0.04    -0.08  -0.21  -0.11
  22   1    -0.07   0.30   0.30    -0.01   0.04   0.03    -0.17  -0.19   0.11
  23   1    -0.10  -0.06  -0.01    -0.01   0.02  -0.03    -0.05  -0.01  -0.03
  24   1     0.03  -0.01   0.01     0.22   0.06   0.05     0.06   0.05  -0.01
  25   1    -0.19   0.41   0.41    -0.03   0.07   0.07    -0.00  -0.02  -0.00
  26   1    -0.00  -0.01   0.02     0.05   0.09  -0.00     0.08   0.12  -0.01
  27   1    -0.04  -0.12   0.03    -0.01  -0.05  -0.00    -0.09  -0.24   0.06
  28   1     0.02   0.01  -0.00     0.03   0.05   0.02     0.01  -0.02  -0.01
  29   1    -0.05  -0.01  -0.04     0.01  -0.00  -0.01     0.00   0.01   0.01
  30   1    -0.00   0.02   0.01     0.01   0.07  -0.09    -0.01  -0.05   0.06
  31   1    -0.01  -0.01  -0.04     0.06  -0.03   0.08    -0.01  -0.01  -0.02
  32   1    -0.04  -0.03   0.05    -0.07  -0.05   0.10    -0.13  -0.09   0.16
  33   1     0.02   0.02  -0.03    -0.08  -0.08   0.08     0.02   0.03  -0.02
  34   1    -0.00  -0.00  -0.01     0.02   0.01   0.00    -0.01  -0.00   0.00
  35   1    -0.00   0.00  -0.00     0.01  -0.02   0.02     0.00   0.01  -0.01
                     55                     56                     57
                        a                      a                      a 
 Frequencies --  1206.0307              1232.7402              1245.9645
 Red. masses --     6.5219                 7.4557                 5.3336
 Frc consts  --     0.0000                 0.0000                 0.0000
 IR Inten    --     5.4228                 8.7581                 7.2279
 Raman Activ --     0.0000                 0.0000                 0.0000
 Depolar     --     0.0000                 0.0000                 0.0000
 Atom AN      X      Y      Z        X      Y      Z        X      Y      Z
   1   6     0.11   0.34   0.38    -0.08  -0.07  -0.12    -0.31   0.19   0.07
   2   6     0.05  -0.16  -0.10    -0.12  -0.05  -0.02     0.05   0.03  -0.03
   3   6     0.02   0.03   0.01     0.04   0.05  -0.05     0.01  -0.02  -0.03
   4   6    -0.01   0.03  -0.04    -0.05   0.03   0.02    -0.00   0.06   0.05
   5   6    -0.03  -0.02   0.03     0.14  -0.01  -0.05    -0.14  -0.15  -0.08
   6   6    -0.02  -0.18  -0.04     0.04   0.02   0.01     0.25   0.13  -0.03
   7   6     0.06   0.00  -0.06     0.12   0.13  -0.07    -0.12  -0.14  -0.05
   8   6     0.03   0.04  -0.09    -0.04  -0.24   0.35     0.00  -0.05   0.00
   9   8    -0.03   0.03  -0.02    -0.01  -0.00  -0.01    -0.01  -0.03  -0.05
  10   6    -0.08  -0.20  -0.06     0.02   0.06   0.01     0.14  -0.15   0.09
  11   6    -0.03  -0.03   0.02    -0.03   0.07  -0.12     0.05   0.02   0.02
  12   6     0.21   0.13   0.00     0.43   0.17  -0.03     0.04  -0.00  -0.01
  13   6    -0.06  -0.04   0.04    -0.11  -0.06   0.04    -0.02  -0.01  -0.00
  14   1    -0.19  -0.17  -0.10    -0.28   0.01  -0.05     0.11  -0.27  -0.07
  15   8    -0.00   0.04  -0.01    -0.00  -0.01   0.00    -0.11  -0.00   0.02
  16   6    -0.10  -0.04  -0.00    -0.16  -0.06   0.02    -0.02   0.01  -0.00
  17   1     0.14   0.17  -0.11    -0.04  -0.04   0.02     0.04   0.04  -0.04
  18   1    -0.03  -0.04   0.03     0.00   0.01  -0.01     0.02   0.01  -0.02
  19   1     0.03   0.02  -0.03    -0.01   0.03   0.01     0.05  -0.05  -0.04
  20   1    -0.11   0.05   0.08     0.06  -0.02  -0.06    -0.08   0.06   0.04
  21   1    -0.02   0.04   0.02    -0.29   0.19  -0.22     0.04   0.00   0.06
  22   1     0.18   0.17  -0.15    -0.07  -0.10   0.05    -0.17  -0.09   0.22
  23   1    -0.02  -0.02   0.02    -0.00   0.01  -0.02     0.43   0.22   0.10
  24   1    -0.38  -0.15  -0.08     0.09   0.06  -0.01     0.07   0.07  -0.01
  25   1    -0.03   0.07   0.05    -0.02   0.03   0.04    -0.06   0.10   0.11
  26   1     0.05   0.07  -0.08    -0.01  -0.02   0.03    -0.00   0.04  -0.14
  27   1    -0.07  -0.11   0.05     0.01   0.02  -0.01     0.01   0.17   0.05
  28   1     0.01   0.01  -0.00    -0.14  -0.11  -0.02     0.04   0.01  -0.00
  29   1    -0.05  -0.00  -0.03     0.07   0.00   0.06     0.04   0.01   0.04
  30   1     0.02  -0.00  -0.05     0.02   0.04  -0.08     0.00   0.02  -0.02
  31   1     0.06  -0.02   0.09     0.11  -0.05   0.14     0.01  -0.01   0.01
  32   1    -0.02   0.01   0.02     0.01   0.00  -0.01     0.14   0.10  -0.20
  33   1    -0.07  -0.06   0.08    -0.11  -0.10   0.12    -0.01  -0.03   0.01
  34   1     0.00   0.00   0.02    -0.00  -0.00   0.02     0.00   0.00  -0.00
  35   1     0.01  -0.01   0.01    -0.00  -0.03   0.03     0.00  -0.01   0.01
                     58                     59                     60
                        a                      a                      a 
 Frequencies --  1246.1844              1267.5391              1269.9297
 Red. masses --     8.0857                 5.7167                 7.1504
 Frc consts  --     0.0000                 0.0000                 0.0000
 IR Inten    --    19.6376                 9.5302                12.8705
 Raman Activ --     0.0000                 0.0000                 0.0000
 Depolar     --     0.0000                 0.0000                 0.0000
 Atom AN      X      Y      Z        X      Y      Z        X      Y      Z
   1   6     0.03  -0.02  -0.21    -0.23   0.05  -0.10    -0.13  -0.20  -0.02
   2   6    -0.17   0.00   0.01     0.01  -0.18  -0.05     0.04   0.08  -0.00
   3   6     0.10   0.04  -0.09    -0.00   0.15  -0.03    -0.05  -0.04   0.07
   4   6    -0.09   0.08   0.15     0.07  -0.20   0.07     0.14   0.01  -0.00
   5   6    -0.02  -0.28  -0.05    -0.15   0.33   0.02    -0.32  -0.07  -0.40
   6   6    -0.06   0.10   0.11     0.19  -0.05  -0.01     0.04   0.03   0.15
   7   6    -0.03  -0.13   0.14     0.21   0.07   0.06     0.22   0.20  -0.04
   8   6     0.01   0.30  -0.33     0.03  -0.00  -0.05    -0.03  -0.19   0.21
   9   8     0.05  -0.02   0.02    -0.05  -0.03  -0.07     0.03  -0.02  -0.01
  10   6     0.02   0.07   0.03     0.07  -0.00   0.04    -0.02   0.05   0.00
  11   6     0.02  -0.08   0.12    -0.02  -0.02   0.01     0.03   0.04  -0.02
  12   6     0.31   0.11  -0.02     0.07   0.04  -0.00    -0.04  -0.03  -0.00
  13   6    -0.08  -0.05   0.04    -0.02  -0.01   0.01     0.01   0.01   0.00
  14   1    -0.19  -0.04  -0.05    -0.14   0.22   0.04     0.04  -0.06  -0.02
  15   8     0.01  -0.02  -0.02    -0.04  -0.01   0.01     0.04   0.00   0.00
  16   6    -0.11  -0.04   0.02    -0.02  -0.01   0.00     0.01   0.01  -0.00
  17   1    -0.07  -0.10   0.01    -0.11  -0.11   0.11     0.03   0.04  -0.01
  18   1     0.07   0.09  -0.06     0.12   0.09  -0.09     0.04   0.05  -0.02
  19   1     0.04  -0.06  -0.03    -0.04  -0.03   0.06     0.13  -0.09  -0.10
  20   1     0.01   0.02  -0.03    -0.02  -0.03   0.03    -0.23   0.14   0.11
  21   1     0.23   0.09   0.26     0.19  -0.47  -0.02     0.19   0.24   0.24
  22   1    -0.07   0.02   0.09    -0.06  -0.07   0.10     0.06   0.24   0.07
  23   1    -0.09  -0.07  -0.01    -0.13  -0.08  -0.00    -0.18  -0.09  -0.03
  24   1     0.02  -0.01   0.04    -0.18  -0.11  -0.01    -0.12  -0.07  -0.03
  25   1     0.04  -0.08  -0.08    -0.08   0.17   0.16    -0.00  -0.00   0.01
  26   1    -0.06  -0.11   0.09    -0.02  -0.02  -0.02     0.00   0.00   0.03
  27   1     0.01  -0.00  -0.00     0.02   0.07   0.00     0.05   0.07  -0.07
  28   1     0.15   0.09  -0.00    -0.01   0.02   0.02    -0.01  -0.02  -0.00
  29   1    -0.08  -0.00  -0.06    -0.02  -0.01  -0.03     0.07   0.00   0.06
  30   1     0.01   0.04  -0.05     0.00  -0.00  -0.01    -0.00   0.00   0.01
  31   1     0.08  -0.04   0.09     0.02  -0.01   0.03    -0.01  -0.00  -0.02
  32   1     0.00  -0.00  -0.00     0.07   0.04  -0.09    -0.04  -0.02   0.06
  33   1    -0.07  -0.07   0.08    -0.02  -0.01   0.02     0.01   0.00  -0.01
  34   1    -0.01  -0.00   0.01    -0.01  -0.00   0.01     0.01   0.00  -0.01
  35   1    -0.00  -0.02   0.02    -0.00  -0.00   0.00     0.00   0.01  -0.00
                     61                     62                     63
                        a                      a                      a 
 Frequencies --  1289.8935              1305.2803              1308.8815
 Red. masses --     4.7849                 4.6745                 3.8445
 Frc consts  --     0.0000                 0.0000                 0.0000
 IR Inten    --    13.8269                 5.9366                48.9230
 Raman Activ --     0.0000                 0.0000                 0.0000
 Depolar     --     0.0000                 0.0000                 0.0000
 Atom AN      X      Y      Z        X      Y      Z        X      Y      Z
   1   6    -0.22  -0.04  -0.10     0.05   0.28  -0.12     0.25  -0.06  -0.14
   2   6     0.12  -0.15   0.00     0.06  -0.30  -0.06    -0.06  -0.03   0.01
   3   6     0.01  -0.02   0.13     0.02   0.07   0.11    -0.01   0.00   0.03
   4   6    -0.12   0.12  -0.11     0.02  -0.03  -0.07     0.05  -0.03  -0.01
   5   6     0.12  -0.21   0.09    -0.11   0.04  -0.10    -0.05   0.04  -0.07
   6   6     0.08   0.11  -0.05    -0.05  -0.12   0.10    -0.11  -0.08   0.05
   7   6     0.20   0.06   0.08    -0.17  -0.11  -0.02    -0.08   0.00   0.00
   8   6     0.01   0.13  -0.09    -0.02  -0.08   0.05    -0.01  -0.04   0.04
   9   8     0.01  -0.00   0.01     0.02  -0.00  -0.01     0.02   0.01   0.04
  10   6     0.08  -0.00   0.06    -0.01   0.05  -0.05     0.15  -0.03   0.08
  11   6    -0.04  -0.04   0.02     0.04   0.03  -0.00     0.01   0.01  -0.01
  12   6    -0.03  -0.01   0.02     0.01   0.04   0.01     0.00   0.01   0.00
  13   6    -0.01   0.02  -0.03    -0.01   0.00  -0.00     0.00  -0.00   0.01
  14   1     0.09   0.31   0.12    -0.10   0.48   0.13    -0.11   0.16   0.03
  15   8    -0.07  -0.01   0.02     0.05  -0.02  -0.03    -0.25  -0.02   0.06
  16   6     0.01  -0.00  -0.01    -0.00  -0.02  -0.00     0.01   0.00  -0.01
  17   1     0.16   0.19  -0.12     0.04   0.07  -0.02    -0.02  -0.02   0.02
  18   1    -0.25  -0.24   0.21    -0.11  -0.09   0.11     0.04   0.06  -0.02
  19   1     0.13   0.03  -0.13     0.11  -0.01  -0.09    -0.00   0.00   0.01
  20   1    -0.01  -0.01   0.04    -0.12   0.04   0.09    -0.05   0.03   0.02
  21   1    -0.13   0.14  -0.04     0.06   0.04   0.07     0.05   0.04   0.05
  22   1    -0.16  -0.14   0.13     0.05   0.15   0.03     0.05   0.18   0.01
  23   1    -0.20  -0.13   0.01     0.26   0.14   0.03    -0.03  -0.01  -0.05
  24   1    -0.18  -0.11  -0.01     0.20   0.12   0.02     0.12   0.06   0.02
  25   1     0.01  -0.03  -0.01     0.01   0.01  -0.00     0.03  -0.08  -0.06
  26   1     0.02   0.06  -0.08    -0.14  -0.26   0.19     0.17   0.36  -0.33
  27   1     0.01   0.06   0.03    -0.03  -0.06   0.02    -0.15  -0.23   0.27
  28   1    -0.01  -0.02  -0.01     0.04   0.03   0.00     0.01   0.01   0.00
  29   1    -0.09  -0.00  -0.07     0.07   0.00   0.06     0.03  -0.00   0.03
  30   1     0.00   0.01  -0.03     0.01  -0.01  -0.02     0.00  -0.00   0.00
  31   1    -0.01   0.01  -0.02     0.00  -0.00   0.00     0.00  -0.01   0.00
  32   1     0.09   0.06  -0.13    -0.05  -0.05   0.07     0.26   0.17  -0.36
  33   1     0.01   0.02  -0.01    -0.01   0.03   0.01    -0.01  -0.00   0.01
  34   1     0.00   0.00   0.01     0.00   0.00   0.02    -0.01   0.00   0.02
  35   1     0.00  -0.00   0.00    -0.00   0.00  -0.01    -0.01  -0.02   0.01
                     64                     65                     66
                        a                      a                      a 
 Frequencies --  1330.9619              1342.9468              1349.2464
 Red. masses --     4.5235                 3.9098                 4.1531
 Frc consts  --     0.0000                 0.0000                 0.0000
 IR Inten    --    20.5161                48.4422                35.1341
 Raman Activ --     0.0000                 0.0000                 0.0000
 Depolar     --     0.0000                 0.0000                 0.0000
 Atom AN      X      Y      Z        X      Y      Z        X      Y      Z
   1   6    -0.08   0.01   0.02    -0.09  -0.09   0.16    -0.12   0.03   0.02
   2   6     0.06  -0.00   0.01     0.06   0.07   0.00     0.19   0.02  -0.02
   3   6    -0.03   0.13  -0.02    -0.02  -0.01  -0.02    -0.19  -0.23   0.08
   4   6     0.33  -0.14  -0.28    -0.01   0.02   0.01    -0.06   0.08   0.11
   5   6     0.00  -0.11   0.16     0.00  -0.02  -0.02     0.06   0.07   0.02
   6   6     0.01   0.00  -0.14     0.03   0.07   0.06    -0.04  -0.12  -0.21
   7   6     0.01  -0.02   0.03     0.04   0.04  -0.02     0.04  -0.00   0.02
   8   6     0.03   0.07  -0.06     0.00  -0.01   0.02    -0.00  -0.01   0.01
   9   8     0.04   0.01   0.07    -0.03  -0.02  -0.06     0.06   0.03   0.12
  10   6     0.03   0.04  -0.01     0.24   0.31  -0.11     0.05   0.05  -0.03
  11   6    -0.01  -0.02   0.01    -0.00   0.00  -0.00    -0.00   0.00  -0.01
  12   6    -0.04  -0.01   0.02    -0.05  -0.01  -0.01    -0.09  -0.02   0.01
  13   6     0.02  -0.01   0.02     0.01   0.01  -0.01     0.03  -0.01   0.04
  14   1    -0.13  -0.05  -0.04     0.04  -0.13  -0.04    -0.25   0.02  -0.06
  15   8     0.00  -0.01  -0.01    -0.10  -0.06  -0.04     0.00  -0.01  -0.01
  16   6     0.01   0.00  -0.00     0.02   0.02  -0.02     0.01   0.00  -0.00
  17   1    -0.13  -0.12   0.14     0.02   0.03  -0.01     0.19   0.23  -0.15
  18   1     0.00  -0.01  -0.01    -0.01  -0.02  -0.00     0.23   0.24  -0.18
  19   1    -0.34   0.18   0.29    -0.00  -0.01  -0.00     0.02  -0.01  -0.01
  20   1    -0.33   0.14   0.26     0.02  -0.01  -0.00     0.17  -0.03  -0.19
  21   1    -0.15   0.16  -0.02     0.00   0.02   0.01    -0.01  -0.06  -0.05
  22   1    -0.16   0.10   0.19     0.10  -0.14  -0.15    -0.20   0.29   0.30
  23   1    -0.01  -0.01  -0.00    -0.04  -0.02  -0.01    -0.00  -0.00  -0.02
  24   1    -0.03  -0.01  -0.00    -0.06  -0.02  -0.02    -0.03   0.02  -0.01
  25   1     0.06  -0.12  -0.10    -0.04   0.10   0.08     0.09  -0.19  -0.17
  26   1    -0.05  -0.09   0.05    -0.22  -0.39   0.22    -0.07  -0.12   0.06
  27   1    -0.02  -0.03   0.02    -0.22  -0.39   0.34    -0.02  -0.03   0.03
  28   1    -0.03  -0.02   0.00    -0.01  -0.01  -0.00    -0.01  -0.00   0.00
  29   1    -0.06  -0.00  -0.05    -0.01   0.00  -0.00     0.00  -0.00   0.00
  30   1     0.02   0.02  -0.03    -0.01  -0.02   0.03     0.02   0.01  -0.02
  31   1    -0.03   0.01  -0.03     0.01   0.01   0.01    -0.03  -0.00  -0.05
  32   1     0.01   0.00  -0.01     0.14   0.08  -0.21     0.01  -0.00  -0.01
  33   1     0.00   0.01  -0.00    -0.00  -0.01   0.01     0.01   0.01  -0.01
  34   1     0.01   0.00  -0.00    -0.03   0.00   0.02     0.02   0.00  -0.01
  35   1     0.01   0.01  -0.00    -0.01  -0.04   0.02     0.01   0.02  -0.01
                     67                     68                     69
                        a                      a                      a 
 Frequencies --  1352.3583              1365.5843              1402.2621
 Red. masses --     4.5123                 4.6152                 2.8627
 Frc consts  --     0.0000                 0.0000                 0.0000
 IR Inten    --    35.1056                 1.7631                 7.5306
 Raman Activ --     0.0000                 0.0000                 0.0000
 Depolar     --     0.0000                 0.0000                 0.0000
 Atom AN      X      Y      Z        X      Y      Z        X      Y      Z
   1   6    -0.01  -0.02   0.15    -0.02  -0.01  -0.09    -0.01   0.00   0.00
   2   6    -0.22   0.02  -0.01     0.32   0.09   0.19     0.02   0.00   0.01
   3   6     0.20   0.16  -0.08     0.14   0.16  -0.18    -0.00  -0.01  -0.00
   4   6    -0.12  -0.05   0.06    -0.12  -0.01   0.05     0.00  -0.02   0.01
   5   6    -0.01   0.16  -0.03    -0.01   0.05  -0.04    -0.00   0.00   0.01
   6   6    -0.04  -0.12  -0.23    -0.01  -0.03   0.01    -0.00  -0.01  -0.03
   7   6     0.03   0.03  -0.04    -0.01   0.01   0.01    -0.00   0.00  -0.00
   8   6    -0.00  -0.05   0.04    -0.02  -0.02   0.01     0.00   0.00  -0.00
   9   8     0.06   0.03   0.12     0.00   0.00   0.01     0.01   0.00   0.02
  10   6     0.03   0.05  -0.04     0.00  -0.01   0.02    -0.02  -0.02  -0.02
  11   6     0.00   0.01  -0.01     0.00   0.00  -0.00     0.00  -0.00   0.00
  12   6     0.14   0.01   0.03    -0.25  -0.05  -0.01    -0.08   0.02  -0.10
  13   6    -0.04   0.00  -0.02     0.07   0.00   0.04     0.01   0.04  -0.06
  14   1     0.35  -0.12   0.05    -0.58  -0.22  -0.16     0.07   0.01   0.02
  15   8    -0.01  -0.00  -0.01    -0.00  -0.00   0.00     0.01   0.00   0.00
  16   6    -0.04  -0.01  -0.00     0.07   0.02  -0.01     0.28   0.17  -0.19
  17   1    -0.14  -0.18   0.07    -0.07  -0.09   0.06     0.01   0.01   0.01
  18   1    -0.20  -0.21   0.15    -0.24  -0.34   0.16    -0.01   0.00   0.01
  19   1     0.15  -0.05  -0.12     0.10  -0.05  -0.09     0.01   0.04   0.01
  20   1     0.04  -0.05  -0.01     0.03  -0.04  -0.00    -0.02   0.03  -0.04
  21   1     0.04  -0.14  -0.05     0.04  -0.06   0.00    -0.00  -0.00  -0.00
  22   1    -0.15   0.34   0.25    -0.01   0.04   0.02    -0.03   0.05   0.05
  23   1    -0.01  -0.01   0.04    -0.01  -0.00  -0.02    -0.00  -0.00   0.01
  24   1    -0.06  -0.04  -0.01     0.04   0.02   0.01     0.00  -0.01   0.00
  25   1     0.09  -0.18  -0.17     0.01  -0.01  -0.01     0.01  -0.02  -0.02
  26   1    -0.03  -0.07   0.05     0.00   0.02  -0.02     0.04   0.01   0.04
  27   1    -0.05  -0.08   0.06     0.01   0.02  -0.02    -0.00   0.06  -0.00
  28   1    -0.01   0.00   0.00     0.03   0.02  -0.00    -0.01  -0.01   0.00
  29   1     0.02  -0.00   0.01     0.03  -0.00   0.03    -0.01   0.00  -0.01
  30   1     0.02   0.08  -0.10    -0.01  -0.06   0.07    -0.09  -0.17   0.23
  31   1    -0.02  -0.01  -0.04    -0.01  -0.00  -0.02     0.18  -0.06   0.18
  32   1     0.01   0.01  -0.02    -0.00  -0.00   0.00    -0.02  -0.01   0.02
  33   1    -0.00  -0.02  -0.00     0.01   0.02  -0.00    -0.19  -0.16   0.34
  34   1     0.00   0.01   0.02    -0.00  -0.01  -0.04    -0.42  -0.06   0.25
  35   1     0.02  -0.02   0.02    -0.02   0.04  -0.03    -0.31  -0.34   0.11
                     70                     71                     72
                        a                      a                      a 
 Frequencies --  1412.3272              1423.3163              1464.9241
 Red. masses --     2.3546                 2.5217                 1.8727
 Frc consts  --     0.0000                 0.0000                 0.0000
 IR Inten    --     3.9138                17.4621                 0.7756
 Raman Activ --     0.0000                 0.0000                 0.0000
 Depolar     --     0.0000                 0.0000                 0.0000
 Atom AN      X      Y      Z        X      Y      Z        X      Y      Z
   1   6     0.01   0.00  -0.01     0.01   0.00  -0.01    -0.01  -0.02   0.02
   2   6     0.01  -0.00   0.01    -0.01   0.01  -0.03    -0.01   0.00  -0.00
   3   6     0.01   0.01  -0.00     0.00   0.01   0.01     0.02  -0.05  -0.07
   4   6    -0.01  -0.01   0.03    -0.00   0.05  -0.02    -0.00   0.02  -0.02
   5   6    -0.07   0.02  -0.09    -0.00  -0.00  -0.01    -0.01   0.01  -0.00
   6   6    -0.01  -0.01   0.02     0.00   0.01   0.03     0.01  -0.00  -0.01
   7   6    -0.08  -0.06   0.01    -0.00  -0.01   0.00     0.07  -0.14   0.20
   8   6     0.23   0.08   0.10     0.01   0.00   0.01     0.01  -0.02   0.02
   9   8     0.00  -0.00   0.00    -0.01   0.00  -0.02    -0.00   0.00  -0.00
  10   6     0.00  -0.00   0.00    -0.01  -0.01  -0.01     0.01   0.04   0.05
  11   6     0.14   0.06   0.06     0.01   0.00   0.00    -0.00  -0.00  -0.00
  12   6    -0.01   0.00  -0.01     0.03  -0.12   0.22     0.01   0.00  -0.00
  13   6     0.00   0.00  -0.00     0.02  -0.05   0.09    -0.00   0.00  -0.00
  14   1    -0.02   0.00  -0.00    -0.11  -0.00  -0.03     0.05  -0.00   0.01
  15   8     0.00  -0.00  -0.00     0.01   0.00  -0.00     0.00   0.00   0.01
  16   6    -0.01  -0.01   0.01     0.12   0.10  -0.17     0.02  -0.00   0.00
  17   1    -0.00  -0.00  -0.01    -0.01  -0.01  -0.02     0.07   0.05   0.20
  18   1    -0.01  -0.02   0.00     0.02   0.01  -0.01    -0.15   0.13   0.09
  19   1     0.04  -0.01  -0.03    -0.02  -0.10  -0.02    -0.01  -0.06  -0.01
  20   1     0.00   0.01  -0.03     0.05  -0.06   0.10     0.02  -0.03   0.05
  21   1     0.07  -0.00   0.05     0.01   0.01   0.00     0.01  -0.01   0.00
  22   1     0.01   0.03  -0.00     0.04  -0.06  -0.07    -0.00   0.00   0.01
  23   1     0.05   0.02   0.00     0.01   0.00  -0.01     0.05   0.06  -0.61
  24   1     0.05   0.04   0.01     0.01   0.01  -0.00    -0.28   0.53  -0.16
  25   1     0.00  -0.00  -0.01    -0.01   0.02   0.02    -0.01   0.00   0.02
  26   1     0.00   0.00   0.00     0.02   0.01   0.02    -0.09  -0.02  -0.13
  27   1    -0.00   0.00   0.00    -0.00   0.03   0.00     0.08  -0.09  -0.10
  28   1    -0.51  -0.41   0.06    -0.03  -0.02   0.00     0.00   0.00  -0.00
  29   1    -0.46   0.05  -0.46    -0.02   0.00  -0.02     0.00   0.00   0.00
  30   1    -0.01  -0.02   0.02     0.17   0.32  -0.45    -0.00   0.00   0.00
  31   1     0.02  -0.01   0.01    -0.38   0.12  -0.38     0.01  -0.00   0.00
  32   1    -0.00  -0.00   0.00    -0.01  -0.00   0.01    -0.01  -0.01   0.02
  33   1     0.01   0.01  -0.01    -0.10  -0.05   0.15    -0.02  -0.00   0.03
  34   1     0.01  -0.00  -0.02    -0.13   0.04   0.22    -0.01  -0.01  -0.02
  35   1     0.01   0.02  -0.01    -0.08  -0.22   0.11    -0.04   0.01  -0.02
                     73                     74                     75
                        a                      a                      a 
 Frequencies --  1477.3612              1479.7734              1483.1312
 Red. masses --     1.5881                 1.7626                 1.8357
 Frc consts  --     0.0000                 0.0000                 0.0000
 IR Inten    --     1.8217                 2.6242                 1.7916
 Raman Activ --     0.0000                 0.0000                 0.0000
 Depolar     --     0.0000                 0.0000                 0.0000
 Atom AN      X      Y      Z        X      Y      Z        X      Y      Z
   1   6     0.00   0.00  -0.01     0.01   0.02   0.03     0.00  -0.01  -0.00
   2   6     0.01  -0.01  -0.00    -0.00  -0.01  -0.01    -0.00   0.02   0.02
   3   6    -0.00  -0.01  -0.01    -0.01   0.03   0.04    -0.03   0.11   0.14
   4   6     0.00   0.01  -0.01     0.00   0.01  -0.00    -0.00  -0.15   0.09
   5   6    -0.00   0.00  -0.00     0.00  -0.00  -0.00     0.00  -0.02   0.01
   6   6    -0.00  -0.00   0.00    -0.00  -0.00  -0.00     0.01   0.02   0.01
   7   6     0.01  -0.01   0.02    -0.02   0.02  -0.04     0.02  -0.04   0.06
   8   6     0.00  -0.00   0.00    -0.00   0.00  -0.00     0.00   0.00   0.00
   9   8     0.00  -0.00   0.00    -0.00   0.00  -0.00    -0.01  -0.00  -0.01
  10   6    -0.01  -0.03  -0.06     0.03   0.11   0.16     0.00   0.01   0.02
  11   6    -0.00  -0.00   0.00     0.00   0.00   0.00    -0.01  -0.00  -0.00
  12   6    -0.03   0.02   0.02    -0.01   0.01   0.02     0.00  -0.02   0.03
  13   6     0.00   0.01  -0.01     0.00  -0.02   0.03    -0.01   0.01  -0.02
  14   1    -0.02   0.03   0.00     0.03   0.02   0.01    -0.00  -0.01   0.00
  15   8     0.00  -0.00  -0.01    -0.00   0.00   0.03     0.00   0.00   0.00
  16   6    -0.08   0.19   0.03     0.09   0.08   0.07    -0.04   0.00  -0.04
  17   1     0.01   0.01   0.03    -0.04  -0.03  -0.10    -0.16  -0.13  -0.41
  18   1    -0.02   0.02   0.01     0.07  -0.08  -0.04     0.26  -0.36  -0.14
  19   1    -0.01  -0.02  -0.00    -0.01  -0.01   0.00     0.17   0.39   0.02
  20   1     0.01  -0.01   0.02     0.00  -0.01   0.02    -0.16   0.22  -0.33
  21   1     0.00  -0.00  -0.00    -0.00   0.00  -0.00    -0.00  -0.00   0.00
  22   1    -0.00   0.00   0.00     0.01  -0.00  -0.01     0.01  -0.03  -0.02
  23   1     0.00   0.00  -0.05     0.01   0.00   0.12     0.01   0.02  -0.19
  24   1    -0.02   0.05  -0.01     0.05  -0.09   0.03    -0.09   0.18  -0.05
  25   1    -0.00  -0.00   0.00     0.00   0.00  -0.00    -0.01   0.01   0.01
  26   1     0.10   0.03   0.13    -0.32  -0.09  -0.41    -0.03  -0.00  -0.04
  27   1    -0.08   0.11   0.10     0.24  -0.34  -0.31     0.03  -0.03  -0.04
  28   1     0.00   0.00   0.00    -0.00  -0.00   0.00     0.01   0.01  -0.00
  29   1     0.00  -0.00   0.00    -0.00   0.00  -0.00     0.01  -0.00   0.01
  30   1     0.00  -0.00  -0.00     0.02   0.04  -0.05     0.00   0.01  -0.02
  31   1    -0.00  -0.00  -0.01    -0.04   0.01  -0.04    -0.02   0.01  -0.03
  32   1    -0.00  -0.01   0.00    -0.00  -0.00   0.01    -0.00  -0.00   0.01
  33   1     0.27  -0.57  -0.26    -0.03  -0.29   0.12     0.04   0.03  -0.07
  34   1    -0.37  -0.14  -0.07    -0.21  -0.18  -0.31     0.01   0.05   0.14
  35   1     0.47  -0.02   0.18    -0.07   0.17  -0.13     0.09  -0.09   0.08
                     76                     77                     78
                        a                      a                      a 
 Frequencies --  1492.1217              1494.3246              1722.0468
 Red. masses --     1.7066                 1.9395                11.2246
 Frc consts  --     0.0000                 0.0000                 0.0000
 IR Inten    --     5.9646                 0.6200                28.7240
 Raman Activ --     0.0000                 0.0000                 0.0000
 Depolar     --     0.0000                 0.0000                 0.0000
 Atom AN      X      Y      Z        X      Y      Z        X      Y      Z
   1   6    -0.00   0.02   0.01     0.00  -0.00   0.00    -0.01   0.01   0.00
   2   6     0.02  -0.01   0.00     0.01  -0.00   0.01    -0.03   0.02  -0.06
   3   6     0.02  -0.05  -0.08    -0.03   0.10   0.12     0.00  -0.01   0.00
   4   6    -0.00  -0.03   0.02     0.01   0.19  -0.10     0.00   0.00  -0.00
   5   6    -0.00   0.00   0.00     0.00   0.01  -0.01    -0.00   0.00  -0.00
   6   6    -0.00   0.00  -0.00    -0.01  -0.02  -0.01    -0.00  -0.00   0.00
   7   6    -0.02   0.03  -0.04     0.01  -0.01   0.02     0.00  -0.00  -0.00
   8   6     0.00   0.00  -0.01    -0.01  -0.01   0.02     0.00   0.00   0.00
   9   8     0.00  -0.00  -0.00     0.01   0.00   0.01     0.00  -0.00  -0.00
  10   6     0.01   0.07   0.11     0.00   0.01   0.02     0.00  -0.00  -0.00
  11   6     0.00   0.00   0.00     0.01   0.00  -0.00    -0.00  -0.00  -0.00
  12   6    -0.00  -0.00  -0.00    -0.01   0.02  -0.04     0.14  -0.33   0.65
  13   6    -0.01   0.03  -0.04    -0.01   0.02  -0.04    -0.12   0.28  -0.53
  14   1    -0.06  -0.02  -0.02     0.01   0.00   0.01    -0.10  -0.01  -0.03
  15   8     0.00   0.00   0.02     0.00   0.00   0.00    -0.00  -0.00  -0.00
  16   6    -0.13  -0.01  -0.11    -0.05  -0.02  -0.03     0.02   0.04  -0.05
  17   1     0.08   0.06   0.20    -0.12  -0.08  -0.34     0.00   0.00   0.01
  18   1    -0.13   0.16   0.07     0.23  -0.26  -0.13     0.00   0.02  -0.00
  19   1     0.03   0.06  -0.00    -0.21  -0.45  -0.01    -0.00  -0.01   0.00
  20   1    -0.02   0.03  -0.06     0.18  -0.25   0.39     0.00  -0.00   0.00
  21   1     0.00  -0.00   0.00    -0.00   0.01  -0.00     0.00   0.00   0.00
  22   1     0.00  -0.00  -0.00    -0.01   0.04   0.02     0.00   0.00  -0.00
  23   1     0.00  -0.01   0.13     0.01   0.01  -0.07     0.00   0.00   0.00
  24   1     0.06  -0.12   0.03    -0.03   0.07  -0.02     0.00  -0.00   0.00
  25   1     0.00   0.00  -0.00     0.00  -0.01  -0.01    -0.00   0.00   0.00
  26   1    -0.21  -0.06  -0.27    -0.04  -0.01  -0.05    -0.00  -0.00   0.00
  27   1     0.18  -0.21  -0.23     0.04  -0.04  -0.05    -0.00  -0.00   0.00
  28   1    -0.00  -0.00   0.00    -0.01  -0.01   0.00     0.00   0.00  -0.00
  29   1    -0.00   0.00  -0.00    -0.00   0.00  -0.00     0.00  -0.00   0.00
  30   1    -0.03  -0.04   0.05    -0.04  -0.07   0.10    -0.12  -0.07   0.05
  31   1     0.04  -0.01   0.03     0.10  -0.02   0.10     0.15   0.03   0.02
  32   1    -0.01  -0.00   0.02    -0.00  -0.00   0.01     0.00   0.00  -0.00
  33   1     0.12   0.12  -0.23     0.05   0.07  -0.09    -0.02  -0.03   0.04
  34   1     0.06   0.17   0.44     0.03   0.07   0.17     0.05   0.00  -0.06
  35   1     0.27  -0.28   0.26     0.09  -0.10   0.09     0.01   0.05  -0.03
                     79                     80                     81
                        a                      a                      a 
 Frequencies --  1736.7314              2892.4058              2917.7085
 Red. masses --    11.5763                 1.7479                 1.7569
 Frc consts  --     0.0000                 0.0000                 0.0000
 IR Inten    --    28.9326                68.5330                46.6669
 Raman Activ --     0.0000                 0.0000                 0.0000
 Depolar     --     0.0000                 0.0000                 0.0000
 Atom AN      X      Y      Z        X      Y      Z        X      Y      Z
   1   6     0.01   0.01  -0.00    -0.01   0.01   0.00     0.00  -0.00  -0.01
   2   6    -0.00   0.00  -0.00     0.00   0.00  -0.00     0.05   0.07  -0.24
   3   6    -0.00  -0.00  -0.00     0.00  -0.00   0.00     0.02   0.00   0.02
   4   6     0.01  -0.01  -0.00     0.00   0.00   0.00     0.00   0.00   0.00
   5   6     0.06  -0.00   0.06     0.00   0.00  -0.00    -0.00  -0.00   0.00
   6   6     0.01   0.00   0.01    -0.00   0.00   0.00    -0.00  -0.00   0.00
   7   6     0.06   0.05  -0.00     0.00  -0.01  -0.00    -0.00   0.01   0.01
   8   6    -0.66  -0.24  -0.26     0.00  -0.00  -0.00    -0.00   0.00  -0.00
   9   8    -0.00  -0.00  -0.00     0.00  -0.00   0.00     0.00  -0.00  -0.00
  10   6    -0.00  -0.00   0.00    -0.19   0.16   0.07     0.00  -0.00  -0.00
  11   6     0.54   0.20   0.22     0.00  -0.00   0.00     0.00  -0.00   0.00
  12   6     0.00  -0.00   0.00     0.00  -0.00   0.00    -0.00   0.00  -0.01
  13   6    -0.00   0.00  -0.00     0.00   0.00  -0.00    -0.00  -0.00   0.00
  14   1     0.00   0.00   0.00    -0.00  -0.01   0.02    -0.19  -0.27   0.90
  15   8    -0.00  -0.00   0.00    -0.01  -0.00   0.01    -0.00   0.00   0.00
  16   6    -0.00   0.00  -0.00     0.00  -0.00  -0.00     0.00   0.00   0.01
  17   1    -0.00  -0.00   0.00    -0.00   0.00   0.00     0.00   0.00   0.00
  18   1    -0.00  -0.00   0.00    -0.00  -0.00  -0.00    -0.06  -0.00  -0.08
  19   1    -0.00   0.01   0.01     0.00  -0.00   0.00    -0.00   0.00  -0.00
  20   1    -0.00   0.00  -0.01    -0.00  -0.00  -0.00    -0.00  -0.00  -0.00
  21   1    -0.03  -0.00  -0.02    -0.00  -0.00   0.00     0.01   0.00  -0.01
  22   1     0.00   0.00   0.00     0.00  -0.00   0.00    -0.00   0.00  -0.00
  23   1    -0.01  -0.00  -0.01    -0.01   0.03   0.00     0.01  -0.02   0.00
  24   1    -0.02  -0.00  -0.01    -0.00  -0.00   0.01     0.01  -0.00  -0.02
  25   1    -0.00   0.00   0.00     0.00  -0.00  -0.00     0.00   0.00   0.00
  26   1     0.00   0.00   0.00     0.66  -0.59  -0.37    -0.01   0.01   0.01
  27   1    -0.00   0.00   0.00     0.04   0.02   0.06     0.00  -0.00   0.00
  28   1    -0.03  -0.10   0.09    -0.00   0.00  -0.00    -0.00   0.00  -0.00
  29   1    -0.02   0.08  -0.11    -0.00   0.00   0.00     0.00   0.00  -0.00
  30   1    -0.00  -0.00   0.00     0.00   0.00   0.00     0.01   0.00   0.00
  31   1     0.00   0.00   0.00    -0.00  -0.00   0.00    -0.00  -0.00   0.00
  32   1     0.00   0.00  -0.00     0.00  -0.00  -0.00    -0.00  -0.00   0.00
  33   1    -0.00  -0.00   0.00    -0.00   0.00  -0.00    -0.01  -0.00  -0.01
  34   1     0.00   0.00  -0.00     0.00   0.00  -0.00    -0.01   0.01  -0.00
  35   1     0.00   0.00  -0.00    -0.00   0.00   0.00     0.00  -0.01  -0.02
                     82                     83                     84
                        a                      a                      a 
 Frequencies --  2929.9967              2958.3054              2963.1824
 Red. masses --     1.8401                 1.7720                 1.9012
 Frc consts  --     0.0000                 0.0000                 0.0000
 IR Inten    --    54.6634                55.1827                29.5528
 Raman Activ --     0.0000                 0.0000                 0.0000
 Depolar     --     0.0000                 0.0000                 0.0000
 Atom AN      X      Y      Z        X      Y      Z        X      Y      Z
   1   6    -0.01   0.01   0.00    -0.00  -0.00  -0.00     0.00  -0.00  -0.00
   2   6    -0.00  -0.00   0.00    -0.00  -0.00  -0.00    -0.00   0.01  -0.02
   3   6    -0.00  -0.00  -0.00    -0.02   0.01  -0.03    -0.15   0.05  -0.14
   4   6    -0.00  -0.00  -0.00     0.03   0.05   0.03     0.12   0.09   0.10
   5   6     0.00   0.00  -0.00    -0.16  -0.07   0.18     0.04   0.02  -0.04
   6   6     0.00   0.00   0.00    -0.01   0.00   0.00    -0.00  -0.00  -0.00
   7   6    -0.14   0.23   0.07    -0.00   0.00  -0.00    -0.00  -0.00   0.01
   8   6    -0.00   0.01   0.00    -0.00  -0.00   0.00     0.00   0.00  -0.00
   9   8     0.00  -0.00   0.00     0.00  -0.00  -0.00    -0.00   0.00   0.00
  10   6    -0.00   0.01   0.00    -0.00   0.00   0.00    -0.00  -0.00  -0.00
  11   6    -0.00  -0.00   0.00     0.00   0.00  -0.00    -0.00  -0.00   0.00
  12   6     0.00   0.00   0.00     0.00  -0.00   0.00     0.00  -0.00  -0.00
  13   6    -0.00  -0.00  -0.00    -0.00  -0.00   0.00     0.00   0.00  -0.00
  14   1     0.01   0.01  -0.02     0.00   0.00  -0.00    -0.01  -0.02   0.06
  15   8    -0.00  -0.00   0.00    -0.00  -0.00   0.00     0.00   0.00   0.00
  16   6    -0.00  -0.00  -0.00    -0.00  -0.00  -0.00     0.00   0.00   0.00
  17   1    -0.00   0.00  -0.00     0.02  -0.02  -0.01     0.20  -0.19  -0.04
  18   1     0.01  -0.00   0.02     0.07   0.00   0.10     0.36   0.03   0.55
  19   1     0.00  -0.00   0.00    -0.00   0.01  -0.01    -0.15   0.09  -0.24
  20   1     0.00   0.00   0.00    -0.13  -0.19  -0.07    -0.28  -0.40  -0.13
  21   1    -0.01  -0.00   0.01     0.58   0.27  -0.66    -0.15  -0.07   0.17
  22   1    -0.00   0.00  -0.00     0.02  -0.01   0.02     0.00  -0.00   0.00
  23   1     0.46  -0.82  -0.05     0.00  -0.01  -0.00    -0.01   0.02   0.00
  24   1     0.03  -0.00  -0.20    -0.00   0.00   0.01     0.01  -0.01  -0.04
  25   1    -0.00   0.00  -0.00    -0.00  -0.00  -0.00     0.00   0.00  -0.00
  26   1     0.02  -0.02  -0.01     0.00  -0.00  -0.00    -0.00   0.00   0.00
  27   1    -0.00   0.00  -0.00     0.00   0.00   0.00     0.00  -0.00   0.00
  28   1    -0.00   0.00  -0.00     0.00   0.00  -0.00    -0.00  -0.00   0.00
  29   1     0.00  -0.00   0.00    -0.00  -0.01   0.00     0.00   0.00  -0.00
  30   1     0.00  -0.00   0.00    -0.00   0.00  -0.00    -0.00   0.00  -0.00
  31   1    -0.00  -0.00   0.00     0.00   0.00  -0.00    -0.00  -0.00   0.00
  32   1    -0.00  -0.00   0.00     0.00   0.00   0.00    -0.00  -0.00  -0.00
  33   1     0.00   0.00   0.00     0.00   0.00   0.00    -0.00  -0.00  -0.00
  34   1     0.00  -0.00   0.00     0.00   0.00  -0.00    -0.00   0.00  -0.00
  35   1    -0.00   0.00   0.00    -0.00   0.00   0.00     0.00  -0.00  -0.00
                     85                     86                     87
                        a                      a                      a 
 Frequencies --  2972.3777              2981.4110              2988.4981
 Red. masses --     1.9211                 1.6414                 1.5754
 Frc consts  --     0.0000                 0.0000                 0.0000
 IR Inten    --    85.1682                40.7374                39.3963
 Raman Activ --     0.0000                 0.0000                 0.0000
 Depolar     --     0.0000                 0.0000                 0.0000
 Atom AN      X      Y      Z        X      Y      Z        X      Y      Z
   1   6    -0.00   0.00   0.00     0.00   0.00  -0.01     0.00   0.00   0.00
   2   6     0.00  -0.01   0.01     0.00   0.00  -0.00    -0.00   0.00   0.01
   3   6     0.16  -0.06   0.10    -0.03   0.02  -0.01    -0.07   0.13   0.12
   4   6     0.13   0.13   0.09    -0.00  -0.01   0.00     0.05  -0.01   0.07
   5   6     0.02   0.01  -0.02     0.00  -0.00  -0.00    -0.00  -0.00   0.01
   6   6    -0.00   0.00  -0.00     0.00  -0.00   0.00    -0.01   0.00  -0.01
   7   6     0.00   0.00  -0.02     0.03  -0.00  -0.24    -0.00   0.00   0.01
   8   6     0.00   0.00  -0.00     0.00   0.00  -0.01    -0.00  -0.00  -0.00
   9   8    -0.00   0.00   0.00     0.00  -0.00   0.00    -0.00   0.00   0.00
  10   6    -0.00  -0.00  -0.00     0.01   0.00   0.00     0.00   0.00   0.00
  11   6    -0.00  -0.00   0.00    -0.00  -0.00   0.00     0.00  -0.00   0.00
  12   6    -0.00   0.00   0.00    -0.00   0.00   0.00     0.00  -0.00  -0.00
  13   6     0.00   0.00  -0.00     0.00   0.00  -0.00     0.00   0.00  -0.00
  14   1     0.01   0.01  -0.04    -0.01  -0.00   0.02     0.01   0.01  -0.04
  15   8     0.00   0.00  -0.00     0.00   0.00   0.00     0.00  -0.00  -0.00
  16   6    -0.00  -0.00  -0.00    -0.00   0.00   0.00     0.02  -0.05  -0.06
  17   1    -0.30   0.28   0.04     0.07  -0.06  -0.01     0.55  -0.47  -0.03
  18   1    -0.25  -0.03  -0.39     0.03   0.01   0.05    -0.28   0.00  -0.39
  19   1    -0.08   0.06  -0.13    -0.02   0.01  -0.03    -0.16   0.07  -0.23
  20   1    -0.39  -0.55  -0.19     0.03   0.04   0.02    -0.02  -0.04  -0.00
  21   1    -0.07  -0.03   0.08    -0.00  -0.00   0.01     0.01   0.01  -0.01
  22   1     0.01  -0.01   0.01    -0.01   0.00  -0.01     0.03  -0.01   0.03
  23   1     0.02  -0.03  -0.01     0.11  -0.19  -0.05     0.00  -0.00   0.00
  24   1    -0.02   0.02   0.09    -0.21   0.19   0.89     0.01  -0.01  -0.04
  25   1     0.00   0.00  -0.00    -0.00  -0.00   0.00    -0.00  -0.00  -0.00
  26   1    -0.00   0.00   0.00     0.00  -0.00  -0.00     0.00  -0.00  -0.00
  27   1     0.00  -0.00   0.00    -0.03   0.00  -0.02    -0.01   0.00  -0.01
  28   1    -0.00   0.00  -0.00    -0.00   0.01  -0.01    -0.00   0.00   0.00
  29   1     0.00   0.00  -0.00     0.00  -0.00   0.00     0.00   0.00  -0.00
  30   1    -0.00  -0.00  -0.00     0.00   0.00   0.00     0.00   0.00   0.00
  31   1    -0.01  -0.00   0.00    -0.00  -0.00   0.00    -0.00  -0.00   0.00
  32   1     0.00  -0.00   0.00    -0.00  -0.00   0.00     0.00   0.00   0.00
  33   1     0.00   0.00   0.00    -0.00  -0.00  -0.00     0.02  -0.01   0.00
  34   1     0.00  -0.00   0.00    -0.00   0.00   0.00    -0.01   0.03  -0.02
  35   1    -0.00   0.00   0.00     0.00  -0.01  -0.01    -0.07   0.16   0.24
                     88                     89                     90
                        a                      a                      a 
 Frequencies --  2990.1409              2992.7326              2996.3162
 Red. masses --     1.7668                 1.6831                 1.5829
 Frc consts  --     0.0000                 0.0000                 0.0000
 IR Inten    --    74.6795                33.4435                72.0143
 Raman Activ --     0.0000                 0.0000                 0.0000
 Depolar     --     0.0000                 0.0000                 0.0000
 Atom AN      X      Y      Z        X      Y      Z        X      Y      Z
   1   6     0.00  -0.00   0.00    -0.01  -0.00  -0.00     0.00   0.00   0.00
   2   6     0.00   0.00  -0.01    -0.00   0.00   0.00    -0.00   0.00   0.00
   3   6     0.02  -0.04  -0.04    -0.00  -0.00  -0.00    -0.06   0.06   0.01
   4   6    -0.02   0.01  -0.03    -0.00  -0.00  -0.00    -0.07   0.13  -0.15
   5   6     0.00   0.00  -0.00    -0.00  -0.00   0.00     0.01   0.01  -0.02
   6   6     0.00  -0.00   0.00     0.02  -0.01   0.02     0.03  -0.01   0.03
   7   6     0.00  -0.00  -0.01     0.00   0.00  -0.01     0.00   0.00  -0.00
   8   6     0.00   0.00  -0.00    -0.00   0.00  -0.00     0.00   0.00   0.00
   9   8     0.00  -0.00  -0.00     0.00  -0.00   0.00     0.00  -0.00   0.00
  10   6     0.01   0.00   0.01    -0.19  -0.01  -0.16     0.00   0.00   0.00
  11   6     0.00   0.00   0.00    -0.00  -0.00   0.00    -0.00  -0.00   0.00
  12   6     0.00  -0.00  -0.01     0.00  -0.00  -0.00    -0.00   0.00  -0.00
  13   6     0.00  -0.00   0.00    -0.00   0.00  -0.00    -0.00  -0.00   0.00
  14   1    -0.00  -0.01   0.03    -0.00   0.00  -0.00     0.00   0.00  -0.00
  15   8     0.00  -0.00   0.00     0.00   0.00  -0.01     0.00   0.00   0.00
  16   6     0.06  -0.16  -0.19     0.00  -0.01  -0.01    -0.00   0.01   0.01
  17   1    -0.17   0.15   0.01    -0.00   0.00  -0.00     0.24  -0.21  -0.02
  18   1     0.09   0.00   0.13     0.00   0.00   0.00    -0.04   0.01  -0.04
  19   1     0.07  -0.03   0.11     0.00  -0.00   0.00     0.46  -0.19   0.66
  20   1    -0.00   0.00  -0.00     0.00   0.00   0.00    -0.21  -0.26  -0.12
  21   1    -0.01  -0.00   0.01     0.00   0.00  -0.00    -0.05  -0.02   0.05
  22   1    -0.01   0.00  -0.01    -0.08   0.03  -0.07    -0.12   0.04  -0.10
  23   1     0.00  -0.00  -0.00     0.01  -0.01  -0.00     0.00  -0.00  -0.00
  24   1    -0.01   0.01   0.03    -0.01   0.01   0.03    -0.00   0.00   0.02
  25   1     0.00   0.00   0.00    -0.00  -0.00   0.00     0.00  -0.00   0.00
  26   1     0.00  -0.00   0.00    -0.09   0.05   0.01     0.00  -0.00  -0.00
  27   1    -0.05   0.00  -0.04     0.76  -0.02   0.57    -0.01   0.00  -0.01
  28   1    -0.00   0.00  -0.00    -0.00   0.00  -0.00    -0.00   0.00  -0.00
  29   1    -0.00  -0.00   0.00     0.00   0.00  -0.00     0.00   0.00  -0.00
  30   1     0.00  -0.00   0.00     0.00   0.00   0.00     0.00   0.00   0.00
  31   1    -0.00   0.00   0.00     0.00  -0.00  -0.00     0.01   0.01  -0.01
  32   1     0.00  -0.00  -0.00    -0.01   0.00  -0.01    -0.00  -0.00   0.00
  33   1     0.05  -0.02   0.00     0.01   0.00   0.01    -0.01   0.00  -0.00
  34   1    -0.04   0.10  -0.07    -0.00   0.01  -0.00     0.00  -0.00   0.00
  35   1    -0.22   0.47   0.73    -0.02   0.03   0.05     0.01  -0.02  -0.03
                     91                     92                     93
                        a                      a                      a 
 Frequencies --  3006.6454              3040.1232              3040.4631
 Red. masses --     1.7478                 1.4818                 1.8630
 Frc consts  --     0.0000                 0.0000                 0.0000
 IR Inten    --    71.2549                45.8678                18.1983
 Raman Activ --     0.0000                 0.0000                 0.0000
 Depolar     --     0.0000                 0.0000                 0.0000
 Atom AN      X      Y      Z        X      Y      Z        X      Y      Z
   1   6    -0.01   0.00  -0.01    -0.00  -0.00  -0.00    -0.00   0.00   0.00
   2   6    -0.00   0.00  -0.00     0.00  -0.00   0.00    -0.00  -0.00   0.00
   3   6    -0.01   0.00  -0.00    -0.00   0.00  -0.00     0.00   0.00   0.00
   4   6    -0.02   0.02  -0.03    -0.00   0.00  -0.00     0.00  -0.00   0.00
   5   6     0.00   0.01  -0.01     0.00   0.00  -0.00    -0.00  -0.00   0.00
   6   6    -0.18   0.06  -0.17    -0.00   0.00  -0.00    -0.00   0.00  -0.00
   7   6     0.00   0.00  -0.00     0.00  -0.00  -0.00    -0.00   0.00   0.00
   8   6     0.00   0.00   0.00     0.00   0.00   0.00    -0.00  -0.00   0.00
   9   8    -0.01   0.01   0.00     0.00   0.00   0.00    -0.00   0.00  -0.00
  10   6    -0.02  -0.00  -0.02     0.00   0.00   0.00    -0.00   0.00  -0.00
  11   6     0.00  -0.00   0.00    -0.00  -0.00   0.00     0.00   0.00  -0.00
  12   6     0.00  -0.00   0.00    -0.01  -0.00  -0.00     0.00  -0.01   0.01
  13   6    -0.01  -0.00   0.00     0.01   0.00   0.00    -0.01  -0.00  -0.00
  14   1    -0.00  -0.00   0.00    -0.00  -0.00   0.00     0.00   0.00  -0.02
  15   8     0.00   0.00  -0.00     0.00  -0.00   0.00     0.00  -0.00  -0.00
  16   6    -0.00   0.00  -0.00    -0.16  -0.10  -0.08     0.15  -0.18   0.15
  17   1     0.02  -0.02  -0.00     0.00  -0.00  -0.00     0.00  -0.00   0.00
  18   1     0.01   0.00   0.01     0.00   0.00   0.00    -0.00   0.00  -0.00
  19   1     0.09  -0.04   0.13     0.00  -0.00   0.00    -0.00   0.00  -0.00
  20   1    -0.02  -0.03  -0.01    -0.00  -0.00  -0.00     0.00   0.00   0.00
  21   1    -0.03  -0.01   0.03    -0.00  -0.00   0.00     0.00   0.00  -0.00
  22   1     0.70  -0.24   0.59     0.00  -0.00   0.00     0.00  -0.00   0.00
  23   1     0.00  -0.01  -0.00    -0.00   0.00   0.00     0.00  -0.00   0.00
  24   1    -0.01   0.00   0.02     0.00   0.00   0.00     0.00  -0.00  -0.00
  25   1    -0.01   0.00  -0.01    -0.00   0.00  -0.00    -0.00   0.00   0.00
  26   1    -0.01   0.01   0.00     0.00  -0.00   0.00    -0.00  -0.00   0.00
  27   1     0.08  -0.00   0.06    -0.01   0.00  -0.01     0.01   0.00   0.00
  28   1    -0.00   0.00  -0.00     0.00  -0.00   0.00     0.00  -0.00   0.00
  29   1     0.00   0.00  -0.00     0.00   0.00  -0.00    -0.00  -0.00   0.00
  30   1     0.01  -0.00   0.00    -0.03  -0.00  -0.01     0.02   0.00   0.01
  31   1     0.01   0.01  -0.01    -0.00  -0.00   0.00     0.00   0.00  -0.00
  32   1    -0.00  -0.00  -0.00    -0.00  -0.00  -0.00    -0.00   0.00   0.00
  33   1    -0.00   0.00  -0.00     0.72   0.09   0.52    -0.30  -0.07  -0.21
  34   1     0.00  -0.01   0.00    -0.15   0.33  -0.13    -0.29   0.79  -0.25
  35   1    -0.00   0.00  -0.00     0.01  -0.07  -0.10     0.05  -0.09  -0.07
                     94                     95                     96
                        a                      a                      a 
 Frequencies --  3095.6516              3097.8931              3119.8030
 Red. masses --     1.7082                 1.5355                 2.0716
 Frc consts  --     0.0000                 0.0000                 0.0000
 IR Inten    --    74.6100                37.6557                58.2587
 Raman Activ --     0.0000                 0.0000                 0.0000
 Depolar     --     0.0000                 0.0000                 0.0000
 Atom AN      X      Y      Z        X      Y      Z        X      Y      Z
   1   6     0.00   0.00   0.00    -0.00  -0.00   0.00     0.00   0.00  -0.00
   2   6    -0.00  -0.00  -0.00    -0.00   0.00  -0.00     0.00   0.00  -0.00
   3   6    -0.00   0.00   0.00    -0.00   0.00  -0.00     0.00   0.00   0.00
   4   6    -0.00   0.00  -0.00    -0.00  -0.00  -0.00     0.00   0.00   0.00
   5   6    -0.00   0.00  -0.00    -0.00  -0.00   0.00     0.00  -0.00  -0.00
   6   6    -0.00   0.00  -0.00    -0.00   0.00  -0.00    -0.00   0.00  -0.00
   7   6    -0.00   0.00  -0.00     0.00   0.00  -0.00     0.00  -0.00   0.00
   8   6    -0.00  -0.00  -0.00     0.01   0.01   0.00    -0.00   0.01  -0.01
   9   8    -0.00  -0.00  -0.00    -0.00  -0.00  -0.00    -0.00  -0.00   0.00
  10   6    -0.00   0.00  -0.00    -0.00   0.00  -0.00    -0.00  -0.00  -0.00
  11   6     0.01   0.00   0.01    -0.18  -0.03  -0.12     0.05   0.22  -0.22
  12   6     0.01   0.01  -0.01     0.00   0.00  -0.00    -0.00   0.00  -0.00
  13   6     0.21  -0.01   0.14     0.01  -0.00   0.01     0.00   0.00   0.00
  14   1     0.00  -0.00   0.01    -0.00  -0.00   0.00    -0.00  -0.00   0.00
  15   8    -0.00  -0.00  -0.00    -0.00  -0.00   0.00    -0.00   0.00   0.00
  16   6     0.01   0.00   0.00     0.00   0.00   0.00    -0.00  -0.00  -0.00
  17   1     0.00  -0.00  -0.00     0.00  -0.00   0.00     0.00  -0.00   0.00
  18   1    -0.00   0.00  -0.00    -0.00  -0.00   0.00    -0.00   0.00  -0.00
  19   1    -0.00  -0.00   0.00     0.00  -0.00   0.00    -0.00   0.00   0.00
  20   1     0.00   0.00   0.00     0.00   0.00   0.00    -0.00  -0.00  -0.00
  21   1    -0.00  -0.00   0.00     0.00   0.00  -0.00    -0.00  -0.00   0.01
  22   1     0.01  -0.00   0.00     0.00  -0.00   0.00     0.00  -0.00   0.00
  23   1     0.00  -0.00  -0.00     0.00  -0.01  -0.00     0.00  -0.00  -0.00
  24   1    -0.00   0.00  -0.00    -0.00   0.00   0.01    -0.00   0.00   0.01
  25   1     0.00   0.00   0.00     0.00   0.00   0.00     0.00   0.00  -0.00
  26   1    -0.00   0.00  -0.00     0.00  -0.00  -0.00    -0.00  -0.00  -0.00
  27   1     0.00  -0.00   0.00    -0.00  -0.00  -0.00     0.00   0.00   0.00
  28   1    -0.01   0.01  -0.03     0.32  -0.32   0.67     0.23  -0.19   0.43
  29   1    -0.01  -0.02   0.01     0.26   0.40  -0.27    -0.42  -0.57   0.35
  30   1    -0.87  -0.06  -0.38    -0.04  -0.00  -0.02    -0.00  -0.00  -0.00
  31   1     0.13   0.08  -0.06     0.01   0.00  -0.00    -0.00  -0.00   0.00
  32   1     0.00   0.00   0.00    -0.00   0.00  -0.00    -0.00  -0.00   0.00
  33   1    -0.03  -0.01  -0.02    -0.00  -0.00  -0.00     0.00   0.00   0.00
  34   1    -0.00   0.00  -0.00     0.00  -0.00   0.00    -0.00  -0.00   0.00
  35   1     0.00   0.00   0.00    -0.00   0.00   0.00    -0.00   0.00   0.00
                     97                     98                     99
                        a                      a                      a 
 Frequencies --  3142.7571              3502.8820              3515.2996
 Red. masses --     1.8874                 1.8687                 1.8738
 Frc consts  --     0.0000                 0.0000                 0.0000
 IR Inten    --    53.8656                31.3199                30.3544
 Raman Activ --     0.0000                 0.0000                 0.0000
 Depolar     --     0.0000                 0.0000                 0.0000
 Atom AN      X      Y      Z        X      Y      Z        X      Y      Z
   1   6     0.00  -0.00   0.00     0.00   0.00  -0.00     0.00  -0.00   0.00
   2   6     0.00   0.00   0.00    -0.00   0.00  -0.00    -0.00  -0.00  -0.00
   3   6     0.00  -0.00   0.00    -0.00   0.00   0.00    -0.00   0.00  -0.00
   4   6     0.00  -0.00   0.00    -0.00   0.00  -0.00    -0.00   0.00  -0.00
   5   6     0.00   0.00  -0.00     0.00  -0.00   0.00     0.00   0.00  -0.00
   6   6     0.00  -0.00   0.00    -0.01   0.00  -0.00    -0.00  -0.00  -0.00
   7   6    -0.00   0.00  -0.00    -0.00   0.00   0.00     0.00   0.00  -0.00
   8   6     0.00   0.00  -0.00     0.00   0.00   0.00     0.00   0.00   0.00
   9   8    -0.00   0.00  -0.00    -0.20   0.04  -0.13    -0.00   0.00  -0.00
  10   6     0.00   0.00   0.00    -0.00   0.00  -0.00    -0.00   0.00  -0.01
  11   6     0.00   0.00  -0.00    -0.00  -0.00   0.00    -0.00  -0.00  -0.00
  12   6    -0.01   0.00  -0.01    -0.00  -0.00  -0.00    -0.00  -0.00  -0.00
  13   6    -0.21  -0.15   0.13     0.00   0.00  -0.00    -0.00   0.00   0.00
  14   1    -0.00   0.00  -0.00     0.00   0.00  -0.00    -0.00   0.00   0.00
  15   8     0.00   0.00  -0.00     0.00  -0.00   0.00    -0.19   0.01  -0.15
  16   6    -0.00   0.00  -0.00    -0.00  -0.00  -0.00    -0.00  -0.00   0.00
  17   1    -0.00   0.00   0.00     0.00  -0.00  -0.00     0.00  -0.00  -0.00
  18   1    -0.00  -0.00  -0.00     0.00   0.00   0.00     0.00   0.00   0.00
  19   1    -0.01   0.00  -0.02     0.00  -0.00   0.00     0.00  -0.00   0.00
  20   1    -0.00  -0.00   0.00    -0.00  -0.00  -0.00    -0.00  -0.00   0.00
  21   1    -0.00  -0.00   0.00     0.00   0.00  -0.00    -0.00  -0.00   0.00
  22   1    -0.01   0.00  -0.01     0.00   0.00   0.01     0.00  -0.00   0.00
  23   1    -0.00  -0.00   0.00     0.00  -0.00  -0.00    -0.00   0.00   0.00
  24   1    -0.00  -0.00   0.00     0.00   0.00  -0.00    -0.00  -0.00   0.00
  25   1     0.00  -0.00   0.00     0.81  -0.18   0.51     0.01  -0.00   0.00
  26   1     0.00  -0.00  -0.00    -0.00  -0.00   0.00    -0.00   0.00   0.00
  27   1    -0.00  -0.00  -0.00     0.00   0.00   0.00     0.01   0.00   0.00
  28   1    -0.00   0.00  -0.00    -0.00  -0.00  -0.00    -0.00  -0.00   0.00
  29   1    -0.00  -0.00   0.00     0.00  -0.00  -0.00     0.00   0.00  -0.00
  30   1     0.12  -0.01   0.08     0.00  -0.00   0.00     0.00   0.00   0.00
  31   1     0.64   0.51  -0.48    -0.00  -0.00   0.00     0.00   0.00  -0.00
  32   1    -0.00   0.00  -0.00    -0.01   0.00  -0.00     0.75  -0.03   0.62
  33   1     0.01   0.00   0.01     0.00   0.00   0.00     0.00   0.00   0.00
  34   1     0.00  -0.00   0.00    -0.00   0.00   0.00    -0.00   0.00  -0.00
  35   1    -0.00   0.00   0.00    -0.00   0.00   0.00    -0.00   0.00   0.00
