  42
       -662.31893660
 C          0.9616687728        1.5392374702       -0.0046212277
 C          2.2482181691        1.0278085730        0.6590475463
 C          2.9892102354       -0.0556590389       -0.1330889720
 C          2.5494099234       -1.4809342615        0.2053483022
 C          1.1710996858       -1.8942275295       -0.3171444385
 C          0.0913781191       -0.9102931349        0.1346399457
 C          0.1081224315        0.4251562446       -0.6230900474
 C         -0.0013754984        2.1804563207        1.0075183053
 C         -1.3674343827        2.1504360800        0.3211843515
 C         -1.3630921078        0.8875205299       -0.5556904565
 O         -1.1952467268       -1.4381906691       -0.1232894286
 C         -2.1385502280       -0.3696605023       -0.0608624735
 H          0.4053315021        0.2269139626       -1.6551832513
 H         -1.7359597201        1.1364148745       -1.5511769488
 H          0.1969233111       -0.7392857652        1.2172335260
 C          0.8379674617       -3.3043643683        0.1675124499
 C         -3.2836142788       -0.7235292948       -1.0113541313
 C         -2.6861051544       -0.2668493251        1.3680632509
 C          1.3275098459        2.5566646574       -1.0902476173
 H          2.9115245259        1.8849084770        0.7983653672
 H          2.0260377745        0.6373648330        1.6541658201
 H          2.8799294475        0.1169004482       -1.2041667849
 H          4.0546543411        0.0205964841        0.0989524016
 H          2.5645246175       -1.6032466063        1.2917274116
 H          3.2839409022       -2.1764824959       -0.2085948304
 H          1.1855439404       -1.9015257398       -1.4125397865
 H          0.3008160122        3.1912925062        1.2796046956
 H         -0.0279703429        1.5819214223        1.9198275476
 H         -2.1835273140        2.1682292782        1.0385658420
 H         -1.4778160284        3.0290889190       -0.3156998393
 H         -0.1389328994       -3.5994984359       -0.2025202866
 H          1.5832919010       -4.0133321672       -0.1862294517
 H          0.8170240001       -3.3350030753        1.2547802866
 H         -2.8951575235       -0.8924898949       -2.0124379715
 H         -4.0127764043        0.0819372340       -1.0389657604
 H         -3.7706740586       -1.6352045624       -0.6761693259
 H         -3.5197869979        0.4281622288        1.4165682979
 H         -3.0378998873       -1.2513853857        1.6681245875
 H         -1.9151415085        0.0453907755        2.0665786532
 H          2.0285062269        2.1239035155       -1.8002851210
 H          0.4451975160        2.8755128047       -1.6380524007
 H          1.7931880148        3.4344723910       -0.6463943801
