      -----------------------------------------------------------      
     |                   =====================                   |     
     |                           x T B                           |     
     |                   =====================                   |     
     |                         S. Grimme                         |     
     |          Mulliken Center for Theoretical Chemistry        |     
     |                    University of Bonn                     |     
      -----------------------------------------------------------      

   * xtb version 6.7.1 (edcfbbe) compiled by 'albert@albert-system' on 2024-07-22

   xtb is free software: you can redistribute it and/or modify it under
   the terms of the GNU Lesser General Public License as published by
   the Free Software Foundation, either version 3 of the License, or
   (at your option) any later version.
   
   xtb is distributed in the hope that it will be useful,
   but WITHOUT ANY WARRANTY; without even the implied warranty of
   MERCHANTABILITY or FITNESS FOR A PARTICULAR PURPOSE.  See the
   GNU Lesser General Public License for more details.
   
   Cite this work as:
   * C. Bannwarth, E. Caldeweyher, S. Ehlert, A. Hansen, P. Pracht,
     J. Seibert, S. Spicher, S. Grimme, WIREs Comput. Mol. Sci., 2020, 11,
     e01493. DOI: 10.1002/wcms.1493
   
   for GFN2-xTB:
   * C. Bannwarth, S. Ehlert and S. Grimme., J. Chem. Theory Comput., 2019,
     15, 1652-1671. DOI: 10.1021/acs.jctc.8b01176
   for GFN1-xTB:
   * S. Grimme, C. Bannwarth, P. Shushkov, J. Chem. Theory Comput., 2017,
     13, 1989-2009. DOI: 10.1021/acs.jctc.7b00118
   for GFN0-xTB:
   * P. Pracht, E. Caldeweyher, S. Ehlert, S. Grimme, ChemRxiv, 2019, preprint.
     DOI: 10.26434/chemrxiv.8326202.v1
   for GFN-FF:
   * S. Spicher and S. Grimme, Angew. Chem. Int. Ed., 2020, 59, 15665-15673.
     DOI: 10.1002/anie.202004239
   
   for ALPB and GBSA implicit solvation:
   * S. Ehlert, M. Stahn, S. Spicher, S. Grimme, J. Chem. Theory Comput.,
     2021, 17, 4250-4261. DOI: 10.1021/acs.jctc.1c00471
   
   for ddCOSMO and CPCM-X implicit solvation:
   * M. Stahn, S. Ehlert, S. Grimme, J. Phys. Chem. A,
     2023, XX, XXXX-XXXX. DOI: 10.1021/acs.jpca.3c04382
   
   for DFT-D4:
   * E. Caldeweyher, C. Bannwarth and S. Grimme, J. Chem. Phys., 2017,
     147, 034112. DOI: 10.1063/1.4993215
   * E. Caldeweyher, S. Ehlert, A. Hansen, H. Neugebauer, S. Spicher,
     C. Bannwarth and S. Grimme, J. Chem. Phys., 2019, 150, 154122.
     DOI: 10.1063/1.5090222
   * E. Caldeweyher, J.-M. Mewes, S. Ehlert and S. Grimme, Phys. Chem. Chem. Phys.
     2020, 22, 8499-8512. DOI: 10.1039/D0CP00502A
   
   for sTDA-xTB:
   * S. Grimme and C. Bannwarth, J. Chem. Phys., 2016, 145, 054103.
     DOI: 10.1063/1.4959605
   
   in the mass-spec context:
   * V. Asgeirsson, C. Bauer and S. Grimme, Chem. Sci., 2017, 8, 4879.
     DOI: 10.1039/c7sc00601b
   * J. Koopman and S. Grimme, ACS Omega 2019, 4, 12, 15120-15133.
     DOI: 10.1021/acsomega.9b02011
   
   for metadynamics refer to:
   * S. Grimme, J. Chem. Theory Comput., 2019, 155, 2847-2862
     DOI: 10.1021/acs.jctc.9b00143
   
   for SPH calculations refer to:
   * S. Spicher and S. Grimme, J. Chem. Theory Comput., 2021, 17, 1701-1714
     DOI: 10.1021/acs.jctc.0c01306
   
   for ONIOM refer to:
   * C. Plett, A. Katbashev, S. Ehlert, S. Grimme, M. Bursch,
     Phys. Chem. Chem. Phys., 2023, 25, 17860-17868. DOI: 10.1039/D3CP02178E
   
   for DIPRO refer to:
   * J. Kohn, N. Gildemeister, S. Grimme, D. Fazzi, A. Hansen,
     J. Chem. Phys., 2023, just accepted.
   
   for PTB refer to:
   * S. Grimme, M. Mueller, A. Hansen, J. Chem. Phys., 2023, 158, 124111.
     DOI: 10.1063/5.0137838
   
   with help from (in alphabetical order)
   P. Atkinson, C. Bannwarth, F. Bohle, G. Brandenburg, E. Caldeweyher
   M. Checinski, S. Dohm, S. Ehlert, S. Ehrlich, I. Gerasimov, C. Hölzer
   A. Katbashev, J. Kohn, J. Koopman, C. Lavigne, S. Lehtola, F. März, M. Müller,
   F. Musil, H. Neugebauer, J. Pisarek, C. Plett, P. Pracht, F. Pultar,
   J. Seibert, P. Shushkov, S. Spicher, M. Stahn, M. Steiner, T. Strunk,
   J. Stückrath, T. Rose, and J. Unsleber
   
 * started run on 2026/08/09 at 17:48:00.845     
   ID    Z sym.   atoms
    1    6 c      1-8, 10-13, 16
    2    8 o      9, 15
    3    1 h      14, 17-35

           -------------------------------------------------
          |                Calculation Setup                |
           -------------------------------------------------

          program call               : /home/dinglab/software/xtb_6.7.1/xtb_dist/bin/xtb coord --gfn2 --ohess vtight --alpb chcl3 --chrg 0 --enso --norestart -I xcontrol-inp --parallel 12
          hostname                   : localhost
          coordinate file            : coord
          omp threads                :                    12


           -------------------------------------------------
          |                 G F N 2 - x T B                 |
           -------------------------------------------------

        Reference                      10.1021/acs.jctc.8b01176
      * Hamiltonian:
        H0-scaling (s, p, d)           1.850000    2.230000    2.230000
        zeta-weighting                 0.500000
      * Dispersion:
        s8                             2.700000
        a1                             0.520000
        a2                             5.000000
        s9                             5.000000
      * Repulsion:
        kExp                           1.500000    1.000000
        rExp                           1.000000
      * Coulomb:
        alpha                          2.000000
        third order                    shell-resolved
        anisotropic                    true
        a3                             3.000000
        a5                             4.000000
        cn-shift                       1.200000
        cn-exp                         4.000000
        max-rad                        5.000000

      * Solvation model:               ALPB
        Solvent                        chcl3
        Parameter file                 internal GFN2-xTB/ALPB
        Dielectric constant                4.8100E+00
        Reference state                gsolv [1 M gas/solution]
        Free energy shift                  3.8910E-03 Eh       2.4417E+00 kcal/mol
        Temperature                        2.9815E+02 K
        Density                            1.4900E+00 kg/L
        Solvent mass                       1.1938E+02 g/mol
        Interaction kernel             P16
        Born radius scaling (c1)           1.3274E+00
        Born radii integrator          GBOBC
        Born offset                        0.0000E+00 a0       0.0000E+00 AA
        H-bond correction              false
        Ion screening                  false
        Surface tension                    1.0000E-05 Eh       1.5569E+01 dyn/cm
        Grid points                               974 per atom

          ...................................................
          :                      SETUP                      :
          :.................................................:
          :  # basis functions                  80          :
          :  # atomic orbitals                  80          :
          :  # shells                           50          :
          :  # electrons                        84          :
          :  max. iterations                   250          :
          :  Hamiltonian                  GFN2-xTB          :
          :  restarted?                      false          :
          :  GBSA solvation                   true          :
          :  PC potential                    false          :
          :  electronic temp.          300.0000000     K    :
          :  accuracy                    1.0000000          :
          :  -> integral cutoff          0.2500000E+02      :
          :  -> integral neglect         0.1000000E-07      :
          :  -> SCF convergence          0.1000000E-05 Eh   :
          :  -> wf. convergence          0.1000000E-03 e    :
          :  Broyden damping             0.4000000          :
          :  net charge                          0          :
          :  unpaired electrons                  0          :
          ...................................................

 iter      E             dE          RMSdq      gap      omega  full diag
   1    -46.7291418 -0.467291E+02  0.349E+00    5.21       0.0  T
   2    -46.7729325 -0.437907E-01  0.202E+00    5.07       1.0  T
   3    -46.7652416  0.769093E-02  0.922E-01    5.05       1.0  T
   4    -46.7768229 -0.115814E-01  0.356E-01    4.99       1.0  T
   5    -46.7787159 -0.189302E-02  0.730E-02    5.02       1.0  T
   6    -46.7787342 -0.182474E-04  0.428E-02    5.03       1.0  T
   7    -46.7787401 -0.588950E-05  0.131E-02    5.03       1.3  T
   8    -46.7787418 -0.170491E-05  0.529E-03    5.03       3.2  T
   9    -46.7787422 -0.378661E-06  0.268E-03    5.03       6.3  T
  10    -46.7787422 -0.439499E-07  0.102E-03    5.03      16.6  T
  11    -46.7787422 -0.452837E-08  0.392E-04    5.03      43.1  T
  12    -46.7787422 -0.111217E-08  0.125E-04    5.03     135.6  T

   *** convergence criteria satisfied after 12 iterations ***

         #    Occupation            Energy/Eh            Energy/eV
      -------------------------------------------------------------
         1        2.0000           -0.7018008             -19.0970
       ...           ...                  ...                  ...
        36        2.0000           -0.4295171             -11.6878
        37        2.0000           -0.4193237             -11.4104
        38        2.0000           -0.4136247             -11.2553
        39        2.0000           -0.4108622             -11.1801
        40        2.0000           -0.3990351             -10.8583
        41        2.0000           -0.3921066             -10.6698
        42        2.0000           -0.3877741             -10.5519 (HOMO)
        43                         -0.2030611              -5.5256 (LUMO)
        44                         -0.2002479              -5.4490
        45                          0.0021215               0.0577
        46                          0.0299981               0.8163
        47                          0.0395658               1.0766
       ...                                ...                  ...
        80                          0.6498327              17.6828
      -------------------------------------------------------------
                  HL-Gap            0.1847130 Eh            5.0263 eV
             Fermi-level           -0.2954176 Eh           -8.0387 eV

 SCC (total)                   0 d,  0 h,  0 min,  0.071 sec
 SCC setup                      ...        0 min,  0.001 sec (  1.305%)
 Dispersion                     ...        0 min,  0.001 sec (  0.721%)
 classical contributions        ...        0 min,  0.000 sec (  0.047%)
 integral evaluation            ...        0 min,  0.002 sec (  2.559%)
 iterations                     ...        0 min,  0.063 sec ( 88.708%)
 molecular gradient             ...        0 min,  0.004 sec (  6.217%)
 printout                       ...        0 min,  0.000 sec (  0.375%)

         :::::::::::::::::::::::::::::::::::::::::::::::::::::
         ::                     SUMMARY                     ::
         :::::::::::::::::::::::::::::::::::::::::::::::::::::
         :: total energy             -46.160492724970 Eh    ::
         :: total w/o Gsasa/hb       -46.148609817525 Eh    ::
         :: gradient norm              0.008353082221 Eh/a0 ::
         :: HOMO-LUMO gap              5.026295498515 eV    ::
         ::.................................................::
         :: SCC energy               -46.778095206598 Eh    ::
         :: -> isotropic ES            0.060506401305 Eh    ::
         :: -> anisotropic ES          0.004507764878 Eh    ::
         :: -> anisotropic XC          0.016999860044 Eh    ::
         :: -> dispersion             -0.036931387963 Eh    ::
         :: -> Gsolv                  -0.018860792959 Eh    ::
         ::    -> Gelec               -0.006977885515 Eh    ::
         ::    -> Gsasa               -0.015773926689 Eh    ::
         ::    -> Ghb                  0.000000000000 Eh    ::
         ::    -> Gshift               0.003891019244 Eh    ::
         :: repulsion energy           0.617602481629 Eh    ::
         :: add. restraining           0.000000000000 Eh    ::
         :: total charge              -0.000000000000 e     ::
         :::::::::::::::::::::::::::::::::::::::::::::::::::::

      ----------------------------------------------------------- 
     |                   =====================                   |
     |                        A N C O P T                        |
     |                   =====================                   |
     |               Approximate Normal Coordinate               |
     |                Rational Function Optimizer                |
      ----------------------------------------------------------- 
      ----------------------------------------------------------- 
     |                   =====================                   |
     |                        A N C O P T                        |
     |                   =====================                   |
     |               Approximate Normal Coordinate               |
     |                Rational Function Optimizer                |
      ----------------------------------------------------------- 

          ...................................................
          :                      SETUP                      :
          :.................................................:
          :   optimization level         verytight          :
          :   max. optcycles                   700          :
          :   ANC micro-cycles                  20          :
          :   degrees of freedom                99          :
          :.................................................:
          :   RF solver                   davidson          :
          :   write xtbopt.log                true          :
          :   linear?                        false          :
          :   energy convergence         0.1000000E-06 Eh   :
          :   grad. convergence          0.2000000E-03 Eh/α :
          :   maxmium RF displ.          1.0000000          :
          :   Hlow (freq-cutoff)         0.1000000E-01      :
          :   Hmax (freq-cutoff)         5.0000000          :
          :   S6 in model hess.         20.0000000          :
          ...................................................

generating ANC from exact Hessian ...
Using Lindh-Hessian (1995)
 Shifting diagonal of input Hessian by   8.593202104617762E-003
 Lowest  eigenvalues of input Hessian
    0.000000    0.000000    0.000000    0.000000    0.000000    0.000000
    0.010000    0.010410    0.010990    0.012407    0.013837    0.014707
    0.016483    0.016535    0.016985    0.018695    0.019790    0.019941
 Highest eigenvalues
    1.488388    1.504334    1.510358    1.554104    1.914580    1.970108
 

........................................................................
.............................. CYCLE    1 ..............................
........................................................................

 iter      E             dE          RMSdq      gap      omega  full diag
   1    -46.7787422 -0.467787E+02  0.581E-05    5.03       0.0  T
   2    -46.7787422 -0.104166E-10  0.357E-05    5.03     473.1  T
   3    -46.7787422 -0.291323E-12  0.183E-05    5.03     921.8  T
     SCC iter.                  ...        0 min,  0.007 sec
     gradient                   ...        0 min,  0.004 sec
 * total energy  :   -46.1604927 Eh     change       -0.5231016E-10 Eh
   gradient norm :     0.0083528 Eh/α   predicted     0.0000000E+00 (-100.00%)
   displ. norm   :     0.0348269 α      lambda       -0.8702109E-04
   maximum displ.:     0.0148645 α      in ANC's #4, #7, #5, ...

........................................................................
.............................. CYCLE    2 ..............................
........................................................................

 iter      E             dE          RMSdq      gap      omega  full diag
   1    -46.7775004 -0.467775E+02  0.152E-02    5.02       0.0  T
   2    -46.7775010 -0.575703E-06  0.916E-03    5.02       1.8  T
   3    -46.7775009  0.778158E-07  0.388E-03    5.02       4.4  T
   4    -46.7775011 -0.172469E-06  0.123E-03    5.02      13.7  T
   5    -46.7775011 -0.276747E-07  0.467E-04    5.02      36.2  T
   6    -46.7775011 -0.193306E-08  0.213E-04    5.02      79.5  T
     SCC iter.                  ...        0 min,  0.011 sec
     gradient                   ...        0 min,  0.004 sec
 * total energy  :   -46.1605567 Eh     change       -0.6400298E-04 Eh
   gradient norm :     0.0042351 Eh/α   predicted    -0.4661002E-04 ( -27.18%)
   displ. norm   :     0.0248235 α      lambda       -0.3401706E-04
   maximum displ.:     0.0111269 α      in ANC's #5, #3, #4, ...

........................................................................
.............................. CYCLE    3 ..............................
........................................................................

 iter      E             dE          RMSdq      gap      omega  full diag
   1    -46.7768751 -0.467769E+02  0.111E-02    5.02       0.0  T
   2    -46.7768756 -0.493979E-06  0.675E-03    5.02       2.5  T
   3    -46.7768756 -0.952605E-08  0.310E-03    5.02       5.4  T
   4    -46.7768757 -0.675049E-07  0.917E-04    5.02      18.4  T
   5    -46.7768757 -0.123925E-07  0.419E-04    5.02      40.4  T
     SCC iter.                  ...        0 min,  0.009 sec
     gradient                   ...        0 min,  0.004 sec
 * total energy  :   -46.1605758 Eh     change       -0.1909136E-04 Eh
   gradient norm :     0.0011310 Eh/α   predicted    -0.1702811E-04 ( -10.81%)
   displ. norm   :     0.0188707 α      lambda       -0.3232834E-05
   maximum displ.:     0.0082536 α      in ANC's #3, #5, #7, ...

........................................................................
.............................. CYCLE    4 ..............................
........................................................................

 iter      E             dE          RMSdq      gap      omega  full diag
   1    -46.7770668 -0.467771E+02  0.670E-03    5.02       0.0  T
   2    -46.7770669 -0.733395E-07  0.403E-03    5.02       4.2  T
   3    -46.7770668  0.249318E-07  0.152E-03    5.02      11.1  T
   4    -46.7770669 -0.375314E-07  0.457E-04    5.02      37.0  T
   5    -46.7770669 -0.369261E-08  0.165E-04    5.02     102.6  T
     SCC iter.                  ...        0 min,  0.009 sec
     gradient                   ...        0 min,  0.004 sec
 * total energy  :   -46.1605788 Eh     change       -0.2994504E-05 Eh
   gradient norm :     0.0006268 Eh/α   predicted    -0.1927981E-05 ( -35.62%)
   displ. norm   :     0.0183050 α      lambda       -0.1976001E-05
   maximum displ.:     0.0087674 α      in ANC's #3, #7, #1, ...

........................................................................
.............................. CYCLE    5 ..............................
........................................................................

 iter      E             dE          RMSdq      gap      omega  full diag
   1    -46.7772628 -0.467773E+02  0.681E-03    5.02       0.0  T
   2    -46.7772628 -0.824184E-08  0.405E-03    5.02       4.2  T
   3    -46.7772628 -0.426091E-09  0.338E-04    5.02      50.0  T
   4    -46.7772628 -0.200043E-08  0.155E-04    5.02     108.9  T
     SCC iter.                  ...        0 min,  0.007 sec
     gradient                   ...        0 min,  0.004 sec
 * total energy  :   -46.1605799 Eh     change       -0.1132150E-05 Eh
   gradient norm :     0.0007288 Eh/α   predicted    -0.1067721E-05 (  -5.69%)
   displ. norm   :     0.0088280 α      lambda       -0.1042660E-05
   maximum displ.:     0.0039272 α      in ANC's #1, #6, #3, ...

........................................................................
.............................. CYCLE    6 ..............................
........................................................................

 iter      E             dE          RMSdq      gap      omega  full diag
   1    -46.7772309 -0.467772E+02  0.345E-03    5.02       0.0  T
   2    -46.7772310 -0.103362E-07  0.206E-03    5.02       8.2  T
   3    -46.7772310  0.367671E-08  0.531E-04    5.02      31.8  T
   4    -46.7772310 -0.571448E-08  0.141E-04    5.02     119.7  T
     SCC iter.                  ...        0 min,  0.008 sec
     gradient                   ...        0 min,  0.004 sec
 * total energy  :   -46.1605809 Eh     change       -0.9939089E-06 Eh
   gradient norm :     0.0003251 Eh/α   predicted    -0.5394148E-06 ( -45.73%)
   displ. norm   :     0.0122925 α      lambda       -0.5454352E-06
   maximum displ.:     0.0057531 α      in ANC's #1, #3, #4, ...

........................................................................
.............................. CYCLE    7 ..............................
........................................................................

 iter      E             dE          RMSdq      gap      omega  full diag
   1    -46.7771173 -0.467771E+02  0.406E-03    5.02       0.0  T
   2    -46.7771173 -0.328576E-08  0.241E-03    5.02       7.0  T
   3    -46.7771173  0.130855E-07  0.762E-04    5.02      22.2  T
   4    -46.7771173 -0.153976E-07  0.932E-05    5.02     181.4  T
     SCC iter.                  ...        0 min,  0.008 sec
     gradient                   ...        0 min,  0.004 sec
 * total energy  :   -46.1605814 Eh     change       -0.5042698E-06 Eh
   gradient norm :     0.0001329 Eh/α   predicted    -0.2736366E-06 ( -45.74%)
   displ. norm   :     0.0135714 α      lambda       -0.3125099E-06
   maximum displ.:     0.0074002 α      in ANC's #1, #3, #4, ...

........................................................................
.............................. CYCLE    8 ..............................
........................................................................

 iter      E             dE          RMSdq      gap      omega  full diag
   1    -46.7770815 -0.467771E+02  0.460E-03    5.02       0.0  T
   2    -46.7770815 -0.213018E-08  0.272E-03    5.02       6.2  T
   3    -46.7770815  0.925993E-08  0.639E-04    5.02      26.5  T
   4    -46.7770815 -0.109038E-07  0.773E-05    5.02     218.6  T
     SCC iter.                  ...        0 min,  0.008 sec
     gradient                   ...        0 min,  0.004 sec
 * total energy  :   -46.1605817 Eh     change       -0.2132274E-06 Eh
   gradient norm :     0.0002102 Eh/α   predicted    -0.1582047E-06 ( -25.80%)
   displ. norm   :     0.0078427 α      lambda       -0.2058900E-06
   maximum displ.:     0.0052348 α      in ANC's #1, #3, #2, ...

........................................................................
.............................. CYCLE    9 ..............................
........................................................................

 iter      E             dE          RMSdq      gap      omega  full diag
   1    -46.7771251 -0.467771E+02  0.240E-03    5.02       0.0  T
   2    -46.7771251 -0.793996E-09  0.142E-03    5.02      11.9  T
   3    -46.7771251  0.121360E-08  0.243E-04    5.02      69.7  T
   4    -46.7771251 -0.149656E-08  0.427E-05    5.02     395.7  T
     SCC iter.                  ...        0 min,  0.008 sec
     gradient                   ...        0 min,  0.005 sec
 * total energy  :   -46.1605819 Eh     change       -0.2068769E-06 Eh
   gradient norm :     0.0001188 Eh/α   predicted    -0.1048048E-06 ( -49.34%)
   displ. norm   :     0.0075279 α      lambda        0.3162621E-07
   maximum displ.:     0.0050158 α      in ANC's #1, #3, #2, ...

........................................................................
.............................. CYCLE   10 ..............................
........................................................................

 iter      E             dE          RMSdq      gap      omega  full diag
   1    -46.7771661 -0.467772E+02  0.232E-03    5.02       0.0  T
   2    -46.7771661 -0.747576E-09  0.137E-03    5.02      12.4  T
   3    -46.7771661  0.109911E-08  0.232E-04    5.02      72.8  T
   4    -46.7771661 -0.136791E-08  0.429E-05    5.02     394.3  T
     SCC iter.                  ...        0 min,  0.006 sec
     gradient                   ...        0 min,  0.004 sec
 * total energy  :   -46.1605819 Eh     change        0.1042051E-07 Eh
   gradient norm :     0.0001895 Eh/α   predicted     0.1574133E-07 (  51.06%)
   displ. norm   :     0.0035036 α      lambda       -0.1636239E-06
   maximum displ.:     0.0014897 α      in ANC's #6, #5, #9, ...

........................................................................
.............................. CYCLE   11 ..............................
........................................................................

 iter      E             dE          RMSdq      gap      omega  full diag
   1    -46.7771727 -0.467772E+02  0.142E-03    5.02       0.0  T
   2    -46.7771727 -0.442689E-09  0.847E-04    5.02      19.9  T
   3    -46.7771727  0.608146E-09  0.171E-04    5.02      99.1  T
     SCC iter.                  ...        0 min,  0.004 sec
     gradient                   ...        0 min,  0.004 sec
 * total energy  :   -46.1605820 Eh     change       -0.1760922E-06 Eh
   gradient norm :     0.0000884 Eh/α   predicted    -0.8412286E-07 ( -52.23%)
   displ. norm   :     0.0059066 α      lambda       -0.1082992E-06
   maximum displ.:     0.0030590 α      in ANC's #1, #2, #6, ...

........................................................................
.............................. CYCLE   12 ..............................
........................................................................

 iter      E             dE          RMSdq      gap      omega  full diag
   1    -46.7771490 -0.467771E+02  0.181E-03    5.02       0.0  T
   2    -46.7771490 -0.555509E-09  0.108E-03    5.02      15.6  T
   3    -46.7771490  0.129432E-08  0.242E-04    5.02      69.8  T
   4    -46.7771490 -0.159249E-08  0.465E-05    5.02     363.3  T
     SCC iter.                  ...        0 min,  0.005 sec
     gradient                   ...        0 min,  0.004 sec
 * total energy  :   -46.1605821 Eh     change       -0.1086547E-06 Eh
   gradient norm :     0.0000570 Eh/α   predicted    -0.5831554E-07 ( -46.33%)
   displ. norm   :     0.0068692 α      lambda        0.4898461E-07
   maximum displ.:     0.0036344 α      in ANC's #1, #2, #6, ...

........................................................................
.............................. CYCLE   13 ..............................
........................................................................

 iter      E             dE          RMSdq      gap      omega  full diag
   1    -46.7771253 -0.467771E+02  0.204E-03    5.02       0.0  T
   2    -46.7771253 -0.677254E-09  0.122E-03    5.02      13.9  T
   3    -46.7771253  0.262055E-08  0.338E-04    5.02      50.0  T
   4    -46.7771253 -0.310534E-08  0.496E-05    5.02     340.9  T
     SCC iter.                  ...        0 min,  0.005 sec
     gradient                   ...        0 min,  0.004 sec
 * total energy  :   -46.1605821 Eh     change        0.2949287E-07 Eh
   gradient norm :     0.0001666 Eh/α   predicted     0.2335711E-07 ( -20.80%)
   displ. norm   :     0.0039847 α      lambda       -0.9862651E-07
   maximum displ.:     0.0017777 α      in ANC's #6, #3, #8, ...

........................................................................
.............................. CYCLE   14 ..............................
........................................................................

 iter      E             dE          RMSdq      gap      omega  full diag
   1    -46.7771590 -0.467772E+02  0.143E-03    5.02       0.0  T
   2    -46.7771590 -0.537085E-09  0.847E-04    5.02      20.0  T
   3    -46.7771590  0.791609E-09  0.191E-04    5.02      88.4  T
     SCC iter.                  ...        0 min,  0.004 sec
     gradient                   ...        0 min,  0.004 sec
 * total energy  :   -46.1605822 Eh     change       -0.9402522E-07 Eh
   gradient norm :     0.0000434 Eh/α   predicted    -0.5062681E-07 ( -46.16%)
   displ. norm   :     0.0022390 α      lambda        0.2317966E-07
   maximum displ.:     0.0010223 α      in ANC's #6, #3, #8, ...

   *** GEOMETRY OPTIMIZATION CONVERGED AFTER 14 ITERATIONS ***

------------------------------------------------------------------------
 total energy gain   :        -0.0000895 Eh       -0.0561 kcal/mol
 total RMSD          :         0.0195174 a0        0.0103 Å
 total power (kW/mol):        -0.0167804 (step)   -0.7922 (real)
------------------------------------------------------------------------

 ANCopt (total)                0 d,  0 h,  0 min,  0.297 sec
 optimizer setup                ...        0 min,  0.000 sec (  0.071%)
 model hessian                  ...        0 min,  0.099 sec ( 33.360%)
 ANC generation                 ...        0 min,  0.002 sec (  0.699%)
 coordinate transformation      ...        0 min,  0.000 sec (  0.090%)
 single point calculation       ...        0 min,  0.190 sec ( 64.179%)
 optimization log               ...        0 min,  0.002 sec (  0.830%)
 hessian update                 ...        0 min,  0.000 sec (  0.085%)
 rational function              ...        0 min,  0.001 sec (  0.383%)

================
 final structure:
================
$coord
       -0.13888268384717       -1.48839861243016       -0.53311939008992      c
        0.99196548497882        0.95292763594636       -1.70561781292243      c
       -0.86566686511091        3.19077444210353       -1.45276119496294      c
       -2.34186339420192        3.27228948412523        1.02604389517118      c
       -3.41124556944056        0.65808829703501        1.66476292442581      c
       -1.19719228342939       -1.13422014067273        2.16509750393687      c
       -2.61293962895522       -2.09867778898936       -1.94679084373163      c
       -4.59943937982521       -0.52729202815866       -0.63372430638082      c
        0.46576704021733       -0.23863636388752        4.03068678522495      o
        1.73767854700945       -3.69728120045720       -0.62724958535807      c
       -6.96479675663444       -0.24027864919233       -1.37520958763904      c
        3.65682922105491        1.65003979080443       -0.89997401455882      c
        4.25603902832520        2.78837675485907        1.25041041715054      c
        1.13536279242644        0.54361351645288       -3.73371682300641      h
        3.70948385357531       -3.49234036419300        1.16562609200852      o
        5.64804493311275        1.14612627479099       -2.87091734540273      c
        0.17982370456986        4.95351478604538       -1.68857316853494      h
       -2.23284822894340        3.06805734974667       -2.99387385233675      h
       -1.14444750537765        3.87228153085714        2.58985860769497      h
       -3.88507623833536        4.62836427268834        0.84138488431413      h
       -4.69716619282589        0.78819139140099        3.27115659836161      h
       -1.94951564147230       -2.98182101852346        2.78077367468616      h
       -2.50309253762536       -1.68991911274356       -3.96208977535841      h
       -3.07291356817715       -4.10225124870962       -1.74329820268877      h
        1.89792142583067       -1.38022893695886        4.04589870703066      h
        2.51583093248867       -3.89755115424198       -2.54136595125846      h
        0.76449948466842       -5.45659471721842       -0.14536720086781      h
       -7.67490738051937       -1.12857487701476       -3.06389914738080      h
       -8.28480783691325        0.89424741013347       -0.32178554880008      h
        6.18410083628656        3.30105061600397        1.66801269777536      h
        2.88889568857522        3.22149438980582        2.68535924486049      h
        4.63422082634123       -1.94786224353415        0.80994169334076      h
        7.52726837404746        1.55795009948789       -2.14746727424822      h
        5.60119672650438       -0.80763958560570       -3.51774519618356      h
        5.30999997245073        2.34531178294038       -4.51277614956816      h
$end
 
 Bond Distances (Angstroems)
 ---------------------------
C1-C2=1.5531         C1-C6=1.5451         C1-C7=1.5421         C1-C10=1.5346        C2-C1=1.5531         C2-C3=1.5449         
C2-C12=1.5187        C2-H14=1.0975        C3-C2=1.5449         C3-C4=1.5273         C3-H17=1.0917        C3-H18=1.0921        
C4-C3=1.5273         C4-C5=1.5324         C4-H19=1.0896        C4-H20=1.0915        C5-C4=1.5324         C5-C6=1.5305         
C5-C8=1.5061         C5-H21=1.0911        C6-C1=1.5451         C6-C5=1.5305         C6-O9=1.4049         C6-H22=1.1048        
C7-C1=1.5421         C7-C8=1.5097         C7-H23=1.0897        C7-H24=1.0931        C8-C5=1.5061         C8-C7=1.5097         
C8-C11=1.3205        O9-C6=1.4049         O9-H25=0.9692        C10-C1=1.5346        C10-O15=1.4144       C10-H26=1.0985       
C10-H27=1.0941       C11-C8=1.3205        C11-H28=1.0774       C11-H29=1.0766       C12-C2=1.5187        C12-C13=1.3260       
C12-C16=1.5064       C13-C12=1.3260       C13-H30=1.0786       C13-H31=1.0736       H14-C2=1.0975        O15-C10=1.4144       
O15-H32=0.9710       C16-C12=1.5064       C16-H33=1.0876       C16-H34=1.0894       C16-H35=1.0907       H17-C3=1.0917        
H18-C3=1.0921        H19-C4=1.0896        H20-C4=1.0915        H21-C5=1.0911        H22-C6=1.1048        H23-C7=1.0897        
H24-C7=1.0931        H25-O9=0.9692        H26-C10=1.0985       H27-C10=1.0941       H28-C11=1.0774       H29-C11=1.0766       
H30-C13=1.0786       H31-C13=1.0736       H32-O15=0.9710       H33-C16=1.0876       H34-C16=1.0894       H35-C16=1.0907       
 C  H  Rav=1.0893 sigma=0.0079  Rmin=1.0736  Rmax=1.1048    18
 C  C  Rav=1.4998 sigma=0.0735  Rmin=1.3205  Rmax=1.5531    14
 O  H  Rav=0.9701 sigma=0.0009  Rmin=0.9692  Rmax=0.9710     2
 O  C  Rav=1.4096 sigma=0.0048  Rmin=1.4049  Rmax=1.4144     2
 
 selected bond angles (degree)
 --------------------
C6-C1-C2=114.07                C7-C1-C2=107.91                C7-C1-C6= 99.55                C10-C1-C2=111.80               
C10-C1-C6=110.91               C10-C1-C7=111.97               C3-C2-C1=110.97                C12-C2-C1=116.60               
C12-C2-C3=112.35               H14-C2-C1=104.66               H14-C2-C3=106.26               H14-C2-C12=104.97              
C4-C3-C2=114.93                H17-C3-C2=108.82               H17-C3-C4=109.47               H18-C3-C2=108.14               
H18-C3-C4=107.71               H18-C3-H17=107.53              C5-C4-C3=110.66                H19-C4-C3=111.29               
H19-C4-C5=108.08               H20-C4-C3=108.93               H20-C4-C5=109.69               H20-C4-H19=108.15              
C6-C5-C4=108.35                C8-C5-C4=110.61                C8-C5-C6=101.61                H21-C5-C4=110.19               
H21-C5-C6=112.44               H21-C5-C8=113.27               C5-C6-C1=101.11                O9-C6-C1=117.60                
O9-C6-C5=113.08                H22-C6-C1=107.20               H22-C6-C5=108.88               H22-C6-O9=108.48               
C8-C7-C1=104.63                H23-C7-C1=112.82               H23-C7-C8=112.22               H24-C7-C1=110.14               
H24-C7-C8=109.50               H24-C7-H23=107.51              C7-C8-C5=108.08                C11-C8-C5=126.00               
C11-C8-C7=125.92               H25-O9-C6=106.58               O15-C10-C1=113.40              H26-C10-C1=110.24              
H26-C10-O15=110.45             H27-C10-C1=109.63              H27-C10-O15=104.84             H27-C10-H26=108.01             
 
 selected dihedral angles (degree)
 ---------------------------------
C3-C2-C1-C6=310.14            C3-C2-C1-C7= 59.74            C3-C2-C1-C10=183.29           C12-C2-C1-C6= 80.49           
C12-C2-C1-C7=190.09           C12-C2-C1-C10=313.64          H14-C2-C1-C6=195.92           H14-C2-C1-C7=305.52           
H14-C2-C1-C10= 69.08          C4-C3-C2-C1= 37.97            C4-C3-C2-C12=265.44           C4-C3-C2-H14=151.19           
H17-C3-C2-C1=161.11           H17-C3-C2-C12= 28.58          H17-C3-C2-H14=274.32          H18-C3-C2-C1=277.63           
H18-C3-C2-C12=145.10          H18-C3-C2-H14= 30.84          C5-C4-C3-C2=313.74            C5-C4-C3-H17=190.95           
C5-C4-C3-H18= 74.32           H19-C4-C3-C2= 73.93           H19-C4-C3-H17=311.13          H19-C4-C3-H18=194.51          
H20-C4-C3-C2=193.07           H20-C4-C3-H17= 70.28          H20-C4-C3-H18=313.65          C6-C5-C4-C3= 65.27            
C6-C5-C4-H19=303.18           C6-C5-C4-H20=185.47           C8-C5-C4-C3=314.70            C8-C5-C4-H19=192.61           
C8-C5-C4-H20= 74.91           H21-C5-C4-C3=188.68           H21-C5-C4-H19= 66.58          H21-C5-C4-H20=308.88          
C5-C6-C1-C2= 65.73            C5-C6-C1-C7=311.10            C5-C6-C1-C10=193.03           O9-C6-C1-C2=302.12            
O9-C6-C1-C7=187.49            O9-C6-C1-C10= 69.43           H22-C6-C1-C2=179.68           H22-C6-C1-C7= 65.05           
H22-C6-C1-C10=306.99          C1-C6-C5-C4=288.07            C1-C6-C5-C8= 44.61            C1-C6-C5-H21=166.03           
O9-C6-C5-C4= 54.72            O9-C6-C5-C8=171.26            O9-C6-C5-H21=292.68           H22-C6-C5-C4=175.38           
H22-C6-C5-C8=291.92           H22-C6-C5-H21= 53.34          C8-C7-C1-C2=275.21            C8-C7-C1-C6= 34.50            
C8-C7-C1-C10=151.77           H23-C7-C1-C2= 37.49           H23-C7-C1-C6=156.77           H23-C7-C1-C10=274.04          
H24-C7-C1-C2=157.62           H24-C7-C1-C6=276.90           H24-C7-C1-C10= 34.17          C7-C8-C5-C4= 91.89            
C7-C8-C5-C6=337.01            C7-C8-C5-H21=216.17           C11-C8-C5-C4=271.99           C11-C8-C5-C6=157.11           
C11-C8-C5-H21= 36.27          C5-C8-C7-C1=352.46            C5-C8-C7-H23=229.80           C5-C8-C7-H24=110.50           
C11-C8-C7-C1=172.36           C11-C8-C7-H23= 49.70          C11-C8-C7-H24=290.40          H25-O9-C6-C1=304.70           
H25-O9-C6-C5=187.36           H25-O9-C6-H22= 66.48          O15-C10-C1-C2= 74.51          O15-C10-C1-C6=305.97          
O15-C10-C1-C7=195.74          H26-C10-C1-C2=310.09          H26-C10-C1-C6=181.55          H26-C10-C1-C7= 71.32          
H27-C10-C1-C2=191.30          H27-C10-C1-C6= 62.76          H27-C10-C1-C7=312.53          
           -------------------------------------------------
          |                Final Singlepoint                |
           -------------------------------------------------

          ...................................................
          :                      SETUP                      :
          :.................................................:
          :  # basis functions                  80          :
          :  # atomic orbitals                  80          :
          :  # shells                           50          :
          :  # electrons                        84          :
          :  max. iterations                   250          :
          :  Hamiltonian                  GFN2-xTB          :
          :  restarted?                      false          :
          :  GBSA solvation                   true          :
          :  PC potential                    false          :
          :  electronic temp.          300.0000000     K    :
          :  accuracy                    1.0000000          :
          :  -> integral cutoff          0.2500000E+02      :
          :  -> integral neglect         0.1000000E-07      :
          :  -> SCF convergence          0.1000000E-05 Eh   :
          :  -> wf. convergence          0.1000000E-03 e    :
          :  Broyden damping             0.4000000          :
          :  net charge                          0          :
          :  unpaired electrons                  0          :
          ...................................................

 iter      E             dE          RMSdq      gap      omega  full diag
   1    -46.7771590 -0.467772E+02  0.384E-05    5.02       0.0  T
   2    -46.7771590 -0.113118E-10  0.263E-05    5.02     643.2  T
   3    -46.7771590 -0.137916E-10  0.121E-05    5.02    1393.6  T

   *** convergence criteria satisfied after 3 iterations ***

         #    Occupation            Energy/Eh            Energy/eV
      -------------------------------------------------------------
         1        2.0000           -0.7012330             -19.0815
       ...           ...                  ...                  ...
        36        2.0000           -0.4297740             -11.6947
        37        2.0000           -0.4196496             -11.4192
        38        2.0000           -0.4137459             -11.2586
        39        2.0000           -0.4110681             -11.1857
        40        2.0000           -0.3998727             -10.8811
        41        2.0000           -0.3922446             -10.6735
        42        2.0000           -0.3880443             -10.5592 (HOMO)
        43                         -0.2035802              -5.5397 (LUMO)
        44                         -0.2005248              -5.4566
        45                         -0.0009623              -0.0262
        46                          0.0286557               0.7798
        47                          0.0383554               1.0437
       ...                                ...                  ...
        80                          0.6481216              17.6363
      -------------------------------------------------------------
                  HL-Gap            0.1844641 Eh            5.0195 eV
             Fermi-level           -0.2958123 Eh           -8.0495 eV

 SCC (total)                   0 d,  0 h,  0 min,  0.010 sec
 SCC setup                      ...        0 min,  0.001 sec (  6.594%)
 Dispersion                     ...        0 min,  0.000 sec (  1.707%)
 classical contributions        ...        0 min,  0.000 sec (  0.199%)
 integral evaluation            ...        0 min,  0.001 sec ( 13.059%)
 iterations                     ...        0 min,  0.004 sec ( 40.476%)
 molecular gradient             ...        0 min,  0.004 sec ( 36.462%)
 printout                       ...        0 min,  0.000 sec (  1.158%)

         :::::::::::::::::::::::::::::::::::::::::::::::::::::
         ::                     SUMMARY                     ::
         :::::::::::::::::::::::::::::::::::::::::::::::::::::
         :: total energy             -46.160582204140 Eh    ::
         :: total w/o Gsasa/hb       -46.148690813660 Eh    ::
         :: gradient norm              0.000043187091 Eh/a0 ::
         :: HOMO-LUMO gap              5.019524266111 eV    ::
         ::.................................................::
         :: SCC energy               -46.776512478448 Eh    ::
         :: -> isotropic ES            0.061219427497 Eh    ::
         :: -> anisotropic ES          0.004486406664 Eh    ::
         :: -> anisotropic XC          0.017187525014 Eh    ::
         :: -> dispersion             -0.036870521730 Eh    ::
         :: -> Gsolv                  -0.019084168931 Eh    ::
         ::    -> Gelec               -0.007192778451 Eh    ::
         ::    -> Gsasa               -0.015782409724 Eh    ::
         ::    -> Ghb                  0.000000000000 Eh    ::
         ::    -> Gshift               0.003891019244 Eh    ::
         :: repulsion energy           0.615930274308 Eh    ::
         :: add. restraining           0.000000000000 Eh    ::
         :: total charge              -0.000000000000 e     ::
         :::::::::::::::::::::::::::::::::::::::::::::::::::::

           ------------------------------------------------- 
          |                Numerical Hessian                |
           ------------------------------------------------- 
step length          :   0.00500
SCC accuracy         :   0.30000
Hessian scale factor :   1.00000
frozen atoms in %    :   0.00000    0
RMS gradient         :   0.00004
estimated CPU  time      1.52 min
estimated wall time      0.13 min

writing file <hessian>.

 projected vibrational frequencies (cm⁻¹)
eigval :       -0.00    -0.00    -0.00    -0.00     0.00     0.00
eigval :       65.54    89.92   113.19   152.09   167.65   173.52
eigval :      191.28   219.23   248.14   268.29   282.85   296.53
eigval :      302.82   333.99   365.76   378.51   427.35   459.22
eigval :      469.42   510.88   515.71   540.87   547.14   605.06
eigval :      657.96   682.90   698.58   719.75   795.31   829.13
eigval :      873.06   889.86   902.38   907.41   917.11   932.90
eigval :      944.89   951.63   970.84   985.57  1027.91  1034.93
eigval :     1044.67  1055.95  1077.29  1089.58  1095.34  1123.05
eigval :     1131.37  1136.42  1153.88  1159.37  1180.31  1209.99
eigval :     1227.44  1237.72  1257.02  1265.81  1274.25  1281.85
eigval :     1294.22  1313.24  1325.78  1335.53  1345.25  1355.56
eigval :     1369.17  1372.65  1399.83  1409.99  1418.24  1464.78
eigval :     1473.54  1476.55  1483.94  1487.41  1490.07  1714.11
eigval :     1739.31  2806.51  2882.06  2902.18  2948.60  2961.48
eigval :     2964.22  2969.18  2975.96  2985.76  2990.77  2991.96
eigval :     3008.40  3012.59  3036.24  3089.87  3099.35  3122.18
eigval :     3163.12  3402.99  3443.68
           -------------------------------------------------
          |                Property Printout                |
           -------------------------------------------------

    * Orbital Energies and Occupations

         #    Occupation            Energy/Eh            Energy/eV
      -------------------------------------------------------------
         1        2.0000           -0.7012329             -19.0815
       ...           ...                  ...                  ...
        30        2.0000           -0.4661384             -12.6843
        31        2.0000           -0.4595830             -12.5059
        32        2.0000           -0.4580871             -12.4652
        33        2.0000           -0.4460274             -12.1370
        34        2.0000           -0.4411437             -12.0041
        35        2.0000           -0.4384244             -11.9301
        36        2.0000           -0.4297740             -11.6947
        37        2.0000           -0.4196496             -11.4192
        38        2.0000           -0.4137459             -11.2586
        39        2.0000           -0.4110681             -11.1857
        40        2.0000           -0.3998727             -10.8811
        41        2.0000           -0.3922447             -10.6735
        42        2.0000           -0.3880443             -10.5592 (HOMO)
        43                         -0.2035802              -5.5397 (LUMO)
        44                         -0.2005248              -5.4566
        45                         -0.0009623              -0.0262
        46                          0.0286557               0.7798
        47                          0.0383554               1.0437
        48                          0.0556337               1.5139
        49                          0.0704570               1.9172
        50                          0.0762426               2.0747
        51                          0.0832114               2.2643
        52                          0.0940768               2.5600
        53                          0.1049785               2.8566
       ...                                ...                  ...
        80                          0.6481215              17.6363
      -------------------------------------------------------------
                  HL-Gap            0.1844641 Eh            5.0195 eV
             Fermi-level           -0.2958123 Eh           -8.0495 eV

     #   Z          covCN         q      C6AA      α(0)
     1   6 c        3.932    -0.010    20.694     6.465
     2   6 c        3.856    -0.028    21.038     6.523
     3   6 c        3.803    -0.059    21.629     6.621
     4   6 c        3.808    -0.055    21.562     6.610
     5   6 c        3.888    -0.030    21.058     6.524
     6   6 c        3.787     0.123    18.598     6.142
     7   6 c        3.845    -0.076    21.916     6.659
     8   6 c        2.981     0.011    27.772     8.644
     9   8 o        1.655    -0.482    22.501     6.403
    10   6 c        3.677     0.080    19.467     6.321
    11   6 c        2.838    -0.112    30.833     9.100
    12   6 c        2.935     0.006    27.888     8.661
    13   6 c        2.842    -0.110    30.771     9.091
    14   1 h        0.924     0.043     2.411     2.428
    15   8 o        1.654    -0.490    22.685     6.430
    16   6 c        3.760    -0.115    22.747     6.799
    17   1 h        0.924     0.039     2.467     2.456
    18   1 h        0.924     0.038     2.471     2.458
    19   1 h        0.925     0.050     2.315     2.379
    20   1 h        0.924     0.036     2.506     2.476
    21   1 h        0.924     0.039     2.457     2.451
    22   1 h        0.922     0.006     2.959     2.690
    23   1 h        0.925     0.054     2.268     2.355
    24   1 h        0.924     0.047     2.355     2.400
    25   1 h        0.804     0.319     0.668     1.284
    26   1 h        0.923     0.025     2.662     2.552
    27   1 h        0.924     0.043     2.413     2.429
    28   1 h        0.926     0.037     2.484     2.464
    29   1 h        0.926     0.039     2.468     2.457
    30   1 h        0.926     0.029     2.603     2.523
    31   1 h        0.926     0.053     2.278     2.360
    32   1 h        0.804     0.316     0.674     1.290
    33   1 h        0.925     0.042     2.421     2.433
    34   1 h        0.925     0.045     2.388     2.417
    35   1 h        0.924     0.049     2.335     2.389

 Mol. C6AA /au·bohr⁶  :      10399.805750
 Mol. C8AA /au·bohr⁸  :     233744.505141
 Mol. α(0) /au        :        153.686774


Wiberg/Mayer (AO) data.
largest (>0.10) Wiberg bond orders for each atom

 ---------------------------------------------------------------------------
     #   Z sym  total        # sym  WBO       # sym  WBO       # sym  WBO
 ---------------------------------------------------------------------------
     1   6 c    3.988 --    10 c    0.980     7 c    0.980     2 c    0.962
                             6 c    0.958
     2   6 c    3.993 --    12 c    0.995     3 c    0.983    14 h    0.963
                             1 c    0.962
     3   6 c    3.996 --     4 c    1.010     2 c    0.983    18 h    0.977
                            17 h    0.976
     4   6 c    3.996 --     3 c    1.010     5 c    0.979    20 h    0.976
                            19 h    0.969
     5   6 c    3.995 --     8 c    0.996     4 c    0.979     6 c    0.976
                            21 h    0.965
     6   6 c    3.953 --     9 o    0.992     5 c    0.976     1 c    0.958
                            22 h    0.958
     7   6 c    3.995 --     8 c    1.004     1 c    0.980    23 h    0.965
                            24 h    0.959
     8   6 c    3.986 --    11 c    1.937     7 c    1.004     5 c    0.996
     9   8 o    1.946 --     6 c    0.992    25 h    0.866
    10   6 c    3.950 --    15 o    0.991     1 c    0.980    27 h    0.970
                            26 h    0.967
    11   6 c    3.987 --     8 c    1.937    28 h    0.975    29 h    0.975
    12   6 c    3.986 --    13 c    1.916    16 c    1.020     2 c    0.995
    13   6 c    3.989 --    12 c    1.916    30 h    0.974    31 h    0.967
    14   1 h    0.998 --     2 c    0.963
    15   8 o    1.947 --    10 c    0.991    32 h    0.861
    16   6 c    3.996 --    12 c    1.020    33 h    0.984    34 h    0.971
                            35 h    0.969
    17   1 h    0.998 --     3 c    0.976
    18   1 h    0.999 --     3 c    0.977
    19   1 h    0.997 --     4 c    0.969
    20   1 h    0.998 --     4 c    0.976
    21   1 h    0.998 --     5 c    0.965
    22   1 h    1.000 --     6 c    0.958
    23   1 h    0.997 --     7 c    0.965
    24   1 h    0.997 --     7 c    0.959
    25   1 h    0.898 --     9 o    0.866
    26   1 h    0.999 --    10 c    0.967
    27   1 h    0.998 --    10 c    0.970
    28   1 h    0.998 --    11 c    0.975
    29   1 h    0.998 --    11 c    0.975
    30   1 h    0.999 --    13 c    0.974
    31   1 h    0.997 --    13 c    0.967
    32   1 h    0.900 --    15 o    0.861
    33   1 h    0.998 --    16 c    0.984
    34   1 h    0.998 --    16 c    0.971
    35   1 h    0.998 --    16 c    0.969
 ---------------------------------------------------------------------------

Topologies differ in total number of bonds
Writing topology from bond orders to xtbtopo.mol

molecular dipole:
                 x           y           z       tot (Debye)
 q only:        0.055       0.186      -1.042
   full:        0.187       0.083      -1.233       3.178
molecular quadrupole (traceless):
                xx          xy          yy          xz          yz          zz
 q only:        2.478       2.481      -1.121      -1.411       1.382      -1.357
  q+dip:        3.372       3.471      -2.102      -2.722       2.181      -1.270
   full:        3.253       3.451      -1.429      -2.382       1.445      -1.824

           -------------------------------------------------
          |                Geometry Summary                 |
           -------------------------------------------------

      molecular mass/u    :      208.2971915
   center of mass at/Å    :       -0.0003534      -0.0003764       0.0000845
  moments of inertia/u·Å² :        0.5197882E+03   0.9442903E+03   0.1017137E+04
rotational constants/cm⁻¹ :        0.3243173E-01   0.1785217E-01   0.1657362E-01

 * 29 selected distances

     #   Z          #   Z                                           value/Å
     3   6 c        4   6 c                                       1.5273229
     4   6 c        5   6 c                                       1.5323852
     5   6 c        6   6 c                                       1.5304787
     1   6 c        7   6 c                                       1.5420652 (max)
     6   6 c        9   8 o                                       1.4048562
     1   6 c       10   6 c                                       1.5345689
     8   6 c       11   6 c                                       1.3205165
    12   6 c       13   6 c                                       1.3260106
     2   6 c       14   1 h                                       1.0974895
    10   6 c       15   8 o                                       1.4144404
     3   6 c       17   1 h                                       1.0916853
     3   6 c       18   1 h                                       1.0921163
     4   6 c       19   1 h                                       1.0895542
     4   6 c       20   1 h                                       1.0915099
     5   6 c       21   1 h                                       1.0910577
     6   6 c       22   1 h                                       1.1047868
     7   6 c       23   1 h                                       1.0897172
     7   6 c       24   1 h                                       1.0931439
     9   8 o       25   1 h                                       0.9692082 (min)
    10   6 c       26   1 h                                       1.0985331
    10   6 c       27   1 h                                       1.0940632
    11   6 c       28   1 h                                       1.0773664
    11   6 c       29   1 h                                       1.0766229
    13   6 c       30   1 h                                       1.0786196
    13   6 c       31   1 h                                       1.0735584
    15   8 o       32   1 h                                       0.9710168
    16   6 c       33   1 h                                       1.0876440
    16   6 c       34   1 h                                       1.0893576
    16   6 c       35   1 h                                       1.0906728

 * 4 distinct bonds (by element types)

   Z      Z             #   av. dist./Å        max./Å        min./Å
   1 H    6 C          18     1.0893055     1.1047868     1.0735584
   6 C    6 C           7     1.4733354     1.5420652     1.3205165
   1 H    8 O           2     0.9701125     0.9710168     0.9692082
   6 C    8 O           2     1.4096483     1.4144404     1.4048562

           -------------------------------------------------
          |               Frequency Printout                |
           -------------------------------------------------
 projected vibrational frequencies (cm⁻¹)
eigval :       -0.00    -0.00    -0.00    -0.00     0.00     0.00
eigval :       65.54    89.92   113.19   152.09   167.65   173.52
eigval :      191.28   219.23   248.14   268.29   282.85   296.53
eigval :      302.82   333.99   365.76   378.51   427.35   459.22
eigval :      469.42   510.88   515.71   540.87   547.14   605.06
eigval :      657.96   682.90   698.58   719.75   795.31   829.13
eigval :      873.06   889.86   902.38   907.41   917.11   932.90
eigval :      944.89   951.63   970.84   985.57  1027.91  1034.93
eigval :     1044.67  1055.95  1077.29  1089.58  1095.34  1123.05
eigval :     1131.37  1136.42  1153.88  1159.37  1180.31  1209.99
eigval :     1227.44  1237.72  1257.02  1265.81  1274.25  1281.85
eigval :     1294.22  1313.24  1325.78  1335.53  1345.25  1355.56
eigval :     1369.17  1372.65  1399.83  1409.99  1418.24  1464.78
eigval :     1473.54  1476.55  1483.94  1487.41  1490.07  1714.11
eigval :     1739.31  2806.51  2882.06  2902.18  2948.60  2961.48
eigval :     2964.22  2969.18  2975.96  2985.76  2990.77  2991.96
eigval :     3008.40  3012.59  3036.24  3089.87  3099.35  3122.18
eigval :     3163.12  3402.99  3443.68
 reduced masses (amu)
   1: 10.87   2: 11.46   3: 11.27   4: 10.74   5: 11.85   6: 11.11   7:  9.65   8:  9.54
   9:  9.91  10: 10.18  11: 13.10  12:  4.68  13:  9.14  14: 11.98  15: 10.19  16:  8.77
  17:  7.40  18:  8.82  19:  9.49  20:  7.22  21:  8.22  22:  7.42  23:  9.47  24:  9.26
  25:  7.88  26: 10.52  27:  6.29  28:  5.47  29:  9.84  30:  9.87  31:  9.05  32:  8.35
  33:  2.51  34:  3.76  35:  8.22  36:  8.77  37:  7.72  38:  4.35  39:  5.89  40:  5.93
  41:  7.30  42:  6.32  43:  6.77  44:  5.56  45:  6.65  46:  6.30  47:  5.85  48:  6.43
  49:  5.67  50:  9.35  51:  8.61  52:  8.84  53:  5.59  54:  6.64  55:  5.49  56:  7.98
  57:  6.95  58:  2.71  59:  4.62  60:  5.19  61:  7.38  62:  5.74  63:  8.48  64:  5.94
  65:  6.58  66:  3.73  67:  5.48  68:  4.60  69:  5.57  70:  4.75  71:  3.34  72:  4.10
  73:  4.06  74:  3.76  75:  2.53  76:  2.37  77:  2.73  78:  1.92  79:  1.74  80:  1.85
  81:  1.73  82:  1.95  83:  1.61  84: 11.21  85: 11.59  86:  1.71  87:  1.76  88:  1.75
  89:  1.85  90:  1.67  91:  1.93  92:  1.78  93:  1.82  94:  1.57  95:  1.63  96:  1.90
  97:  1.64  98:  1.61  99:  1.62 100:  1.71 101:  1.54 102:  2.07 103:  1.89 104:  1.87
 105:  1.88
 IR intensities (km·mol⁻¹)
   1:  0.41   2:  0.02   3:  0.53   4:  0.05   5:  0.08   6:  0.12   7:  0.19   8:  0.23
   9:  0.96  10:  3.38  11:  5.32  12:  3.10  13:  3.38  14:  2.53  15: 16.00  16:  6.94
  17:  3.84  18:  1.70  19:  1.52  20: 57.39  21: 10.28  22:181.74  23: 27.15  24:  3.57
  25:  1.86  26:  6.51  27: 30.98  28:117.14  29: 14.97  30:  1.76  31:  6.50  32:  2.08
  33:  0.50  34:  1.67  35: 11.54  36:  6.42  37:  4.49  38: 24.82  39: 13.51  40: 20.40
  41:  4.23  42:  6.35  43:  0.59  44:  1.07  45:  7.35  46:  6.77  47:  2.77  48: 33.41
  49: 12.16  50: 38.54  51: 40.12  52: 46.72  53:  2.54  54: 69.33  55:  3.53  56: 66.20
  57: 27.80  58: 13.24  59:  8.44  60: 24.27  61: 13.54  62: 14.43  63: 27.50  64: 44.75
  65: 17.90  66: 13.54  67:  9.78  68: 20.67  69: 16.58  70: 13.70  71: 49.77  72:  4.69
  73:  6.27  74: 19.36  75:  2.39  76:  6.49  77: 11.70  78:  4.32  79:  2.90  80:  1.10
  81:  2.71  82:  0.75  83:  3.43  84: 22.45  85: 29.63  86:146.27  87: 73.75  88: 74.34
  89: 34.10  90: 74.54  91: 42.62  92: 51.43  93: 88.83  94: 87.28  95: 51.29  96: 42.18
  97: 62.98  98: 46.19  99: 45.68 100: 76.26 101: 38.85 102: 56.59 103: 15.37 104:172.81
 105:131.35
 Raman intensities (Ä⁴*amu⁻¹)
   1:  0.00   2:  0.00   3:  0.00   4:  0.00   5:  0.00   6:  0.00   7:  0.00   8:  0.00
   9:  0.00  10:  0.00  11:  0.00  12:  0.00  13:  0.00  14:  0.00  15:  0.00  16:  0.00
  17:  0.00  18:  0.00  19:  0.00  20:  0.00  21:  0.00  22:  0.00  23:  0.00  24:  0.00
  25:  0.00  26:  0.00  27:  0.00  28:  0.00  29:  0.00  30:  0.00  31:  0.00  32:  0.00
  33:  0.00  34:  0.00  35:  0.00  36:  0.00  37:  0.00  38:  0.00  39:  0.00  40:  0.00
  41:  0.00  42:  0.00  43:  0.00  44:  0.00  45:  0.00  46:  0.00  47:  0.00  48:  0.00
  49:  0.00  50:  0.00  51:  0.00  52:  0.00  53:  0.00  54:  0.00  55:  0.00  56:  0.00
  57:  0.00  58:  0.00  59:  0.00  60:  0.00  61:  0.00  62:  0.00  63:  0.00  64:  0.00
  65:  0.00  66:  0.00  67:  0.00  68:  0.00  69:  0.00  70:  0.00  71:  0.00  72:  0.00
  73:  0.00  74:  0.00  75:  0.00  76:  0.00  77:  0.00  78:  0.00  79:  0.00  80:  0.00
  81:  0.00  82:  0.00  83:  0.00  84:  0.00  85:  0.00  86:  0.00  87:  0.00  88:  0.00
  89:  0.00  90:  0.00  91:  0.00  92:  0.00  93:  0.00  94:  0.00  95:  0.00  96:  0.00
  97:  0.00  98:  0.00  99:  0.00 100:  0.00 101:  0.00 102:  0.00 103:  0.00 104:  0.00
 105:  0.00
 output can be read by thermo (or use thermo option).
 writing <g98.out> molden fake output.
 recommended (thermochemical) frequency scaling factor: 1.0
           -------------------------------------------------
          |             Thermodynamic Functions             |
           -------------------------------------------------

Molecule has no symmetry elements
It seems to be the C1 point group
c1  symmetry found (for desy threshold:  0.10E+00) used in thermo

          ...................................................
          :                      SETUP                      :
          :.................................................:
          :  # frequencies                          99      :
          :  # imaginary freq.                       0      :
          :  linear?                             false      :
          :  only rotor calc.                    false      :
          :  symmetry                               c1      :
          :  rotational number                       1      :
          :  scaling factor                  1.0000000      :
          :  rotor cutoff                   50.0000000 cm⁻¹ :
          :  imag. cutoff                  -50.0000000 cm⁻¹ :
          :.................................................:

    mode    ω/cm⁻¹     T·S(HO)/kcal·mol⁻¹    T·S(FR)/kcal·mol⁻¹   T·S(vib)
   ------------------------------------------------------------------------
       1     65.54    -1.27699 ( 74.70%)    -0.97629 ( 25.30%)    -1.20090
       2     89.92    -1.09177 ( 91.27%)    -0.88262 (  8.73%)    -1.07352
       3    113.19    -0.95808 ( 96.33%)    -0.81445 (  3.67%)    -0.95282
       4    152.09    -0.78886 ( 98.85%)    -0.72695 (  1.15%)    -0.78815
       5    167.65    -0.73393 ( 99.22%)    -0.69810 (  0.78%)    -0.73365
       6    173.52    -0.71466 ( 99.32%)    -0.68791 (  0.68%)    -0.71447
       7    191.28    -0.66051 ( 99.54%)    -0.65904 (  0.46%)    -0.66051
       8    219.23    -0.58600 ( 99.73%)    -0.61865 (  0.27%)    -0.58609
       9    248.14    -0.51990 ( 99.84%)    -0.58196 (  0.16%)    -0.52001
      10    268.29    -0.47919 ( 99.88%)    -0.55883 (  0.12%)    -0.47929
      11    282.85    -0.45211 ( 99.90%)    -0.54317 (  0.10%)    -0.45220
      12    296.53    -0.42827 ( 99.92%)    -0.52918 (  0.08%)    -0.42835
   ------------------------------------------------------------------------

   temp. (K)  partition function   enthalpy   heat capacity  entropy
                                   cal/mol     cal/K/mol   cal/K/mol   J/K/mol
 298.15  VIB  0.995E+04             7496.215     53.946     43.100
         ROT  0.171E+07              888.752      2.981     31.498
         INT  0.170E+11             8384.967     56.927     74.598
         TR   0.291E+28             1481.254      4.968     41.886
         TOT                        9866.2214    61.8954   116.4846   487.3715

       T/K    H(0)-H(T)+PV         H(T)/Eh          T*S/Eh         G(T)/Eh
   ------------------------------------------------------------------------
    298.15    0.157228E-01    0.317522E+00    0.553456E-01    0.262177E+00
   ------------------------------------------------------------------------

         :::::::::::::::::::::::::::::::::::::::::::::::::::::
         ::                  THERMODYNAMIC                  ::
         :::::::::::::::::::::::::::::::::::::::::::::::::::::
         :: total free energy         -45.898405364915 Eh   ::
         ::.................................................::
         :: total energy              -46.160582204123 Eh   ::
         :: zero point energy           0.301799599763 Eh   ::
         :: G(RRHO) w/o ZPVE           -0.039622760555 Eh   ::
         :: G(RRHO) contrib.            0.262176839208 Eh   ::
         :::::::::::::::::::::::::::::::::::::::::::::::::::::

optimized geometry written to: xtbopt.coord


           -------------------------------------------------
          | TOTAL ENERGY              -46.160582204123 Eh   |
          | TOTAL ENTHALPY            -45.843059779778 Eh   |
          | TOTAL FREE ENERGY         -45.898405364915 Eh   |
          | GRADIENT NORM               0.000043293725 Eh/α |
          | HOMO-LUMO GAP               5.019524570416 eV   |
           -------------------------------------------------

------------------------------------------------------------------------
 * finished run on 2026/08/09 at 17:48:02.338     
------------------------------------------------------------------------
 total:
 * wall-time:     0 d,  0 h,  0 min,  1.492 sec
 *  cpu-time:     0 d,  0 h,  0 min, 16.066 sec
 * ratio c/w:    10.771 speedup
 SCF:
 * wall-time:     0 d,  0 h,  0 min,  0.071 sec
 *  cpu-time:     0 d,  0 h,  0 min,  0.795 sec
 * ratio c/w:    11.163 speedup
 ANC optimizer:
 * wall-time:     0 d,  0 h,  0 min,  0.308 sec
 *  cpu-time:     0 d,  0 h,  0 min,  3.686 sec
 * ratio c/w:    11.967 speedup
 analytical hessian:
 * wall-time:     0 d,  0 h,  0 min,  1.080 sec
 *  cpu-time:     0 d,  0 h,  0 min, 11.271 sec
 * ratio c/w:    10.435 speedup

normal termination of xtb
