
                                 *****************
                                 * O   R   C   A *
                                 *****************

                                            #,                                       
                                            ###                                      
                                            ####                                     
                                            #####                                    
                                            ######                                   
                                           ########,                                 
                                     ,,################,,,,,                         
                               ,,#################################,,                 
                          ,,##########################################,,             
                       ,#########################################, ''#####,          
                    ,#############################################,,   '####,        
                  ,##################################################,,,,####,       
                ,###########''''           ''''###############################       
              ,#####''   ,,,,##########,,,,          '''####'''          '####       
            ,##' ,,,,###########################,,,                        '##       
           ' ,,###''''                  '''############,,,                           
         ,,##''                                '''############,,,,        ,,,,,,###''
      ,#''                                            '''#######################'''  
     '                                                          ''''####''''         
             ,#######,   #######,   ,#######,      ##                                
            ,#'     '#,  ##    ##  ,#'     '#,    #''#        ,####,    ,#,          
            ##       ##  ##   ,#'  ##            #'  '#       #'       ,# #          
            ##       ##  #######   ##           ,######,      #####,      #          
            '#,     ,#'  ##    ##  '#,     ,#' ,#      #,     #,   #      #          
             '#######'   ##     ##  '#######'  #'      '#     '####' #    #          



                #########################################################
                #                        -***-                          #
                #          Department of theory and spectroscopy        #
                #                                                       #
                #                      Frank Neese                      #
                #                                                       #
                #     Directorship, Architecture, Infrastructure        #
                #                    SHARK, DRIVERS                     #
                #        Core code/Algorithms in most modules           #
                #                                                       #
                #        Max Planck Institute fuer Kohlenforschung      #
                #                Kaiser Wilhelm Platz 1                 #
                #                 D-45470 Muelheim/Ruhr                 #
                #                      Germany                          #
                #                                                       #
                #                  All rights reserved                  #
                #                        -***-                          #
                #########################################################


                         Program Version 6.1.1  -  RELEASE   -
                                (GIT: $487d211c$)
                          ($2025-11-21 10:33:24 +0100$)


 With contributions from (in alphabetic order):
[Max-Planck-Institut fuer Kohlenforschung]                               
  Daniel Aravena         : Magnetic Suceptibility                        
  Michael Atanasov       : Ab Initio Ligand Field Theory (pilot matlab implementation)
  Alexander A. Auer      : GIAO ZORA, VPT2 properties, NMR spectrum      
  Ute Becker             : All parallelization in ORCA, NUMFREQ, NUMCALC 
  Giovanni Bistoni       : ED, misc. LED, open-shell LED, HFLD           
  Dmytro Bykov           : pre 5.0 version of the SCF Hessian            
  Marcos Casanova-Páez   : Triplet and SCS-CIS(D). UHF-(DLPNO)-IP/EA/STEOM-CCSD. UHF-CVS-IP/STEOM-CCSD   
  Vijay G. Chilkuri      : MRCI spin determinant printing, contributions to CSF-ICE 
  Pauline Colinet        : FMM embedding                                 
  Dipayan Datta          : RHF DLPNO-CCSD density                        
  Achintya Kumar Dutta   : EOM-CC, STEOM-CC                              
  Nicolas Foglia         : Exact transition moments, OPA infrastructure, MCD improvements    
  Dmitry Ganyushin       : Spin-Orbit,Spin-Spin,Magnetic field MRCI      
  Miquel Garcia-Rates    : C-PCM and meta-GGA Hessian, CCSD/C-PCM, Gaussian charge scheme 
  Tiago L. C. Gouveia    : GS-ROHF, GS-ROCIS                             
  Yang Guo               : DLPNO-NEVPT2, F12-NEVPT2, CIM, IAO-localization        
  Andreas Hansen         : Spin unrestricted coupled pair/coupled cluster methods 
  Ingolf Harden          : AUTO-CI MPn and infrastructure                
  Benjamin Helmich-Paris : MC-RPA, TRAH-(SCF,CASSCF), AVAS, COSX integrals, SCF dyn. polar., MC-PDFT, srDFT 
  Lee Huntington         : MR-EOM, pCC                                   
  Robert Izsak           : Overlap fitted RIJCOSX, COSX-SCS-MP3, EOM     
  Riya Kayal             : Wick's Theorem for AUTO-CI, AUTO-CI UHF-CCSDT 
  Emily Kempfer          : AUTO-CI RHF CISDT and CCSDT, approximate NEVPT4
  Christian Kollmar      : KDIIS, OOCD, Brueckner-CCSD(T), CCSD density, CASPT2, CASPT2-K, improved NEVPT2 
  Axel Koslowski         : Symmetry handling                             
  Simone Kossmann        : meta-GGA functionals, TD-DFT gradient, OOMP2, (MP2 Hessian; deprecated post 5.0) 
  Lucas Lang             : DCDCAS, Hyperfine gauge corrections, ICE-SOC+SSC
  Marvin Lechner         : AUTO-CI (C++ implementation), FIC-MRCC        
  Spencer Leger          : CASSCF response                               
  Dagmar Lenk            : GEPOL surface, SMD, ORCA-2-JSON               
  Dimitrios Liakos       : Extrapolation schemes; Compound Job, Property file
  Dimitrios Manganas     : Further ROCIS development; embedding schemes. LFT, Crystal Embedding 
  Dimitrios Pantazis     : SARC Basis sets                               
  Anastasios Papadopoulos: AUTO-CI, single reference methods and gradients 
  Taras Petrenko         : pre 6.0 DFT Hessian and TD-DFT gradient,  ECA, NRVS 
  Petra Pikulova         : Analytic Raman intensities                    
  Peter Pinski           : DLPNO-MP2, DLPNO-MP2 Gradient                 
  Shashank Vittal Rao    : ES-AILFT, MagRelax                            
  Christoph Reimann      : Effective Core Potentials                     
  Marius Retegan         : Local ZFS, SOC                                
  Christoph Riplinger    : Optimizer, TS searches, QM/MM, DLPNO-CCSD(T), (RO)-DLPNO pert. Triples 
  Michael Roemelt        : Original ROCIS implementation, recursive CI coupling coefficients
  Masaaki Saitow         : Open-shell DLPNO-CCSD energy and density      
  Barbara Sandhoefer     : DKH picture change effects                    
  Yorick L. A. Schmerwitz: GMF and freeze-and-release deltaSCF, NEB S-IDPP initial path                    
  Kantharuban Sivalingam : CASSCF convergence/infrastructure, NEVPT2, NEVPT3, NEVPT4(SD), FIC-MRCI and CEPA variants
  Bernardo de Souza      : ESD, SOC TD-DFT                               
  Georgi L. Stoychev     : AutoAux, RI-MP2 NMR, DLPNO-MP2 response, X2C  
  Van Anh Tran           : RI-MP2 g-tensors                              
  Willem Van den Heuvel  : Paramagnetic NMR                              
  Zikuan Wang            : NOTCH, Electric field optimization            
  Frank Wennmohs         : Technical directorship and infrastructure     
  Hang Xu                : AUTO-CI-Response properties                   
                                                                         
[FACCTs GmbH]                                                            
  Markus Bursch, Nicolas Foglia, Miquel Garcia-Rates, Ingolf Harden, Hagen Neugebauer, Anastasios Papadopoulos, 
  Christoph Riplinger, Bernardo de Souza, Georgi L. Stoychev                                                    
                                                                 
  APM, various basis sets, CI-OPT, improved COSX, DLPNO-Multilevel,           
  DOCKER, DRACO, updates on ESD, Fragmentator, GOAT, IRC, LR-CPCM, L-BFGS, MBIS, meta-GGA TD-DFT gradient, ML-optimized integration grids, 
  MM, NACMEs, nearIR, NEB, NEB-TS, NL-DFT gradient (VV10), 2- and 3-layer-ONIOM, interface openCOSMO-RS, QMMM,   
  Crystal-QMMM, RESP, rigid body optimization, SF, symmetry and pop. for TD-DFT, various functionals, SOLVATOR                                   
                                                                         
[Other institutions]                                                     
  V. Asgeirsson          : NEB                                           
  Christoph Bannwarth    : sTDA-DFT, sTD-DFT, PBEh-3c, B97-3c, D3        
  Giovanni Bistoni       : ETS/NOCV, ADLD/ADEX, COVALED                  
  Martin Brehm           : Molecular dynamics                            
  Ronald Cardenas        : ETS/NOCV                                      
  Martina Colucci        : COVALED                                       
  Sebastian Ehlert       : rSCAN, r2SCAN, r2SCAN-3c, D4, dhf basis sets  
  Marvin Friede          : D4 for Fr, Ra, Ac-Lr                          
  Lars Goerigk           : TD-DFT with DH, B97 family of functionals     
  Stefan Grimme          : VdW corrections, initial TS optimization, DFT functionals, gCP, sTDA/sTD-DF 
  Waldemar Hujo          : DFT-NL                                        
  H. Jonsson             : NEB                                           
  Holger Kruse           : gCP                                           
  Marcel Mueller         : wB97X-3c, vDZP basis set                      
  Hagen Neugebauer       : wr2SCAN, Native XTB                           
  Gianluca Regni         : ADLD/ADEX                                     
  Tobias Risthaus        : pre 6.0 range-separated hybrid DFT and stability analysis
  Lukas Wittmann         : regularized MP2, r2SCAN double-hybrids, wr2SCAN        
                                                                         
We gratefully acknowledge several colleagues who have allowed us to      
interface, adapt or use parts of their codes:                            
  Ed Valeev, F. Pavosevic, A. Kumar             : LibInt (2-el integral package), F12 methods 
  Garnet Chan, S. Sharma, J. Yang, R. Olivares  : DMRG                   
  Ulf Ekstrom                                   : XCFun DFT Library      
  Mihaly Kallay                                 : mrcc  (arbitrary order and MRCC methods)
  Frank Weinhold                                : gennbo (NPA and NBO analysis)           
  Simon Mueller                                 : openCOSMO-RS                            
  Christopher J. Cramer and Donald G. Truhlar   : smd solvation model                     
  S Lehtola, MJT Oliveira, MAL Marques          : LibXC Library                           
  Liviu Ungur et al                             : ANISO software                          


 Your calculation uses the libint2 library for the computation of 2-el integrals
 For citations please refer to: http://libint.valeyev.net

 Your ORCA version has been built with support for libXC version: 7.0.0
 For citations please refer to: https://libxc.gitlab.io

 This ORCA versions uses:
   CBLAS   interface :  Fast vector & matrix operations
   LAPACKE interface :  Fast linear algebra routines
   SCALAPACK package :  Parallel linear algebra routines
   Shared memory     :  Shared parallel matrices
   BLAS/LAPACK       :  OpenBLAS 0.3.29  USE64BITINT DYNAMIC_ARCH NO_AFFINITY Haswell SINGLE_THREADED
        Core in use  :  Haswell
   Copyright (c) 2011-2014, The OpenBLAS Project


  ***********************************
  * Starting time: Sun Aug  9 12:30:25 2026
  * Host name:     localhost.localdomain
  * Process ID:    2795120
  * Working dir.:  /home/dinglab/calculation/templates/NMR_modules/ANN_PRA_15/pps_dysA_screening/CONF1/hf-3c
  ***********************************

NOTE: MaxCore=2500 MB was set to SCF,MP2,MDCI,CIPSI,MRCI,RASCI and CIS
      => If you want to overwrite this, your respective input block should be placed after the MaxCore statement
Your calculation utilizes the geometrical counterpoise correction gCP
Please cite in your paper:
H.Kruse, S. Grimme J.Chem.Phys., 136, (2012), 154101 
   

Your calculation utilizes the atom-pairwise dispersion correction
with the Becke-Johnson damping scheme (D3BJ)


================================================================================

----- Orbital basis set information -----
Your calculation utilizes the basis: MINIX,
   a combination of small basis sets by S. Grimme (see manual for definitions).

================================================================================
                                        WARNINGS
                       Please study these warnings very carefully!
================================================================================

WARNING: Old DensityContainer found on disk!
         Will remove this file - 
         If you want to keep old densities, please start your calculation with a different basename. 


================================================================================
                                       INPUT FILE
================================================================================
NAME = inp
|  1> ! hf-3c
|  2> ! DEFGRID2
|  3> ! scfconv6
|  4> ! miniprint nopop noautostart
|  5> %MaxCore 2500
|  6> %pal
|  7>     nprocs 12
|  8> end
|  9> *xyz 0 1
| 10> C   -1.3429981148  -1.4795294942   2.0089719893
| 11> C   -2.7324238884  -1.2985507892   1.3635856280
| 12> C   -2.7174070632  -0.6771040256  -0.0644821529
| 13> C   -1.6758089032   0.5117905319  -0.1857926262
| 14> C   -0.2844852206   0.2963353589   0.5418062022
| 15> C   -0.5651515734  -0.1472481549   2.0035690514
| 16> C   -1.3902266094   0.8345799861  -1.6706348975
| 17> C   -0.6080984614   2.1575481615  -1.7856222593
| 18> C    0.7132171485   2.1106845982  -0.9875790597
| 19> C    0.5671481285   1.6473945874   0.4975897332
| 20> C    0.8080746527  -0.7254547673   0.0089820575
| 21> C    1.9659852646   1.1674880664   0.9348465837
| 22> C    2.0627248765  -0.1877003414   0.3059607312
| 23> C    3.2706691457  -0.8052490037   0.0658354903
| 24> C    3.2630277251  -2.0742381483  -0.5147549019
| 25> C    2.0506794321  -2.6564175298  -0.7855570711
| 26> C    0.8116562693  -2.0346881685  -0.5169509551
| 27> O   -0.2252190261  -2.8630025707  -0.7813024677
| 28> O    4.4271999538  -0.1359272225   0.4087599108
| 29> O   -2.4395269122  -1.7210878843  -0.9954976027
| 30> C   -4.1839552423  -0.2423318192  -0.3889984166
| 31> C   -2.4254464773   1.7191630661   0.4419510733
| 32> C    1.4286155108   3.4767300709  -1.1140133612
| 33> C    0.1867424887   2.8160359730   1.4484052110
| 34> H   -1.4774008722  -1.8217053094   3.0285635055
| 35> H   -0.7767340490  -2.2397030699   1.4864458574
| 36> H   -3.3234653953  -0.6496665601   1.9961146893
| 37> H   -3.2497043809  -2.2494826438   1.3022851772
| 38> H    0.3709433376  -0.2673049930   2.5303875181
| 39> H   -1.1422094366   0.6024021541   2.5230033779
| 40> H   -0.8020250649   0.0373861541  -2.1070639317
| 41> H   -2.3156763059   0.9160520025  -2.2247459391
| 42> H   -0.3684702357   2.3455416389  -2.8251269399
| 43> H   -1.2211702246   2.9815175296  -1.4518491805
| 44> H    1.3353747330   1.3680138571  -1.4665140841
| 45> H    2.0301923450   1.0980891235   2.0142160862
| 46> H    2.7525560160   1.8302571145   0.6052082287
| 47> H    4.1839359595  -2.5921824801  -0.7333488383
| 48> H    1.9988408448  -3.6471333940  -1.2101127901
| 49> H   -1.1143517793  -2.4338164461  -0.8014514949
| 50> H    5.2035976421  -0.6808700417   0.1855392426
| 51> H   -2.6034418909  -1.4142841090  -1.9041023491
| 52> H   -4.7816512736  -1.1446038425  -0.4565737415
| 53> H   -4.6047958697   0.3830968150   0.3841244886
| 54> H   -4.2425807682   0.2833320223  -1.3335762582
| 55> H   -2.7863729702   1.4852931742   1.4315291696
| 56> H   -1.8096108057   2.5877716891   0.5057451575
| 57> H   -3.2683338830   1.9770585276  -0.1784342687
| 58> H    2.3581404811   3.4915204567  -0.5606048511
| 59> H    1.6513506046   3.6755400797  -2.1555122812
| 60> H    0.7995321420   4.2765865145  -0.7473403773
| 61> H    1.0997200774   3.3029098157   1.7663701054
| 62> H   -0.4199848920   3.5719060554   0.9767071462
| 63> H   -0.3229557988   2.4637154771   2.3332122891
| 64> *
| 65> 
| 66>                          ****END OF INPUT****
================================================================================

                       ****************************
                       * Single Point Calculation *
                       ****************************

---------------------------------
CARTESIAN COORDINATES (ANGSTROEM)
---------------------------------
  C     -1.342998   -1.479529    2.008972
  C     -2.732424   -1.298551    1.363586
  C     -2.717407   -0.677104   -0.064482
  C     -1.675809    0.511791   -0.185793
  C     -0.284485    0.296335    0.541806
  C     -0.565152   -0.147248    2.003569
  C     -1.390227    0.834580   -1.670635
  C     -0.608098    2.157548   -1.785622
  C      0.713217    2.110685   -0.987579
  C      0.567148    1.647395    0.497590
  C      0.808075   -0.725455    0.008982
  C      1.965985    1.167488    0.934847
  C      2.062725   -0.187700    0.305961
  C      3.270669   -0.805249    0.065835
  C      3.263028   -2.074238   -0.514755
  C      2.050679   -2.656418   -0.785557
  C      0.811656   -2.034688   -0.516951
  O     -0.225219   -2.863003   -0.781302
  O      4.427200   -0.135927    0.408760
  O     -2.439527   -1.721088   -0.995498
  C     -4.183955   -0.242332   -0.388998
  C     -2.425446    1.719163    0.441951
  C      1.428616    3.476730   -1.114013
  C      0.186742    2.816036    1.448405
  H     -1.477401   -1.821705    3.028564
  H     -0.776734   -2.239703    1.486446
  H     -3.323465   -0.649667    1.996115
  H     -3.249704   -2.249483    1.302285
  H      0.370943   -0.267305    2.530388
  H     -1.142209    0.602402    2.523003
  H     -0.802025    0.037386   -2.107064
  H     -2.315676    0.916052   -2.224746
  H     -0.368470    2.345542   -2.825127
  H     -1.221170    2.981518   -1.451849
  H      1.335375    1.368014   -1.466514
  H      2.030192    1.098089    2.014216
  H      2.752556    1.830257    0.605208
  H      4.183936   -2.592182   -0.733349
  H      1.998841   -3.647133   -1.210113
  H     -1.114352   -2.433816   -0.801451
  H      5.203598   -0.680870    0.185539
  H     -2.603442   -1.414284   -1.904102
  H     -4.781651   -1.144604   -0.456574
  H     -4.604796    0.383097    0.384124
  H     -4.242581    0.283332   -1.333576
  H     -2.786373    1.485293    1.431529
  H     -1.809611    2.587772    0.505745
  H     -3.268334    1.977059   -0.178434
  H      2.358140    3.491520   -0.560605
  H      1.651351    3.675540   -2.155512
  H      0.799532    4.276587   -0.747340
  H      1.099720    3.302910    1.766370
  H     -0.419985    3.571906    0.976707
  H     -0.322956    2.463715    2.333212

----------------------------
CARTESIAN COORDINATES (A.U.)
----------------------------
  NO LB      ZA    FRAG     MASS         X           Y           Z
   0 C     6.0000    0    12.011   -2.537899   -2.795906    3.796407
   1 C     6.0000    0    12.011   -5.163533   -2.453905    2.576803
   2 C     6.0000    0    12.011   -5.135155   -1.279541   -0.121854
   3 C     6.0000    0    12.011   -3.166820    0.967144   -0.351097
   4 C     6.0000    0    12.011   -0.537599    0.559993    1.023865
   5 C     6.0000    0    12.011   -1.067982   -0.278259    3.786197
   6 C     6.0000    0    12.011   -2.627148    1.577128   -3.157042
   7 C     6.0000    0    12.011   -1.149140    4.077175   -3.374337
   8 C     6.0000    0    12.011    1.347785    3.988616   -1.866254
   9 C     6.0000    0    12.011    1.071755    3.113125    0.940308
  10 C     6.0000    0    12.011    1.527040   -1.370911    0.016974
  11 C     6.0000    0    12.011    3.715174    2.206233    1.766604
  12 C     6.0000    0    12.011    3.897985   -0.354702    0.578182
  13 C     6.0000    0    12.011    6.180669   -1.521700    0.124411
  14 C     6.0000    0    12.011    6.166229   -3.919742   -0.972746
  15 C     6.0000    0    12.011    3.875223   -5.019902   -1.484488
  16 C     6.0000    0    12.011    1.533808   -3.845003   -0.976896
  17 O     8.0000    0    15.999   -0.425602   -5.410291   -1.476448
  18 O     8.0000    0    15.999    8.366195   -0.256865    0.772444
  19 O     8.0000    0    15.999   -4.610038   -3.252385   -1.881218
  20 C     6.0000    0    12.011   -7.906530   -0.457941   -0.735100
  21 C     6.0000    0    12.011   -4.583430    3.248747    0.835166
  22 C     6.0000    0    12.011    2.699692    6.570068   -2.105180
  23 C     6.0000    0    12.011    0.352892    5.321537    2.737089
  24 H     1.0000    0     1.008   -2.791883   -3.442524    5.723156
  25 H     1.0000    0     1.008   -1.467815   -4.232425    2.808976
  26 H     1.0000    0     1.008   -6.280439   -1.227692    3.772110
  27 H     1.0000    0     1.008   -6.141051   -4.250906    2.460962
  28 H     1.0000    0     1.008    0.700981   -0.505133    4.781739
  29 H     1.0000    0     1.008   -2.158463    1.138375    4.767785
  30 H     1.0000    0     1.008   -1.515608    0.070650   -3.981774
  31 H     1.0000    0     1.008   -4.375994    1.731087   -4.204161
  32 H     1.0000    0     1.008   -0.696308    4.432431   -5.338716
  33 H     1.0000    0     1.008   -2.307677    5.634252   -2.743597
  34 H     1.0000    0     1.008    2.523493    2.585172   -2.771310
  35 H     1.0000    0     1.008    3.836508    2.075088    3.806317
  36 H     1.0000    0     1.008    5.201577    3.458685    1.143678
  37 H     1.0000    0     1.008    7.906493   -4.898515   -1.385828
  38 H     1.0000    0     1.008    3.777262   -6.892083   -2.286782
  39 H     1.0000    0     1.008   -2.105820   -4.599247   -1.514524
  40 H     1.0000    0     1.008    9.833374   -1.286658    0.350618
  41 H     1.0000    0     1.008   -4.919792   -2.672610   -3.598232
  42 H     1.0000    0     1.008   -9.036011   -2.162988   -0.862799
  43 H     1.0000    0     1.008   -8.701803    0.723948    0.725890
  44 H     1.0000    0     1.008   -8.017316    0.535420   -2.520094
  45 H     1.0000    0     1.008   -5.265482    2.806797    2.705198
  46 H     1.0000    0     1.008   -3.419669    4.890180    0.955720
  47 H     1.0000    0     1.008   -6.176256    3.736099   -0.337192
  48 H     1.0000    0     1.008    4.456240    6.598017   -1.059390
  49 H     1.0000    0     1.008    3.120600    6.945764   -4.073328
  50 H     1.0000    0     1.008    1.510897    8.081577   -1.412269
  51 H     1.0000    0     1.008    2.078170    6.241595    3.337956
  52 H     1.0000    0     1.008   -0.793656    6.749924    1.845709
  53 H     1.0000    0     1.008   -0.610298    4.655748    4.409132



           ************************************************************
           *        Program running with 12 parallel MPI-processes    *
           *              working on a common directory               *
           ************************************************************
------------------------------------------------------------------------------
                   ___                                                        
                  /   \      - P O W E R E D   B Y -                         
                 /     \                                                     
                 |  |  |   _    _      __       _____    __    __             
                 |  |  |  | |  | |    /  \     |  _  \  |  |  /  |          
                  \  \/   | |  | |   /    \    | | | |  |  | /  /          
                 / \  \   | |__| |  /  /\  \   | |_| |  |  |/  /          
                |  |  |   |  __  | /  /__\  \  |    /   |      \           
                |  |  |   | |  | | |   __   |  |    \   |  |\   \          
                \     /   | |  | | |  |  |  |  | |\  \  |  | \   \       
                 \___/    |_|  |_| |__|  |__|  |_| \__\ |__|  \__/        
                                                                              
                      - O R C A' S   B I G   F R I E N D -                    
                                      &                                       
                       - I N T E G R A L  F E E D E R -                       
                                                                              
 v1 FN, 2020, v2 2021, v3 2022-2024                                           
------------------------------------------------------------------------------


----------------------
SHARK INTEGRAL PACKAGE
----------------------

Number of atoms                             ...     54
Number of basis functions                   ...    150
Number of shells                            ...    102
Maximum angular momentum                    ...      1
Integral batch strategy                     ... SHARK/LIBINT Hybrid
RI-J (if used) integral strategy            ... SPLIT-RIJ (Revised 2003 algorithm where possible)
Printlevel                                  ...      1
Contraction scheme used                     ... SEGMENTED contraction
Prescreening option                         ... SCHWARTZ
   Thresh                                   ... 1.000e-10
   Tcut                                     ... 1.000e-11
   Tpresel                                  ... 1.000e-11 
Coulomb Range Separation                    ... NOT USED
Exchange Range Separation                   ... NOT USED
Multipole approximations                    ... NOT USED
Finite Nucleus Model                        ... NOT USED
CABS basis                                  ... NOT available
Auxiliary Coulomb fitting basis             ... NOT available
Auxiliary J/K fitting basis                 ... NOT available
Auxiliary Correlation fitting basis         ... NOT available
Auxiliary 'external' fitting basis          ... NOT available

Checking pre-screening integrals            ... done (  0.0 sec) Dimension = 102
   => SHARK Basis and OBASIS are compatible. Storing Pre-screening
Shell pair information
Shell pair cut-off parameter TPreSel        ...   1.0e-11
Total number of shell pairs                 ...      5253
Shell pairs after pre-screening             ...      4551
Total number of primitive shell pairs       ...     47277
Primitive shell pairs kept                  ...     23586
          la=0 lb=0:   2499 shell pairs
          la=1 lb=0:   1754 shell pairs
          la=1 lb=1:    298 shell pairs

Checking whether 4 symmetric matrices of dimension 150 fit in memory
:Max Core in MB      =   2500.00
 MB in use           =      8.20
 MB left             =   2491.80
 MB needed           =      0.35
 Data fit in memory  = YES
Calculating Nuclear repulsion               ... done (  0.0 sec) ENN=   2419.916602443966 Eh
Entering conventional section               ... 
Calculating 4-index integrals               ...     -> SHARK/Ints2Disk: Thresh =     1.000000e-10 TCut=    1.000000e-11 
    -> calling libint FockFlag=2 Lmax_loc=1
    ->Total LIBINT loop time =    0.000 sec
    -> L=0 0 0 0:     0.188 sec done=   2181524 (=100.0%) skipped=         0 
    -> L=1 0 0 0:     0.298 sec done=   3316387 (=100.0%) skipped=         0 
    -> L=1 0 1 0:     0.185 sec done=   1247371 (=100.0%) skipped=         0 
    -> L=1 1 0 0:     0.104 sec done=    629120 (=100.0%) skipped=         0 
    -> L=1 1 1 0:     0.162 sec done=    463325 (=100.0%) skipped=         0 
    -> L=1 1 1 1:     0.041 sec done=     41712 (=100.0%) skipped=         0 
    ->Total SHARK integral loop time =    0.980 sec
    -> Total Integral generation matrix time =    0.992 sec
    -> Number of small integrals   =   8723290
    -> Number of medium integrals  =  13273439
    -> Number of large integrals   =  16179946
    -> Number of MB stored         =       339 MB

done (  1.0 sec)
Leaving conventional section

Diagonalization of the overlap matrix:
Smallest eigenvalue                        ... 1.697e-01
Time for diagonalization                   ...    0.004 sec
Threshold for overlap eigenvalues          ... 1.000e-07
Number of eigenvalues below threshold      ... 0
Time for construction of square roots      ...    0.001 sec
Total time needed                          ...    0.007 sec

-------------------
DFT GRID GENERATION
-------------------

General Integration Accuracy     IntAcc      ... 4.388
Radial Grid Type                 RadialGrid  ... OptM3 with GC (2021)
Angular Grid (max. ang.)         AngularGrid ... 4 (Lebedev-302)
Angular grid pruning method      GridPruning ... 4 (adaptive)
Weight generation scheme         WeightScheme... mBecke (2022)
Basis function cutoff            BFCut       ... 1.0000e-10
Integration weight cutoff        WCut        ... 1.0000e-14
Partially contracted basis set               ... off
Rotationally invariant grid construction     ... off
Angular grids for H and He will be reduced by one unit

Total number of grid points                  ...   234811
Total number of batches                      ...     3698
Average number of points per batch           ...       63
Average number of grid points per atom       ...     4348
Grids setup in   1.5 sec
Initializing property integral containers    ... done (  0.0 sec)

SHARK setup successfully completed in   2.6 seconds

Maximum memory used throughout the entire STARTUP-calculation: 48.7 MB


           ************************************************************
           *        Program running with 12 parallel MPI-processes    *
           *              working on a common directory               *
           ************************************************************
             **** ENERGY FILE WAS UPDATED (inp.en.tmp) ****
Finished Guess after   0.2 sec
Maximum memory used throughout the entire GUESS-calculation: 9.9 MB


           ************************************************************
           *        Program running with 12 parallel MPI-processes    *
           *              working on a common directory               *
           ************************************************************

 InCore treatment chosen for four center integrals:
   Memory dedicated               ...    2500 MB
   Memory needed                  ...     28 MB
   Number of tiny    integrals    ... 8723290
   Number of small   integrals    ... 13273439
   Number of regular integrals    ... 16179946

----------------------------------------D-I-I-S--------------------------------------------
Iteration    Energy (Eh)           Delta-E    RMSDP     MaxDP     DIISErr   Damp  Time(sec)
-------------------------------------------------------------------------------------------
    1    -1029.2869427259211079     0.00e+00  1.32e-02  6.77e-02  2.44e-01  0.700   0.1
    2    -1029.5778006738260046    -2.91e-01  1.12e-02  6.14e-02  1.77e-01  0.700   0.2
                               ***Turning on AO-DIIS***
    3    -1029.7899116946477989    -2.12e-01  8.67e-03  4.81e-02  1.27e-01  0.700   0.2
    4    -1029.9424843564183902    -1.53e-01  6.62e-03  3.84e-02  8.90e-02  0.700   0.2
    5    -1030.0523747337933855    -1.10e-01  1.66e-02  1.01e-01  6.23e-02  0.000   0.2
    6    -1030.3232709169433292    -2.71e-01  1.65e-03  1.39e-02  6.53e-03  0.000   0.2
                              *** Initializing SOSCF ***
---------------------------------------S-O-S-C-F--------------------------------------
Iteration    Energy (Eh)           Delta-E    RMSDP     MaxDP     MaxGrad    Time(sec)
--------------------------------------------------------------------------------------
    7    -1030.3239273015733488    -6.56e-04  1.15e-03  1.01e-02  3.09e-03     0.2
    8    -1030.3241353116227401    -2.08e-04  3.58e-04  2.87e-03  8.18e-04     0.2
    9    -1030.3241606387182401    -2.53e-05  2.98e-04  2.17e-03  3.61e-04     0.2
   10    -1030.3241669209114661    -6.28e-06  3.87e-05  3.55e-04  1.35e-04     0.2
   11    -1030.3241671243577002    -2.03e-07  1.12e-05  6.54e-05  5.69e-05     0.2
                 **** Energy Check signals convergence ****

               *****************************************************
               *                     SUCCESS                       *
               *           SCF CONVERGED AFTER  11 CYCLES          *
               *****************************************************

             **** ENERGY FILE WAS UPDATED (inp.en.tmp) ****

----------------
TOTAL SCF ENERGY
----------------

Total Energy       :      -1030.32416715249929 Eh          -28036.54594 eV

Components:
Nuclear Repulsion  :       2419.91660244396599 Eh           65849.27847 eV
Electronic Energy  :      -3450.24076959646527 Eh          -93885.82440 eV
One Electron Energy:      -6218.60822259610086 Eh         -169216.93256 eV
Two Electron Energy:       2768.36745299963559 Eh           75331.10816 eV

Virial components:
Potential Energy   :      -2058.35716558484819 Eh          -56010.74601 eV
Kinetic Energy     :       1028.03299843234868 Eh           27974.20007 eV
Virial Ratio       :          2.00222869180624

---------------
SCF CONVERGENCE
---------------

  Last Energy change         ...    2.0345e-07  Tolerance :   1.0000e-06
  Last MAX-Density change    ...    6.5407e-05  Tolerance :   1.0000e-05
  Last RMS-Density change    ...    1.1181e-05  Tolerance :   1.0000e-06
  Last DIIS Error            ...    3.0893e-03  Tolerance :   1.0000e-06
  Last Orbital Gradient      ...    5.6879e-05  Tolerance :   3.3300e-04
  Last Orbital Rotation      ...    7.1576e-05  Tolerance :   3.3300e-04


----------------
ORBITAL ENERGIES
----------------

  NO   OCC          E(Eh)            E(eV) 
   0   2.0000     -20.332949      -553.2877 
   1   2.0000     -20.331593      -553.2508 
   2   2.0000     -20.272945      -551.6549 
   3   2.0000     -11.245563      -306.0073 
   4   2.0000     -11.228151      -305.5335 
   5   2.0000     -11.225785      -305.4691 
   6   2.0000     -11.182402      -304.2886 
   7   2.0000     -11.177268      -304.1489 
   8   2.0000     -11.165347      -303.8245 
   9   2.0000     -11.161946      -303.7320 
  10   2.0000     -11.161031      -303.7071 
  11   2.0000     -11.158533      -303.6391 
  12   2.0000     -11.157200      -303.6028 
  13   2.0000     -11.156108      -303.5731 
  14   2.0000     -11.154622      -303.5327 
  15   2.0000     -11.152955      -303.4873 
  16   2.0000     -11.150875      -303.4307 
  17   2.0000     -11.150739      -303.4270 
  18   2.0000     -11.147673      -303.3436 
  19   2.0000     -11.147242      -303.3319 
  20   2.0000     -11.141883      -303.1861 
  21   2.0000     -11.140707      -303.1541 
  22   2.0000     -11.138512      -303.0943 
  23   2.0000     -11.135970      -303.0251 
  24   2.0000      -1.379413       -37.5357 
  25   2.0000      -1.358399       -36.9639 
  26   2.0000      -1.329498       -36.1775 
  27   2.0000      -1.186739       -32.2928 
  28   2.0000      -1.133853       -30.8537 
  29   2.0000      -1.107307       -30.1314 
  30   2.0000      -1.084298       -29.5052 
  31   2.0000      -1.043404       -28.3925 
  32   2.0000      -1.033114       -28.1124 
  33   2.0000      -1.009789       -27.4778 
  34   2.0000      -0.985624       -26.8202 
  35   2.0000      -0.961366       -26.1601 
  36   2.0000      -0.948799       -25.8181 
  37   2.0000      -0.924989       -25.1702 
  38   2.0000      -0.915463       -24.9110 
  39   2.0000      -0.896416       -24.3927 
  40   2.0000      -0.847935       -23.0735 
  41   2.0000      -0.832380       -22.6502 
  42   2.0000      -0.803476       -21.8637 
  43   2.0000      -0.784576       -21.3494 
  44   2.0000      -0.774441       -21.0736 
  45   2.0000      -0.745157       -20.2768 
  46   2.0000      -0.718670       -19.5560 
  47   2.0000      -0.715639       -19.4735 
  48   2.0000      -0.688186       -18.7265 
  49   2.0000      -0.675311       -18.3762 
  50   2.0000      -0.652092       -17.7443 
  51   2.0000      -0.646170       -17.5832 
  52   2.0000      -0.642906       -17.4944 
  53   2.0000      -0.627912       -17.0864 
  54   2.0000      -0.625160       -17.0115 
  55   2.0000      -0.618953       -16.8426 
  56   2.0000      -0.605557       -16.4780 
  57   2.0000      -0.598536       -16.2870 
  58   2.0000      -0.586982       -15.9726 
  59   2.0000      -0.577752       -15.7214 
  60   2.0000      -0.576240       -15.6803 
  61   2.0000      -0.572705       -15.5841 
  62   2.0000      -0.571676       -15.5561 
  63   2.0000      -0.559666       -15.2293 
  64   2.0000      -0.556541       -15.1443 
  65   2.0000      -0.546718       -14.8770 
  66   2.0000      -0.539989       -14.6938 
  67   2.0000      -0.537187       -14.6176 
  68   2.0000      -0.531843       -14.4722 
  69   2.0000      -0.528449       -14.3798 
  70   2.0000      -0.523829       -14.2541 
  71   2.0000      -0.518201       -14.1010 
  72   2.0000      -0.513743       -13.9797 
  73   2.0000      -0.503712       -13.7067 
  74   2.0000      -0.494950       -13.4683 
  75   2.0000      -0.484344       -13.1797 
  76   2.0000      -0.483290       -13.1510 
  77   2.0000      -0.477004       -12.9799 
  78   2.0000      -0.471375       -12.8268 
  79   2.0000      -0.468947       -12.7607 
  80   2.0000      -0.450935       -12.2706 
  81   2.0000      -0.449110       -12.2209 
  82   2.0000      -0.445756       -12.1296 
  83   2.0000      -0.435770       -11.8579 
  84   2.0000      -0.423668       -11.5286 
  85   2.0000      -0.410399       -11.1675 
  86   2.0000      -0.399064       -10.8591 
  87   2.0000      -0.386726       -10.5233 
  88   2.0000      -0.324525        -8.8308 
  89   2.0000      -0.266036        -7.2392 
  90   0.0000       0.198276         5.3954 
  91   0.0000       0.222937         6.0664 
  92   0.0000       0.430085        11.7032 
  93   0.0000       0.436048        11.8655 
  94   0.0000       0.449993        12.2449 
  95   0.0000       0.471494        12.8300 
  96   0.0000       0.474381        12.9086 
  97   0.0000       0.511079        13.9072 
  98   0.0000       0.521453        14.1895 
  99   0.0000       0.534810        14.5529 
 100   0.0000       0.539913        14.6918 
*Only the first 10 virtual orbitals were printed.
Total SCF time: 0 days 0 hours 0 min 2 sec 
Finished LeanSCF after   2.2 sec

Maximum memory used throughout the entire LEANSCF-calculation: 87.4 MB


-------------------------------------------------------------------------------
                          DFT DISPERSION CORRECTION                            
                                                                               
                              DFTD3 V3.1  Rev 1                                
                          USING Becke-Johnson damping                          
-------------------------------------------------------------------------------
-------------------------   ----------------
Dispersion correction           -0.315017977
-------------------------   ----------------

------------------   -----------------
gCP+bas correction        -0.051461779
------------------   -----------------
----------------------------   ----------------
Total correction to HF/MINIX       -0.366479755
----------------------------   ----------------


-------------------------   --------------------
FINAL SINGLE POINT ENERGY     -1030.690646907733
-------------------------   --------------------



           ************************************************************
           *        Program running with 12 parallel MPI-processes    *
           *              working on a common directory               *
           ************************************************************

------------------------------------------------------------------------------
                              ORCA PROPERTY CALCULATIONS
------------------------------------------------------------------------------

GBWName                                 ... inp.gbw
Number of atoms                         ...     54
Number of basis functions               ...    150
Max core memory                         ...   2500 MB

Electric properties:
Dipole moment                           ... YES
Quadrupole moment                       ...  NO
Static polarizability (Dipole/Dipole)   ...  NO
Static polarizability (Dipole/Quad.)    ...  NO
Static polarizability (Quad./Quad.)     ...  NO
Static polarizability (Velocity)        ...  NO
Static hyperpolarizability              ...  NO

Atomic electric properties:
Dipole moment                           ...  NO
Quadrupole moment                       ...  NO
Static polarizability                   ...  NO

Choice of electric origin               ... Center of mass
Position of electric origin             ...     0.009365    -0.016370     0.002014

General magnetic properties:
Magnetizability                         ...  NO

EPR properties:
g-Tensor (aka g-matrix)                 ...  NO
Zero-Field splitting spin-orbit         ...  NO
Zero-field splitting spin-spin          ...  NO
Hyperfine couplings                     ...  NO (   0 nuclei)
Quadrupole couplings                    ...  NO (   0 nuclei)
Contact density                         ...  NO (   0 nuclei)

NMR properties:
Chemical shifts                         ...  NO (   0 nuclei)
Spin-rotation constants                 ...  NO (   0 nuclei)
Spin-spin couplings                     ...  NO (   0 nuclei,    0 pairs)

Choice of magnetic origin               ... GIAO
Position of magnetic origin             ...     0.000000     0.000000     0.000000

Properties with geometric perturbations:
SCF Hessian                             ...  NO
IR spectrum                             ...  NO
VCD spectrum                            ...  NO
X-ray spectroscopy properties:
SCF XES/XAS/RIXS spectra                ...  NO

SCF SOC stabilization energy            ...  NO
Diagonal Born-Oppenheimer correction    ...  NO

-------------
DIPOLE MOMENT
-------------

Method             : SCF
Type of density    : Electron Density
Multiplicity       :   1
Irrep              :   0
Energy             : -1030.3241671524992853 Eh
Basis              : AO
                                X                 Y                 Z
Electronic contribution:     14.982222741     -17.594397198      -2.919790652
Nuclear contribution   :    -15.918856871      18.503761537       2.682719263
                        -----------------------------------------
Total Dipole Moment    :     -0.936634130       0.909364339      -0.237071389
                        -----------------------------------------
Magnitude (a.u.)       :      1.326811908
Magnitude (Debye)      :      3.372487853



--------------------
Rotational spectrum 
--------------------
 
Rotational constants in cm-1:             0.011848             0.008425             0.006375 
Rotational constants in MHz :           355.185360           252.567587           191.119062 

Dipole components along the rotational axes: 
x,y,z [a.u.] :    -0.937877    -0.909350    -0.232161 
x,y,z [Debye]:    -2.383895    -2.311383    -0.590107 

 

Dipole moment calculation done in   0.0 sec 

Maximum memory used throughout the entire PROP-calculation: 9.1 MB

--------------------------------
SUGGESTED CITATIONS FOR THIS RUN
--------------------------------

Below you find a list of papers that are relevant to this ORCA run
We neither can nor want to force you to cite these papers, but we appreciate if you do
You receive ORCA, which is the product of decades of hard work by many enthusiastic individuals, for free
The only thing we kindly ask in return is that you cite our papers,
We deeply appreciate it, if you show your appreciation for ORCA by not just citing the generic ORCA reference.

Please note that relegating all ORCA citations to the supporting information does *not* help us.
SI sections are not indexed - citations you put there will not count into any citation statistics
But we need these citations in order to attract the funding resources that allow us to do what we are doing

Therefore, if you are a happy ORCA user, please consider citing a few of the papers listed below in the main body of your paper

In addition to the list printed below, the program has created the file inp.bibtex that contains the list in bibtex format
You can import this file easily into all common literature databanks and citation aid programs

It goes without saying that in many instances, there are alternative algorithms to achieve similar
results as the ones you have gotten from ORCA. It is, of course, also the case that in some instances
ORCA just re-implements algorithms worked out by others. We are fully aware of that and we are also
fully appreciative of our colleagues work. Hence this citation list should not be read as indicating
that the listed papers, which are focused on our own work, are the only ones worth citing. It simply
meant to make it easier for users to cite ORCA specific papers. It is not a substitute for doing your
own literature research and citing the relevant literature in a scientifically appropriate manner.

List of essential papers. We consider these as the minimum necessary citations

  1. Neese, F.
     Software update: the ORCA program system, version 6.0
     WIRES Comput. Molec. Sci. 2025 15(1), e70019
     doi.org/10.1002/wcms.70019

List of papers to cite with high priority. The work reported in these papers was absolutely
necessary for this run to complete.
Our perspective: the developers of density functionals and basis sets usually get cited in chemistry papers
Good! But without the algorithms to do something with them, the functionals or basis sets would not do anything.
Hence, in our opinion, the algorithm design and method developments papers are equally worthy of getting cited

  1. Grimme, S.; Antony, J.; Ehrlich, S.; Krieg, H.
     A consistent and accurate ab initio parametrization of density functional dispersion correction (DFT-D) for the 94 elements H-Pu
     J. Chem. Phys. 2010 132 , 154104
     doi.org/10.1063/1.3382344
  2. Grimme, S.; Ehrlich, S.; Goerigk, L.
     Effect of the damping function in dispersion corrected density functional theory
     J. Comput. Chem. 2011 32(7), 1456-1465
     doi.org/10.1002/jcc.21759
  3. Neese, F.
     The SHARK Integral Generation and Digestion System
     J. Comp. Chem. 2022 44(3), 381
     doi.org/10.1002/jcc.26942

List of suggested additional citations. These are papers that are important in the 'surrounding' of 
of this run, or papers that preceded the highly important papers. If you like your results we are grateful for a citation.

  1. Neese, F.
     The ORCA program system
     WIRES Comput. Molec. Sci. 2012 2(1), 73-78
     doi.org/10.1002/wcms.81
  2. Neese, F.
     Software update: the ORCA program system, version 4.0
     WIRES Comput. Molec. Sci. 2018 8(1), 1-6
     doi.org/10.1002/wcms.1327
  3. Neese, F.; Wennmohs, F.; Becker, U.; Riplinger, C.
     The ORCA quantum chemistry program package
     J. Chem. Phys. 2020 152(22), 224108
     doi.org/10.1063/5.0004608
  4. Neese, F.
     Software update: The ORCA program system—Version 5.0
     WIRES Comput. Molec. Sci. 2022 12(1), e1606
     doi.org/10.1002/wcms.1606

List of optional additional citations

  1. Neese, F.
     Approximate second-order SCF convergence for spin unrestricted wavefunctions
     Chem. Phys. Lett. 2000 325(1-3), 93-98
     doi.org/10.1016/s0009-2614(00)00662-x

Timings for individual modules:

Sum of individual times          ...        5.722 sec (=   0.095 min)
Startup calculation              ...        2.749 sec (=   0.046 min)  48.0 %
SCF iterations                   ...        2.699 sec (=   0.045 min)  47.2 %
Property calculations            ...        0.274 sec (=   0.005 min)   4.8 %
                             ****ORCA TERMINATED NORMALLY****
TOTAL RUN TIME: 0 days 0 hours 0 minutes 6 seconds 90 msec
