
                                 *****************
                                 * O   R   C   A *
                                 *****************

                                            #,                                       
                                            ###                                      
                                            ####                                     
                                            #####                                    
                                            ######                                   
                                           ########,                                 
                                     ,,################,,,,,                         
                               ,,#################################,,                 
                          ,,##########################################,,             
                       ,#########################################, ''#####,          
                    ,#############################################,,   '####,        
                  ,##################################################,,,,####,       
                ,###########''''           ''''###############################       
              ,#####''   ,,,,##########,,,,          '''####'''          '####       
            ,##' ,,,,###########################,,,                        '##       
           ' ,,###''''                  '''############,,,                           
         ,,##''                                '''############,,,,        ,,,,,,###''
      ,#''                                            '''#######################'''  
     '                                                          ''''####''''         
             ,#######,   #######,   ,#######,      ##                                
            ,#'     '#,  ##    ##  ,#'     '#,    #''#        ,####,    ,#,          
            ##       ##  ##   ,#'  ##            #'  '#       #'       ,# #          
            ##       ##  #######   ##           ,######,      #####,      #          
            '#,     ,#'  ##    ##  '#,     ,#' ,#      #,     #,   #      #          
             '#######'   ##     ##  '#######'  #'      '#     '####' #    #          



                #########################################################
                #                        -***-                          #
                #          Department of theory and spectroscopy        #
                #                                                       #
                #                      Frank Neese                      #
                #                                                       #
                #     Directorship, Architecture, Infrastructure        #
                #                    SHARK, DRIVERS                     #
                #        Core code/Algorithms in most modules           #
                #                                                       #
                #        Max Planck Institute fuer Kohlenforschung      #
                #                Kaiser Wilhelm Platz 1                 #
                #                 D-45470 Muelheim/Ruhr                 #
                #                      Germany                          #
                #                                                       #
                #                  All rights reserved                  #
                #                        -***-                          #
                #########################################################


                         Program Version 6.1.1  -  RELEASE   -
                                (GIT: $487d211c$)
                          ($2025-11-21 10:33:24 +0100$)


 With contributions from (in alphabetic order):
[Max-Planck-Institut fuer Kohlenforschung]                               
  Daniel Aravena         : Magnetic Suceptibility                        
  Michael Atanasov       : Ab Initio Ligand Field Theory (pilot matlab implementation)
  Alexander A. Auer      : GIAO ZORA, VPT2 properties, NMR spectrum      
  Ute Becker             : All parallelization in ORCA, NUMFREQ, NUMCALC 
  Giovanni Bistoni       : ED, misc. LED, open-shell LED, HFLD           
  Dmytro Bykov           : pre 5.0 version of the SCF Hessian            
  Marcos Casanova-Páez   : Triplet and SCS-CIS(D). UHF-(DLPNO)-IP/EA/STEOM-CCSD. UHF-CVS-IP/STEOM-CCSD   
  Vijay G. Chilkuri      : MRCI spin determinant printing, contributions to CSF-ICE 
  Pauline Colinet        : FMM embedding                                 
  Dipayan Datta          : RHF DLPNO-CCSD density                        
  Achintya Kumar Dutta   : EOM-CC, STEOM-CC                              
  Nicolas Foglia         : Exact transition moments, OPA infrastructure, MCD improvements    
  Dmitry Ganyushin       : Spin-Orbit,Spin-Spin,Magnetic field MRCI      
  Miquel Garcia-Rates    : C-PCM and meta-GGA Hessian, CCSD/C-PCM, Gaussian charge scheme 
  Tiago L. C. Gouveia    : GS-ROHF, GS-ROCIS                             
  Yang Guo               : DLPNO-NEVPT2, F12-NEVPT2, CIM, IAO-localization        
  Andreas Hansen         : Spin unrestricted coupled pair/coupled cluster methods 
  Ingolf Harden          : AUTO-CI MPn and infrastructure                
  Benjamin Helmich-Paris : MC-RPA, TRAH-(SCF,CASSCF), AVAS, COSX integrals, SCF dyn. polar., MC-PDFT, srDFT 
  Lee Huntington         : MR-EOM, pCC                                   
  Robert Izsak           : Overlap fitted RIJCOSX, COSX-SCS-MP3, EOM     
  Riya Kayal             : Wick's Theorem for AUTO-CI, AUTO-CI UHF-CCSDT 
  Emily Kempfer          : AUTO-CI RHF CISDT and CCSDT, approximate NEVPT4
  Christian Kollmar      : KDIIS, OOCD, Brueckner-CCSD(T), CCSD density, CASPT2, CASPT2-K, improved NEVPT2 
  Axel Koslowski         : Symmetry handling                             
  Simone Kossmann        : meta-GGA functionals, TD-DFT gradient, OOMP2, (MP2 Hessian; deprecated post 5.0) 
  Lucas Lang             : DCDCAS, Hyperfine gauge corrections, ICE-SOC+SSC
  Marvin Lechner         : AUTO-CI (C++ implementation), FIC-MRCC        
  Spencer Leger          : CASSCF response                               
  Dagmar Lenk            : GEPOL surface, SMD, ORCA-2-JSON               
  Dimitrios Liakos       : Extrapolation schemes; Compound Job, Property file
  Dimitrios Manganas     : Further ROCIS development; embedding schemes. LFT, Crystal Embedding 
  Dimitrios Pantazis     : SARC Basis sets                               
  Anastasios Papadopoulos: AUTO-CI, single reference methods and gradients 
  Taras Petrenko         : pre 6.0 DFT Hessian and TD-DFT gradient,  ECA, NRVS 
  Petra Pikulova         : Analytic Raman intensities                    
  Peter Pinski           : DLPNO-MP2, DLPNO-MP2 Gradient                 
  Shashank Vittal Rao    : ES-AILFT, MagRelax                            
  Christoph Reimann      : Effective Core Potentials                     
  Marius Retegan         : Local ZFS, SOC                                
  Christoph Riplinger    : Optimizer, TS searches, QM/MM, DLPNO-CCSD(T), (RO)-DLPNO pert. Triples 
  Michael Roemelt        : Original ROCIS implementation, recursive CI coupling coefficients
  Masaaki Saitow         : Open-shell DLPNO-CCSD energy and density      
  Barbara Sandhoefer     : DKH picture change effects                    
  Yorick L. A. Schmerwitz: GMF and freeze-and-release deltaSCF, NEB S-IDPP initial path                    
  Kantharuban Sivalingam : CASSCF convergence/infrastructure, NEVPT2, NEVPT3, NEVPT4(SD), FIC-MRCI and CEPA variants
  Bernardo de Souza      : ESD, SOC TD-DFT                               
  Georgi L. Stoychev     : AutoAux, RI-MP2 NMR, DLPNO-MP2 response, X2C  
  Van Anh Tran           : RI-MP2 g-tensors                              
  Willem Van den Heuvel  : Paramagnetic NMR                              
  Zikuan Wang            : NOTCH, Electric field optimization            
  Frank Wennmohs         : Technical directorship and infrastructure     
  Hang Xu                : AUTO-CI-Response properties                   
                                                                         
[FACCTs GmbH]                                                            
  Markus Bursch, Nicolas Foglia, Miquel Garcia-Rates, Ingolf Harden, Hagen Neugebauer, Anastasios Papadopoulos, 
  Christoph Riplinger, Bernardo de Souza, Georgi L. Stoychev                                                    
                                                                 
  APM, various basis sets, CI-OPT, improved COSX, DLPNO-Multilevel,           
  DOCKER, DRACO, updates on ESD, Fragmentator, GOAT, IRC, LR-CPCM, L-BFGS, MBIS, meta-GGA TD-DFT gradient, ML-optimized integration grids, 
  MM, NACMEs, nearIR, NEB, NEB-TS, NL-DFT gradient (VV10), 2- and 3-layer-ONIOM, interface openCOSMO-RS, QMMM,   
  Crystal-QMMM, RESP, rigid body optimization, SF, symmetry and pop. for TD-DFT, various functionals, SOLVATOR                                   
                                                                         
[Other institutions]                                                     
  V. Asgeirsson          : NEB                                           
  Christoph Bannwarth    : sTDA-DFT, sTD-DFT, PBEh-3c, B97-3c, D3        
  Giovanni Bistoni       : ETS/NOCV, ADLD/ADEX, COVALED                  
  Martin Brehm           : Molecular dynamics                            
  Ronald Cardenas        : ETS/NOCV                                      
  Martina Colucci        : COVALED                                       
  Sebastian Ehlert       : rSCAN, r2SCAN, r2SCAN-3c, D4, dhf basis sets  
  Marvin Friede          : D4 for Fr, Ra, Ac-Lr                          
  Lars Goerigk           : TD-DFT with DH, B97 family of functionals     
  Stefan Grimme          : VdW corrections, initial TS optimization, DFT functionals, gCP, sTDA/sTD-DF 
  Waldemar Hujo          : DFT-NL                                        
  H. Jonsson             : NEB                                           
  Holger Kruse           : gCP                                           
  Marcel Mueller         : wB97X-3c, vDZP basis set                      
  Hagen Neugebauer       : wr2SCAN, Native XTB                           
  Gianluca Regni         : ADLD/ADEX                                     
  Tobias Risthaus        : pre 6.0 range-separated hybrid DFT and stability analysis
  Lukas Wittmann         : regularized MP2, r2SCAN double-hybrids, wr2SCAN        
                                                                         
We gratefully acknowledge several colleagues who have allowed us to      
interface, adapt or use parts of their codes:                            
  Ed Valeev, F. Pavosevic, A. Kumar             : LibInt (2-el integral package), F12 methods 
  Garnet Chan, S. Sharma, J. Yang, R. Olivares  : DMRG                   
  Ulf Ekstrom                                   : XCFun DFT Library      
  Mihaly Kallay                                 : mrcc  (arbitrary order and MRCC methods)
  Frank Weinhold                                : gennbo (NPA and NBO analysis)           
  Simon Mueller                                 : openCOSMO-RS                            
  Christopher J. Cramer and Donald G. Truhlar   : smd solvation model                     
  S Lehtola, MJT Oliveira, MAL Marques          : LibXC Library                           
  Liviu Ungur et al                             : ANISO software                          


 Your calculation uses the libint2 library for the computation of 2-el integrals
 For citations please refer to: http://libint.valeyev.net

 Your ORCA version has been built with support for libXC version: 7.0.0
 For citations please refer to: https://libxc.gitlab.io

 This ORCA versions uses:
   CBLAS   interface :  Fast vector & matrix operations
   LAPACKE interface :  Fast linear algebra routines
   SCALAPACK package :  Parallel linear algebra routines
   Shared memory     :  Shared parallel matrices
   BLAS/LAPACK       :  OpenBLAS 0.3.29  USE64BITINT DYNAMIC_ARCH NO_AFFINITY Haswell SINGLE_THREADED
        Core in use  :  Haswell
   Copyright (c) 2011-2014, The OpenBLAS Project


  ***********************************
  * Starting time: Sun Aug  9 20:54:57 2026
  * Host name:     localhost.localdomain
  * Process ID:    3112857
  * Working dir.:  /home/dinglab/calculation/templates/NMR_modules/STS/alpha_melo_screening/CONF5/r2scan-3c
  ***********************************

NOTE: MaxCore=2500 MB was set to SCF,MP2,MDCI,CIPSI,MRCI,RASCI and CIS
      => If you want to overwrite this, your respective input block should be placed after the MaxCore statement
Your calculation utilizes the geometrical counterpoise correction gCP
Please cite in your paper:
H.Kruse, S. Grimme J.Chem.Phys., 136, (2012), 154101 
   

Your calculation utilizes the atom-pairwise dispersion correction
based on EEQ partial charges (D4)


================================================================================

----- Orbital basis set information -----
Your calculation utilizes the basis: def2-mTZVPP
   Stefan Grimme, Andreas Hansen, Sebastian Ehlert, and Jan-Michael Mewes 
   J. Chem. Phys. 154, 064103 (2021). DOI: 10.1063/5.0040021

----- AuxJ basis set information -----
Your calculation utilizes the basis: def2-mTZVPP/J
   Stefan Grimme, Andreas Hansen, Sebastian Ehlert, and Jan-Michael Mewes 
   J. Chem. Phys. 154, 000000 (2021). DOI: 10.1063/5.0040021

================================================================================
                                        WARNINGS
                       Please study these warnings very carefully!
================================================================================

WARNING: Old DensityContainer found on disk!
         Will remove this file - 
         If you want to keep old densities, please start your calculation with a different basename. 



WARNING: SCAN, rSCAN, or r2SCAN functional requested.
  ===> : libXC variant has now been activated.



================================================================================
                                       INPUT FILE
================================================================================
NAME = inp
|  1> ! r2scan-3c
|  2> ! DEFGRID2
|  3> ! scfconv6
|  4> ! miniprint nopop noautostart
|  5> %MaxCore 2500
|  6> %pal
|  7>     nprocs 12
|  8> end
|  9> ! CPCM(chloroform)
| 10> *xyz 0 1
| 11> C    0.0466622696   0.6251991867   2.5131092841
| 12> C    1.5253225818   0.9537326021   2.2927937796
| 13> C   -2.2566492459  -3.4216863457  -0.0966957918
| 14> C   -3.3296508659  -2.9351226155   0.6517295526
| 15> C   -3.2815213896  -1.6493689797   1.1625736239
| 16> C   -2.1812074595  -0.8136508705   0.9117842626
| 17> C   -1.1273475182  -1.2680779998   0.0924483039
| 18> C   -1.1792087989  -2.5891053701  -0.3684758318
| 19> N   -2.1614908603   0.4446434052   1.5289728712
| 20> C   -0.9220658631   1.1957097929   1.4551468796
| 21> C   -0.3145220571   1.1454246880   0.0204206752
| 22> C    0.0003629183  -0.3366308914  -0.3489249407
| 23> C    1.0508418876   1.8277167620   0.0356175441
| 24> C    1.9078976477   0.8014475179   0.8038961497
| 25> C    1.3960843026  -0.5894371292   0.3340804598
| 26> C    3.3687277491   1.0328983721   0.6037912331
| 27> C    4.1818865057   0.1516594060   0.0295245939
| 28> C    3.7197920164  -1.1850602341  -0.4480318143
| 29> N    2.2438936223  -1.2707583702  -0.7320046057
| 30> C    1.8512234870  -0.5527214120  -1.9935174659
| 31> C    0.3353183508  -0.4592397943  -1.8782275523
| 32> O    1.8912793351  -2.5885190019  -0.8340477147
| 33> H    1.3646329958  -1.3133666156   1.1507198945
| 34> C   -1.3224884275   1.7930230245  -0.9067035825
| 35> O   -2.2705903684   1.2383139342  -1.4226368139
| 36> O   -1.0712118902   3.1094667889  -1.0562090911
| 37> C   -2.0211855651   3.8382650604  -1.8708120454
| 38> H   -0.2816161636   0.9761571181   3.4974138035
| 39> H   -0.0839344967  -0.4633157647   2.5221156677
| 40> H    1.7513848905   1.9828449157   2.5994285103
| 41> H    2.1421448791   0.2853619921   2.9061479756
| 42> H   -2.2627430027  -4.4407580142  -0.4725764286
| 43> H   -4.1899284220  -3.5663699040   0.8585905422
| 44> H   -4.0900337622  -1.2708357467   1.7840118781
| 45> H   -0.3345288091  -2.9575884062  -0.9433840666
| 46> H   -3.0078342936   0.9828977814   1.4063977052
| 47> H   -1.1411108697   2.2459511368   1.6864590340
| 48> H    1.0350522734   2.7964954047   0.5450655363
| 49> H    1.4194254946   1.9995910727  -0.9803603458
| 50> H    3.7541189096   1.9933464387   0.9447561021
| 51> H    5.2406767683   0.3695231899  -0.0936162525
| 52> H    4.2207965602  -1.4900242811  -1.3728537133
| 53> H    3.9101575792  -1.9664912121   0.2972083506
| 54> H    2.3421591271   0.4261330331  -2.0088730400
| 55> H    2.2013866354  -1.1561303035  -2.8331250746
| 56> H   -0.1304532906  -1.3524041445  -2.2942470741
| 57> H   -0.0385560071   0.3973657012  -2.4444939392
| 58> H   -3.0184380888   3.7878662581  -1.4252454062
| 59> H   -1.6585229769   4.8661872251  -1.8876573523
| 60> H   -2.0496901717   3.4225763401  -2.8815179069
| 61> *
| 62> 
| 63>                          ****END OF INPUT****
================================================================================

                       ****************************
                       * Single Point Calculation *
                       ****************************

---------------------------------
CARTESIAN COORDINATES (ANGSTROEM)
---------------------------------
  C      0.046662    0.625199    2.513109
  C      1.525323    0.953733    2.292794
  C     -2.256649   -3.421686   -0.096696
  C     -3.329651   -2.935123    0.651730
  C     -3.281521   -1.649369    1.162574
  C     -2.181207   -0.813651    0.911784
  C     -1.127348   -1.268078    0.092448
  C     -1.179209   -2.589105   -0.368476
  N     -2.161491    0.444643    1.528973
  C     -0.922066    1.195710    1.455147
  C     -0.314522    1.145425    0.020421
  C      0.000363   -0.336631   -0.348925
  C      1.050842    1.827717    0.035618
  C      1.907898    0.801448    0.803896
  C      1.396084   -0.589437    0.334080
  C      3.368728    1.032898    0.603791
  C      4.181887    0.151659    0.029525
  C      3.719792   -1.185060   -0.448032
  N      2.243894   -1.270758   -0.732005
  C      1.851223   -0.552721   -1.993517
  C      0.335318   -0.459240   -1.878228
  O      1.891279   -2.588519   -0.834048
  H      1.364633   -1.313367    1.150720
  C     -1.322488    1.793023   -0.906704
  O     -2.270590    1.238314   -1.422637
  O     -1.071212    3.109467   -1.056209
  C     -2.021186    3.838265   -1.870812
  H     -0.281616    0.976157    3.497414
  H     -0.083934   -0.463316    2.522116
  H      1.751385    1.982845    2.599429
  H      2.142145    0.285362    2.906148
  H     -2.262743   -4.440758   -0.472576
  H     -4.189928   -3.566370    0.858591
  H     -4.090034   -1.270836    1.784012
  H     -0.334529   -2.957588   -0.943384
  H     -3.007834    0.982898    1.406398
  H     -1.141111    2.245951    1.686459
  H      1.035052    2.796495    0.545066
  H      1.419425    1.999591   -0.980360
  H      3.754119    1.993346    0.944756
  H      5.240677    0.369523   -0.093616
  H      4.220797   -1.490024   -1.372854
  H      3.910158   -1.966491    0.297208
  H      2.342159    0.426133   -2.008873
  H      2.201387   -1.156130   -2.833125
  H     -0.130453   -1.352404   -2.294247
  H     -0.038556    0.397366   -2.444494
  H     -3.018438    3.787866   -1.425245
  H     -1.658523    4.866187   -1.887657
  H     -2.049690    3.422576   -2.881518

----------------------------
CARTESIAN COORDINATES (A.U.)
----------------------------
  NO LB      ZA    FRAG     MASS         X           Y           Z
   0 C     6.0000    0    12.011    0.088179    1.181455    4.749088
   1 C     6.0000    0    12.011    2.882442    1.802293    4.332752
   2 C     6.0000    0    12.011   -4.264449   -6.466050   -0.182729
   3 C     6.0000    0    12.011   -6.292128   -5.546578    1.231590
   4 C     6.0000    0    12.011   -6.201177   -3.116856    2.196946
   5 C     6.0000    0    12.011   -4.121885   -1.537577    1.723023
   6 C     6.0000    0    12.011   -2.130378   -2.396320    0.174702
   7 C     6.0000    0    12.011   -2.228382   -4.892700   -0.696318
   8 N     7.0000    0    14.007   -4.084626    0.840254    2.889340
   9 C     6.0000    0    12.011   -1.742452    2.259564    2.749829
  10 C     6.0000    0    12.011   -0.594361    2.164539    0.038589
  11 C     6.0000    0    12.011    0.000686   -0.636140   -0.659373
  12 C     6.0000    0    12.011    1.985803    3.453884    0.067307
  13 C     6.0000    0    12.011    3.605404    1.514516    1.519144
  14 C     6.0000    0    12.011    2.638217   -1.113875    0.631321
  15 C     6.0000    0    12.011    6.365973    1.951895    1.141000
  16 C     6.0000    0    12.011    7.902620    0.286595    0.055793
  17 C     6.0000    0    12.011    7.029388   -2.239439   -0.846657
  18 N     7.0000    0    14.007    4.240344   -2.401385   -1.383288
  19 C     6.0000    0    12.011    3.498305   -1.044492   -3.767202
  20 C     6.0000    0    12.011    0.633660   -0.867837   -3.549336
  21 O     8.0000    0    15.999    3.574000   -4.891592   -1.576122
  22 H     1.0000    0     1.008    2.578783   -2.481903    2.174545
  23 C     6.0000    0    12.011   -2.499141    3.388322   -1.713421
  24 O     8.0000    0    15.999   -4.290794    2.340074   -2.688394
  25 O     8.0000    0    15.999   -2.024297    5.876041   -1.995946
  26 C     6.0000    0    12.011   -3.819487    7.253270   -3.535322
  27 H     1.0000    0     1.008   -0.532177    1.844670    6.609154
  28 H     1.0000    0     1.008   -0.158613   -0.875540    4.766108
  29 H     1.0000    0     1.008    3.309638    3.747034    4.912208
  30 H     1.0000    0     1.008    4.048067    0.539256    5.491824
  31 H     1.0000    0     1.008   -4.275965   -8.391816   -0.893040
  32 H     1.0000    0     1.008   -7.917817   -6.739462    1.622501
  33 H     1.0000    0     1.008   -7.729044   -2.401532    3.371294
  34 H     1.0000    0     1.008   -0.632168   -5.589032   -1.782738
  35 H     1.0000    0     1.008   -5.683983    1.857408    2.657706
  36 H     1.0000    0     1.008   -2.156387    4.244233    3.186946
  37 H     1.0000    0     1.008    1.955965    5.284610    1.030025
  38 H     1.0000    0     1.008    2.682325    3.778680   -1.852613
  39 H     1.0000    0     1.008    7.094257    3.766879    1.785330
  40 H     1.0000    0     1.008    9.903444    0.698298   -0.176909
  41 H     1.0000    0     1.008    7.976150   -2.815738   -2.594318
  42 H     1.0000    0     1.008    7.389127   -3.716130    0.561642
  43 H     1.0000    0     1.008    4.426039    0.805275   -3.796220
  44 H     1.0000    0     1.008    4.160018   -2.184770   -5.353830
  45 H     1.0000    0     1.008   -0.246521   -2.555673   -4.335499
  46 H     1.0000    0     1.008   -0.072860    0.750912   -4.619424
  47 H     1.0000    0     1.008   -5.704021    7.158030   -2.693323
  48 H     1.0000    0     1.008   -3.134154    9.195761   -3.567155
  49 H     1.0000    0     1.008   -3.873353    6.467732   -5.445280



           ************************************************************
           *        Program running with 12 parallel MPI-processes    *
           *              working on a common directory               *
           ************************************************************
------------------------------------------------------------------------------
                   ___                                                        
                  /   \      - P O W E R E D   B Y -                         
                 /     \                                                     
                 |  |  |   _    _      __       _____    __    __             
                 |  |  |  | |  | |    /  \     |  _  \  |  |  /  |          
                  \  \/   | |  | |   /    \    | | | |  |  | /  /          
                 / \  \   | |__| |  /  /\  \   | |_| |  |  |/  /          
                |  |  |   |  __  | /  /__\  \  |    /   |      \           
                |  |  |   | |  | | |   __   |  |    \   |  |\   \          
                \     /   | |  | | |  |  |  |  | |\  \  |  | \   \       
                 \___/    |_|  |_| |__|  |__|  |_| \__\ |__|  \__/        
                                                                              
                      - O R C A' S   B I G   F R I E N D -                    
                                      &                                       
                       - I N T E G R A L  F E E D E R -                       
                                                                              
 v1 FN, 2020, v2 2021, v3 2022-2024                                           
------------------------------------------------------------------------------


----------------------
SHARK INTEGRAL PACKAGE
----------------------

Number of atoms                             ...     50
Number of basis functions                   ...    639
Number of shells                            ...    311
Maximum angular momentum                    ...      2
Integral batch strategy                     ... SHARK/LIBINT Hybrid
RI-J (if used) integral strategy            ... SPLIT-RIJ (Revised 2003 algorithm where possible)
Printlevel                                  ...      1
Contraction scheme used                     ... SEGMENTED contraction
Prescreening option                         ... SCHWARTZ
   Thresh                                   ... 1.000e-10
   Tcut                                     ... 1.000e-11
   Tpresel                                  ... 1.000e-11 
Coulomb Range Separation                    ... NOT USED
Exchange Range Separation                   ... NOT USED
Multipole approximations                    ... NOT USED
Finite Nucleus Model                        ... NOT USED
CABS basis                                  ... NOT available
Auxiliary Coulomb fitting basis             ... AVAILABLE
   # of basis functions in Aux-J            ...   1044
   # of shells in Aux-J                     ...    432
   Maximum angular momentum in Aux-J        ...      2
Auxiliary J/K fitting basis                 ... NOT available
Auxiliary Correlation fitting basis         ... NOT available
Auxiliary 'external' fitting basis          ... NOT available

Checking pre-screening integrals            ... done (  0.0 sec) Dimension = 311
   => SHARK Basis and OBASIS are compatible. Storing Pre-screening
Shell pair information
Shell pair cut-off parameter TPreSel        ...   1.0e-11
Total number of shell pairs                 ...     48516
Shell pairs after pre-screening             ...     36314
Total number of primitive shell pairs       ...    176765
Primitive shell pairs kept                  ...     82866
          la=0 lb=0:  11413 shell pairs
          la=1 lb=0:  13873 shell pairs
          la=1 lb=1:   4231 shell pairs
          la=2 lb=0:   3977 shell pairs
          la=2 lb=1:   2446 shell pairs
          la=2 lb=2:    374 shell pairs

Checking whether 4 symmetric matrices of dimension 639 fit in memory
:Max Core in MB      =   2500.00
 MB in use           =     45.40
 MB left             =   2454.60
 MB needed           =      6.24
 Data fit in memory  = YES
Calculating RI/J V-Matrix + Cholesky decomp.... done (  0.0 sec)
Calculating Nuclear repulsion               ... done (  0.0 sec) ENN=   2633.540805082467 Eh

Diagonalization of the overlap matrix:
Smallest eigenvalue                        ... 7.574e-06
Time for diagonalization                   ...    0.098 sec
Threshold for overlap eigenvalues          ... 1.000e-07
Number of eigenvalues below threshold      ... 0
Time for construction of square roots      ...    0.037 sec
Total time needed                          ...    0.138 sec

-------------------
DFT GRID GENERATION
-------------------

General Integration Accuracy     IntAcc      ... 4.388
Radial Grid Type                 RadialGrid  ... OptM3 with GC (2021)
Angular Grid (max. ang.)         AngularGrid ... 4 (Lebedev-302)
Angular grid pruning method      GridPruning ... 4 (adaptive)
Weight generation scheme         WeightScheme... mBecke (2022)
Basis function cutoff            BFCut       ... 1.0000e-10
Integration weight cutoff        WCut        ... 1.0000e-14
Partially contracted basis set               ... off
Rotationally invariant grid construction     ... off
Angular grids for H and He will be reduced by one unit
Diffuse basis detected: some atoms will have their outermost
                        angular grid increased by 1.

Total number of grid points                  ...   229611
Total number of batches                      ...     3613
Average number of points per batch           ...       63
Average number of grid points per atom       ...     4592
Grids setup in   1.5 sec
Initializing property integral containers    ... done (  0.0 sec)

SHARK setup successfully completed in   2.0 seconds

Maximum memory used throughout the entire STARTUP-calculation: 88.9 MB


           ************************************************************
           *        Program running with 12 parallel MPI-processes    *
           *              working on a common directory               *
           ************************************************************
Loading Hartree-Fock densities                     ... done
Calculating cut-offs                               ... done
Initializing the effective Hamiltonian             ... done
Setting up the integral package (SHARK)            ... done
Starting the Coulomb interaction                   ... done (   0.5 sec)
Making the grid                                    ... done (   0.4 sec)
Mapping shells                                     ... done
Starting the XC term evaluation                    ... done (   0.2 sec)
  promolecular density results
     # of electrons  =    187.992475335
     EX              =   -152.169955087
     EC              =     -6.416960678
     EX+EC           =   -158.586915765
Transforming the Hamiltonian                       ... done (   0.0 sec)
Diagonalizing the Hamiltonian                      ... done (   0.1 sec)
Back transforming the eigenvectors                 ... done (   0.0 sec)
Now organizing SCF variables                       ... done
             **** ENERGY FILE WAS UPDATED (inp.en.tmp) ****
Finished Guess after   1.5 sec
Maximum memory used throughout the entire GUESS-calculation: 57.8 MB


           ************************************************************
           *        Program running with 12 parallel MPI-processes    *
           *              working on a common directory               *
           ************************************************************
--------------------
CPCM SOLVATION MODEL
--------------------
CPCM parameters:
  Epsilon                                         ...       4.8030
  Refrac                                          ...       1.4459
  Rsolv                                           ...       1.3000
  Surface type                                    ... GAUSSIAN VDW
  Discretization scheme                           ... Constant charge density
    Threshold for H atoms                         ...       5.0000 (charges/Ang^2)
    Threshold for non-H atoms                     ...       5.0000 (charges/Ang^2)
  Epsilon function type                           ...         CPCM
Solvent:                                          ... CHLOROFORM
Radii:
  Scheme                                          ... Element-dependent radii
  Radius for C  used is    3.8550 Bohr (=   2.0400 Ang.)
  Radius for N  used is    3.5149 Bohr (=   1.8600 Ang.)
  Radius for O  used is    3.4469 Bohr (=   1.8240 Ang.)
  Radius for H  used is    2.4944 Bohr (=   1.3200 Ang.)
Calculating surface                               ...        done! (  0.0s)
Cavity surface points                             ...         3520
Cavity Volume                                     ...    2657.3457
Cavity Surface-area                               ...    1228.5768
Calculating surface distance matrix               ...        done! (  0.1s)
Performing Cholesky decomposition & store         ...        done! (  0.3s)
Overall time for CPCM initialization              ...                 0.4s

----------------------------------------D-I-I-S--------------------------------------------
Iteration    Energy (Eh)           Delta-E    RMSDP     MaxDP     DIISErr   Damp  Time(sec)
-------------------------------------------------------------------------------------------
               ***  Starting incremental Fock matrix formation  ***
    1    -1149.0114670553530232     0.00e+00  1.33e-02  3.21e-01  2.91e-01  0.700   3.8
    2    -1149.2812147244094376    -2.70e-01  9.85e-03  1.76e-01  1.03e-01  0.700   3.4
                               ***Turning on AO-DIIS***
    3    -1149.3805274065157391    -9.93e-02  3.42e-03  6.35e-02  3.05e-02  0.700   3.2
    4    -1149.4425787851041605    -6.21e-02  7.14e-03  1.19e-01  1.49e-02  0.000   3.1
    5    -1149.5802926382971236    -1.38e-01  2.51e-03  6.43e-02  5.83e-03  0.000   3.2
                              *** Initializing SOSCF ***
---------------------------------------S-O-S-C-F--------------------------------------
Iteration    Energy (Eh)           Delta-E    RMSDP     MaxDP     MaxGrad    Time(sec)
--------------------------------------------------------------------------------------
    6    -1149.5810943704441343    -8.02e-04  8.53e-04  2.16e-02  2.39e-03     3.1
               *** Restarting incremental Fock matrix formation ***
    7    -1149.5811484832042879    -5.41e-05  7.93e-04  2.78e-02  5.51e-04     3.7
    8    -1149.5810947662494073     5.37e-05  2.93e-04  8.23e-03  1.48e-03     2.6
    9    -1149.5811652750539906    -7.05e-05  1.04e-04  4.13e-03  1.13e-04     2.6
   10    -1149.5811627467396647     2.53e-06  6.30e-05  1.76e-03  1.81e-04     2.4
   11    -1149.5811661240368267    -3.38e-06  8.92e-05  4.96e-03  2.68e-05     2.6
                  *** Gradient check signals convergence ***

               *****************************************************
               *                     SUCCESS                       *
               *           SCF CONVERGED AFTER  11 CYCLES          *
               *****************************************************

             **** ENERGY FILE WAS UPDATED (inp.en.tmp) ****

----------------
TOTAL SCF ENERGY
----------------

Total Energy       :      -1149.58116598722654 Eh          -31281.69386 eV

Components:
Nuclear Repulsion  :       2633.54080508246716 Eh           71662.28855 eV
Electronic Energy  :      -3783.09239692268966 Eh         -102943.17765 eV
One Electron Energy:      -6801.88153075771879 Eh         -185088.60617 eV
Two Electron Energy:       3018.78913383502913 Eh           82145.42852 eV
CPCM Dielectric    :         -0.02957414700390 Eh              -0.80475 eV

Virial components:
Potential Energy   :      -2293.83755722378419 Eh          -62418.49323 eV
Kinetic Energy     :       1144.25639123655765 Eh           31136.79937 eV
Virial Ratio       :          2.00465348045372

DFT components:
N(Alpha)           :       94.000228275597 electrons
N(Beta)            :       94.000228275597 electrons
N(Total)           :      188.000456551194 electrons
E(X)               :     -156.088983817080 Eh       
E(C)               :       -6.189249849680 Eh       
E(XC)              :     -162.278233666760 Eh       

CPCM Solvation Model Properties:
Surface-charge          :         -0.03374770337556
Corrected charge        :         -0.00000000000000
Outlying charge corr.   :          0.00004845965380 Eh               0.00132 eV
Free-energy (cav+disp)  :  This term is not implemented in the current solvation scheme

---------------
SCF CONVERGENCE
---------------

  Last Energy change         ...    3.3773e-06  Tolerance :   1.0000e-06
  Last MAX-Density change    ...    4.9585e-03  Tolerance :   1.0000e-05
  Last RMS-Density change    ...    8.9152e-05  Tolerance :   1.0000e-06
  Last DIIS Error            ...    2.3924e-03  Tolerance :   1.0000e-06
  Last Orbital Gradient      ...    2.6835e-05  Tolerance :   3.3300e-04
  Last Orbital Rotation      ...    1.1991e-04  Tolerance :   3.3300e-04


----------------
ORBITAL ENERGIES
----------------

  NO   OCC          E(Eh)            E(eV) 
   0   2.0000     -19.008185      -517.2390 
   1   2.0000     -18.945744      -515.5399 
   2   2.0000     -18.879454      -513.7361 
   3   2.0000     -14.294639      -388.9769 
   4   2.0000     -14.165838      -385.4721 
   5   2.0000     -10.163268      -276.5566 
   6   2.0000     -10.085737      -274.4469 
   7   2.0000     -10.080336      -274.2999 
   8   2.0000     -10.078534      -274.2509 
   9   2.0000     -10.074051      -274.1289 
  10   2.0000     -10.070500      -274.0322 
  11   2.0000     -10.068291      -273.9721 
  12   2.0000     -10.067777      -273.9581 
  13   2.0000     -10.064352      -273.8649 
  14   2.0000     -10.061533      -273.7882 
  15   2.0000     -10.043442      -273.2960 
  16   2.0000     -10.041131      -273.2331 
  17   2.0000     -10.039184      -273.1801 
  18   2.0000     -10.038385      -273.1583 
  19   2.0000     -10.037855      -273.1439 
  20   2.0000     -10.036278      -273.1010 
  21   2.0000     -10.034291      -273.0469 
  22   2.0000     -10.028056      -272.8773 
  23   2.0000     -10.024487      -272.7802 
  24   2.0000     -10.020732      -272.6780 
  25   2.0000     -10.019878      -272.6547 
  26   2.0000      -1.075376       -29.2625 
  27   2.0000      -1.022832       -27.8327 
  28   2.0000      -0.987976       -26.8842 
  29   2.0000      -0.910455       -24.7747 
  30   2.0000      -0.855893       -23.2900 
  31   2.0000      -0.811322       -22.0772 
  32   2.0000      -0.803513       -21.8647 
  33   2.0000      -0.789088       -21.4722 
  34   2.0000      -0.747706       -20.3461 
  35   2.0000      -0.738028       -20.0828 
  36   2.0000      -0.725075       -19.7303 
  37   2.0000      -0.714029       -19.4297 
  38   2.0000      -0.693907       -18.8822 
  39   2.0000      -0.689727       -18.7684 
  40   2.0000      -0.679298       -18.4846 
  41   2.0000      -0.646927       -17.6038 
  42   2.0000      -0.611288       -16.6340 
  43   2.0000      -0.593585       -16.1523 
  44   2.0000      -0.587017       -15.9735 
  45   2.0000      -0.576519       -15.6879 
  46   2.0000      -0.565413       -15.3857 
  47   2.0000      -0.547466       -14.8973 
  48   2.0000      -0.542251       -14.7554 
  49   2.0000      -0.514587       -14.0026 
  50   2.0000      -0.497704       -13.5432 
  51   2.0000      -0.491394       -13.3715 
  52   2.0000      -0.485909       -13.2223 
  53   2.0000      -0.477995       -13.0069 
  54   2.0000      -0.470602       -12.8057 
  55   2.0000      -0.458363       -12.4727 
  56   2.0000      -0.451496       -12.2858 
  57   2.0000      -0.449427       -12.2295 
  58   2.0000      -0.435881       -11.8609 
  59   2.0000      -0.431611       -11.7447 
  60   2.0000      -0.424541       -11.5523 
  61   2.0000      -0.419808       -11.4235 
  62   2.0000      -0.411812       -11.2060 
  63   2.0000      -0.410683       -11.1753 
  64   2.0000      -0.396171       -10.7803 
  65   2.0000      -0.392905       -10.6915 
  66   2.0000      -0.388354       -10.5676 
  67   2.0000      -0.381905       -10.3922 
  68   2.0000      -0.376698       -10.2505 
  69   2.0000      -0.375708       -10.2235 
  70   2.0000      -0.360050        -9.7975 
  71   2.0000      -0.356711        -9.7066 
  72   2.0000      -0.353867        -9.6292 
  73   2.0000      -0.353076        -9.6077 
  74   2.0000      -0.347178        -9.4472 
  75   2.0000      -0.340723        -9.2715 
  76   2.0000      -0.335083        -9.1181 
  77   2.0000      -0.332529        -9.0486 
  78   2.0000      -0.327068        -8.9000 
  79   2.0000      -0.320825        -8.7301 
  80   2.0000      -0.316278        -8.6064 
  81   2.0000      -0.308562        -8.3964 
  82   2.0000      -0.300693        -8.1823 
  83   2.0000      -0.296366        -8.0645 
  84   2.0000      -0.295490        -8.0407 
  85   2.0000      -0.284766        -7.7489 
  86   2.0000      -0.281439        -7.6583 
  87   2.0000      -0.260852        -7.0982 
  88   2.0000      -0.247074        -6.7232 
  89   2.0000      -0.233717        -6.3598 
  90   2.0000      -0.222458        -6.0534 
  91   2.0000      -0.185564        -5.0495 
  92   2.0000      -0.184123        -5.0102 
  93   2.0000      -0.182029        -4.9533 
  94   0.0000      -0.036166        -0.9841 
  95   0.0000      -0.027707        -0.7539 
  96   0.0000      -0.024747        -0.6734 
  97   0.0000      -0.014881        -0.4049 
  98   0.0000       0.044318         1.2060 
  99   0.0000       0.053874         1.4660 
 100   0.0000       0.065350         1.7783 
 101   0.0000       0.073076         1.9885 
 102   0.0000       0.074503         2.0273 
 103   0.0000       0.079150         2.1538 
 104   0.0000       0.089283         2.4295 
*Only the first 10 virtual orbitals were printed.
Total SCF time: 0 days 0 hours 0 min 36 sec 
Finished LeanSCF after  36.9 sec

Maximum memory used throughout the entire LEANSCF-calculation: 74.7 MB


-------------------------------------------------------------------------------
                          DFT DISPERSION CORRECTION                            
                                                                               
                                DFTD4 V3.4.0                                   
-------------------------------------------------------------------------------
-------------------------   ----------------
Dispersion correction           -0.029003873
-------------------------   ----------------

------------------   -----------------
gCP correction             0.031631807
------------------   -----------------

-------------------------   --------------------
FINAL SINGLE POINT ENERGY     -1149.578538053596
-------------------------   --------------------



           ************************************************************
           *        Program running with 12 parallel MPI-processes    *
           *              working on a common directory               *
           ************************************************************

------------------------------------------------------------------------------
                              ORCA PROPERTY CALCULATIONS
------------------------------------------------------------------------------

GBWName                                 ... inp.gbw
Number of atoms                         ...     50
Number of basis functions               ...    639
Max core memory                         ...   2500 MB

Electric properties:
Dipole moment                           ... YES
Quadrupole moment                       ...  NO
Static polarizability (Dipole/Dipole)   ...  NO
Static polarizability (Dipole/Quad.)    ...  NO
Static polarizability (Quad./Quad.)     ...  NO
Static polarizability (Velocity)        ...  NO
Static hyperpolarizability              ...  NO

Atomic electric properties:
Dipole moment                           ...  NO
Quadrupole moment                       ...  NO
Static polarizability                   ...  NO

Choice of electric origin               ... Center of mass
Position of electric origin             ...     0.013372    -0.032518    -0.028395

General magnetic properties:
Magnetizability                         ...  NO

EPR properties:
g-Tensor (aka g-matrix)                 ...  NO
Zero-Field splitting spin-orbit         ...  NO
Zero-field splitting spin-spin          ...  NO
Hyperfine couplings                     ...  NO (   0 nuclei)
Quadrupole couplings                    ...  NO (   0 nuclei)
Contact density                         ...  NO (   0 nuclei)

NMR properties:
Chemical shifts                         ...  NO (   0 nuclei)
Spin-rotation constants                 ...  NO (   0 nuclei)
Spin-spin couplings                     ...  NO (   0 nuclei,    0 pairs)

Choice of magnetic origin               ... GIAO
Position of magnetic origin             ...     0.000000     0.000000     0.000000

Properties with geometric perturbations:
SCF Hessian                             ...  NO
IR spectrum                             ...  NO
VCD spectrum                            ...  NO
X-ray spectroscopy properties:
SCF XES/XAS/RIXS spectra                ...  NO

SCF SOC stabilization energy            ...  NO
Diagonal Born-Oppenheimer correction    ...  NO

-------------
DIPOLE MOMENT
-------------

Method             : SCF
Type of density    : Electron Density
Multiplicity       :   1
Irrep              :   0
Energy             : -1149.5811659872265409 Eh
Basis              : AO
                                X                 Y                 Z
Electronic contribution:     -5.424063143      -2.881153143      -0.416447087
Nuclear contribution   :      6.475221615       6.559634801       0.820278299
                        -----------------------------------------
Total Dipole Moment    :      1.051158473       3.678481657       0.403831212
                        -----------------------------------------
Magnitude (a.u.)       :      3.846978176
Magnitude (Debye)      :      9.778241434



--------------------
Rotational spectrum 
--------------------
 
Rotational constants in cm-1:             0.009777             0.007817             0.006005 
Rotational constants in MHz :           293.103675           234.351253           180.012152 

Dipole components along the rotational axes: 
x,y,z [a.u.] :     1.171694     3.572790     0.813357 
x,y,z [Debye]:     2.978209     9.081309     2.067389 

 

Dipole moment calculation done in   0.0 sec 

Maximum memory used throughout the entire PROP-calculation: 59.4 MB

--------------------------------
SUGGESTED CITATIONS FOR THIS RUN
--------------------------------

Below you find a list of papers that are relevant to this ORCA run
We neither can nor want to force you to cite these papers, but we appreciate if you do
You receive ORCA, which is the product of decades of hard work by many enthusiastic individuals, for free
The only thing we kindly ask in return is that you cite our papers,
We deeply appreciate it, if you show your appreciation for ORCA by not just citing the generic ORCA reference.

Please note that relegating all ORCA citations to the supporting information does *not* help us.
SI sections are not indexed - citations you put there will not count into any citation statistics
But we need these citations in order to attract the funding resources that allow us to do what we are doing

Therefore, if you are a happy ORCA user, please consider citing a few of the papers listed below in the main body of your paper

In addition to the list printed below, the program has created the file inp.bibtex that contains the list in bibtex format
You can import this file easily into all common literature databanks and citation aid programs

It goes without saying that in many instances, there are alternative algorithms to achieve similar
results as the ones you have gotten from ORCA. It is, of course, also the case that in some instances
ORCA just re-implements algorithms worked out by others. We are fully aware of that and we are also
fully appreciative of our colleagues work. Hence this citation list should not be read as indicating
that the listed papers, which are focused on our own work, are the only ones worth citing. It simply
meant to make it easier for users to cite ORCA specific papers. It is not a substitute for doing your
own literature research and citing the relevant literature in a scientifically appropriate manner.

List of essential papers. We consider these as the minimum necessary citations

  1. Grimme, S.; Hansen, A.; Ehlert, S.; Mewes, J.
     r2SCAN-3c: A 'Swiss army knife' composite electronic-structure method
     J. Chem. Phys. 2021 154 , 064103
     doi.org/10.1063/5.0040021
  2. Neese, F.
     Software update: the ORCA program system, version 6.0
     WIRES Comput. Molec. Sci. 2025 15(1), e70019
     doi.org/10.1002/wcms.70019

List of papers to cite with high priority. The work reported in these papers was absolutely
necessary for this run to complete.
Our perspective: the developers of density functionals and basis sets usually get cited in chemistry papers
Good! But without the algorithms to do something with them, the functionals or basis sets would not do anything.
Hence, in our opinion, the algorithm design and method developments papers are equally worthy of getting cited

  1. Neese, F.
     An improvement of the resolution of the identity approximation for the formation of the Coulomb matrix
     J. Comp. Chem. 2003 24(14), 1740-1747
     doi.org/10.1002/jcc.10318
  2. Caldeweyher, E.; Bannwarth, C.; Grimme, S.
     Extension of the D3 dispersion coefficient model
     J. Chem. Phys. 2017 147 , 034112
     doi.org/10.1063/1.4993215
  3. Lehtola, S.; Steigemann, C.; Oliveira, M.; Marques, M.
     Recent developments in Libxc - A comprehensive library of functionals for density functional theory
     Software X 2018 7 , 
     doi.org/10.1016/j.softx.2017.11.002
  4. Caldeweyher, E.; Ehlert, S.; Hansen, A.; Neugebauer, H.; Spicher, S.; Bannwarth, C.; Grimme, S.
     A generally applicable atomic-charge dependent London dispersion correction
     J. Chem. Phys. 2019 150 , 154122
     doi.org/10.1063/1.5090222
  5. Garcia-Rates, M.; Neese, F.
     Effect of the Solute Cavity on the Solvation Energy and its Derivatives within the Framework of the Gaussian Charge Scheme
     J. Comput. Chem. 2020 41 , 922-939
     doi.org/10.1002/jcc.26139
  6. Neese, F.
     The SHARK Integral Generation and Digestion System
     J. Comp. Chem. 2022 44(3), 381
     doi.org/10.1002/jcc.26942

List of suggested additional citations. These are papers that are important in the 'surrounding' of 
of this run, or papers that preceded the highly important papers. If you like your results we are grateful for a citation.

  1. Neese, F.
     The ORCA program system
     WIRES Comput. Molec. Sci. 2012 2(1), 73-78
     doi.org/10.1002/wcms.81
  2. Neese, F.
     Software update: the ORCA program system, version 4.0
     WIRES Comput. Molec. Sci. 2018 8(1), 1-6
     doi.org/10.1002/wcms.1327
  3. Neese, F.; Wennmohs, F.; Becker, U.; Riplinger, C.
     The ORCA quantum chemistry program package
     J. Chem. Phys. 2020 152(22), 224108
     doi.org/10.1063/5.0004608
  4. Neese, F.
     Software update: The ORCA program system—Version 5.0
     WIRES Comput. Molec. Sci. 2022 12(1), e1606
     doi.org/10.1002/wcms.1606

List of optional additional citations

  1. Neese, F.
     Approximate second-order SCF convergence for spin unrestricted wavefunctions
     Chem. Phys. Lett. 2000 325(1-3), 93-98
     doi.org/10.1016/s0009-2614(00)00662-x

Timings for individual modules:

Sum of individual times          ...       41.323 sec (=   0.689 min)
Startup calculation              ...        2.269 sec (=   0.038 min)   5.5 %
SCF iterations                   ...       38.695 sec (=   0.645 min)  93.6 %
Property calculations            ...        0.359 sec (=   0.006 min)   0.9 %
                             ****ORCA TERMINATED NORMALLY****
TOTAL RUN TIME: 0 days 0 hours 0 minutes 41 seconds 609 msec
