      -----------------------------------------------------------      
     |                   =====================                   |     
     |                           x T B                           |     
     |                   =====================                   |     
     |                         S. Grimme                         |     
     |          Mulliken Center for Theoretical Chemistry        |     
     |                    University of Bonn                     |     
      -----------------------------------------------------------      

   * xtb version 6.7.1 (edcfbbe) compiled by 'albert@albert-system' on 2024-07-22

   xtb is free software: you can redistribute it and/or modify it under
   the terms of the GNU Lesser General Public License as published by
   the Free Software Foundation, either version 3 of the License, or
   (at your option) any later version.
   
   xtb is distributed in the hope that it will be useful,
   but WITHOUT ANY WARRANTY; without even the implied warranty of
   MERCHANTABILITY or FITNESS FOR A PARTICULAR PURPOSE.  See the
   GNU Lesser General Public License for more details.
   
   Cite this work as:
   * C. Bannwarth, E. Caldeweyher, S. Ehlert, A. Hansen, P. Pracht,
     J. Seibert, S. Spicher, S. Grimme, WIREs Comput. Mol. Sci., 2020, 11,
     e01493. DOI: 10.1002/wcms.1493
   
   for GFN2-xTB:
   * C. Bannwarth, S. Ehlert and S. Grimme., J. Chem. Theory Comput., 2019,
     15, 1652-1671. DOI: 10.1021/acs.jctc.8b01176
   for GFN1-xTB:
   * S. Grimme, C. Bannwarth, P. Shushkov, J. Chem. Theory Comput., 2017,
     13, 1989-2009. DOI: 10.1021/acs.jctc.7b00118
   for GFN0-xTB:
   * P. Pracht, E. Caldeweyher, S. Ehlert, S. Grimme, ChemRxiv, 2019, preprint.
     DOI: 10.26434/chemrxiv.8326202.v1
   for GFN-FF:
   * S. Spicher and S. Grimme, Angew. Chem. Int. Ed., 2020, 59, 15665-15673.
     DOI: 10.1002/anie.202004239
   
   for ALPB and GBSA implicit solvation:
   * S. Ehlert, M. Stahn, S. Spicher, S. Grimme, J. Chem. Theory Comput.,
     2021, 17, 4250-4261. DOI: 10.1021/acs.jctc.1c00471
   
   for ddCOSMO and CPCM-X implicit solvation:
   * M. Stahn, S. Ehlert, S. Grimme, J. Phys. Chem. A,
     2023, XX, XXXX-XXXX. DOI: 10.1021/acs.jpca.3c04382
   
   for DFT-D4:
   * E. Caldeweyher, C. Bannwarth and S. Grimme, J. Chem. Phys., 2017,
     147, 034112. DOI: 10.1063/1.4993215
   * E. Caldeweyher, S. Ehlert, A. Hansen, H. Neugebauer, S. Spicher,
     C. Bannwarth and S. Grimme, J. Chem. Phys., 2019, 150, 154122.
     DOI: 10.1063/1.5090222
   * E. Caldeweyher, J.-M. Mewes, S. Ehlert and S. Grimme, Phys. Chem. Chem. Phys.
     2020, 22, 8499-8512. DOI: 10.1039/D0CP00502A
   
   for sTDA-xTB:
   * S. Grimme and C. Bannwarth, J. Chem. Phys., 2016, 145, 054103.
     DOI: 10.1063/1.4959605
   
   in the mass-spec context:
   * V. Asgeirsson, C. Bauer and S. Grimme, Chem. Sci., 2017, 8, 4879.
     DOI: 10.1039/c7sc00601b
   * J. Koopman and S. Grimme, ACS Omega 2019, 4, 12, 15120-15133.
     DOI: 10.1021/acsomega.9b02011
   
   for metadynamics refer to:
   * S. Grimme, J. Chem. Theory Comput., 2019, 155, 2847-2862
     DOI: 10.1021/acs.jctc.9b00143
   
   for SPH calculations refer to:
   * S. Spicher and S. Grimme, J. Chem. Theory Comput., 2021, 17, 1701-1714
     DOI: 10.1021/acs.jctc.0c01306
   
   for ONIOM refer to:
   * C. Plett, A. Katbashev, S. Ehlert, S. Grimme, M. Bursch,
     Phys. Chem. Chem. Phys., 2023, 25, 17860-17868. DOI: 10.1039/D3CP02178E
   
   for DIPRO refer to:
   * J. Kohn, N. Gildemeister, S. Grimme, D. Fazzi, A. Hansen,
     J. Chem. Phys., 2023, just accepted.
   
   for PTB refer to:
   * S. Grimme, M. Mueller, A. Hansen, J. Chem. Phys., 2023, 158, 124111.
     DOI: 10.1063/5.0137838
   
   with help from (in alphabetical order)
   P. Atkinson, C. Bannwarth, F. Bohle, G. Brandenburg, E. Caldeweyher
   M. Checinski, S. Dohm, S. Ehlert, S. Ehrlich, I. Gerasimov, C. Hölzer
   A. Katbashev, J. Kohn, J. Koopman, C. Lavigne, S. Lehtola, F. März, M. Müller,
   F. Musil, H. Neugebauer, J. Pisarek, C. Plett, P. Pracht, F. Pultar,
   J. Seibert, P. Shushkov, S. Spicher, M. Stahn, M. Steiner, T. Strunk,
   J. Stückrath, T. Rose, and J. Unsleber
   
 * started run on 2026/08/09 at 15:28:26.729     
   ID    Z sym.   atoms
    1    6 c      1-8, 10-13, 16
    2    8 o      9, 15
    3    1 h      14, 17-35

           -------------------------------------------------
          |                Calculation Setup                |
           -------------------------------------------------

          program call               : /home/dinglab/software/xtb_6.7.1/xtb_dist/bin/xtb coord --gfn2 --sp --chrg 0 --norestart --parallel 12 --alpb chcl3 reference -I xcontrol-inp
          hostname                   : localhost
          coordinate file            : coord
          omp threads                :                    12


           -------------------------------------------------
          |                 G F N 2 - x T B                 |
           -------------------------------------------------

        Reference                      10.1021/acs.jctc.8b01176
      * Hamiltonian:
        H0-scaling (s, p, d)           1.850000    2.230000    2.230000
        zeta-weighting                 0.500000
      * Dispersion:
        s8                             2.700000
        a1                             0.520000
        a2                             5.000000
        s9                             5.000000
      * Repulsion:
        kExp                           1.500000    1.000000
        rExp                           1.000000
      * Coulomb:
        alpha                          2.000000
        third order                    shell-resolved
        anisotropic                    true
        a3                             3.000000
        a5                             4.000000
        cn-shift                       1.200000
        cn-exp                         4.000000
        max-rad                        5.000000

      * Solvation model:               ALPB
        Solvent                        chcl3
        Parameter file                 internal GFN2-xTB/ALPB
        Dielectric constant                4.8100E+00
        Reference state                gsolv=reference [X=1]
        Free energy shift                  2.5086E-03 Eh       1.5742E+00 kcal/mol
        Temperature                        2.9815E+02 K
        Density                            1.4900E+00 kg/L
        Solvent mass                       1.1938E+02 g/mol
        Interaction kernel             P16
        Born radius scaling (c1)           1.3274E+00
        Born radii integrator          GBOBC
        Born offset                        0.0000E+00 a0       0.0000E+00 AA
        H-bond correction              false
        Ion screening                  false
        Surface tension                    1.0000E-05 Eh       1.5569E+01 dyn/cm
        Grid points                               974 per atom

          ...................................................
          :                      SETUP                      :
          :.................................................:
          :  # basis functions                  80          :
          :  # atomic orbitals                  80          :
          :  # shells                           50          :
          :  # electrons                        84          :
          :  max. iterations                   250          :
          :  Hamiltonian                  GFN2-xTB          :
          :  restarted?                      false          :
          :  GBSA solvation                   true          :
          :  PC potential                    false          :
          :  electronic temp.          300.0000000     K    :
          :  accuracy                    1.0000000          :
          :  -> integral cutoff          0.2500000E+02      :
          :  -> integral neglect         0.1000000E-07      :
          :  -> SCF convergence          0.1000000E-05 Eh   :
          :  -> wf. convergence          0.1000000E-03 e    :
          :  Broyden damping             0.4000000          :
          :  net charge                          0          :
          :  unpaired electrons                  0          :
          ...................................................

 iter      E             dE          RMSdq      gap      omega  full diag
   1    -46.7421472 -0.467421E+02  0.339E+00    5.27       0.0  T
   2    -46.7828307 -0.406835E-01  0.192E+00    5.06       1.0  T
   3    -46.7777024  0.512827E-02  0.800E-01    4.97       1.0  T
   4    -46.7851893 -0.748687E-02  0.335E-01    4.89       1.0  T
   5    -46.7871388 -0.194947E-02  0.704E-02    4.91       1.0  T
   6    -46.7871616 -0.228025E-04  0.395E-02    4.90       1.0  T
   7    -46.7871669 -0.533228E-05  0.106E-02    4.90       1.6  T
   8    -46.7871677 -0.853350E-06  0.327E-03    4.90       5.2  T
   9    -46.7871678 -0.532653E-07  0.195E-03    4.90       8.7  T
  10    -46.7871678 -0.404801E-07  0.736E-04    4.90      23.0  T
  11    -46.7871678 -0.333711E-08  0.282E-04    4.90      59.9  T

   *** convergence criteria satisfied after 11 iterations ***

         #    Occupation            Energy/Eh            Energy/eV
      -------------------------------------------------------------
         1        2.0000           -0.6983881             -19.0041
       ...           ...                  ...                  ...
        36        2.0000           -0.4336947             -11.8014
        37        2.0000           -0.4244827             -11.5508
        38        2.0000           -0.4146753             -11.2839
        39        2.0000           -0.4101335             -11.1603
        40        2.0000           -0.4010421             -10.9129
        41        2.0000           -0.3945988             -10.7376
        42        2.0000           -0.3858679             -10.5000 (HOMO)
        43                         -0.2056349              -5.5956 (LUMO)
        44                         -0.1955096              -5.3201
        45                          0.0146040               0.3974
        46                          0.0278233               0.7571
        47                          0.0382605               1.0411
       ...                                ...                  ...
        80                          0.6438347              17.5196
      -------------------------------------------------------------
                  HL-Gap            0.1802330 Eh            4.9044 eV
             Fermi-level           -0.2957514 Eh           -8.0478 eV

 SCC (total)                   0 d,  0 h,  0 min,  0.037 sec
 SCC setup                      ...        0 min,  0.001 sec (  2.152%)
 Dispersion                     ...        0 min,  0.000 sec (  1.030%)
 classical contributions        ...        0 min,  0.000 sec (  0.065%)
 integral evaluation            ...        0 min,  0.001 sec (  3.731%)
 iterations                     ...        0 min,  0.031 sec ( 83.875%)
 molecular gradient             ...        0 min,  0.003 sec (  8.613%)
 printout                       ...        0 min,  0.000 sec (  0.419%)

         :::::::::::::::::::::::::::::::::::::::::::::::::::::
         ::                     SUMMARY                     ::
         :::::::::::::::::::::::::::::::::::::::::::::::::::::
         :: total energy             -46.165032922895 Eh    ::
         :: total w/o Gsasa/hb       -46.151560585473 Eh    ::
         :: gradient norm              0.007588746061 Eh/a0 ::
         :: HOMO-LUMO gap              4.904390661515 eV    ::
         ::.................................................::
         :: SCC energy               -46.786517035438 Eh    ::
         :: -> isotropic ES            0.061606841880 Eh    ::
         :: -> anisotropic ES          0.005911563463 Eh    ::
         :: -> anisotropic XC          0.017259306760 Eh    ::
         :: -> dispersion             -0.036244187558 Eh    ::
         :: -> Gsolv                  -0.021257957177 Eh    ::
         ::    -> Gelec               -0.007785619755 Eh    ::
         ::    -> Gsasa               -0.015980985423 Eh    ::
         ::    -> Ghb                  0.000000000000 Eh    ::
         ::    -> Gshift               0.002508648001 Eh    ::
         :: repulsion energy           0.621484112543 Eh    ::
         :: add. restraining           0.000000000000 Eh    ::
         :: total charge               0.000000000000 e     ::
         :::::::::::::::::::::::::::::::::::::::::::::::::::::

           -------------------------------------------------
          |                Property Printout                |
           -------------------------------------------------

    * Orbital Energies and Occupations

         #    Occupation            Energy/Eh            Energy/eV
      -------------------------------------------------------------
         1        2.0000           -0.6983881             -19.0041
       ...           ...                  ...                  ...
        30        2.0000           -0.4678664             -12.7313
        31        2.0000           -0.4549103             -12.3787
        32        2.0000           -0.4478855             -12.1876
        33        2.0000           -0.4438905             -12.0789
        34        2.0000           -0.4422316             -12.0337
        35        2.0000           -0.4371044             -11.8942
        36        2.0000           -0.4336947             -11.8014
        37        2.0000           -0.4244827             -11.5508
        38        2.0000           -0.4146753             -11.2839
        39        2.0000           -0.4101335             -11.1603
        40        2.0000           -0.4010421             -10.9129
        41        2.0000           -0.3945988             -10.7376
        42        2.0000           -0.3858679             -10.5000 (HOMO)
        43                         -0.2056349              -5.5956 (LUMO)
        44                         -0.1955096              -5.3201
        45                          0.0146040               0.3974
        46                          0.0278233               0.7571
        47                          0.0382605               1.0411
        48                          0.0550770               1.4987
        49                          0.0687687               1.8713
        50                          0.0797557               2.1703
        51                          0.0853685               2.3230
        52                          0.0904908               2.4624
        53                          0.0967254               2.6320
       ...                                ...                  ...
        80                          0.6438347              17.5196
      -------------------------------------------------------------
                  HL-Gap            0.1802330 Eh            4.9044 eV
             Fermi-level           -0.2957514 Eh           -8.0478 eV

     #   Z          covCN         q      C6AA      α(0)
     1   6 c        3.935    -0.008    20.663     6.460
     2   6 c        3.858    -0.033    21.125     6.537
     3   6 c        3.803    -0.062    21.694     6.631
     4   6 c        3.808    -0.058    21.613     6.618
     5   6 c        3.889    -0.036    21.165     6.540
     6   6 c        3.771     0.107    18.855     6.188
     7   6 c        3.831    -0.069    21.802     6.644
     8   6 c        2.975     0.009    27.816     8.651
     9   8 o        1.655    -0.484    22.557     6.411
    10   6 c        3.678     0.082    19.432     6.315
    11   6 c        2.838    -0.113    30.846     9.102
    12   6 c        2.936     0.013    27.728     8.636
    13   6 c        2.843    -0.113    30.864     9.105
    14   1 h        0.924     0.051     2.305     2.374
    15   8 o        1.655    -0.477    22.404     6.390
    16   6 c        3.761    -0.118    22.798     6.807
    17   1 h        0.924     0.041     2.441     2.443
    18   1 h        0.924     0.040     2.455     2.450
    19   1 h        0.925     0.039     2.465     2.455
    20   1 h        0.924     0.041     2.437     2.441
    21   1 h        0.924     0.041     2.435     2.440
    22   1 h        0.925     0.045     2.378     2.411
    23   1 h        0.924     0.043     2.411     2.428
    24   1 h        0.924     0.050     2.314     2.379
    25   1 h        0.805     0.310     0.692     1.307
    26   1 h        0.923     0.027     2.631     2.536
    27   1 h        0.924     0.048     2.346     2.395
    28   1 h        0.926     0.034     2.528     2.486
    29   1 h        0.926     0.035     2.516     2.480
    30   1 h        0.926     0.029     2.602     2.522
    31   1 h        0.926     0.031     2.573     2.509
    32   1 h        0.805     0.309     0.695     1.309
    33   1 h        0.925     0.039     2.458     2.452
    34   1 h        0.925     0.063     2.167     2.302
    35   1 h        0.924     0.047     2.363     2.404

 Mol. C6AA /au·bohr⁶  :      10383.009210
 Mol. C8AA /au·bohr⁸  :     233532.331584
 Mol. α(0) /au        :        153.558816


Wiberg/Mayer (AO) data.
largest (>0.10) Wiberg bond orders for each atom

 ---------------------------------------------------------------------------
     #   Z sym  total        # sym  WBO       # sym  WBO       # sym  WBO
 ---------------------------------------------------------------------------
     1   6 c    3.989 --     7 c    0.982    10 c    0.979     2 c    0.959
                             6 c    0.959
     2   6 c    3.993 --    12 c    0.996     3 c    0.986    14 h    0.962
                             1 c    0.959
     3   6 c    3.996 --     4 c    1.008     2 c    0.986    18 h    0.977
                            17 h    0.976
     4   6 c    3.996 --     3 c    1.008     5 c    0.978    20 h    0.976
                            19 h    0.970
     5   6 c    3.995 --     8 c    0.995     4 c    0.978     6 c    0.973
                            21 h    0.963
     6   6 c    3.947 --     9 o    0.986     5 c    0.973     1 c    0.959
                            22 h    0.957
     7   6 c    3.997 --     8 c    1.004     1 c    0.982    24 h    0.963
                            23 h    0.958
     8   6 c    3.986 --    11 c    1.936     7 c    1.004     5 c    0.995
     9   8 o    1.950 --     6 c    0.986    25 h    0.884
    10   6 c    3.948 --    15 o    0.992     1 c    0.979    27 h    0.969
                            26 h    0.966
    11   6 c    3.988 --     8 c    1.936    28 h    0.975    29 h    0.975
    12   6 c    3.986 --    13 c    1.927    16 c    1.026     2 c    0.996
    13   6 c    3.988 --    12 c    1.927    30 h    0.974    31 h    0.967
    14   1 h    0.997 --     2 c    0.962
    15   8 o    1.944 --    10 c    0.992    32 h    0.888
    16   6 c    3.995 --    12 c    1.026    33 h    0.984    34 h    0.968
                            35 h    0.967
    17   1 h    0.998 --     3 c    0.976
    18   1 h    0.998 --     3 c    0.977
    19   1 h    0.998 --     4 c    0.970
    20   1 h    0.998 --     4 c    0.976
    21   1 h    0.998 --     5 c    0.963
    22   1 h    0.998 --     6 c    0.957
    23   1 h    0.997 --     7 c    0.958
    24   1 h    0.997 --     7 c    0.963
    25   1 h    0.904 --     9 o    0.884
    26   1 h    0.999 --    10 c    0.966
    27   1 h    0.997 --    10 c    0.969
    28   1 h    0.998 --    11 c    0.975
    29   1 h    0.998 --    11 c    0.975
    30   1 h    0.999 --    13 c    0.974
    31   1 h    0.999 --    13 c    0.967
    32   1 h    0.905 --    15 o    0.888
    33   1 h    0.998 --    16 c    0.984
    34   1 h    0.996 --    16 c    0.968
    35   1 h    0.998 --    16 c    0.967
 ---------------------------------------------------------------------------

Topologies differ in total number of bonds
Writing topology from bond orders to xtbtopo.mol

molecular dipole:
                 x           y           z       tot (Debye)
 q only:        0.547       0.433       0.767
   full:        0.838       0.457       0.911       3.354
molecular quadrupole (traceless):
                xx          xy          yy          xz          yz          zz
 q only:        1.613      -3.930      -0.282       1.854      -2.713      -1.331
  q+dip:        3.348      -5.096      -1.961       5.079      -4.985      -1.388
   full:        2.927      -5.653      -1.261       3.996      -4.060      -1.666


           -------------------------------------------------
          | TOTAL ENERGY              -46.165032922895 Eh   |
          | GRADIENT NORM               0.007588746061 Eh/α |
          | HOMO-LUMO GAP               4.904390661515 eV   |
           -------------------------------------------------

------------------------------------------------------------------------
 * finished run on 2026/08/09 at 15:28:26.787     
------------------------------------------------------------------------
 total:
 * wall-time:     0 d,  0 h,  0 min,  0.057 sec
 *  cpu-time:     0 d,  0 h,  0 min,  0.546 sec
 * ratio c/w:     9.632 speedup
 SCF:
 * wall-time:     0 d,  0 h,  0 min,  0.037 sec
 *  cpu-time:     0 d,  0 h,  0 min,  0.405 sec
 * ratio c/w:    10.850 speedup

normal termination of xtb
