35
 xtb: 6.7.1 (edcfbbe)
c            0.10765189470177       -0.65491697537976        0.10230380888234
c           -0.93126845333649        0.37488861258566        0.69046185246066
c           -0.35281656076090        1.83046343837616        0.72246863860774
c            0.56185946916101        2.20952575020682       -0.46374496836067
c            1.52509554981553        1.04951447923926       -0.82592466580487
c            0.67893546095701       -0.15559482670739       -1.26673672435207
c            1.39540915131520       -0.62002427141251        0.98926755214885
c            2.23580664042638        0.52247168943404        0.41789339724674
o            1.56518196023959       -1.10689607044124       -1.88076566250653
c           -0.50568870300967       -2.06649167752099        0.00327190961759
c            3.38615835079661        0.98867607379904        0.91596153459414
c           -2.34672651462153        0.31318243093497        0.10800641064828
c           -3.37162509024112       -0.04089225074203        0.90532547943469
h           -1.05054065189219        0.08273116782302        1.74639780616937
o           -0.95703523022323       -2.59217977945303        1.25830814458121
c           -2.61281354286033        0.69993203271405       -1.33494902192951
h           -1.18047623063397        2.55215923374901        0.80946499156904
h            0.23322642512015        1.93202240167306        1.64947227870252
h           -0.03087788318627        2.46984290144889       -1.35710317872768
h            1.14446426811890        3.10691867636097       -0.19986170135342
h            2.22415302089561        1.36937195775465       -1.61422976189925
h           -0.10540510829521        0.13769412731600       -1.98135650972211
h            1.94294103378267       -1.57196284523296        0.89379618603792
h            1.17175465254181       -0.48681757232320        2.05862614389916
h            1.02628873727097       -1.81485336298581       -2.28700405245885
h            0.26503903460307       -2.77026288034206       -0.34615277243917
h           -1.32312541627669       -2.07288601968070       -0.74301618915581
h            3.82963856842974        0.57884807044408        1.82701342915690
h            3.93171640489005        1.80220765542050        0.43112414253552
h           -4.40129636636190       -0.06715942472828        0.54123866869171
h           -3.22639477253635       -0.29319934200308        1.95935365931398
h           -1.80424898851500       -2.15339202650132        1.47602332101307
h           -2.15315930796199        1.66867055027250       -1.58574111522069
h           -2.20438386922915       -0.04048460052173       -2.04096876605842
h           -3.69274150601179        0.77746066488884       -1.52707753852807
