 Entering Gaussian System
 *********************************************
 Gaussian 98:
 frequency output generated by the xtb code
 *********************************************
                         Standard orientation:
 --------------------------------------------------------------------
  Center     Atomic     Atomic              Coordinates (Angstroms)
  Number     Number      Type              X           Y           Z
 --------------------------------------------------------------------
    1          6             0        0.009400   -0.757175   -0.044293
    2          6             0        0.625747    0.476493   -0.766601
    3          6             0       -0.422459    1.602171   -0.894396
    4          6             0       -1.303178    1.811196    0.338943
    5          6             0       -1.810143    0.469333    0.875141
    6          6             0       -0.613048   -0.390735    1.319026
    7          6             0       -1.252003   -1.202595   -0.813167
    8          6             0       -2.368420   -0.354296   -0.254026
    9          8             0        0.243805    0.158883    2.280500
   10          6             0        1.007167   -1.908989    0.124839
   11          6             0       -3.616479   -0.337761   -0.685094
   12          6             0        1.959896    0.966143   -0.231550
   13          6             0        2.115416    1.973743    0.619123
   14          1             0        0.847786    0.131395   -1.784659
   15          8             0        1.540335   -2.390655   -1.091970
   16          6             0        3.170601    0.332632   -0.857441
   17          1             0        0.089579    2.533380   -1.143907
   18          1             0       -1.081092    1.362674   -1.731533
   19          1             0       -0.770447    2.327273    1.138730
   20          1             0       -2.155823    2.434352    0.060574
   21          1             0       -2.527198    0.631826    1.681912
   22          1             0       -0.997261   -1.306435    1.789222
   23          1             0       -1.156013   -1.083711   -1.892956
   24          1             0       -1.464484   -2.255988   -0.607553
   25          1             0        0.793607    0.830421    1.847696
   26          1             0        0.510076   -2.727836    0.664513
   27          1             0        1.858559   -1.584709    0.726569
   28          1             0       -3.940367   -0.946868   -1.512749
   29          1             0       -4.365117    0.285986   -0.227163
   30          1             0        3.100916    2.293046    0.917177
   31          1             0        1.307624    2.554821    1.028733
   32          1             0        0.808162   -2.706092   -1.636967
   33          1             0        3.029923   -0.727856   -1.039868
   34          1             0        3.353137    0.806958   -1.823522
   35          1             0        4.052784    0.477695   -0.238793
 --------------------------------------------------------------------
     1 basis functions        1 primitive gaussians
     1 alpha electrons        1 beta electrons
 
 Harmonic frequencies (cm**-1), IR intensities (km*mol⁻¹),
 Raman scattering activities (A**4/amu), Raman depolarization ratios,
 reduced masses (AMU), force constants (mDyne/A) and normal coordinates:
                      1                      2                      3
                        a                      a                      a 
 Frequencies --    65.5279                98.3207               121.2251
 Red. masses --     9.2071                 9.3418                 9.4565
 Frc consts  --     0.0000                 0.0000                 0.0000
 IR Inten    --     0.1885                 1.0548                 1.8985
 Raman Activ --     0.0000                 0.0000                 0.0000
 Depolar     --     0.0000                 0.0000                 0.0000
 Atom AN      X      Y      Z        X      Y      Z        X      Y      Z
   1   6    -0.00  -0.01   0.08    -0.02   0.07  -0.03     0.08   0.09   0.04
   2   6    -0.06  -0.01   0.03     0.09   0.03  -0.01     0.02   0.13   0.06
   3   6    -0.03   0.03   0.11     0.15   0.07  -0.08     0.01   0.14   0.15
   4   6    -0.02  -0.01   0.12     0.04   0.08  -0.16    -0.09   0.00   0.11
   5   6    -0.06  -0.04   0.01    -0.03   0.13  -0.11    -0.07  -0.06  -0.03
   6   6    -0.07  -0.03   0.06    -0.09   0.07  -0.06    -0.00   0.05   0.02
   7   6     0.03  -0.08   0.07    -0.00   0.14  -0.12     0.15   0.01  -0.02
   8   6     0.03   0.02  -0.08    -0.06  -0.01   0.01     0.06  -0.09  -0.07
   9   8    -0.14  -0.05   0.12    -0.17  -0.02   0.04    -0.12   0.23   0.04
  10   6     0.08   0.07   0.15    -0.07   0.05   0.01     0.10   0.11  -0.00
  11   6     0.11   0.18  -0.30    -0.18  -0.42   0.34     0.07  -0.29  -0.12
  12   6     0.01  -0.03  -0.12     0.10  -0.06   0.03     0.07   0.02  -0.01
  13   6     0.12  -0.21   0.07     0.14  -0.25   0.25     0.20  -0.02   0.01
  14   1    -0.05  -0.01   0.00     0.03  -0.00   0.00    -0.02   0.05   0.01
  15   8     0.10   0.00   0.21     0.05   0.09   0.06    -0.44  -0.22  -0.11
  16   6    -0.11   0.15  -0.51     0.05   0.06  -0.17    -0.00  -0.08  -0.08
  17   1     0.00   0.01   0.05     0.06   0.02  -0.00     0.00   0.05   0.08
  18   1    -0.01   0.03   0.03     0.06   0.03  -0.04     0.02   0.07   0.02
  19   1    -0.00  -0.02   0.04    -0.00   0.03  -0.04    -0.04  -0.01   0.05
  20   1     0.00   0.01   0.04     0.02   0.03  -0.07    -0.03   0.00   0.03
  21   1    -0.03  -0.03  -0.01    -0.01   0.06  -0.04    -0.04  -0.04  -0.02
  22   1    -0.02  -0.01   0.01    -0.05   0.02  -0.04     0.02   0.01   0.01
  23   1     0.02  -0.06   0.02     0.00   0.10  -0.03     0.06   0.01  -0.00
  24   1     0.00  -0.01   0.05     0.01   0.03  -0.09     0.06  -0.00  -0.01
  25   1    -0.01  -0.03   0.03    -0.01  -0.02   0.03    -0.03   0.05   0.00
  26   1     0.04   0.02   0.07    -0.04   0.01  -0.02     0.07   0.07   0.10
  27   1     0.02   0.05   0.03    -0.03   0.00   0.03     0.10   0.05  -0.11
  28   1     0.05   0.07  -0.11    -0.07  -0.17   0.14     0.06  -0.10  -0.04
  29   1     0.03   0.07  -0.12    -0.07  -0.16   0.13    -0.01  -0.11  -0.05
  30   1     0.04  -0.06  -0.01     0.04  -0.09   0.08     0.07  -0.03  -0.01
  31   1     0.05  -0.10   0.10     0.04  -0.09   0.11     0.07   0.01   0.01
  32   1     0.03  -0.03   0.06     0.02   0.04  -0.01    -0.17  -0.08   0.07
  33   1     0.02   0.02  -0.06     0.06  -0.00   0.03    -0.11   0.03  -0.23
  34   1    -0.19  -0.01  -0.20    -0.10  -0.04  -0.10     0.14   0.14   0.08
  35   1     0.04   0.15  -0.27     0.06   0.11  -0.13    -0.03  -0.24   0.07
                      4                      5                      6
                        a                      a                      a 
 Frequencies --   138.8425               151.9233               162.3825
 Red. masses --    10.3332                 9.6503                 9.8441
 Frc consts  --     0.0000                 0.0000                 0.0000
 IR Inten    --     1.8009                 3.2946                 1.2039
 Raman Activ --     0.0000                 0.0000                 0.0000
 Depolar     --     0.0000                 0.0000                 0.0000
 Atom AN      X      Y      Z        X      Y      Z        X      Y      Z
   1   6    -0.05   0.03  -0.08     0.04  -0.00  -0.04    -0.00  -0.04   0.15
   2   6    -0.04   0.10   0.03     0.08   0.04   0.06     0.07  -0.09   0.14
   3   6    -0.03   0.16   0.25     0.04   0.02   0.07     0.07  -0.09   0.08
   4   6    -0.06  -0.02   0.26     0.03  -0.02   0.07    -0.03  -0.07   0.01
   5   6    -0.10  -0.09   0.02     0.02  -0.04  -0.00    -0.07  -0.06   0.02
   6   6    -0.05  -0.04  -0.06     0.02  -0.05  -0.04    -0.03   0.03   0.12
   7   6    -0.01   0.12  -0.18     0.06   0.12  -0.15     0.02  -0.06   0.11
   8   6    -0.06  -0.01  -0.07     0.03   0.02  -0.05    -0.01  -0.07   0.01
   9   8    -0.00   0.04  -0.17     0.07  -0.11  -0.06    -0.13   0.34   0.06
  10   6    -0.09   0.02   0.06    -0.12  -0.14   0.03    -0.07  -0.12  -0.09
  11   6    -0.08  -0.11  -0.00     0.01  -0.04   0.01     0.04  -0.07  -0.14
  12   6     0.05  -0.04  -0.08     0.04   0.18   0.05     0.10  -0.06   0.06
  13   6     0.20   0.11  -0.28    -0.03   0.29  -0.06     0.14   0.07  -0.11
  14   1    -0.04   0.07  -0.01     0.04   0.02   0.02     0.02  -0.04   0.05
  15   8     0.35   0.07   0.25    -0.28  -0.49   0.11    -0.17   0.35  -0.35
  16   6    -0.04  -0.33   0.02     0.03   0.24   0.01     0.07  -0.10   0.04
  17   1    -0.00   0.05   0.12     0.01   0.01   0.02     0.02  -0.03   0.03
  18   1    -0.01   0.09   0.06     0.01   0.01   0.02     0.04  -0.03   0.01
  19   1    -0.02  -0.05   0.11     0.01  -0.02   0.03    -0.02  -0.01   0.01
  20   1    -0.01   0.02   0.10     0.01   0.00   0.02    -0.00  -0.02  -0.02
  21   1    -0.04  -0.06   0.01     0.00  -0.02  -0.00    -0.03  -0.01  -0.00
  22   1     0.02  -0.02  -0.01     0.01  -0.02  -0.02     0.02   0.02   0.07
  23   1     0.00   0.09  -0.05     0.03   0.09  -0.04     0.02  -0.03   0.03
  24   1     0.00   0.02  -0.11     0.01   0.03  -0.10     0.01  -0.02   0.04
  25   1    -0.03   0.02  -0.06     0.00  -0.01  -0.01    -0.03   0.06  -0.02
  26   1    -0.07  -0.00  -0.04    -0.08   0.01   0.05    -0.03  -0.08  -0.10
  27   1    -0.08  -0.00   0.10    -0.02  -0.06  -0.01    -0.01  -0.10  -0.00
  28   1    -0.01  -0.02  -0.01     0.01  -0.00  -0.01     0.04  -0.03  -0.05
  29   1    -0.04  -0.07   0.02    -0.00  -0.04   0.02    -0.01  -0.02  -0.07
  30   1     0.07   0.01  -0.10    -0.02   0.12  -0.04     0.04   0.04  -0.06
  31   1     0.08   0.07  -0.10    -0.02   0.06  -0.01     0.04   0.03  -0.03
  32   1     0.14   0.03  -0.01    -0.09  -0.09   0.04    -0.06   0.18  -0.12
  33   1    -0.05  -0.10   0.07     0.11   0.01   0.25     0.11  -0.08   0.25
  34   1     0.00  -0.16  -0.02    -0.17  -0.13  -0.13    -0.14  -0.22  -0.11
  35   1    -0.01  -0.09  -0.00     0.07   0.31  -0.14     0.08   0.20  -0.12
                      7                      8                      9
                        a                      a                      a 
 Frequencies --   199.0667               231.1994               263.7566
 Red. masses --    11.8376                 8.7102                 8.3316
 Frc consts  --     0.0000                 0.0000                 0.0000
 IR Inten    --     5.5334                 4.2587                 5.5233
 Raman Activ --     0.0000                 0.0000                 0.0000
 Depolar     --     0.0000                 0.0000                 0.0000
 Atom AN      X      Y      Z        X      Y      Z        X      Y      Z
   1   6     0.01  -0.00  -0.09    -0.07  -0.13   0.04     0.09   0.06  -0.07
   2   6    -0.06   0.06  -0.04     0.11  -0.15   0.14     0.07   0.07  -0.04
   3   6    -0.08   0.06   0.05     0.11  -0.16   0.09    -0.04  -0.01  -0.04
   4   6    -0.16  -0.02   0.02     0.02  -0.13   0.02    -0.31  -0.16  -0.17
   5   6     0.01  -0.07   0.03    -0.08  -0.10   0.01    -0.01  -0.18   0.07
   6   6     0.16   0.10  -0.06    -0.06  -0.05   0.02     0.06  -0.05  -0.01
   7   6    -0.01  -0.04  -0.01    -0.10   0.04  -0.07     0.04   0.08  -0.08
   8   6     0.00  -0.06   0.02    -0.12  -0.01  -0.01    -0.03  -0.10   0.07
   9   8     0.31   0.45  -0.36    -0.07   0.29  -0.17    -0.25   0.07   0.19
  10   6    -0.02  -0.03  -0.05    -0.15  -0.22   0.01     0.14   0.08  -0.08
  11   6     0.02   0.05  -0.04    -0.15   0.13   0.06    -0.07   0.33   0.20
  12   6    -0.08  -0.05   0.10     0.12   0.02   0.06     0.10   0.00  -0.04
  13   6    -0.07  -0.27   0.37     0.11   0.08  -0.00     0.11  -0.03  -0.01
  14   1    -0.01   0.05  -0.02     0.04  -0.04   0.04     0.02   0.03  -0.01
  15   8     0.06  -0.15   0.02     0.10  -0.05   0.05     0.08  -0.15  -0.05
  16   6    -0.10  -0.03   0.07     0.18   0.34  -0.17     0.10  -0.09   0.02
  17   1    -0.02   0.03   0.04     0.03  -0.04   0.03    -0.03   0.02   0.04
  18   1    -0.01   0.04  -0.00     0.05  -0.05   0.01     0.04  -0.00  -0.05
  19   1    -0.08   0.02   0.01    -0.01  -0.04   0.02    -0.17   0.07  -0.07
  20   1    -0.07  -0.04  -0.01     0.02  -0.03  -0.02    -0.14  -0.16  -0.13
  21   1     0.01  -0.05   0.02    -0.02  -0.02   0.01     0.02  -0.06   0.04
  22   1     0.10   0.04   0.04     0.01  -0.00   0.05     0.05  -0.04  -0.03
  23   1    -0.02  -0.02  -0.01    -0.02   0.05  -0.01    -0.00   0.07  -0.02
  24   1     0.01  -0.01   0.01    -0.04   0.00  -0.07     0.04   0.01  -0.07
  25   1     0.12   0.02  -0.18     0.01  -0.00  -0.12    -0.22   0.20   0.13
  26   1    -0.03   0.00  -0.02    -0.07  -0.08  -0.06     0.07   0.04   0.03
  27   1    -0.01  -0.02   0.00    -0.06  -0.09   0.05     0.05   0.06  -0.06
  28   1     0.00   0.03  -0.02    -0.08   0.07   0.01    -0.12   0.19   0.02
  29   1     0.01   0.02  -0.01    -0.01   0.04   0.06     0.05   0.11   0.16
  30   1    -0.02  -0.13   0.16     0.04   0.07  -0.07     0.03  -0.02   0.02
  31   1    -0.01  -0.05   0.09     0.03  -0.01   0.05     0.03  -0.00  -0.02
  32   1     0.02  -0.03  -0.01     0.06   0.01  -0.05     0.02  -0.12   0.04
  33   1     0.01  -0.03   0.10     0.01   0.14  -0.28     0.04  -0.04   0.07
  34   1    -0.11  -0.08  -0.03     0.14   0.32   0.08     0.00  -0.09  -0.03
  35   1    -0.00   0.08  -0.04     0.02  -0.09   0.05     0.04   0.03  -0.02
                     10                     11                     12
                        a                      a                      a 
 Frequencies --   275.8208               283.5584               303.9252
 Red. masses --     9.4611                10.1858                 8.6543
 Frc consts  --     0.0000                 0.0000                 0.0000
 IR Inten    --    23.4053                 5.5660                16.1811
 Raman Activ --     0.0000                 0.0000                 0.0000
 Depolar     --     0.0000                 0.0000                 0.0000
 Atom AN      X      Y      Z        X      Y      Z        X      Y      Z
   1   6     0.00  -0.05  -0.08     0.14  -0.00   0.01     0.02   0.09   0.00
   2   6    -0.03  -0.06  -0.13    -0.05   0.03  -0.07     0.03  -0.04  -0.19
   3   6     0.08   0.07   0.11    -0.12  -0.04  -0.08     0.05   0.06   0.09
   4   6     0.29   0.02   0.26     0.11   0.05   0.06    -0.09  -0.07   0.05
   5   6     0.00  -0.00  -0.09     0.12   0.03   0.02    -0.03  -0.06   0.12
   6   6    -0.04  -0.02  -0.08     0.11   0.04   0.05     0.07   0.04   0.05
   7   6    -0.06  -0.13   0.04     0.15   0.14  -0.08     0.04   0.15  -0.05
   8   6    -0.02   0.04  -0.09     0.16   0.08  -0.01    -0.01  -0.02   0.09
   9   8    -0.36   0.28   0.01    -0.25   0.24   0.31     0.06   0.01   0.11
  10   6     0.18   0.07  -0.10    -0.11  -0.29  -0.10    -0.13   0.02   0.10
  11   6    -0.10   0.03   0.14     0.15  -0.04   0.03     0.06  -0.03  -0.09
  12   6    -0.03  -0.09  -0.09    -0.13   0.08  -0.05     0.09  -0.13  -0.31
  13   6    -0.22  -0.08  -0.06    -0.13  -0.01   0.05    -0.35  -0.24  -0.12
  14   1    -0.03  -0.01  -0.04    -0.01   0.01  -0.02    -0.05  -0.02  -0.07
  15   8     0.09  -0.12  -0.11     0.18  -0.21  -0.05    -0.14   0.05   0.14
  16   6     0.14   0.05   0.10    -0.24  -0.06  -0.08     0.35   0.06  -0.01
  17   1     0.04   0.01   0.03    -0.05  -0.02  -0.08     0.03   0.03   0.09
  18   1    -0.03   0.06   0.06    -0.08  -0.05   0.02     0.03   0.08  -0.00
  19   1     0.14  -0.12   0.12     0.08  -0.01  -0.00    -0.08   0.01   0.03
  20   1     0.13   0.11   0.15     0.03   0.03   0.06    -0.04  -0.05  -0.02
  21   1    -0.00  -0.01  -0.03     0.03  -0.00   0.01     0.00  -0.02   0.04
  22   1    -0.00  -0.01  -0.02     0.03   0.01   0.00     0.04  -0.01  -0.00
  23   1    -0.02  -0.11   0.00     0.06   0.10  -0.02     0.00   0.11  -0.01
  24   1    -0.03  -0.02   0.09     0.03   0.03  -0.09     0.03   0.03  -0.08
  25   1     0.02  -0.04  -0.03    -0.04   0.06   0.11     0.06  -0.03   0.03
  26   1     0.12   0.03   0.04    -0.15  -0.08  -0.14    -0.08   0.01   0.00
  27   1     0.07   0.09  -0.09    -0.05  -0.20   0.07    -0.04  -0.03   0.05
  28   1    -0.09  -0.01   0.08     0.06  -0.01   0.01     0.07   0.01  -0.06
  29   1     0.01   0.04   0.06     0.03  -0.04   0.02    -0.02  -0.05  -0.04
  30   1    -0.08  -0.00   0.02    -0.04  -0.03   0.04    -0.15  -0.01   0.07
  31   1    -0.09  -0.03  -0.06    -0.03   0.01   0.01    -0.18  -0.13  -0.11
  32   1     0.03  -0.23   0.08     0.06   0.15  -0.16    -0.06   0.26  -0.07
  33   1     0.12  -0.01   0.09    -0.14  -0.00  -0.07     0.16   0.01  -0.01
  34   1     0.02  -0.04  -0.00    -0.03   0.01  -0.00     0.17   0.02   0.01
  35   1     0.02   0.13   0.03    -0.06  -0.11  -0.01     0.04   0.06   0.08
                     13                     14                     15
                        a                      a                      a 
 Frequencies --   314.0208               337.0247               342.4544
 Red. masses --     8.0453                 8.6377                 4.8565
 Frc consts  --     0.0000                 0.0000                 0.0000
 IR Inten    --     8.7936                16.7468                90.0706
 Raman Activ --     0.0000                 0.0000                 0.0000
 Depolar     --     0.0000                 0.0000                 0.0000
 Atom AN      X      Y      Z        X      Y      Z        X      Y      Z
   1   6    -0.00  -0.08  -0.01    -0.00  -0.12   0.14    -0.05   0.00   0.05
   2   6    -0.04  -0.00   0.07    -0.03  -0.15   0.14     0.01  -0.07   0.04
   3   6     0.25   0.33   0.20     0.20   0.03   0.09    -0.02  -0.09   0.01
   4   6    -0.19   0.21  -0.10    -0.01  -0.01  -0.07    -0.05   0.02  -0.02
   5   6     0.04   0.13  -0.07     0.06  -0.03  -0.10    -0.03   0.08   0.15
   6   6     0.01   0.05  -0.02    -0.03  -0.04   0.06     0.02   0.05   0.10
   7   6    -0.07  -0.20   0.20     0.18   0.07  -0.25    -0.06   0.28  -0.02
   8   6     0.02   0.02   0.02     0.17  -0.01  -0.16    -0.08   0.13   0.13
   9   8     0.02  -0.09   0.04     0.05   0.06  -0.05     0.09   0.03   0.10
  10   6    -0.04  -0.20  -0.12     0.11   0.01   0.14    -0.03  -0.06  -0.11
  11   6     0.03  -0.06  -0.00     0.07   0.11   0.18     0.03  -0.13  -0.19
  12   6    -0.01  -0.06   0.03    -0.11  -0.13   0.10     0.01  -0.07  -0.01
  13   6    -0.12   0.06  -0.09    -0.30   0.05  -0.08    -0.07  -0.04  -0.03
  14   1    -0.04   0.03   0.00    -0.01  -0.06   0.05    -0.00  -0.04   0.02
  15   8     0.17  -0.18  -0.09    -0.11   0.22  -0.01     0.12   0.06  -0.14
  16   6    -0.01   0.04  -0.05    -0.23  -0.11  -0.10     0.04  -0.01  -0.02
  17   1     0.18   0.07   0.20     0.13  -0.01   0.10    -0.01  -0.03  -0.02
  18   1     0.14   0.22  -0.04     0.10   0.09  -0.03    -0.00  -0.04   0.01
  19   1    -0.18   0.15  -0.00    -0.07   0.03   0.00    -0.02   0.05  -0.02
  20   1    -0.09  -0.04  -0.13    -0.02  -0.04  -0.07    -0.02  -0.02  -0.04
  21   1     0.01   0.03  -0.02    -0.02  -0.02  -0.06     0.01   0.04   0.06
  22   1    -0.03   0.03  -0.00    -0.03   0.01   0.05     0.00   0.02   0.04
  23   1    -0.04  -0.16   0.05     0.13   0.14  -0.05     0.01   0.16   0.01
  24   1    -0.03  -0.04   0.16     0.02   0.00  -0.21    -0.03   0.06  -0.10
  25   1    -0.11   0.11   0.07     0.10  -0.10  -0.08     0.00   0.03   0.03
  26   1    -0.05  -0.06  -0.08     0.09  -0.01   0.06     0.01  -0.03  -0.04
  27   1    -0.03  -0.10   0.01     0.05   0.04  -0.00    -0.02   0.00  -0.02
  28   1     0.02  -0.07   0.04    -0.08   0.08   0.06     0.15  -0.06  -0.09
  29   1     0.00   0.02  -0.05     0.09   0.04   0.15    -0.10  -0.12  -0.12
  30   1    -0.05   0.06  -0.03    -0.11   0.08  -0.02    -0.03   0.01  -0.00
  31   1    -0.06  -0.01  -0.03    -0.13  -0.03  -0.05    -0.04  -0.03  -0.02
  32   1     0.07  -0.03  -0.07    -0.04  -0.08   0.09     0.14  -0.68   0.23
  33   1    -0.00   0.02  -0.05    -0.09  -0.02  -0.06     0.02  -0.00  -0.01
  34   1    -0.01   0.05   0.00    -0.11  -0.00  -0.02     0.00   0.00  -0.01
  35   1    -0.00  -0.01  -0.01    -0.03  -0.07  -0.07     0.01   0.01  -0.01
                     16                     17                     18
                        a                      a                      a 
 Frequencies --   373.4404               401.6663               406.9220
 Red. masses --     3.3279                 7.9664                 9.4198
 Frc consts  --     0.0000                 0.0000                 0.0000
 IR Inten    --   152.4420                51.0852                 4.1174
 Raman Activ --     0.0000                 0.0000                 0.0000
 Depolar     --     0.0000                 0.0000                 0.0000
 Atom AN      X      Y      Z        X      Y      Z        X      Y      Z
   1   6     0.04   0.06   0.03    -0.03  -0.04   0.00     0.03  -0.13   0.09
   2   6     0.01   0.10   0.01     0.03  -0.09   0.09    -0.08  -0.05   0.16
   3   6    -0.04   0.08  -0.03     0.11  -0.07   0.00    -0.31  -0.17   0.14
   4   6    -0.16  -0.01  -0.10     0.04  -0.02  -0.05    -0.27   0.30   0.10
   5   6    -0.04  -0.01  -0.02    -0.04   0.06   0.11    -0.06   0.20  -0.04
   6   6    -0.01   0.01   0.01    -0.02  -0.02   0.03    -0.12   0.07  -0.02
   7   6     0.02  -0.02   0.07    -0.15   0.21   0.01     0.10   0.04  -0.06
   8   6    -0.04  -0.06   0.03    -0.20   0.09   0.18     0.16   0.23  -0.19
   9   8    -0.13   0.02   0.18    -0.02   0.05   0.00     0.01  -0.06  -0.10
  10   6    -0.01  -0.05  -0.06     0.31   0.17  -0.11     0.17  -0.08   0.00
  11   6    -0.03   0.05   0.02    -0.10  -0.05  -0.15     0.06  -0.02   0.11
  12   6     0.07   0.11  -0.07    -0.02  -0.12   0.18     0.05  -0.13  -0.04
  13   6     0.08   0.08  -0.02    -0.08   0.07  -0.04     0.06  -0.11  -0.07
  14   1    -0.00   0.02   0.00     0.03  -0.02   0.03    -0.06   0.01   0.03
  15   8     0.07  -0.07  -0.04     0.18  -0.31  -0.05     0.07  -0.10  -0.08
  16   6     0.04  -0.06   0.01    -0.10  -0.07  -0.03     0.21   0.03   0.03
  17   1    -0.02   0.03   0.02     0.05  -0.03   0.01    -0.14  -0.07  -0.13
  18   1     0.02   0.02  -0.03     0.05  -0.01  -0.02    -0.13  -0.19   0.11
  19   1    -0.06  -0.00  -0.02     0.01   0.01  -0.02    -0.10   0.14   0.01
  20   1    -0.06  -0.03  -0.04     0.02  -0.01  -0.04    -0.09   0.04  -0.03
  21   1    -0.00  -0.00   0.00     0.03   0.06   0.06    -0.06  -0.02  -0.03
  22   1    -0.04   0.00  -0.03    -0.01  -0.00   0.01    -0.09   0.05   0.01
  23   1    -0.00  -0.03   0.02    -0.07   0.15   0.01     0.08  -0.01  -0.02
  24   1     0.03  -0.01   0.04    -0.04   0.04  -0.09    -0.04   0.03  -0.01
  25   1     0.61  -0.62  -0.12     0.07  -0.07  -0.03     0.01  -0.03  -0.04
  26   1    -0.03  -0.01  -0.04     0.20   0.06   0.09     0.09  -0.03   0.02
  27   1     0.00  -0.06   0.00     0.12   0.16  -0.13     0.07   0.00  -0.04
  28   1    -0.03   0.03   0.00     0.09  -0.04  -0.07    -0.02  -0.03   0.07
  29   1     0.01   0.03   0.02    -0.12  -0.07  -0.11     0.03  -0.01   0.06
  30   1     0.02   0.04  -0.01    -0.03   0.06  -0.03     0.01  -0.01  -0.03
  31   1     0.00  -0.03   0.03    -0.04   0.01  -0.02     0.01  -0.05  -0.02
  32   1     0.04  -0.07  -0.00    -0.04   0.37  -0.16    -0.01   0.10  -0.05
  33   1    -0.02  -0.02   0.03    -0.01  -0.02  -0.03     0.13  -0.00   0.01
  34   1     0.04  -0.05  -0.01    -0.09   0.01  -0.01     0.07   0.02   0.01
  35   1     0.01  -0.03   0.01     0.01  -0.02  -0.06     0.03   0.07   0.04
                     19                     20                     21
                        a                      a                      a 
 Frequencies --   465.5840               505.6577               511.1259
 Red. masses --     7.6635                10.8931                10.3916
 Frc consts  --     0.0000                 0.0000                 0.0000
 IR Inten    --     0.4332                 9.7175                 3.4246
 Raman Activ --     0.0000                 0.0000                 0.0000
 Depolar     --     0.0000                 0.0000                 0.0000
 Atom AN      X      Y      Z        X      Y      Z        X      Y      Z
   1   6     0.12   0.13  -0.07     0.03   0.01   0.23    -0.06   0.12  -0.15
   2   6     0.29   0.09   0.06    -0.02  -0.01   0.02    -0.01   0.02   0.01
   3   6     0.03  -0.19   0.11     0.03   0.02  -0.03    -0.07  -0.02   0.01
   4   6    -0.02  -0.02   0.08     0.03  -0.10  -0.02    -0.03  -0.02   0.03
   5   6    -0.07   0.00   0.00    -0.16  -0.07  -0.16     0.03  -0.07  -0.11
   6   6     0.01   0.04  -0.13     0.01   0.10   0.25     0.22   0.18   0.01
   7   6     0.02   0.02   0.13     0.04   0.08   0.03    -0.04  -0.07  -0.11
   8   6    -0.05   0.11  -0.08    -0.19   0.09  -0.36    -0.02  -0.02  -0.21
   9   8    -0.02  -0.05  -0.11     0.36  -0.02   0.20     0.19   0.05   0.36
  10   6    -0.03   0.03  -0.00     0.12  -0.07  -0.01    -0.16   0.15  -0.10
  11   6    -0.09  -0.01   0.01    -0.35  -0.01  -0.05    -0.10  -0.03  -0.03
  12   6     0.30   0.08   0.08    -0.01   0.21  -0.23    -0.02  -0.41   0.38
  13   6    -0.27   0.13   0.14    -0.01  -0.04   0.08     0.02   0.02  -0.16
  14   1     0.08   0.05   0.01    -0.03  -0.06   0.02     0.04   0.06  -0.01
  15   8    -0.01   0.04   0.01     0.09  -0.11  -0.08    -0.01  -0.01   0.06
  16   6     0.01  -0.23  -0.22    -0.01  -0.02   0.02     0.03   0.05  -0.01
  17   1    -0.09  -0.03  -0.08     0.03   0.01   0.05    -0.06  -0.00  -0.05
  18   1    -0.01  -0.19   0.09     0.03   0.06  -0.04    -0.03  -0.07   0.03
  19   1    -0.04   0.01   0.03     0.04  -0.10   0.02     0.01  -0.04   0.02
  20   1     0.01  -0.01  -0.03     0.05   0.04   0.03    -0.00   0.02   0.03
  21   1    -0.01  -0.03   0.01    -0.10  -0.01  -0.09    -0.01  -0.06  -0.04
  22   1     0.02  -0.01  -0.06     0.01   0.05   0.11     0.09   0.04  -0.01
  23   1    -0.02  -0.16   0.02     0.11  -0.04   0.01     0.00  -0.10  -0.04
  24   1     0.01   0.03   0.20    -0.02   0.04   0.05     0.00  -0.01   0.04
  25   1    -0.03   0.03   0.00    -0.02   0.10   0.07     0.13  -0.00   0.17
  26   1    -0.05   0.02  -0.02     0.05  -0.03  -0.01    -0.07   0.06  -0.02
  27   1    -0.01  -0.03   0.02     0.05  -0.03  -0.02    -0.06   0.04  -0.01
  28   1    -0.04  -0.00   0.01    -0.17   0.04  -0.02    -0.08   0.01  -0.01
  29   1    -0.03  -0.01   0.02    -0.06  -0.02   0.07     0.00  -0.00   0.03
  30   1    -0.16   0.17   0.17    -0.00  -0.04   0.04     0.01   0.02  -0.07
  31   1    -0.22  -0.06  -0.09     0.00  -0.01   0.03     0.00   0.03  -0.09
  32   1     0.00  -0.02   0.01     0.01   0.03  -0.04     0.02  -0.00  -0.01
  33   1    -0.14  -0.05  -0.07    -0.05  -0.01   0.06     0.12   0.02  -0.11
  34   1    -0.04  -0.08  -0.07     0.08  -0.08  -0.02    -0.14   0.16   0.04
  35   1     0.08  -0.18  -0.14    -0.03  -0.02   0.05     0.04   0.06  -0.07
                     22                     23                     24
                        a                      a                      a 
 Frequencies --   530.6783               573.3639               602.7502
 Red. masses --     8.4594                 9.8851                 9.7458
 Frc consts  --     0.0000                 0.0000                 0.0000
 IR Inten    --     7.2985                 5.7710                 4.3778
 Raman Activ --     0.0000                 0.0000                 0.0000
 Depolar     --     0.0000                 0.0000                 0.0000
 Atom AN      X      Y      Z        X      Y      Z        X      Y      Z
   1   6     0.03  -0.03  -0.07    -0.10   0.20   0.17    -0.33  -0.13  -0.07
   2   6    -0.00  -0.09  -0.10    -0.08   0.16   0.11    -0.06   0.02   0.19
   3   6     0.06  -0.07   0.00    -0.06   0.17  -0.24    -0.01   0.03  -0.01
   4   6    -0.06  -0.17  -0.02     0.07  -0.17  -0.09     0.05   0.06  -0.01
   5   6     0.15  -0.14   0.14    -0.11  -0.07   0.10     0.22  -0.04  -0.00
   6   6     0.13  -0.20  -0.05    -0.28  -0.17   0.25     0.02  -0.14   0.21
   7   6    -0.09   0.13   0.05     0.16   0.09   0.13    -0.25  -0.22  -0.24
   8   6     0.11   0.54  -0.25     0.17   0.07  -0.04     0.12   0.02  -0.07
   9   8    -0.10   0.06   0.00     0.00  -0.02  -0.19     0.06   0.12   0.17
  10   6    -0.00   0.02   0.06    -0.12   0.14  -0.18    -0.17   0.20  -0.15
  11   6    -0.00  -0.11   0.07     0.16  -0.01   0.09     0.12  -0.05   0.01
  12   6    -0.11   0.02  -0.02     0.05  -0.18   0.11     0.15   0.21  -0.13
  13   6     0.07  -0.00  -0.02    -0.05  -0.02  -0.06    -0.03   0.04   0.13
  14   1     0.01  -0.02  -0.03    -0.02  -0.03   0.06    -0.02  -0.01   0.05
  15   8    -0.07   0.08   0.07     0.10  -0.16  -0.03     0.02  -0.04   0.05
  16   6    -0.09   0.06   0.06     0.09  -0.03  -0.04     0.12  -0.09  -0.07
  17   1     0.05  -0.01   0.09    -0.03   0.07  -0.02    -0.02  -0.00  -0.07
  18   1     0.05   0.06  -0.05     0.02   0.05  -0.10    -0.02  -0.06   0.03
  19   1    -0.08   0.08  -0.05     0.09  -0.09  -0.05    -0.03   0.09  -0.02
  20   1    -0.08  -0.17  -0.07     0.01  -0.01   0.07    -0.04  -0.07  -0.02
  21   1     0.06  -0.07   0.06    -0.09   0.04  -0.04     0.02  -0.00  -0.04
  22   1     0.07  -0.08  -0.02    -0.05  -0.05   0.09     0.00  -0.01   0.11
  23   1    -0.00  -0.21  -0.01     0.07  -0.08   0.03    -0.06  -0.03  -0.07
  24   1    -0.16   0.11   0.25     0.04   0.04   0.14    -0.10  -0.06  -0.10
  25   1     0.04  -0.06  -0.03    -0.08  -0.01  -0.16    -0.01   0.02  -0.00
  26   1     0.01   0.01   0.03    -0.08   0.05  -0.07     0.05   0.05   0.03
  27   1    -0.01   0.03   0.01    -0.03  -0.01  -0.03    -0.07   0.19  -0.08
  28   1     0.10   0.00  -0.05     0.04   0.08  -0.03     0.05  -0.07   0.04
  29   1    -0.10  -0.19   0.07     0.05  -0.07   0.11     0.03   0.01  -0.05
  30   1     0.05  -0.05  -0.06    -0.04   0.01   0.04    -0.04   0.14   0.01
  31   1     0.07   0.02   0.06    -0.05   0.00  -0.09    -0.07  -0.10   0.08
  32   1    -0.03   0.03   0.03     0.06  -0.01  -0.07     0.03   0.03  -0.04
  33   1    -0.01   0.01   0.02     0.08  -0.01  -0.06    -0.06  -0.03   0.05
  34   1    -0.01   0.01   0.02    -0.03   0.06   0.01     0.12  -0.12  -0.05
  35   1    -0.04   0.03   0.03     0.03   0.02  -0.03     0.03  -0.07   0.00
                     25                     26                     27
                        a                      a                      a 
 Frequencies --   612.3636               692.4327               705.8690
 Red. masses --    10.0558                 6.9140                 2.5912
 Frc consts  --     0.0000                 0.0000                 0.0000
 IR Inten    --     2.8597                 2.5396                 1.0911
 Raman Activ --     0.0000                 0.0000                 0.0000
 Depolar     --     0.0000                 0.0000                 0.0000
 Atom AN      X      Y      Z        X      Y      Z        X      Y      Z
   1   6     0.10  -0.16   0.09     0.09   0.21   0.11    -0.04  -0.02   0.03
   2   6    -0.10   0.22   0.13    -0.03   0.01   0.19     0.07   0.01  -0.20
   3   6    -0.20   0.33  -0.22     0.09  -0.07   0.11     0.03  -0.06   0.04
   4   6     0.03   0.09  -0.05     0.09   0.04   0.01    -0.03  -0.09   0.04
   5   6     0.27  -0.10  -0.08     0.22  -0.07  -0.12    -0.02   0.00   0.03
   6   6     0.15  -0.28  -0.00     0.10  -0.20  -0.01    -0.08  -0.08   0.13
   7   6    -0.08   0.03   0.03     0.16   0.15   0.17    -0.05  -0.01   0.01
   8   6    -0.18   0.05  -0.02    -0.11  -0.05  -0.05     0.05   0.12  -0.07
   9   8    -0.05   0.05  -0.02    -0.05   0.00  -0.10     0.03   0.00   0.04
  10   6     0.15  -0.23   0.20    -0.12   0.20  -0.13    -0.01  -0.00  -0.01
  11   6    -0.21  -0.00  -0.08    -0.15   0.01  -0.07     0.03  -0.01   0.03
  12   6     0.12  -0.11   0.11    -0.12  -0.06  -0.09     0.03   0.04   0.01
  13   6    -0.03   0.02  -0.01    -0.04  -0.14  -0.08     0.06   0.09  -0.01
  14   1    -0.03   0.07   0.03    -0.03  -0.03   0.06     0.00  -0.02  -0.05
  15   8    -0.07   0.10   0.02    -0.00  -0.04   0.05     0.01  -0.01  -0.00
  16   6     0.15  -0.06  -0.07    -0.09   0.05   0.05    -0.02   0.01   0.00
  17   1    -0.07   0.09  -0.11    -0.01  -0.04  -0.10    -0.01   0.00   0.04
  18   1    -0.06   0.03  -0.04    -0.02  -0.13   0.09    -0.00   0.01   0.01
  19   1     0.05   0.01  -0.03    -0.09   0.12   0.00    -0.07   0.05   0.00
  20   1    -0.06  -0.01   0.11    -0.04  -0.11  -0.09    -0.03  -0.09  -0.06
  21   1     0.14  -0.01   0.03     0.09  -0.02  -0.01    -0.06  -0.02  -0.04
  22   1     0.04  -0.06   0.02     0.04  -0.07  -0.02    -0.02  -0.02   0.04
  23   1     0.01   0.06   0.02     0.07   0.07   0.05    -0.01   0.09   0.01
  24   1    -0.05   0.00  -0.05     0.14   0.02   0.02    -0.01  -0.02  -0.09
  25   1    -0.04   0.01  -0.04    -0.03  -0.02  -0.07     0.02  -0.04  -0.05
  26   1     0.04  -0.08   0.03    -0.11   0.09  -0.06     0.01  -0.01   0.01
  27   1     0.05  -0.09   0.06    -0.04  -0.02   0.01    -0.00   0.01  -0.01
  28   1    -0.03  -0.05  -0.00    -0.14  -0.22   0.18    -0.07  -0.32   0.28
  29   1    -0.09   0.01  -0.08     0.04   0.24  -0.20     0.09   0.31  -0.27
  30   1    -0.05   0.04   0.10     0.02   0.06  -0.22     0.01  -0.30   0.38
  31   1    -0.07   0.00  -0.11     0.01  -0.12   0.14     0.03   0.27  -0.32
  32   1    -0.05  -0.00   0.07     0.03  -0.02  -0.02     0.01  -0.00  -0.01
  33   1     0.07  -0.01  -0.05     0.01   0.00   0.04     0.03   0.01  -0.07
  34   1    -0.02   0.03  -0.01     0.05  -0.02   0.01    -0.10   0.08   0.02
  35   1     0.06  -0.00  -0.05    -0.08   0.04   0.08     0.04   0.02  -0.06
                     28                     29                     30
                        a                      a                      a 
 Frequencies --   724.9351               792.4518               835.2668
 Red. masses --     4.1991                 7.8204                 8.6354
 Frc consts  --     0.0000                 0.0000                 0.0000
 IR Inten    --     7.5242                14.1300                 2.6543
 Raman Activ --     0.0000                 0.0000                 0.0000
 Depolar     --     0.0000                 0.0000                 0.0000
 Atom AN      X      Y      Z        X      Y      Z        X      Y      Z
   1   6    -0.02   0.02   0.05     0.03   0.03  -0.08    -0.01  -0.03   0.09
   2   6     0.04   0.03   0.03     0.19   0.10  -0.44    -0.07  -0.36  -0.31
   3   6     0.17  -0.01   0.14     0.10   0.14  -0.07    -0.14  -0.07  -0.11
   4   6     0.12   0.24   0.02     0.09   0.11   0.12    -0.11   0.29   0.13
   5   6     0.14   0.00  -0.03    -0.13   0.01   0.20     0.08   0.02   0.06
   6   6    -0.03  -0.15   0.10    -0.19  -0.13   0.27     0.08  -0.13   0.02
   7   6     0.05  -0.05  -0.04     0.01  -0.10  -0.11     0.19   0.00   0.16
   8   6    -0.10  -0.19   0.02    -0.02  -0.01  -0.05    -0.05  -0.05  -0.08
   9   8    -0.02   0.01   0.01     0.08   0.05   0.06    -0.04  -0.00  -0.03
  10   6    -0.05   0.06  -0.05     0.11  -0.10   0.10    -0.15   0.13  -0.12
  11   6    -0.10  -0.00  -0.07    -0.07  -0.02  -0.02    -0.11  -0.04  -0.07
  12   6    -0.06   0.04  -0.10    -0.00  -0.10   0.13     0.06   0.05   0.14
  13   6     0.03  -0.02  -0.06    -0.01   0.02  -0.02     0.01   0.20   0.12
  14   1    -0.04  -0.01   0.00     0.08   0.06  -0.13     0.01  -0.15  -0.06
  15   8    -0.00  -0.01   0.02     0.00   0.00  -0.04    -0.01  -0.00   0.05
  16   6    -0.09   0.05   0.03    -0.04   0.02   0.04     0.17  -0.07  -0.05
  17   1    -0.01  -0.03  -0.19    -0.09   0.06  -0.17     0.15  -0.08   0.11
  18   1    -0.05  -0.16   0.16    -0.09  -0.08   0.10    -0.05   0.22  -0.09
  19   1    -0.12   0.18   0.03    -0.13   0.20   0.03     0.03   0.09  -0.01
  20   1    -0.01  -0.06  -0.14    -0.03  -0.11  -0.12    -0.05   0.08   0.08
  21   1     0.06   0.05  -0.00    -0.11   0.04  -0.02     0.06  -0.07   0.06
  22   1    -0.02  -0.03   0.03    -0.00  -0.05   0.07     0.02  -0.04  -0.01
  23   1     0.03  -0.08  -0.02    -0.01  -0.03  -0.03     0.16   0.08   0.06
  24   1     0.04  -0.01   0.04     0.01  -0.03  -0.03     0.07  -0.02  -0.05
  25   1     0.00  -0.04  -0.07    -0.05  -0.02  -0.12    -0.03  -0.01  -0.05
  26   1    -0.02   0.02  -0.01     0.00  -0.04  -0.01    -0.01   0.04   0.01
  27   1    -0.02   0.01  -0.01     0.04  -0.08   0.05    -0.04   0.08  -0.05
  28   1     0.01   0.28  -0.25    -0.05  -0.01   0.01    -0.10   0.07  -0.05
  29   1    -0.09  -0.26   0.23     0.00   0.04  -0.02     0.01  -0.01   0.06
  30   1     0.01  -0.27   0.25     0.02   0.14  -0.22     0.01   0.02   0.05
  31   1     0.03   0.19  -0.25     0.01  -0.15   0.24     0.03   0.04   0.11
  32   1     0.01  -0.00  -0.01    -0.03   0.00   0.03     0.04  -0.01  -0.05
  33   1     0.03   0.01  -0.02    -0.05   0.01   0.01    -0.03  -0.01  -0.02
  34   1    -0.05   0.06   0.02    -0.03  -0.00   0.00    -0.01  -0.02  -0.03
  35   1    -0.03   0.05   0.01     0.01  -0.03  -0.01     0.12  -0.10  -0.10
                     31                     32                     33
                        a                      a                      a 
 Frequencies --   879.7937               890.5226               897.7683
 Red. masses --     8.0684                 4.4195                 7.1129
 Frc consts  --     0.0000                 0.0000                 0.0000
 IR Inten    --     1.4860                22.2218                25.5382
 Raman Activ --     0.0000                 0.0000                 0.0000
 Depolar     --     0.0000                 0.0000                 0.0000
 Atom AN      X      Y      Z        X      Y      Z        X      Y      Z
   1   6     0.08   0.07  -0.12     0.03   0.00  -0.07     0.01  -0.08  -0.08
   2   6    -0.00  -0.01   0.25     0.02  -0.04  -0.01     0.18  -0.07  -0.02
   3   6     0.02  -0.09  -0.12    -0.03  -0.04   0.01     0.10   0.09  -0.09
   4   6    -0.04   0.21  -0.03    -0.06   0.07  -0.02    -0.19   0.25  -0.01
   5   6    -0.16   0.09   0.45    -0.02   0.02  -0.07    -0.20  -0.12  -0.12
   6   6     0.02  -0.12  -0.00    -0.01  -0.13   0.08     0.11  -0.24   0.04
   7   6     0.14  -0.17  -0.34     0.00   0.13  -0.09    -0.09   0.25   0.12
   8   6    -0.06   0.01  -0.03    -0.02  -0.12   0.11     0.06  -0.05   0.03
   9   8     0.01   0.05   0.05     0.04   0.03   0.05     0.03   0.03   0.06
  10   6     0.09   0.05   0.01     0.01  -0.03   0.01    -0.09  -0.09  -0.03
  11   6    -0.14  -0.05  -0.02     0.13   0.33  -0.27     0.12  -0.10   0.06
  12   6    -0.01   0.02  -0.08    -0.00   0.00  -0.00     0.02   0.03  -0.08
  13   6    -0.00  -0.09  -0.00    -0.01  -0.00   0.01     0.02  -0.18   0.13
  14   1     0.02  -0.02   0.08     0.00  -0.00  -0.01     0.06  -0.02  -0.00
  15   8    -0.02  -0.00  -0.00    -0.01   0.02   0.01    -0.02   0.05   0.07
  16   6    -0.05   0.02  -0.00     0.00  -0.00   0.00    -0.12   0.03   0.06
  17   1     0.12  -0.05   0.08     0.03  -0.02   0.04     0.02   0.00  -0.14
  18   1     0.12   0.06  -0.14     0.02   0.03  -0.02     0.02  -0.06   0.01
  19   1     0.16   0.06  -0.13     0.03  -0.03  -0.00     0.01  -0.11   0.08
  20   1     0.03   0.14   0.06     0.01   0.07   0.03     0.03   0.21   0.07
  21   1     0.01  -0.01   0.18    -0.03   0.01  -0.04    -0.12  -0.10  -0.08
  22   1     0.08  -0.08  -0.03     0.00  -0.03   0.03     0.08  -0.09   0.01
  23   1    -0.02  -0.20  -0.12    -0.09  -0.12  -0.05    -0.11   0.01   0.02
  24   1     0.09  -0.02   0.08     0.02   0.06   0.15    -0.02   0.08   0.10
  25   1     0.00  -0.01  -0.02    -0.02  -0.00  -0.05    -0.00  -0.00  -0.02
  26   1    -0.10   0.03  -0.08     0.01  -0.01   0.01     0.11  -0.04   0.10
  27   1     0.01  -0.10   0.08    -0.00   0.01   0.00    -0.02   0.14  -0.10
  28   1    -0.08  -0.02   0.01    -0.13  -0.44   0.38    -0.01   0.09  -0.05
  29   1     0.01   0.13  -0.12    -0.11  -0.38   0.33     0.14   0.14  -0.03
  30   1    -0.01   0.00   0.01     0.00  -0.00  -0.01     0.01   0.17  -0.22
  31   1    -0.02   0.04  -0.13     0.01   0.01   0.00    -0.01   0.14  -0.27
  32   1    -0.05   0.00   0.05    -0.01   0.00   0.01     0.04   0.01  -0.04
  33   1     0.02  -0.00   0.01    -0.00   0.00  -0.00    -0.01   0.01  -0.01
  34   1     0.02   0.01   0.01    -0.00   0.00  -0.00    -0.05   0.03   0.02
  35   1    -0.05   0.04   0.04     0.00  -0.00  -0.00    -0.03   0.03   0.01
                     34                     35                     36
                        a                      a                      a 
 Frequencies --   905.4648               917.7070               930.9297
 Red. masses --     4.6382                 6.5200                 6.3256
 Frc consts  --     0.0000                 0.0000                 0.0000
 IR Inten    --    15.7083                 5.8534                 4.9220
 Raman Activ --     0.0000                 0.0000                 0.0000
 Depolar     --     0.0000                 0.0000                 0.0000
 Atom AN      X      Y      Z        X      Y      Z        X      Y      Z
   1   6     0.04  -0.01  -0.08    -0.14  -0.12   0.05    -0.03  -0.02  -0.12
   2   6     0.05   0.01   0.08     0.08   0.05   0.09    -0.12   0.03  -0.04
   3   6     0.02  -0.03   0.02     0.10   0.18  -0.17    -0.14  -0.07   0.15
   4   6    -0.09   0.14  -0.07     0.06  -0.04   0.09     0.13  -0.12  -0.06
   5   6    -0.10  -0.04  -0.10    -0.10  -0.03   0.31     0.17   0.12  -0.03
   6   6     0.05  -0.18   0.05     0.07   0.19  -0.17    -0.13   0.04   0.08
   7   6    -0.07   0.16  -0.02     0.14  -0.01   0.07     0.17   0.29  -0.19
   8   6     0.03  -0.05   0.05    -0.00  -0.00  -0.08    -0.05  -0.16   0.07
   9   8     0.05   0.05   0.06    -0.06  -0.03  -0.06     0.02   0.02   0.04
  10   6     0.01  -0.03  -0.01    -0.21  -0.20  -0.02    -0.08  -0.22   0.04
  11   6     0.06  -0.07   0.06    -0.01  -0.01  -0.14    -0.05  -0.11  -0.01
  12   6    -0.02  -0.07   0.04     0.01  -0.01  -0.03    -0.06   0.02   0.04
  13   6    -0.05   0.21  -0.32     0.04   0.00  -0.12    -0.07   0.03   0.09
  14   1    -0.01   0.02   0.01     0.04  -0.02   0.04    -0.06   0.09  -0.04
  15   8    -0.02   0.03   0.03     0.01   0.04   0.03    -0.00   0.05   0.01
  16   6     0.00   0.03  -0.02    -0.09   0.03   0.02     0.13  -0.08  -0.05
  17   1     0.03  -0.02  -0.01    -0.05   0.07  -0.14    -0.00  -0.01   0.13
  18   1     0.03  -0.04  -0.01     0.00  -0.07   0.01    -0.03   0.07   0.01
  19   1     0.05  -0.08   0.01    -0.02   0.09  -0.01     0.01   0.05  -0.05
  20   1     0.05   0.16   0.04    -0.03  -0.08  -0.01    -0.01  -0.11  -0.05
  21   1    -0.07  -0.03  -0.06     0.05  -0.06   0.16     0.08   0.15  -0.00
  22   1     0.05  -0.05   0.02     0.06   0.03  -0.04    -0.10   0.05   0.05
  23   1    -0.12  -0.06  -0.03     0.15   0.00   0.03    -0.08  -0.25  -0.09
  24   1    -0.00   0.06   0.11     0.04  -0.01  -0.01     0.14   0.12   0.30
  25   1    -0.04   0.01  -0.04     0.06   0.01   0.12    -0.01  -0.01  -0.04
  26   1     0.02  -0.01   0.02     0.24  -0.08   0.21     0.17  -0.07   0.16
  27   1    -0.00   0.02  -0.01    -0.01   0.24  -0.22     0.00   0.15  -0.13
  28   1     0.02   0.07  -0.05    -0.19  -0.08   0.09    -0.07   0.08  -0.06
  29   1     0.08   0.11  -0.06     0.07  -0.01   0.11     0.09   0.18  -0.10
  30   1    -0.01  -0.36   0.36    -0.02  -0.06   0.13     0.02   0.01  -0.11
  31   1     0.01  -0.28   0.44    -0.05  -0.14   0.05     0.06   0.13   0.02
  32   1    -0.01   0.00   0.01     0.12  -0.01  -0.14     0.06  -0.00  -0.07
  33   1    -0.04   0.01   0.04    -0.00   0.00   0.02     0.05  -0.02  -0.03
  34   1     0.06  -0.05  -0.02     0.01  -0.01   0.01    -0.00  -0.00  -0.01
  35   1    -0.02  -0.02   0.03    -0.06   0.03   0.04     0.06  -0.02  -0.04
                     37                     38                     39
                        a                      a                      a 
 Frequencies --   942.2414               954.3258               957.2381
 Red. masses --     6.9839                 5.3339                 7.1496
 Frc consts  --     0.0000                 0.0000                 0.0000
 IR Inten    --     6.7159                 0.2257                10.8769
 Raman Activ --     0.0000                 0.0000                 0.0000
 Depolar     --     0.0000                 0.0000                 0.0000
 Atom AN      X      Y      Z        X      Y      Z        X      Y      Z
   1   6    -0.06   0.09   0.02     0.01  -0.02  -0.07     0.06  -0.12  -0.12
   2   6    -0.24  -0.11   0.12    -0.08   0.10  -0.05    -0.01   0.25   0.03
   3   6     0.12   0.12  -0.12    -0.12  -0.16   0.11     0.02  -0.09   0.19
   4   6     0.13   0.02   0.07     0.12  -0.03  -0.06     0.04  -0.03  -0.22
   5   6    -0.15  -0.13   0.11     0.03   0.14   0.06    -0.19   0.12   0.09
   6   6     0.07   0.11  -0.12     0.01  -0.08   0.03     0.10  -0.20  -0.01
   7   6    -0.19   0.17   0.01    -0.18   0.08   0.17     0.07  -0.17   0.20
   8   6     0.06  -0.07  -0.04     0.04  -0.05  -0.10     0.01   0.13  -0.06
   9   8    -0.02  -0.03  -0.02     0.01   0.02   0.01     0.03   0.04   0.06
  10   6     0.16   0.03   0.08     0.06   0.03   0.01    -0.07  -0.04  -0.09
  11   6     0.14  -0.11  -0.10     0.10  -0.21  -0.22    -0.01  -0.00  -0.05
  12   6    -0.12   0.05   0.05     0.10  -0.02  -0.00    -0.13   0.01   0.01
  13   6    -0.13   0.10   0.11     0.20  -0.03  -0.04    -0.23   0.02   0.05
  14   1    -0.07  -0.11   0.06    -0.02   0.11  -0.04    -0.02   0.23  -0.05
  15   8     0.03  -0.04  -0.06    -0.01  -0.00   0.00    -0.05   0.06   0.10
  16   6     0.24  -0.10  -0.12    -0.14   0.05   0.05     0.17  -0.09  -0.09
  17   1     0.06  -0.03  -0.19     0.02  -0.03   0.17    -0.07   0.02   0.07
  18   1    -0.07  -0.04   0.06     0.01   0.09  -0.04     0.07  -0.08   0.02
  19   1    -0.10   0.10   0.04     0.05   0.08  -0.08     0.10  -0.05  -0.09
  20   1    -0.01  -0.11  -0.10     0.04  -0.02  -0.07     0.12   0.12  -0.10
  21   1    -0.06  -0.07   0.01     0.03   0.10   0.02    -0.04   0.10   0.02
  22   1     0.11  -0.03  -0.06    -0.00  -0.02   0.00     0.07  -0.08  -0.03
  23   1    -0.13   0.00  -0.01    -0.10   0.12   0.05     0.11   0.17   0.08
  24   1    -0.09   0.06   0.05    -0.09   0.01  -0.06    -0.03  -0.08  -0.18
  25   1     0.05   0.00   0.08    -0.02  -0.00  -0.03    -0.01  -0.01  -0.04
  26   1    -0.08  -0.00  -0.10    -0.04   0.01  -0.05     0.03   0.01   0.05
  27   1     0.02  -0.12   0.12    -0.01  -0.04   0.06    -0.01   0.06  -0.07
  28   1    -0.19   0.01   0.04    -0.35   0.12  -0.03    -0.07   0.01   0.00
  29   1     0.21   0.07   0.12     0.30   0.06   0.25     0.01  -0.06   0.09
  30   1     0.05  -0.13  -0.08    -0.07   0.21   0.15     0.06  -0.17  -0.19
  31   1     0.12   0.22   0.07    -0.15  -0.21  -0.12     0.15   0.23   0.12
  32   1    -0.08   0.02   0.09    -0.04   0.01   0.05     0.04  -0.01  -0.03
  33   1     0.03  -0.03  -0.02     0.02   0.01   0.01     0.05  -0.03  -0.02
  34   1     0.06  -0.04  -0.04    -0.01   0.03   0.03     0.04  -0.03  -0.03
  35   1     0.09  -0.06  -0.06    -0.08   0.07   0.06     0.06  -0.03  -0.04
                     40                     41                     42
                        a                      a                      a 
 Frequencies --   980.4107              1031.8241              1038.6620
 Red. masses --     6.8290                 4.9848                 5.8434
 Frc consts  --     0.0000                 0.0000                 0.0000
 IR Inten    --     2.4510                 2.7929                28.0520
 Raman Activ --     0.0000                 0.0000                 0.0000
 Depolar     --     0.0000                 0.0000                 0.0000
 Atom AN      X      Y      Z        X      Y      Z        X      Y      Z
   1   6     0.03  -0.04  -0.11     0.06   0.05  -0.03    -0.08  -0.30  -0.12
   2   6    -0.41  -0.03  -0.02     0.15   0.05  -0.00    -0.04  -0.15  -0.09
   3   6     0.03  -0.03   0.02     0.02  -0.08  -0.10     0.11   0.19   0.07
   4   6     0.21   0.01  -0.06    -0.04   0.05   0.14    -0.14  -0.14  -0.11
   5   6    -0.31  -0.05  -0.04     0.10  -0.02  -0.04     0.00   0.09   0.04
   6   6     0.09  -0.11  -0.08    -0.09   0.06   0.05    -0.03  -0.04  -0.01
   7   6     0.17   0.01   0.02    -0.07  -0.02   0.04     0.23   0.08   0.01
   8   6    -0.01   0.03   0.06     0.01  -0.01  -0.03    -0.04   0.05   0.07
   9   8     0.04   0.03   0.04     0.01  -0.01   0.01     0.02   0.03   0.04
  10   6     0.00  -0.07  -0.06     0.01  -0.05  -0.03     0.04   0.16  -0.06
  11   6    -0.02   0.12   0.13    -0.01   0.00  -0.00    -0.02  -0.04  -0.05
  12   6    -0.01   0.03   0.06    -0.16  -0.03   0.12    -0.02  -0.08   0.12
  13   6     0.22   0.09   0.08    -0.02   0.12   0.10     0.06   0.04   0.04
  14   1    -0.11   0.06  -0.03     0.17   0.01   0.03    -0.00   0.04  -0.05
  15   8    -0.04   0.05   0.08    -0.02   0.03   0.04     0.00  -0.03  -0.01
  16   6     0.01  -0.06  -0.07    -0.09  -0.18  -0.37    -0.02   0.12  -0.16
  17   1     0.12  -0.09  -0.08     0.04  -0.02   0.04    -0.09   0.06  -0.16
  18   1    -0.11   0.06   0.08     0.05   0.03  -0.07    -0.04  -0.12   0.12
  19   1    -0.12   0.07   0.05    -0.00   0.05   0.01    -0.04  -0.22   0.10
  20   1     0.09  -0.03  -0.22    -0.06  -0.05   0.07     0.02   0.07   0.05
  21   1    -0.18   0.04  -0.11    -0.02  -0.09  -0.04     0.18   0.14   0.15
  22   1     0.15  -0.09  -0.04    -0.06   0.03   0.00    -0.11   0.08   0.08
  23   1     0.07  -0.01   0.01    -0.08   0.05   0.01     0.17  -0.07   0.00
  24   1     0.06   0.01   0.02     0.03  -0.02  -0.03    -0.07   0.06   0.06
  25   1     0.03   0.01   0.05    -0.02  -0.02  -0.05     0.00   0.01   0.02
  26   1     0.01  -0.01   0.02     0.01   0.01   0.03    -0.08   0.01  -0.14
  27   1     0.00   0.02  -0.04     0.03  -0.02  -0.05    -0.12   0.03   0.16
  28   1     0.19  -0.05   0.02     0.01   0.01  -0.02    -0.09  -0.01   0.02
  29   1    -0.14  -0.03  -0.11    -0.01  -0.02   0.01     0.06   0.06   0.00
  30   1    -0.06   0.23   0.19    -0.00   0.02   0.04    -0.00   0.03   0.07
  31   1    -0.13  -0.14  -0.09     0.03   0.10   0.01    -0.02   0.05  -0.10
  32   1     0.02  -0.00  -0.01     0.03  -0.01  -0.02    -0.13   0.04   0.14
  33   1     0.12  -0.03  -0.02     0.37  -0.12   0.02    -0.09   0.01   0.14
  34   1     0.06   0.00   0.00     0.35  -0.06  -0.02     0.24  -0.16  -0.08
  35   1    -0.06   0.06   0.06    -0.34   0.23   0.30    -0.10  -0.03   0.11
                     43                     44                     45
                        a                      a                      a 
 Frequencies --  1045.9339              1051.1945              1068.9223
 Red. masses --     7.9427                 7.8117                 7.7857
 Frc consts  --     0.0000                 0.0000                 0.0000
 IR Inten    --    46.1408                60.2062                28.6046
 Raman Activ --     0.0000                 0.0000                 0.0000
 Depolar     --     0.0000                 0.0000                 0.0000
 Atom AN      X      Y      Z        X      Y      Z        X      Y      Z
   1   6    -0.14   0.14  -0.05     0.19  -0.07  -0.13    -0.02  -0.25  -0.33
   2   6    -0.02   0.09   0.00     0.06  -0.10   0.16     0.13  -0.05   0.20
   3   6    -0.06  -0.11   0.02    -0.14   0.06  -0.14    -0.09   0.04  -0.15
   4   6     0.07   0.10  -0.01     0.11  -0.07   0.16     0.07  -0.04   0.17
   5   6     0.01  -0.08  -0.02    -0.06   0.08  -0.06    -0.06   0.06  -0.08
   6   6     0.03  -0.02   0.01    -0.11   0.01  -0.04    -0.13  -0.06  -0.10
   7   6    -0.00   0.01   0.09     0.00  -0.03   0.05     0.20   0.04   0.20
   8   6     0.02  -0.03  -0.04    -0.00   0.02   0.00    -0.02   0.03   0.02
   9   8    -0.01  -0.00  -0.01     0.07   0.04   0.07     0.11   0.08   0.13
  10   6    -0.14   0.01   0.41     0.11  -0.07  -0.34    -0.07   0.11   0.13
  11   6    -0.01   0.04   0.04    -0.01  -0.00  -0.00    -0.03   0.01   0.01
  12   6     0.03  -0.15   0.13     0.06  -0.10   0.06     0.01   0.11  -0.14
  13   6    -0.01  -0.07  -0.03    -0.04  -0.10  -0.07    -0.05  -0.02  -0.04
  14   1     0.02   0.10  -0.02     0.06  -0.02   0.05     0.11   0.03   0.05
  15   8     0.14  -0.12  -0.36    -0.13   0.12   0.30     0.07  -0.07  -0.17
  16   6     0.02   0.25  -0.10     0.00   0.25  -0.01    -0.02  -0.13   0.08
  17   1     0.06  -0.05   0.08     0.03  -0.00   0.04     0.02   0.00   0.03
  18   1     0.03   0.06  -0.05    -0.03   0.10  -0.06     0.00   0.06  -0.07
  19   1     0.05   0.10  -0.07    -0.06   0.13   0.00    -0.05   0.11   0.00
  20   1     0.01  -0.00  -0.03    -0.10  -0.20   0.02    -0.10  -0.17   0.05
  21   1    -0.09  -0.07  -0.08    -0.12   0.07  -0.12    -0.10   0.04  -0.10
  22   1     0.10  -0.07  -0.05    -0.03   0.00  -0.02    -0.05   0.02   0.01
  23   1     0.03   0.05   0.03    -0.16   0.07   0.01    -0.04   0.09   0.05
  24   1     0.09  -0.02  -0.02     0.06  -0.02  -0.02     0.12  -0.01   0.00
  25   1     0.02  -0.01   0.00     0.01  -0.01  -0.02     0.02   0.01   0.01
  26   1     0.08  -0.06   0.09    -0.02   0.05  -0.01    -0.03  -0.03  -0.08
  27   1    -0.08   0.13   0.10     0.07  -0.08  -0.11    -0.20   0.17   0.20
  28   1     0.06  -0.01  -0.00    -0.00   0.03  -0.03     0.01   0.03  -0.02
  29   1    -0.05  -0.03  -0.02    -0.01  -0.02   0.02    -0.03  -0.02   0.01
  30   1     0.01  -0.04  -0.01     0.02  -0.10  -0.03     0.01  -0.07  -0.02
  31   1     0.01   0.08  -0.13     0.02   0.07  -0.11     0.02  -0.03   0.08
  32   1    -0.03   0.00  -0.02     0.05  -0.01  -0.02    -0.16   0.05   0.16
  33   1    -0.27   0.06   0.20    -0.30   0.07   0.17     0.13  -0.03  -0.12
  34   1     0.23  -0.21  -0.11     0.13  -0.18  -0.09    -0.15   0.14   0.07
  35   1    -0.03  -0.11   0.07     0.03  -0.15   0.00     0.03   0.06  -0.05
                     46                     47                     48
                        a                      a                      a 
 Frequencies --  1085.7358              1094.2305              1119.4649
 Red. masses --     7.2538                 6.2679                 7.3700
 Frc consts  --     0.0000                 0.0000                 0.0000
 IR Inten    --     9.3733                35.0441                98.7057
 Raman Activ --     0.0000                 0.0000                 0.0000
 Depolar     --     0.0000                 0.0000                 0.0000
 Atom AN      X      Y      Z        X      Y      Z        X      Y      Z
   1   6     0.05   0.24   0.07     0.10   0.11  -0.22     0.01   0.04  -0.16
   2   6     0.06  -0.24   0.04    -0.26   0.01   0.03     0.00  -0.23   0.02
   3   6    -0.08   0.17   0.04     0.23  -0.06  -0.05     0.00   0.14   0.13
   4   6    -0.05  -0.18  -0.01    -0.16  -0.02  -0.01    -0.06  -0.03  -0.13
   5   6    -0.09   0.29  -0.06     0.13  -0.12   0.04     0.09  -0.01   0.12
   6   6     0.07  -0.24  -0.17    -0.30   0.05  -0.02     0.21   0.16   0.35
   7   6    -0.04  -0.15  -0.09     0.04  -0.06   0.12     0.06  -0.05   0.04
   8   6     0.00   0.11   0.02     0.02   0.14  -0.09     0.02   0.10  -0.08
   9   8     0.11   0.09   0.13     0.13   0.06   0.15    -0.23  -0.14  -0.26
  10   6    -0.10  -0.00   0.21    -0.02  -0.08   0.09     0.02  -0.05  -0.01
  11   6     0.03  -0.04  -0.03    -0.02  -0.01  -0.02    -0.07  -0.00  -0.03
  12   6     0.00   0.01   0.01    -0.04   0.02  -0.01    -0.01   0.02  -0.01
  13   6     0.02   0.03   0.03     0.05   0.00   0.01     0.02   0.04   0.02
  14   1     0.00  -0.28   0.08    -0.10   0.13  -0.05    -0.06   0.02  -0.04
  15   8     0.04  -0.03  -0.14    -0.01   0.02  -0.03     0.00   0.01   0.01
  16   6    -0.03  -0.02  -0.03     0.07   0.01   0.04    -0.01  -0.02  -0.00
  17   1    -0.14   0.10  -0.00     0.21  -0.15  -0.21    -0.04   0.02  -0.08
  18   1    -0.08  -0.00   0.07     0.03  -0.09   0.03     0.02  -0.09   0.06
  19   1    -0.10  -0.11   0.10    -0.01  -0.15   0.07     0.12  -0.04  -0.10
  20   1    -0.01  -0.03   0.01    -0.05   0.04   0.13    -0.08  -0.01   0.16
  21   1     0.06   0.32   0.00     0.16  -0.12   0.15    -0.20   0.18  -0.21
  22   1     0.07  -0.15  -0.19    -0.19   0.04  -0.05     0.18   0.01   0.14
  23   1    -0.12   0.02  -0.03    -0.25   0.14   0.02    -0.29   0.10  -0.01
  24   1     0.13  -0.07  -0.05     0.23  -0.08  -0.07     0.29  -0.07  -0.02
  25   1    -0.06   0.00  -0.10    -0.08  -0.01  -0.15     0.07  -0.01   0.13
  26   1     0.01   0.03   0.12    -0.02   0.05   0.11     0.01  -0.02  -0.00
  27   1     0.06  -0.01  -0.06     0.06  -0.02  -0.06    -0.03   0.03   0.02
  28   1    -0.05   0.04  -0.02    -0.03  -0.00   0.00    -0.05   0.01  -0.01
  29   1     0.04  -0.01   0.06     0.00  -0.03   0.04    -0.04  -0.04   0.01
  30   1     0.00   0.01   0.02    -0.01   0.05   0.04    -0.00   0.02   0.04
  31   1     0.00   0.01   0.01    -0.03  -0.04  -0.01    -0.00   0.00   0.00
  32   1     0.10  -0.04  -0.14     0.08  -0.03  -0.09    -0.04   0.01   0.05
  33   1     0.04  -0.01  -0.01    -0.04   0.01  -0.01     0.03  -0.01  -0.01
  34   1     0.02   0.01   0.01    -0.04  -0.00  -0.00     0.00   0.01   0.01
  35   1    -0.04   0.03   0.03     0.07  -0.04  -0.06    -0.01   0.02   0.01
                     49                     50                     51
                        a                      a                      a 
 Frequencies --  1134.5731              1144.7354              1151.0097
 Red. masses --     6.5280                 8.0005                 2.8250
 Frc consts  --     0.0000                 0.0000                 0.0000
 IR Inten    --    48.1049                10.5773                19.3179
 Raman Activ --     0.0000                 0.0000                 0.0000
 Depolar     --     0.0000                 0.0000                 0.0000
 Atom AN      X      Y      Z        X      Y      Z        X      Y      Z
   1   6    -0.36   0.21   0.04    -0.24   0.17   0.01    -0.09   0.14  -0.08
   2   6     0.02  -0.06  -0.07    -0.08   0.28  -0.01    -0.01  -0.13   0.01
   3   6    -0.01   0.04   0.13     0.16  -0.24  -0.22     0.06   0.04   0.09
   4   6     0.03   0.04  -0.09    -0.18  -0.08   0.25    -0.07  -0.00  -0.04
   5   6     0.06  -0.05   0.01     0.05   0.25  -0.07     0.09   0.00   0.05
   6   6    -0.13  -0.04  -0.18     0.23  -0.06   0.10    -0.13   0.06  -0.07
   7   6    -0.00   0.03   0.09     0.01  -0.06  -0.04    -0.07   0.04   0.03
   8   6     0.04  -0.03  -0.12    -0.02   0.05   0.05    -0.02  -0.11   0.04
   9   8     0.10   0.07   0.12    -0.09  -0.04  -0.08     0.07   0.03   0.09
  10   6     0.19  -0.22  -0.21     0.09  -0.17  -0.10     0.07  -0.07  -0.01
  11   6     0.01   0.04   0.05     0.00  -0.03  -0.03     0.01  -0.00   0.00
  12   6     0.02  -0.01   0.00    -0.05   0.00   0.01     0.03   0.02  -0.03
  13   6     0.01   0.02   0.02    -0.00  -0.03  -0.03     0.00   0.01   0.01
  14   1    -0.04  -0.17   0.03     0.08   0.00   0.04    -0.03   0.18  -0.08
  15   8    -0.00   0.02   0.14     0.01   0.01   0.07    -0.01   0.01   0.03
  16   6    -0.02   0.01  -0.00     0.05   0.01   0.01    -0.02  -0.01   0.02
  17   1    -0.20   0.13   0.09     0.18  -0.13  -0.02     0.13  -0.09  -0.12
  18   1     0.05  -0.07   0.02     0.03   0.04  -0.08     0.07  -0.10   0.01
  19   1     0.12   0.06  -0.14    -0.21  -0.15   0.26     0.16   0.02  -0.14
  20   1     0.05   0.06  -0.04    -0.03  -0.01   0.04    -0.24  -0.15   0.35
  21   1     0.07  -0.16   0.07     0.01   0.21  -0.05    -0.15   0.21  -0.19
  22   1     0.01  -0.08  -0.15     0.06  -0.03   0.01     0.15  -0.17  -0.25
  23   1    -0.06   0.07   0.03     0.11  -0.02  -0.00     0.42  -0.06   0.04
  24   1     0.29  -0.05   0.01     0.10  -0.03  -0.00    -0.26   0.05  -0.02
  25   1    -0.03   0.00  -0.05    -0.01  -0.00   0.01    -0.06  -0.02  -0.12
  26   1     0.15  -0.18  -0.14     0.11  -0.13  -0.07     0.02  -0.02  -0.00
  27   1    -0.09   0.06   0.08    -0.06   0.06   0.04     0.05  -0.05  -0.03
  28   1     0.08  -0.01  -0.00    -0.04   0.03  -0.02     0.00  -0.01   0.01
  29   1    -0.04  -0.03  -0.01     0.02  -0.00   0.02     0.01   0.02  -0.02
  30   1    -0.01   0.03   0.02     0.01  -0.02  -0.03    -0.01   0.01   0.03
  31   1     0.00   0.01  -0.00    -0.01  -0.03  -0.01     0.01   0.01   0.01
  32   1    -0.19   0.08   0.24    -0.13   0.06   0.16     0.01   0.01  -0.00
  33   1     0.00  -0.00   0.01    -0.03   0.01   0.00     0.01  -0.00  -0.02
  34   1     0.01  -0.00   0.00    -0.01  -0.01  -0.01    -0.02   0.02   0.01
  35   1    -0.01  -0.00   0.01     0.04  -0.04  -0.03    -0.01   0.02  -0.00
                     52                     53                     54
                        a                      a                      a 
 Frequencies --  1180.4539              1186.8926              1200.0070
 Red. masses --     5.1956                 4.4364                 6.4777
 Frc consts  --     0.0000                 0.0000                 0.0000
 IR Inten    --     9.0402                11.1652                11.8462
 Raman Activ --     0.0000                 0.0000                 0.0000
 Depolar     --     0.0000                 0.0000                 0.0000
 Atom AN      X      Y      Z        X      Y      Z        X      Y      Z
   1   6     0.19   0.09   0.02     0.13  -0.06  -0.07     0.37  -0.07   0.40
   2   6     0.11  -0.11   0.11    -0.15  -0.04   0.04    -0.07   0.15  -0.13
   3   6    -0.22   0.08   0.01     0.12   0.04  -0.07     0.12  -0.03   0.03
   4   6     0.10   0.03  -0.16    -0.05  -0.12   0.11    -0.03  -0.04   0.05
   5   6    -0.03  -0.17   0.05     0.08   0.18   0.05    -0.10   0.09  -0.03
   6   6     0.02   0.24   0.16     0.27   0.16   0.12    -0.03  -0.06  -0.13
   7   6    -0.06  -0.07  -0.03     0.01   0.02  -0.01    -0.00  -0.05  -0.12
   8   6     0.03   0.01  -0.07    -0.01  -0.05   0.04     0.01  -0.02  -0.01
   9   8    -0.04  -0.08   0.03    -0.06  -0.06   0.09     0.04   0.03   0.00
  10   6    -0.07  -0.07  -0.10    -0.05  -0.00   0.00    -0.20   0.05  -0.11
  11   6     0.01   0.01   0.01    -0.05  -0.00  -0.02    -0.00   0.01   0.01
  12   6     0.17  -0.01  -0.02    -0.12   0.01  -0.00    -0.01  -0.05   0.05
  13   6    -0.07  -0.01  -0.02     0.06  -0.00   0.01     0.01   0.02   0.03
  14   1     0.02   0.12  -0.02    -0.01  -0.07   0.03    -0.21  -0.02  -0.05
  15   8     0.04  -0.01   0.01     0.02   0.00  -0.03     0.06  -0.04  -0.02
  16   6    -0.09   0.00   0.01     0.06   0.01   0.00     0.01   0.01  -0.02
  17   1     0.19  -0.13  -0.07    -0.21   0.16   0.05     0.07  -0.06  -0.08
  18   1    -0.23   0.20   0.09     0.11  -0.12  -0.05     0.09  -0.09  -0.02
  19   1    -0.15  -0.11   0.15     0.03   0.04  -0.05     0.13   0.08  -0.14
  20   1     0.09   0.06  -0.12     0.10   0.06  -0.10    -0.16  -0.13   0.20
  21   1     0.15   0.09   0.13    -0.23  -0.28  -0.14    -0.02   0.04  -0.00
  22   1     0.05  -0.07  -0.17    -0.16   0.02  -0.20     0.00  -0.02  -0.04
  23   1    -0.01   0.01  -0.00     0.02  -0.03  -0.01    -0.29  -0.01  -0.06
  24   1    -0.11  -0.00  -0.03    -0.09   0.02  -0.01    -0.10   0.01  -0.01
  25   1    -0.16  -0.08  -0.29    -0.26  -0.12  -0.47     0.05   0.02   0.07
  26   1     0.11  -0.10  -0.03    -0.01   0.02   0.03     0.13  -0.11  -0.06
  27   1    -0.14   0.19   0.04    -0.06   0.08   0.02    -0.21   0.26   0.07
  28   1     0.02  -0.03   0.02    -0.04   0.02  -0.02     0.00   0.01  -0.01
  29   1    -0.00   0.01  -0.01    -0.03  -0.01  -0.02    -0.02  -0.01  -0.01
  30   1     0.02  -0.08  -0.05    -0.02   0.06   0.06    -0.01   0.06  -0.00
  31   1     0.04   0.04   0.03    -0.03  -0.03  -0.04     0.00   0.01   0.01
  32   1    -0.14   0.05   0.17    -0.03   0.01   0.03    -0.13   0.05   0.16
  33   1     0.02  -0.00   0.00    -0.02   0.01  -0.00    -0.01   0.00   0.01
  34   1    -0.00   0.03   0.02    -0.00  -0.02  -0.01     0.02  -0.01  -0.01
  35   1    -0.06   0.05   0.04     0.05  -0.04  -0.04    -0.01  -0.01   0.01
                     55                     56                     57
                        a                      a                      a 
 Frequencies --  1224.2897              1236.3592              1252.7754
 Red. masses --     7.4669                 7.1670                 6.4349
 Frc consts  --     0.0000                 0.0000                 0.0000
 IR Inten    --    37.3460                13.0927                11.8721
 Raman Activ --     0.0000                 0.0000                 0.0000
 Depolar     --     0.0000                 0.0000                 0.0000
 Atom AN      X      Y      Z        X      Y      Z        X      Y      Z
   1   6     0.19   0.09  -0.06     0.07   0.10  -0.00    -0.18  -0.27   0.30
   2   6     0.07  -0.04   0.05    -0.01   0.03   0.00     0.15   0.04  -0.04
   3   6    -0.03   0.02   0.05    -0.03  -0.01   0.02    -0.06   0.01   0.02
   4   6     0.02   0.09  -0.03    -0.02   0.04  -0.11     0.06   0.03  -0.07
   5   6     0.03  -0.12  -0.01     0.28  -0.13   0.06    -0.03  -0.09  -0.06
   6   6    -0.18   0.04   0.08    -0.23  -0.01  -0.08     0.05   0.12  -0.07
   7   6    -0.03  -0.03   0.02     0.16  -0.16  -0.09     0.03  -0.00  -0.11
   8   6     0.01  -0.04  -0.05    -0.11   0.31   0.38    -0.05   0.21   0.16
   9   8     0.02   0.01  -0.04     0.06   0.05  -0.01     0.01  -0.02   0.07
  10   6    -0.06  -0.06  -0.03    -0.05  -0.06  -0.04     0.03   0.23   0.02
  11   6     0.00   0.01   0.02    -0.03  -0.11  -0.14     0.02  -0.05  -0.05
  12   6    -0.59   0.10   0.02     0.06  -0.02   0.01    -0.21   0.04   0.00
  13   6     0.17  -0.05  -0.04    -0.02   0.01   0.00     0.05  -0.03  -0.02
  14   1     0.33  -0.05   0.09    -0.03  -0.15   0.05     0.14   0.26  -0.07
  15   8     0.03   0.01  -0.01     0.03   0.00   0.00    -0.09  -0.05   0.05
  16   6     0.23  -0.02  -0.02    -0.02   0.01  -0.00     0.08  -0.02  -0.01
  17   1    -0.10   0.07   0.07    -0.01   0.00   0.03     0.07  -0.05  -0.02
  18   1     0.05  -0.03  -0.02    -0.07   0.05   0.04    -0.02   0.04   0.00
  19   1    -0.03  -0.01   0.04    -0.06  -0.13   0.10    -0.02  -0.02   0.02
  20   1     0.02   0.04  -0.01     0.08   0.09  -0.10    -0.05  -0.05   0.05
  21   1     0.11   0.15   0.06    -0.29  -0.21  -0.28    -0.05  -0.04  -0.05
  22   1     0.13  -0.08  -0.02     0.02  -0.05  -0.05     0.12  -0.11  -0.19
  23   1     0.01   0.02   0.01     0.04  -0.02  -0.02    -0.11  -0.05  -0.04
  24   1    -0.17   0.02  -0.03    -0.12  -0.01  -0.03     0.32  -0.05   0.06
  25   1     0.06   0.02   0.09     0.09   0.05   0.16    -0.09  -0.04  -0.16
  26   1     0.02  -0.01   0.02     0.04  -0.03   0.01     0.10  -0.15  -0.21
  27   1    -0.05   0.10  -0.01    -0.04   0.07  -0.02     0.04  -0.13   0.06
  28   1     0.02  -0.02   0.01    -0.22   0.05  -0.01    -0.07   0.02  -0.00
  29   1    -0.00   0.00  -0.01     0.08   0.03   0.06     0.06   0.01   0.05
  30   1    -0.04   0.09   0.10     0.01  -0.02  -0.02    -0.01   0.03   0.02
  31   1    -0.12  -0.15  -0.13     0.01   0.01   0.01    -0.04  -0.06  -0.04
  32   1    -0.06   0.03   0.08    -0.06   0.03   0.07     0.14  -0.07  -0.16
  33   1    -0.01  -0.00  -0.01     0.00  -0.00   0.01     0.00  -0.00  -0.01
  34   1     0.01  -0.06  -0.04     0.00   0.00   0.00     0.00  -0.01  -0.01
  35   1     0.16  -0.15  -0.12    -0.01   0.00   0.01     0.05  -0.03  -0.04
                     58                     59                     60
                        a                      a                      a 
 Frequencies --  1256.1829              1264.2714              1276.3782
 Red. masses --     6.4789                 6.4441                 4.8935
 Frc consts  --     0.0000                 0.0000                 0.0000
 IR Inten    --     7.5238                19.0779                10.3571
 Raman Activ --     0.0000                 0.0000                 0.0000
 Depolar     --     0.0000                 0.0000                 0.0000
 Atom AN      X      Y      Z        X      Y      Z        X      Y      Z
   1   6    -0.12   0.02  -0.11     0.04   0.23  -0.03     0.20   0.03   0.06
   2   6    -0.10  -0.00  -0.01     0.06  -0.15   0.03    -0.08  -0.28   0.08
   3   6     0.04  -0.09  -0.05    -0.06   0.10   0.07     0.02   0.02  -0.19
   4   6     0.07   0.13   0.11     0.09  -0.07  -0.03    -0.02  -0.04   0.14
   5   6    -0.16  -0.16  -0.32    -0.26   0.05  -0.26     0.10   0.16  -0.03
   6   6    -0.03   0.16   0.18     0.15  -0.10   0.08    -0.20  -0.03   0.10
   7   6     0.31  -0.10  -0.02    -0.11  -0.11  -0.10    -0.22   0.04  -0.03
   8   6    -0.07   0.17   0.18    -0.10   0.22   0.25    -0.01  -0.03  -0.02
   9   8    -0.03  -0.07   0.01    -0.02  -0.02  -0.02     0.02   0.02  -0.07
  10   6     0.01  -0.03   0.02    -0.03  -0.11  -0.03    -0.04   0.03  -0.01
  11   6     0.02  -0.03  -0.03     0.08  -0.06  -0.04     0.02  -0.00   0.00
  12   6     0.12  -0.03  -0.01    -0.10   0.02  -0.01     0.08   0.01  -0.02
  13   6    -0.02   0.02   0.02     0.03  -0.01  -0.01    -0.01   0.03   0.02
  14   1    -0.13  -0.06  -0.00     0.06   0.13  -0.04    -0.15   0.43  -0.18
  15   8     0.00   0.01   0.00     0.07   0.02  -0.02    -0.01  -0.01   0.00
  16   6    -0.04   0.01   0.01     0.03  -0.01  -0.00    -0.03  -0.01   0.00
  17   1    -0.18   0.12   0.12     0.10  -0.06  -0.06    -0.19   0.15   0.08
  18   1     0.21  -0.13  -0.14    -0.03  -0.00   0.04     0.18  -0.11  -0.15
  19   1    -0.00   0.08   0.01     0.11   0.12  -0.16    -0.12  -0.04   0.13
  20   1    -0.08  -0.08   0.05    -0.10  -0.14   0.09     0.11   0.07  -0.15
  21   1     0.25   0.05   0.16     0.09  -0.30   0.14     0.05  -0.12   0.05
  22   1     0.29  -0.12  -0.02    -0.17   0.15   0.19     0.19  -0.15  -0.06
  23   1    -0.17   0.03  -0.02     0.25  -0.04  -0.00     0.16  -0.06   0.00
  24   1    -0.25   0.04  -0.03     0.16  -0.06  -0.01     0.19  -0.04  -0.01
  25   1    -0.05  -0.04  -0.11    -0.01  -0.00  -0.01     0.11   0.05   0.18
  26   1    -0.00  -0.00   0.01    -0.03   0.06   0.10     0.05  -0.05  -0.04
  27   1     0.05  -0.04  -0.04    -0.01   0.04  -0.04    -0.05   0.05   0.03
  28   1    -0.04   0.01  -0.00    -0.02   0.02  -0.01     0.03   0.00  -0.01
  29   1     0.06   0.03   0.04     0.12   0.03   0.10     0.02  -0.00   0.02
  30   1    -0.00   0.01   0.00    -0.01   0.02   0.03     0.01  -0.02   0.00
  31   1     0.03   0.04   0.03    -0.02  -0.02  -0.02     0.01   0.02   0.02
  32   1     0.01  -0.01  -0.01    -0.11   0.05   0.13     0.00  -0.01  -0.00
  33   1    -0.01   0.00   0.00     0.01  -0.00  -0.01     0.00  -0.00  -0.01
  34   1    -0.00   0.01   0.01     0.00  -0.01  -0.01     0.00   0.01   0.01
  35   1    -0.03   0.03   0.02     0.02  -0.02  -0.02    -0.02   0.04   0.01
                     61                     62                     63
                        a                      a                      a 
 Frequencies --  1290.3925              1306.4407              1321.0839
 Red. masses --     5.2560                 4.5271                 4.3350
 Frc consts  --     0.0000                 0.0000                 0.0000
 IR Inten    --     3.1543                23.9036                32.2171
 Raman Activ --     0.0000                 0.0000                 0.0000
 Depolar     --     0.0000                 0.0000                 0.0000
 Atom AN      X      Y      Z        X      Y      Z        X      Y      Z
   1   6    -0.19   0.12   0.03     0.19  -0.04  -0.20    -0.02   0.31  -0.04
   2   6     0.07  -0.10   0.05    -0.10   0.14  -0.02     0.05  -0.16   0.05
   3   6    -0.01   0.09   0.01     0.06   0.01   0.07    -0.08   0.04  -0.02
   4   6    -0.05  -0.20  -0.02    -0.06  -0.09  -0.01     0.04   0.04   0.05
   5   6     0.04   0.37  -0.05    -0.01   0.15  -0.11    -0.04  -0.15   0.04
   6   6    -0.02  -0.10   0.09    -0.12   0.06   0.17     0.14  -0.11  -0.05
   7   6     0.26  -0.03   0.04    -0.14   0.02   0.01     0.10  -0.07   0.01
   8   6     0.04  -0.13  -0.06    -0.02  -0.00   0.02     0.01   0.01   0.02
   9   8    -0.00   0.02  -0.05    -0.02  -0.03  -0.04     0.00   0.02  -0.01
  10   6    -0.01   0.02   0.03     0.13   0.04   0.04     0.16  -0.00   0.04
  11   6    -0.06   0.03   0.02     0.02  -0.01   0.00    -0.01  -0.00  -0.00
  12   6    -0.04   0.04  -0.01     0.06  -0.02   0.00    -0.06   0.01  -0.00
  13   6     0.00  -0.02  -0.02    -0.02  -0.01  -0.01     0.02   0.01   0.01
  14   1     0.12   0.21  -0.04     0.07  -0.34   0.14    -0.10   0.15  -0.08
  15   8     0.01  -0.01   0.02    -0.19  -0.03   0.05    -0.18  -0.04   0.06
  16   6     0.01  -0.01   0.00    -0.01   0.00  -0.01     0.02  -0.02  -0.01
  17   1     0.12  -0.07  -0.10     0.07  -0.04  -0.04    -0.01   0.01   0.01
  18   1    -0.16   0.09   0.11    -0.13   0.05   0.11     0.13  -0.07  -0.10
  19   1     0.05  -0.01  -0.07     0.10   0.03  -0.11    -0.03   0.03   0.03
  20   1     0.03   0.00  -0.03    -0.01  -0.01   0.02     0.03   0.02  -0.05
  21   1     0.02  -0.38   0.09     0.08  -0.18   0.10    -0.03   0.13  -0.04
  22   1     0.12  -0.12  -0.07     0.23  -0.10   0.03    -0.38   0.19   0.07
  23   1    -0.29   0.07  -0.01     0.19  -0.04   0.01    -0.07   0.04   0.00
  24   1    -0.35   0.08   0.01     0.08  -0.02  -0.02    -0.23   0.03  -0.04
  25   1     0.06   0.03   0.11     0.02  -0.01   0.02     0.02   0.02   0.04
  26   1     0.07  -0.08  -0.05     0.12  -0.17  -0.19     0.19  -0.25  -0.24
  27   1     0.08  -0.09  -0.06    -0.17   0.17   0.22    -0.15   0.16   0.20
  28   1    -0.02   0.03  -0.02     0.03   0.00  -0.01    -0.03  -0.00   0.01
  29   1    -0.09  -0.03  -0.06     0.03   0.01   0.03    -0.01  -0.00  -0.02
  30   1     0.00  -0.02   0.00    -0.00   0.00  -0.01    -0.00   0.01   0.02
  31   1    -0.02  -0.02  -0.02     0.02   0.02   0.01    -0.01  -0.01  -0.01
  32   1     0.01  -0.01   0.00     0.22  -0.09  -0.29     0.21  -0.09  -0.27
  33   1     0.01  -0.00  -0.01    -0.01  -0.00   0.03    -0.01  -0.00   0.01
  34   1     0.00  -0.00   0.00    -0.01   0.03   0.01    -0.00   0.02   0.01
  35   1     0.01   0.00  -0.01    -0.01   0.00   0.02     0.00   0.01  -0.00
                     64                     65                     66
                        a                      a                      a 
 Frequencies --  1333.4216              1345.0488              1348.1986
 Red. masses --     4.6274                 3.7468                 4.8138
 Frc consts  --     0.0000                 0.0000                 0.0000
 IR Inten    --     9.8513                38.4452                 5.1701
 Raman Activ --     0.0000                 0.0000                 0.0000
 Depolar     --     0.0000                 0.0000                 0.0000
 Atom AN      X      Y      Z        X      Y      Z        X      Y      Z
   1   6     0.03  -0.02   0.02     0.11  -0.01  -0.22    -0.10  -0.07  -0.02
   2   6    -0.10  -0.02  -0.02     0.07   0.05   0.01     0.34   0.08  -0.00
   3   6     0.02   0.12  -0.01    -0.10   0.04   0.04    -0.27   0.16   0.06
   4   6    -0.27  -0.19   0.33     0.07   0.01  -0.04    -0.01  -0.12   0.10
   5   6     0.05  -0.18  -0.12    -0.02   0.04   0.03     0.05   0.06  -0.02
   6   6    -0.03   0.02   0.01     0.00  -0.01   0.04    -0.04   0.03   0.02
   7   6     0.02  -0.02  -0.03    -0.06   0.02   0.04     0.02   0.02   0.03
   8   6    -0.05   0.07   0.06     0.01  -0.03  -0.03    -0.01  -0.01   0.00
   9   8     0.02   0.01  -0.00    -0.00  -0.00  -0.00    -0.00  -0.00   0.00
  10   6    -0.09   0.06   0.01    -0.27   0.22   0.11     0.11  -0.07  -0.03
  11   6     0.02  -0.02  -0.01    -0.00   0.01   0.01    -0.00   0.00  -0.00
  12   6     0.08   0.00  -0.02    -0.05  -0.02   0.01    -0.20  -0.03   0.02
  13   6    -0.03  -0.02  -0.02     0.02   0.02   0.02     0.06   0.03   0.03
  14   1     0.21   0.04   0.03    -0.22  -0.20   0.02    -0.45  -0.15  -0.06
  15   8     0.04  -0.01   0.01     0.07  -0.03   0.06    -0.01   0.02  -0.02
  16   6    -0.02   0.00   0.01     0.00   0.01   0.01     0.05  -0.00  -0.02
  17   1     0.12  -0.07  -0.13     0.06  -0.05  -0.02     0.29  -0.20  -0.16
  18   1     0.00  -0.02   0.01     0.12  -0.07  -0.08     0.24  -0.13  -0.18
  19   1     0.25   0.25  -0.32    -0.06  -0.04   0.07    -0.01   0.01   0.00
  20   1     0.27   0.24  -0.30    -0.02  -0.04   0.01     0.13   0.06  -0.18
  21   1     0.06   0.28  -0.06    -0.00  -0.05   0.02     0.01  -0.04   0.00
  22   1    -0.04  -0.02  -0.07    -0.05   0.05   0.06     0.11  -0.07  -0.04
  23   1    -0.01   0.01  -0.01     0.10  -0.00   0.02     0.02  -0.04  -0.00
  24   1     0.02  -0.00   0.02     0.01  -0.01  -0.03     0.00  -0.01  -0.04
  25   1     0.02   0.01   0.03    -0.00   0.00   0.00    -0.00  -0.01  -0.01
  26   1     0.08  -0.07  -0.04     0.35  -0.37  -0.25    -0.17   0.17   0.11
  27   1     0.08  -0.09  -0.08     0.28  -0.30  -0.27    -0.06   0.07   0.07
  28   1     0.02  -0.01  -0.00     0.02  -0.00   0.00     0.01   0.00  -0.00
  29   1     0.05   0.02   0.04    -0.00  -0.00  -0.00     0.00  -0.00   0.00
  30   1    -0.01   0.00   0.01    -0.00   0.02   0.01    -0.01   0.07   0.03
  31   1     0.03   0.02   0.02    -0.00  -0.00   0.00    -0.02  -0.01  -0.01
  32   1    -0.04   0.02   0.06    -0.10   0.04   0.14     0.02  -0.00  -0.03
  33   1    -0.00   0.00  -0.00     0.02   0.01  -0.04    -0.00   0.00  -0.01
  34   1    -0.00   0.01   0.00     0.01  -0.05  -0.02    -0.01  -0.02  -0.02
  35   1    -0.01   0.01   0.00     0.01  -0.01  -0.01     0.01  -0.02   0.00
                     67                     68                     69
                        a                      a                      a 
 Frequencies --  1360.4281              1370.0698              1406.3155
 Red. masses --     4.4372                 3.4136                 2.7687
 Frc consts  --     0.0000                 0.0000                 0.0000
 IR Inten    --     0.9978                80.9650                 8.6098
 Raman Activ --     0.0000                 0.0000                 0.0000
 Depolar     --     0.0000                 0.0000                 0.0000
 Atom AN      X      Y      Z        X      Y      Z        X      Y      Z
   1   6     0.02  -0.01   0.07    -0.02  -0.11  -0.05     0.00   0.00  -0.00
   2   6    -0.26  -0.02  -0.16    -0.00   0.06  -0.01     0.01   0.00   0.01
   3   6    -0.25   0.16   0.21    -0.00  -0.02   0.02    -0.01   0.01  -0.01
   4   6     0.14   0.01  -0.06     0.05   0.04  -0.03     0.00   0.02  -0.00
   5   6    -0.00   0.06   0.04    -0.08  -0.05  -0.04    -0.00   0.00   0.01
   6   6     0.01  -0.01  -0.01     0.10  -0.02   0.35     0.00  -0.01   0.00
   7   6     0.00   0.02  -0.01    -0.00   0.03   0.01    -0.01  -0.00  -0.00
   8   6     0.02  -0.02  -0.02    -0.01   0.01  -0.00     0.02  -0.00   0.00
   9   8    -0.00   0.00  -0.00     0.03   0.10  -0.16    -0.00   0.00  -0.00
  10   6     0.00  -0.01  -0.01     0.01   0.00  -0.00    -0.02   0.02  -0.03
  11   6    -0.01   0.00   0.00    -0.00   0.00   0.00     0.01   0.00   0.00
  12   6     0.20   0.03  -0.02     0.02  -0.00   0.00    -0.07  -0.08  -0.09
  13   6    -0.05  -0.01  -0.02    -0.00   0.01   0.00     0.01  -0.05  -0.04
  14   1     0.50  -0.05   0.10    -0.02  -0.09   0.03     0.07   0.01   0.01
  15   8    -0.00   0.00  -0.00     0.00   0.01  -0.00     0.01   0.00   0.00
  16   6    -0.06   0.00   0.01    -0.00  -0.00  -0.00     0.31  -0.11  -0.16
  17   1     0.16  -0.12  -0.10    -0.00   0.00   0.01     0.01  -0.00   0.02
  18   1     0.41  -0.30  -0.22    -0.00   0.00   0.00    -0.01  -0.02   0.01
  19   1    -0.10  -0.09   0.13    -0.01   0.00   0.01     0.00  -0.04   0.03
  20   1    -0.00  -0.06  -0.03    -0.05  -0.05   0.05    -0.02  -0.03  -0.03
  21   1    -0.03  -0.09   0.01     0.05  -0.02   0.05     0.00  -0.00   0.00
  22   1    -0.00   0.00   0.01    -0.44  -0.19  -0.65    -0.01  -0.00  -0.00
  23   1    -0.04  -0.00  -0.01     0.01  -0.05  -0.00     0.00   0.01   0.00
  24   1     0.01   0.00   0.00     0.04  -0.01  -0.03    -0.00   0.00   0.01
  25   1     0.00   0.01   0.01     0.16   0.11   0.28     0.01   0.00   0.01
  26   1    -0.02   0.02   0.02    -0.04   0.05   0.04     0.05   0.00   0.05
  27   1    -0.02   0.02   0.01     0.01  -0.02   0.01     0.01  -0.06   0.01
  28   1    -0.03   0.01   0.00     0.04  -0.02   0.00    -0.04   0.02   0.00
  29   1    -0.03  -0.01  -0.03     0.03   0.01   0.02    -0.03  -0.02  -0.03
  30   1     0.02  -0.07  -0.04     0.01  -0.02  -0.01    -0.12   0.23   0.18
  31   1     0.01   0.00   0.01    -0.01  -0.01   0.00     0.19   0.17   0.13
  32   1     0.00  -0.00  -0.00    -0.01   0.00   0.01    -0.02   0.01   0.02
  33   1     0.01  -0.00   0.02     0.00  -0.00   0.00    -0.42   0.01   0.21
  34   1     0.01   0.04   0.02    -0.00   0.00   0.00    -0.40   0.24   0.03
  35   1    -0.01   0.02  -0.01    -0.00   0.00   0.00    -0.24   0.14   0.34
                     70                     71                     72
                        a                      a                      a 
 Frequencies --  1411.5405              1424.8441              1460.4346
 Red. masses --     2.3629                 2.5420                 1.9042
 Frc consts  --     0.0000                 0.0000                 0.0000
 IR Inten    --     6.1334                12.3249                 1.2766
 Raman Activ --     0.0000                 0.0000                 0.0000
 Depolar     --     0.0000                 0.0000                 0.0000
 Atom AN      X      Y      Z        X      Y      Z        X      Y      Z
   1   6    -0.00   0.01   0.01    -0.00   0.00   0.01    -0.02   0.03   0.02
   2   6    -0.01  -0.01  -0.01     0.02   0.02   0.03    -0.01  -0.01   0.00
   3   6    -0.01   0.00   0.00    -0.02   0.01  -0.03     0.00   0.03  -0.05
   4   6     0.01  -0.00  -0.03    -0.00   0.04   0.00    -0.00  -0.01  -0.01
   5   6     0.07   0.05   0.08     0.01   0.01   0.02    -0.00  -0.01  -0.00
   6   6     0.01  -0.00  -0.02     0.00  -0.01   0.00     0.00  -0.01  -0.03
   7   6     0.09  -0.03  -0.01     0.00  -0.00   0.00     0.05   0.19   0.18
   8   6    -0.25  -0.01  -0.10    -0.01  -0.00  -0.01    -0.00   0.02   0.02
   9   8    -0.01  -0.00   0.00    -0.00   0.00  -0.01    -0.00  -0.00   0.01
  10   6    -0.00   0.00  -0.00     0.01  -0.01   0.01     0.02  -0.02   0.04
  11   6    -0.16   0.01  -0.05    -0.01   0.00  -0.00    -0.00   0.00  -0.00
  12   6     0.00   0.01   0.00    -0.02  -0.20  -0.17     0.01   0.01   0.00
  13   6     0.00   0.00   0.00    -0.01  -0.08  -0.06    -0.00  -0.00  -0.00
  14   1     0.02   0.01  -0.00     0.09   0.03   0.01     0.05   0.02   0.00
  15   8    -0.00  -0.00   0.00    -0.01  -0.00   0.00     0.00  -0.00   0.01
  16   6     0.03  -0.01  -0.02    -0.15   0.09   0.15     0.02   0.00  -0.00
  17   1     0.00  -0.00   0.00     0.03  -0.01   0.05     0.06   0.00   0.13
  18   1     0.01  -0.01  -0.00    -0.03  -0.03   0.03    -0.07  -0.09   0.08
  19   1    -0.04  -0.02   0.03     0.02  -0.09   0.04    -0.02   0.03  -0.01
  20   1    -0.00   0.00   0.03    -0.03  -0.07  -0.07     0.01   0.03   0.03
  21   1    -0.07  -0.03  -0.04    -0.01  -0.00  -0.00     0.00   0.01  -0.00
  22   1     0.01   0.01   0.03    -0.01  -0.00  -0.01     0.01   0.02   0.04
  23   1    -0.06   0.03  -0.01    -0.01  -0.00  -0.00    -0.12  -0.63  -0.08
  24   1    -0.06   0.01   0.01    -0.00  -0.00  -0.00     0.01  -0.12  -0.62
  25   1    -0.01  -0.00  -0.01     0.02   0.01   0.02    -0.01  -0.01  -0.01
  26   1     0.00  -0.00  -0.00    -0.03   0.00  -0.03    -0.08  -0.02  -0.11
  27   1    -0.00   0.00  -0.00    -0.01   0.04  -0.01     0.04   0.09  -0.10
  28   1     0.61  -0.24  -0.06     0.04  -0.01  -0.00     0.01  -0.00  -0.00
  29   1     0.44   0.22   0.42     0.02   0.01   0.02     0.01   0.00   0.01
  30   1     0.01  -0.01  -0.01    -0.22   0.42   0.33     0.00  -0.01  -0.01
  31   1    -0.01  -0.01  -0.01     0.35   0.34   0.25    -0.01  -0.00  -0.01
  32   1     0.00  -0.00  -0.00     0.01  -0.00  -0.01    -0.01   0.01   0.02
  33   1    -0.03  -0.00   0.03     0.10   0.03  -0.22    -0.02   0.01  -0.02
  34   1    -0.04   0.03   0.01     0.19  -0.20  -0.05    -0.04  -0.02  -0.02
  35   1    -0.02   0.01   0.03     0.13  -0.01  -0.19    -0.02   0.01   0.04
                     73                     74                     75
                        a                      a                      a 
 Frequencies --  1476.7911              1477.3574              1485.6038
 Red. masses --     1.6426                 1.7376                 1.8437
 Frc consts  --     0.0000                 0.0000                 0.0000
 IR Inten    --     2.5293                 0.6821                 1.2645
 Raman Activ --     0.0000                 0.0000                 0.0000
 Depolar     --     0.0000                 0.0000                 0.0000
 Atom AN      X      Y      Z        X      Y      Z        X      Y      Z
   1   6     0.01  -0.00  -0.00     0.01  -0.02   0.03     0.00   0.01  -0.00
   2   6     0.01   0.01  -0.01    -0.01   0.00  -0.01     0.01  -0.02   0.02
   3   6    -0.00  -0.00   0.01     0.00  -0.01   0.03     0.02  -0.08   0.14
   4   6     0.00  -0.01  -0.01     0.00  -0.01  -0.00    -0.05   0.17   0.11
   5   6     0.00  -0.00  -0.00    -0.00   0.00  -0.00    -0.00   0.02   0.01
   6   6    -0.00   0.00  -0.00    -0.00   0.00   0.00     0.01  -0.00  -0.00
   7   6    -0.00   0.00   0.00    -0.02  -0.03  -0.04     0.01   0.03   0.03
   8   6    -0.00   0.00   0.00    -0.00  -0.00  -0.00     0.00  -0.00  -0.00
   9   8     0.00  -0.00   0.00     0.00   0.00  -0.00    -0.00  -0.00   0.00
  10   6    -0.01   0.00  -0.02     0.07  -0.08   0.16     0.00  -0.01   0.02
  11   6     0.00  -0.00   0.00     0.00  -0.00   0.00    -0.01  -0.00  -0.00
  12   6    -0.04  -0.00   0.05     0.01  -0.00   0.02    -0.00   0.02   0.02
  13   6     0.01   0.00   0.00     0.00   0.03   0.03    -0.00  -0.01  -0.01
  14   1    -0.01  -0.03   0.01     0.03  -0.00   0.00     0.00   0.01   0.00
  15   8     0.00   0.00   0.00    -0.01  -0.00   0.02     0.00   0.00   0.00
  16   6     0.02  -0.22   0.06     0.12   0.02   0.08    -0.01  -0.02  -0.02
  17   1    -0.00  -0.00  -0.01    -0.03   0.00  -0.06    -0.21   0.02  -0.37
  18   1     0.00   0.01  -0.00     0.02   0.05  -0.03     0.10   0.37  -0.18
  19   1    -0.02   0.03  -0.00    -0.01   0.01  -0.00     0.35  -0.37   0.01
  20   1     0.01   0.02   0.03     0.00   0.01   0.01    -0.13  -0.34  -0.36
  21   1     0.00  -0.00  -0.00     0.00  -0.00   0.00    -0.00   0.01   0.00
  22   1     0.00   0.00   0.00    -0.00  -0.01  -0.02    -0.00   0.01   0.01
  23   1     0.00  -0.02  -0.00     0.02   0.11   0.01    -0.02  -0.12  -0.01
  24   1     0.00  -0.00  -0.02     0.02   0.02   0.12     0.00  -0.02  -0.11
  25   1    -0.00  -0.00  -0.00     0.00   0.00   0.00    -0.02   0.01  -0.01
  26   1     0.02   0.01   0.03    -0.34  -0.03  -0.37    -0.03  -0.01  -0.04
  27   1    -0.01  -0.02   0.02     0.11   0.34  -0.33     0.02   0.03  -0.04
  28   1    -0.00   0.00   0.00    -0.01   0.00   0.00     0.02  -0.01  -0.00
  29   1    -0.00  -0.00  -0.00    -0.00  -0.00  -0.00     0.01   0.01   0.01
  30   1     0.02  -0.03  -0.03     0.03  -0.05  -0.04     0.00  -0.02  -0.01
  31   1    -0.03  -0.03  -0.03    -0.04  -0.03  -0.03    -0.02  -0.03  -0.01
  32   1    -0.01   0.01   0.01    -0.00   0.00   0.00    -0.00   0.00   0.00
  33   1    -0.47   0.07  -0.15    -0.13   0.08  -0.38    -0.00  -0.01   0.07
  34   1     0.39   0.11   0.14    -0.17  -0.30  -0.18     0.03   0.06   0.04
  35   1     0.10   0.64  -0.28    -0.15   0.15   0.19     0.02   0.00  -0.03
                     76                     77                     78
                        a                      a                      a 
 Frequencies --  1495.6736              1497.1122              1705.8433
 Red. masses --     1.6798                 1.9283                11.1631
 Frc consts  --     0.0000                 0.0000                 0.0000
 IR Inten    --     7.4559                 0.3050                33.2616
 Raman Activ --     0.0000                 0.0000                 0.0000
 Depolar     --     0.0000                 0.0000                 0.0000
 Atom AN      X      Y      Z        X      Y      Z        X      Y      Z
   1   6    -0.00  -0.02   0.02     0.00   0.00   0.00     0.01   0.01   0.00
   2   6     0.01   0.01  -0.01     0.01   0.00   0.01     0.02   0.04   0.05
   3   6    -0.01   0.04  -0.07     0.02  -0.11   0.17    -0.00  -0.01  -0.00
   4   6    -0.01   0.02   0.01     0.05  -0.16  -0.08    -0.00   0.00   0.00
   5   6    -0.00  -0.00   0.00     0.00   0.00  -0.01     0.00  -0.00   0.00
   6   6     0.00   0.00   0.00    -0.01  -0.00  -0.00    -0.00  -0.00  -0.00
   7   6    -0.01  -0.03  -0.03     0.00   0.02   0.01    -0.00  -0.00   0.00
   8   6     0.00  -0.00  -0.01    -0.01   0.01   0.01    -0.00   0.00  -0.00
   9   8     0.00   0.00  -0.00     0.00   0.00  -0.00    -0.00  -0.00   0.00
  10   6     0.04  -0.06   0.14     0.01  -0.01   0.03    -0.00  -0.00   0.00
  11   6     0.00   0.00   0.00     0.01  -0.00   0.00     0.00  -0.00   0.00
  12   6    -0.01   0.01   0.00    -0.00  -0.03  -0.03    -0.08  -0.54  -0.48
  13   6    -0.00  -0.04  -0.03    -0.00  -0.04  -0.03     0.08   0.47   0.39
  14   1    -0.04   0.00  -0.01     0.02   0.00   0.01     0.10   0.03   0.02
  15   8     0.00   0.00   0.02     0.00   0.00   0.01     0.00  -0.00   0.00
  16   6    -0.09  -0.04  -0.11    -0.04   0.00  -0.03    -0.03   0.05   0.04
  17   1     0.09  -0.01   0.16    -0.23   0.01  -0.41    -0.01  -0.00  -0.01
  18   1    -0.05  -0.15   0.08     0.14   0.39  -0.22    -0.01   0.02  -0.00
  19   1     0.04  -0.04   0.00    -0.30   0.30   0.00     0.01  -0.00  -0.00
  20   1    -0.01  -0.04  -0.04     0.10   0.27   0.31    -0.00  -0.00  -0.00
  21   1     0.00   0.00   0.00     0.00  -0.02  -0.00    -0.00   0.00  -0.00
  22   1    -0.01  -0.01  -0.02     0.01  -0.00   0.00     0.00   0.00   0.00
  23   1     0.01   0.09   0.01    -0.00  -0.07  -0.01    -0.00  -0.00  -0.00
  24   1     0.02   0.01   0.09     0.00  -0.01  -0.06    -0.00  -0.00  -0.00
  25   1     0.00  -0.00   0.00     0.02  -0.01   0.01    -0.00   0.01  -0.00
  26   1    -0.28  -0.04  -0.32    -0.06  -0.01  -0.07    -0.00  -0.00  -0.00
  27   1     0.13   0.27  -0.32     0.03   0.06  -0.07     0.00   0.00  -0.01
  28   1    -0.00   0.00   0.00    -0.01   0.00   0.00    -0.00   0.00   0.00
  29   1    -0.00  -0.00  -0.00    -0.00  -0.00  -0.00     0.00  -0.00  -0.00
  30   1    -0.02   0.04   0.02    -0.05   0.09   0.07     0.13  -0.06  -0.04
  31   1     0.03   0.02   0.01     0.09   0.08   0.06    -0.16  -0.03  -0.01
  32   1    -0.01   0.00   0.02    -0.00   0.00   0.01    -0.00   0.00   0.00
  33   1     0.03  -0.08   0.46     0.03  -0.03   0.15    -0.06   0.01   0.06
  34   1     0.16   0.36   0.21     0.04   0.11   0.06    -0.02   0.05   0.02
  35   1     0.12  -0.09  -0.17     0.04  -0.06  -0.05     0.03  -0.03  -0.04
                     79                     80                     81
                        a                      a                      a 
 Frequencies --  1738.9810              2876.3869              2895.7769
 Red. masses --    11.5817                 1.7408                 1.7320
 Frc consts  --     0.0000                 0.0000                 0.0000
 IR Inten    --    30.4015                69.0082               124.9184
 Raman Activ --     0.0000                 0.0000                 0.0000
 Depolar     --     0.0000                 0.0000                 0.0000
 Atom AN      X      Y      Z        X      Y      Z        X      Y      Z
   1   6    -0.02   0.01   0.00    -0.00  -0.01   0.00    -0.00  -0.01   0.01
   2   6     0.00   0.00   0.00     0.00  -0.00  -0.00    -0.00   0.01   0.01
   3   6     0.00  -0.00   0.00    -0.00  -0.00   0.00    -0.00   0.00  -0.00
   4   6    -0.00  -0.01   0.00    -0.00  -0.00   0.00     0.00   0.00  -0.00
   5   6    -0.06  -0.03  -0.06    -0.00   0.00  -0.00     0.01  -0.01  -0.01
   6   6    -0.01  -0.01  -0.01     0.01   0.03  -0.01    -0.08  -0.21   0.12
   7   6    -0.08   0.03   0.00     0.00   0.01  -0.00     0.00   0.01  -0.01
   8   6     0.71  -0.01   0.25     0.00   0.00  -0.00     0.00  -0.00  -0.00
   9   8     0.00   0.00   0.00     0.00   0.00   0.00    -0.01  -0.01  -0.01
  10   6     0.00  -0.00   0.00    -0.13  -0.20   0.10    -0.02  -0.02   0.01
  11   6    -0.58   0.01  -0.20    -0.00   0.00   0.00     0.00   0.00   0.00
  12   6    -0.00  -0.00  -0.00     0.00   0.00   0.00     0.00  -0.00   0.00
  13   6     0.00   0.00   0.00     0.00  -0.00  -0.00    -0.00   0.00   0.00
  14   1    -0.00   0.00  -0.00    -0.00   0.01   0.01     0.01  -0.02  -0.05
  15   8     0.00  -0.00  -0.00    -0.01   0.00   0.01    -0.00   0.00   0.00
  16   6     0.00   0.00   0.00     0.00   0.00  -0.00    -0.00   0.00  -0.00
  17   1     0.00  -0.00  -0.00     0.00   0.00   0.00    -0.00  -0.00   0.00
  18   1     0.00  -0.00  -0.00    -0.00  -0.00  -0.00     0.00   0.00   0.00
  19   1    -0.00   0.01  -0.01     0.00   0.00   0.00    -0.00   0.00  -0.00
  20   1     0.00   0.00   0.01    -0.00   0.00  -0.00    -0.00   0.00  -0.00
  21   1     0.03   0.01   0.02     0.00  -0.00  -0.00    -0.03   0.01   0.03
  22   1     0.00  -0.00   0.00    -0.04  -0.10   0.05     0.34   0.80  -0.41
  23   1     0.02   0.00   0.00    -0.00   0.00   0.00    -0.00   0.00   0.01
  24   1     0.01   0.00   0.01    -0.00  -0.02   0.00    -0.01  -0.04   0.01
  25   1    -0.00   0.00  -0.00     0.00   0.00  -0.00    -0.01  -0.02   0.01
  26   1    -0.00  -0.00  -0.00     0.44   0.71  -0.46     0.05   0.09  -0.05
  27   1     0.00   0.00  -0.00     0.04  -0.01   0.06     0.01   0.00   0.01
  28   1     0.05  -0.09  -0.09    -0.00  -0.00  -0.00    -0.00  -0.00  -0.00
  29   1    -0.01   0.09   0.10    -0.00   0.00   0.00    -0.00  -0.00  -0.00
  30   1     0.00   0.00   0.00     0.00   0.00   0.00    -0.00   0.00   0.00
  31   1    -0.00  -0.00  -0.00    -0.00   0.00   0.00     0.00  -0.00  -0.00
  32   1    -0.00   0.00   0.00     0.00   0.00  -0.00     0.00   0.00  -0.00
  33   1    -0.00   0.00   0.00     0.00  -0.00  -0.00     0.00   0.00  -0.00
  34   1    -0.00   0.00   0.00    -0.00  -0.00   0.00    -0.00  -0.00   0.00
  35   1     0.00   0.00  -0.00    -0.00  -0.00  -0.00     0.00   0.00   0.00
                     82                     83                     84
                        a                      a                      a 
 Frequencies --  2906.3756              2938.8139              2963.4720
 Red. masses --     1.7542                 1.8432                 1.9108
 Frc consts  --     0.0000                 0.0000                 0.0000
 IR Inten    --    47.3162                58.0631                23.5908
 Raman Activ --     0.0000                 0.0000                 0.0000
 Depolar     --     0.0000                 0.0000                 0.0000
 Atom AN      X      Y      Z        X      Y      Z        X      Y      Z
   1   6     0.00   0.00  -0.01    -0.00  -0.01   0.00    -0.00  -0.00   0.00
   2   6     0.05  -0.08  -0.24    -0.00   0.00   0.00     0.00   0.00   0.01
   3   6     0.01   0.00   0.01    -0.00   0.00  -0.00     0.09   0.08   0.07
   4   6     0.00  -0.00   0.00    -0.00   0.00  -0.00    -0.19   0.05  -0.13
   5   6    -0.00  -0.00   0.00     0.00  -0.00  -0.00     0.05  -0.01  -0.07
   6   6    -0.00  -0.01   0.01    -0.00  -0.01   0.01     0.00   0.00  -0.00
   7   6    -0.00  -0.00   0.01    -0.05  -0.25   0.11     0.00   0.00  -0.00
   8   6     0.00  -0.00  -0.00     0.00  -0.01   0.00     0.00  -0.00  -0.00
   9   8    -0.00  -0.00  -0.00    -0.00   0.00  -0.00     0.00   0.00   0.00
  10   6     0.00   0.00  -0.00    -0.00  -0.00   0.00     0.00   0.00   0.00
  11   6    -0.00   0.00   0.00    -0.00   0.00   0.00     0.00  -0.00   0.00
  12   6    -0.00  -0.01  -0.01     0.00  -0.00   0.00    -0.00  -0.00   0.00
  13   6    -0.00   0.00   0.00    -0.00  -0.00  -0.00    -0.00   0.00   0.00
  14   1    -0.19   0.30   0.89     0.00  -0.00  -0.01     0.00  -0.01  -0.02
  15   8    -0.00  -0.00   0.00    -0.00   0.00   0.00    -0.00  -0.00   0.00
  16   6     0.00   0.00   0.01    -0.00   0.00  -0.00    -0.00  -0.00  -0.00
  17   1     0.00   0.00   0.00    -0.00  -0.00   0.00    -0.09  -0.18   0.06
  18   1    -0.05  -0.02  -0.05     0.01   0.01   0.01    -0.25  -0.10  -0.32
  19   1    -0.00  -0.00  -0.00     0.00   0.00   0.00     0.18   0.20   0.29
  20   1    -0.00   0.00  -0.00     0.00  -0.00   0.00     0.52  -0.38   0.17
  21   1     0.00  -0.00  -0.00    -0.01   0.00   0.01    -0.21   0.05   0.23
  22   1     0.02   0.04  -0.02     0.01   0.03  -0.02    -0.01  -0.01   0.01
  23   1     0.00   0.00  -0.02     0.01  -0.01  -0.21    -0.00  -0.00   0.02
  24   1     0.00   0.00   0.00     0.18   0.90  -0.18     0.00   0.00  -0.00
  25   1    -0.00  -0.00   0.00    -0.00  -0.00   0.00    -0.00  -0.00   0.00
  26   1    -0.00  -0.01   0.00     0.01   0.02  -0.01    -0.00  -0.00   0.00
  27   1     0.00   0.00   0.00    -0.00  -0.00  -0.00    -0.00  -0.00  -0.00
  28   1    -0.00  -0.00  -0.00    -0.00  -0.00  -0.00    -0.00   0.00  -0.00
  29   1     0.00  -0.00  -0.00     0.00   0.00   0.00     0.00  -0.00   0.00
  30   1     0.01   0.00   0.00     0.00   0.00   0.00     0.00   0.00   0.00
  31   1    -0.00   0.00   0.00     0.00  -0.00   0.00     0.01  -0.00  -0.00
  32   1    -0.00   0.00   0.00    -0.00   0.00   0.00     0.00   0.00   0.00
  33   1    -0.00  -0.01   0.00     0.00   0.00   0.00     0.00   0.00   0.00
  34   1     0.00   0.01  -0.02    -0.00  -0.00   0.00     0.00   0.00  -0.00
  35   1    -0.01  -0.00  -0.00     0.00   0.00   0.00     0.00   0.00   0.00
                     85                     86                     87
                        a                      a                      a 
 Frequencies --  2967.3517              2972.8002              2980.7558
 Red. masses --     1.7907                 1.9543                 1.6389
 Frc consts  --     0.0000                 0.0000                 0.0000
 IR Inten    --    59.8143                82.7981                38.5751
 Raman Activ --     0.0000                 0.0000                 0.0000
 Depolar     --     0.0000                 0.0000                 0.0000
 Atom AN      X      Y      Z        X      Y      Z        X      Y      Z
   1   6    -0.00   0.00  -0.00    -0.00  -0.00   0.00    -0.00   0.00   0.01
   2   6     0.00   0.00   0.01     0.00   0.01   0.01    -0.00   0.00   0.00
   3   6     0.06   0.06   0.04     0.16   0.17   0.07     0.02   0.03  -0.00
   4   6    -0.05  -0.02  -0.05     0.13  -0.05   0.07     0.01  -0.01  -0.01
   5   6    -0.16   0.04   0.18     0.04  -0.01  -0.04    -0.00  -0.00   0.00
   6   6    -0.01  -0.01   0.01     0.00   0.00  -0.00     0.00   0.00  -0.00
   7   6     0.00  -0.00  -0.01     0.00  -0.00  -0.03    -0.01   0.02   0.23
   8   6    -0.01   0.00   0.00     0.00  -0.00  -0.00    -0.00   0.00   0.01
   9   8    -0.00   0.00  -0.00    -0.00  -0.00   0.00    -0.00   0.00   0.00
  10   6     0.00  -0.00   0.00    -0.00   0.00  -0.00    -0.01  -0.00  -0.00
  11   6     0.00  -0.00  -0.00    -0.00   0.00   0.00     0.00  -0.00  -0.00
  12   6     0.00  -0.00   0.00    -0.00  -0.00   0.00     0.00   0.00  -0.00
  13   6    -0.00   0.00   0.00     0.00  -0.00  -0.00     0.00   0.00   0.00
  14   1     0.00  -0.01  -0.02     0.01  -0.01  -0.03     0.00  -0.00  -0.02
  15   8    -0.00   0.00   0.00     0.00  -0.00  -0.00    -0.00  -0.00  -0.00
  16   6    -0.00   0.00  -0.00    -0.00  -0.00   0.00     0.00   0.01  -0.01
  17   1    -0.09  -0.16   0.05    -0.27  -0.50   0.14    -0.06  -0.10   0.03
  18   1    -0.14  -0.05  -0.19    -0.29  -0.10  -0.38    -0.02  -0.00  -0.03
  19   1     0.12   0.11   0.18    -0.07  -0.09  -0.12     0.03   0.02   0.04
  20   1     0.04  -0.04   0.01    -0.39   0.28  -0.13    -0.05   0.03  -0.02
  21   1     0.58  -0.13  -0.65    -0.13   0.03   0.14     0.01  -0.00  -0.01
  22   1     0.01   0.03  -0.02    -0.00  -0.01   0.01    -0.00  -0.00   0.00
  23   1    -0.00  -0.01   0.05    -0.01  -0.02   0.11     0.09   0.13  -0.92
  24   1     0.00   0.02  -0.01     0.01   0.03  -0.01    -0.05  -0.21   0.08
  25   1    -0.00  -0.00   0.00     0.00   0.00  -0.00     0.00   0.00  -0.00
  26   1     0.00   0.00  -0.00    -0.00  -0.00   0.00    -0.00  -0.00   0.00
  27   1    -0.00  -0.00  -0.00     0.00   0.00   0.00     0.03   0.01   0.02
  28   1     0.00  -0.00  -0.00    -0.00  -0.00  -0.00     0.00   0.01   0.01
  29   1    -0.01   0.01   0.00     0.00  -0.00  -0.00    -0.00  -0.00  -0.00
  30   1     0.00   0.00   0.00    -0.00  -0.00  -0.00    -0.00  -0.00  -0.00
  31   1     0.00  -0.00  -0.00    -0.01   0.00   0.00     0.00  -0.00   0.00
  32   1     0.00  -0.00   0.00    -0.00   0.00   0.00     0.00  -0.00  -0.00
  33   1     0.00   0.00  -0.00    -0.00  -0.00   0.00    -0.00  -0.00  -0.00
  34   1    -0.00  -0.00   0.00     0.00   0.00  -0.00    -0.01  -0.02   0.04
  35   1     0.00   0.00   0.00     0.00   0.00   0.00     0.00   0.00   0.00
                     88                     89                     90
                        a                      a                      a 
 Frequencies --  2983.8266              2988.8402              2992.3573
 Red. masses --     1.7679                 1.5644                 1.5236
 Frc consts  --     0.0000                 0.0000                 0.0000
 IR Inten    --    33.2529               100.0106                85.9553
 Raman Activ --     0.0000                 0.0000                 0.0000
 Depolar     --     0.0000                 0.0000                 0.0000
 Atom AN      X      Y      Z        X      Y      Z        X      Y      Z
   1   6     0.00   0.00  -0.00     0.00  -0.00  -0.00    -0.00  -0.00  -0.00
   2   6     0.00  -0.00  -0.00     0.00  -0.00  -0.01     0.00   0.00  -0.01
   3   6     0.00  -0.01   0.01    -0.04   0.05  -0.13     0.01   0.10  -0.11
   4   6     0.00   0.00   0.00    -0.04  -0.11  -0.11    -0.02   0.12   0.06
   5   6     0.00   0.00  -0.00     0.02  -0.01  -0.02    -0.02   0.01   0.02
   6   6    -0.00  -0.00   0.00    -0.00   0.00  -0.00     0.00   0.00   0.00
   7   6     0.00  -0.00  -0.01     0.00   0.00  -0.02     0.00   0.00  -0.01
   8   6     0.00  -0.00  -0.00     0.00   0.00   0.00    -0.00   0.00  -0.00
   9   8    -0.00  -0.00   0.00     0.00   0.00  -0.00    -0.00  -0.00  -0.00
  10   6     0.01   0.00   0.01     0.01   0.00   0.01    -0.06  -0.02  -0.05
  11   6     0.00   0.00   0.00    -0.00   0.00   0.00     0.00  -0.00  -0.00
  12   6     0.00  -0.00  -0.01     0.00  -0.00  -0.00     0.00   0.00  -0.00
  13   6    -0.00   0.00   0.00    -0.00   0.00   0.00     0.00  -0.00  -0.00
  14   1    -0.00   0.01   0.01    -0.01   0.02   0.04    -0.01   0.01   0.03
  15   8     0.00   0.00   0.00     0.00   0.00   0.00     0.00  -0.00  -0.00
  16   6     0.03   0.13  -0.23     0.00   0.01  -0.01    -0.00   0.01  -0.01
  17   1     0.02   0.04  -0.01    -0.20  -0.34   0.07    -0.27  -0.46   0.10
  18   1    -0.03  -0.01  -0.03     0.33   0.14   0.40     0.24   0.11   0.29
  19   1    -0.01  -0.01  -0.01     0.34   0.29   0.47    -0.25  -0.21  -0.35
  20   1    -0.01   0.00  -0.00    -0.19   0.12  -0.08     0.32  -0.21   0.12
  21   1    -0.00   0.00   0.00    -0.07   0.02   0.08     0.06  -0.01  -0.07
  22   1     0.00   0.00   0.00    -0.00  -0.01   0.00    -0.00   0.00   0.00
  23   1    -0.00  -0.00   0.03    -0.01  -0.01   0.08    -0.00  -0.00   0.02
  24   1     0.00   0.01  -0.00     0.00   0.00  -0.00    -0.00  -0.00   0.00
  25   1    -0.00   0.00  -0.00    -0.00  -0.00   0.00    -0.00   0.00  -0.00
  26   1     0.00   0.00   0.00     0.00   0.00  -0.00    -0.02  -0.02   0.01
  27   1    -0.03  -0.01  -0.02    -0.04  -0.02  -0.03     0.24   0.09   0.16
  28   1    -0.00  -0.00  -0.00    -0.00  -0.00  -0.00     0.00   0.00   0.00
  29   1    -0.00   0.00   0.00     0.00  -0.00  -0.00    -0.00   0.00   0.00
  30   1     0.00   0.00   0.00     0.00   0.00   0.00    -0.00  -0.00  -0.00
  31   1    -0.00  -0.00   0.00     0.01  -0.01  -0.00    -0.01   0.00   0.00
  32   1    -0.00   0.00  -0.00    -0.00   0.00   0.00    -0.00  -0.00  -0.00
  33   1    -0.01  -0.06  -0.05    -0.00  -0.00  -0.00    -0.00  -0.01  -0.00
  34   1    -0.15  -0.42   0.84    -0.01  -0.02   0.04    -0.01  -0.02   0.05
  35   1     0.06   0.03   0.01    -0.00   0.00  -0.00     0.01   0.00   0.00
                     91                     92                     93
                        a                      a                      a 
 Frequencies --  2992.6190              3038.5831              3077.9328
 Red. masses --     1.6704                 1.6728                 1.6952
 Frc consts  --     0.0000                 0.0000                 0.0000
 IR Inten    --    39.7250                48.0295                 4.7211
 Raman Activ --     0.0000                 0.0000                 0.0000
 Depolar     --     0.0000                 0.0000                 0.0000
 Atom AN      X      Y      Z        X      Y      Z        X      Y      Z
   1   6     0.01   0.00   0.00    -0.00   0.00  -0.00     0.00   0.00  -0.00
   2   6     0.00   0.00  -0.00     0.00   0.00  -0.00     0.00  -0.00  -0.00
   3   6     0.01   0.03  -0.03    -0.00  -0.00  -0.00    -0.00   0.00  -0.00
   4   6    -0.00   0.05   0.03    -0.00  -0.00  -0.00     0.00  -0.00   0.00
   5   6    -0.01   0.00   0.01     0.00  -0.00  -0.00     0.00  -0.00  -0.00
   6   6    -0.00  -0.00   0.00    -0.00   0.00  -0.00     0.00  -0.00   0.00
   7   6    -0.00   0.00   0.01     0.00   0.00  -0.00     0.00   0.00  -0.00
   8   6    -0.00   0.00   0.00     0.00  -0.00   0.00    -0.00   0.00  -0.00
   9   8    -0.00  -0.00  -0.00     0.00   0.00   0.00    -0.00  -0.00   0.00
  10   6     0.18   0.06   0.14     0.00   0.00   0.00    -0.00  -0.00   0.00
  11   6     0.00  -0.00  -0.00    -0.00   0.00   0.00     0.00   0.00   0.00
  12   6    -0.00  -0.00   0.00    -0.01  -0.00  -0.00     0.00  -0.01  -0.00
  13   6     0.00  -0.00  -0.00     0.01   0.00   0.00     0.01   0.00   0.00
  14   1    -0.00   0.00   0.01    -0.00   0.00   0.01     0.00   0.00   0.01
  15   8    -0.00   0.00   0.01     0.00   0.00   0.00    -0.00  -0.00   0.00
  16   6     0.00  -0.00   0.01    -0.21  -0.04  -0.13    -0.04  -0.24  -0.06
  17   1    -0.08  -0.14   0.03     0.00   0.00  -0.00    -0.00  -0.00   0.00
  18   1     0.06   0.03   0.07     0.00   0.00   0.00     0.00   0.00   0.00
  19   1    -0.11  -0.09  -0.15     0.00   0.00   0.00    -0.00  -0.00   0.00
  20   1     0.11  -0.07   0.04    -0.00   0.00  -0.00    -0.00   0.00   0.00
  21   1     0.03  -0.01  -0.03    -0.00   0.00   0.00    -0.00   0.00   0.00
  22   1     0.00   0.01  -0.00    -0.00  -0.00   0.00    -0.00   0.00   0.00
  23   1     0.00   0.01  -0.04     0.00  -0.00   0.00     0.00   0.00   0.00
  24   1    -0.00  -0.02   0.01    -0.00  -0.00   0.00    -0.00  -0.00   0.00
  25   1     0.00   0.00  -0.00    -0.00  -0.00  -0.00     0.00   0.00  -0.00
  26   1     0.06   0.06  -0.02     0.00   0.00  -0.00     0.00   0.00  -0.00
  27   1    -0.71  -0.28  -0.49    -0.01  -0.00  -0.01    -0.00   0.00   0.00
  28   1     0.00   0.00   0.00     0.00   0.00   0.00    -0.00  -0.00  -0.00
  29   1    -0.00   0.00   0.00     0.00  -0.00  -0.00    -0.00   0.00   0.00
  30   1    -0.00  -0.00  -0.00    -0.03  -0.01  -0.01    -0.02  -0.01  -0.01
  31   1    -0.00   0.00   0.00    -0.00   0.00   0.00    -0.00   0.00   0.00
  32   1     0.01   0.00   0.01    -0.00  -0.00  -0.00     0.00   0.00  -0.00
  33   1    -0.00   0.00   0.00    -0.03  -0.02  -0.02     0.14   0.94   0.14
  34   1     0.00   0.01  -0.02    -0.02   0.03  -0.08    -0.02  -0.07   0.06
  35   1    -0.01  -0.00  -0.01     0.77   0.13   0.56     0.01  -0.02   0.01
                     94                     95                     96
                        a                      a                      a 
 Frequencies --  3098.5452              3101.4250              3121.2101
 Red. masses --     1.5401                 1.6219                 2.0674
 Frc consts  --     0.0000                 0.0000                 0.0000
 IR Inten    --    43.3337                48.7394                57.9505
 Raman Activ --     0.0000                 0.0000                 0.0000
 Depolar     --     0.0000                 0.0000                 0.0000
 Atom AN      X      Y      Z        X      Y      Z        X      Y      Z
   1   6     0.00  -0.00   0.00     0.00   0.00   0.00    -0.00   0.00   0.00
   2   6    -0.00   0.00   0.00    -0.00  -0.00  -0.00    -0.00   0.00   0.00
   3   6     0.00   0.00  -0.00     0.00  -0.00   0.00    -0.00  -0.00  -0.00
   4   6     0.00   0.00   0.00     0.00  -0.00   0.00    -0.00   0.00  -0.00
   5   6     0.00  -0.00  -0.00     0.00   0.00   0.00    -0.00  -0.00   0.00
   6   6     0.00   0.00  -0.00     0.00  -0.00   0.00     0.00   0.00   0.00
   7   6    -0.00   0.00   0.00    -0.00  -0.00  -0.00     0.00  -0.00  -0.00
   8   6    -0.01   0.00  -0.00     0.00  -0.00  -0.00    -0.00   0.01   0.01
   9   8     0.00  -0.00   0.00     0.00   0.00  -0.00     0.00  -0.00   0.00
  10   6    -0.00   0.00  -0.00    -0.00  -0.00  -0.00     0.00  -0.00   0.00
  11   6     0.18   0.04   0.11    -0.00  -0.00  -0.00    -0.11   0.21   0.20
  12   6     0.00  -0.00  -0.00     0.01  -0.01  -0.01    -0.00  -0.00   0.00
  13   6     0.00   0.00   0.00     0.16   0.13   0.11    -0.00   0.00   0.00
  14   1     0.00  -0.00  -0.00     0.00   0.00   0.01     0.00  -0.00  -0.00
  15   8     0.00  -0.00  -0.00    -0.00   0.00  -0.00     0.00   0.00  -0.00
  16   6     0.00   0.00   0.00     0.01   0.01   0.00     0.00  -0.00   0.00
  17   1    -0.00  -0.00  -0.00     0.00   0.00  -0.00    -0.00  -0.00  -0.00
  18   1     0.00   0.00   0.00    -0.00  -0.00  -0.00     0.00   0.00   0.00
  19   1    -0.00  -0.00  -0.00    -0.00  -0.00  -0.00    -0.00   0.00  -0.00
  20   1    -0.00   0.00  -0.00    -0.00   0.00  -0.00     0.00  -0.00   0.00
  21   1    -0.00   0.00   0.00    -0.00  -0.00   0.00     0.00  -0.00  -0.01
  22   1    -0.00  -0.00   0.00    -0.00  -0.00   0.00    -0.00   0.00   0.00
  23   1     0.00   0.00  -0.01    -0.00  -0.00   0.00     0.00   0.00  -0.01
  24   1    -0.00  -0.01   0.00     0.00   0.00  -0.00     0.00  -0.00   0.00
  25   1     0.00   0.00  -0.00    -0.00  -0.00   0.00    -0.00   0.00  -0.00
  26   1    -0.00  -0.00   0.00    -0.00   0.00  -0.00     0.00   0.00   0.00
  27   1     0.00   0.00   0.00     0.00   0.00   0.00    -0.00  -0.00  -0.00
  28   1    -0.23  -0.47  -0.63     0.01   0.01   0.01    -0.17  -0.28  -0.39
  29   1    -0.35   0.32   0.24     0.01  -0.01  -0.01     0.57  -0.46  -0.33
  30   1    -0.02  -0.01  -0.01    -0.84  -0.26  -0.24     0.00   0.00   0.00
  31   1     0.01  -0.00  -0.00     0.27  -0.16  -0.11     0.01  -0.01  -0.00
  32   1     0.00   0.00   0.00     0.00  -0.00   0.00     0.00  -0.00  -0.00
  33   1    -0.00  -0.00  -0.00    -0.00  -0.02  -0.00     0.00   0.00   0.00
  34   1     0.00   0.00  -0.00     0.00  -0.00   0.01     0.00   0.00  -0.00
  35   1    -0.00   0.00   0.00    -0.03  -0.00  -0.02    -0.00  -0.00  -0.00
                     97                     98                     99
                        a                      a                      a 
 Frequencies --  3122.4506              3412.8699              3517.2997
 Red. masses --     1.9747                 1.8691                 1.8738
 Frc consts  --     0.0000                 0.0000                 0.0000
 IR Inten    --    52.0392               318.5124                31.0225
 Raman Activ --     0.0000                 0.0000                 0.0000
 Depolar     --     0.0000                 0.0000                 0.0000
 Atom AN      X      Y      Z        X      Y      Z        X      Y      Z
   1   6     0.00  -0.00  -0.00     0.00  -0.00  -0.00     0.00   0.00   0.00
   2   6    -0.00  -0.00  -0.00    -0.00  -0.00   0.00    -0.00   0.00  -0.00
   3   6    -0.00  -0.00  -0.00     0.00  -0.00   0.00    -0.00  -0.00  -0.00
   4   6    -0.00  -0.00  -0.00     0.00   0.00   0.00    -0.00  -0.00  -0.00
   5   6    -0.00  -0.00   0.00     0.00  -0.00  -0.00     0.00  -0.00  -0.00
   6   6    -0.00  -0.00   0.00     0.01   0.01   0.00    -0.00   0.00  -0.00
   7   6     0.00  -0.00   0.00     0.00   0.00   0.00     0.00  -0.00  -0.00
   8   6    -0.00   0.00   0.00     0.00   0.00   0.00     0.00   0.00   0.00
   9   8    -0.00  -0.00   0.00     0.13   0.17  -0.11     0.00   0.00   0.00
  10   6    -0.00  -0.00  -0.00     0.00   0.00   0.00    -0.00  -0.00  -0.01
  11   6    -0.00   0.00   0.00     0.00   0.00   0.00    -0.00  -0.00  -0.00
  12   6     0.02   0.00   0.00     0.00  -0.00  -0.00    -0.00   0.00  -0.00
  13   6     0.26  -0.11  -0.08     0.00  -0.00   0.00    -0.00  -0.00   0.00
  14   1     0.00   0.00   0.00    -0.00  -0.00  -0.00     0.00  -0.00   0.00
  15   8    -0.00  -0.00   0.00     0.00  -0.00  -0.00    -0.18  -0.08  -0.13
  16   6     0.00   0.00   0.00    -0.00   0.00   0.00    -0.00   0.00  -0.00
  17   1     0.00   0.00  -0.00    -0.00   0.00  -0.00     0.00   0.00  -0.00
  18   1     0.00   0.00   0.00     0.00  -0.00  -0.00     0.00   0.00   0.00
  19   1     0.01   0.01   0.01    -0.00  -0.00  -0.00     0.00   0.00   0.00
  20   1     0.00  -0.00   0.00    -0.00   0.00  -0.00    -0.00   0.00   0.00
  21   1     0.00  -0.00  -0.00    -0.00   0.00   0.00    -0.00   0.00   0.00
  22   1     0.00   0.00  -0.00    -0.01  -0.01   0.01    -0.00  -0.00   0.00
  23   1     0.00  -0.00  -0.00    -0.00  -0.00  -0.00    -0.00   0.00   0.00
  24   1     0.00   0.00  -0.00    -0.00  -0.00   0.00     0.00  -0.00   0.00
  25   1     0.01   0.01  -0.01    -0.55  -0.68   0.42    -0.00  -0.00   0.00
  26   1    -0.00  -0.00   0.00     0.00  -0.00   0.00     0.00  -0.00   0.00
  27   1     0.00   0.00   0.00    -0.00  -0.00   0.00     0.01   0.00   0.00
  28   1    -0.00  -0.00  -0.00    -0.00  -0.00  -0.00    -0.00   0.00   0.00
  29   1     0.01  -0.01  -0.00    -0.00   0.00   0.00     0.00  -0.00  -0.00
  30   1    -0.27  -0.11  -0.10    -0.00  -0.00   0.00     0.00   0.00   0.00
  31   1    -0.68   0.49   0.34    -0.01   0.02  -0.00     0.00  -0.00  -0.00
  32   1     0.00   0.00   0.00    -0.00  -0.00  -0.00     0.73   0.32   0.55
  33   1    -0.00  -0.01  -0.00    -0.00   0.00   0.00    -0.00  -0.00  -0.00
  34   1     0.00   0.00   0.00    -0.00  -0.00   0.00    -0.00  -0.00   0.00
  35   1    -0.02  -0.00  -0.01    -0.00  -0.00  -0.00     0.00  -0.00   0.00
