
                                 *****************
                                 * O   R   C   A *
                                 *****************

                                            #,                                       
                                            ###                                      
                                            ####                                     
                                            #####                                    
                                            ######                                   
                                           ########,                                 
                                     ,,################,,,,,                         
                               ,,#################################,,                 
                          ,,##########################################,,             
                       ,#########################################, ''#####,          
                    ,#############################################,,   '####,        
                  ,##################################################,,,,####,       
                ,###########''''           ''''###############################       
              ,#####''   ,,,,##########,,,,          '''####'''          '####       
            ,##' ,,,,###########################,,,                        '##       
           ' ,,###''''                  '''############,,,                           
         ,,##''                                '''############,,,,        ,,,,,,###''
      ,#''                                            '''#######################'''  
     '                                                          ''''####''''         
             ,#######,   #######,   ,#######,      ##                                
            ,#'     '#,  ##    ##  ,#'     '#,    #''#        ,####,    ,#,          
            ##       ##  ##   ,#'  ##            #'  '#       #'       ,# #          
            ##       ##  #######   ##           ,######,      #####,      #          
            '#,     ,#'  ##    ##  '#,     ,#' ,#      #,     #,   #      #          
             '#######'   ##     ##  '#######'  #'      '#     '####' #    #          



                #########################################################
                #                        -***-                          #
                #          Department of theory and spectroscopy        #
                #                                                       #
                #                      Frank Neese                      #
                #                                                       #
                #     Directorship, Architecture, Infrastructure        #
                #                    SHARK, DRIVERS                     #
                #        Core code/Algorithms in most modules           #
                #                                                       #
                #        Max Planck Institute fuer Kohlenforschung      #
                #                Kaiser Wilhelm Platz 1                 #
                #                 D-45470 Muelheim/Ruhr                 #
                #                      Germany                          #
                #                                                       #
                #                  All rights reserved                  #
                #                        -***-                          #
                #########################################################


                         Program Version 6.1.1  -  RELEASE   -
                                (GIT: $487d211c$)
                          ($2025-11-21 10:33:24 +0100$)


 With contributions from (in alphabetic order):
[Max-Planck-Institut fuer Kohlenforschung]                               
  Daniel Aravena         : Magnetic Suceptibility                        
  Michael Atanasov       : Ab Initio Ligand Field Theory (pilot matlab implementation)
  Alexander A. Auer      : GIAO ZORA, VPT2 properties, NMR spectrum      
  Ute Becker             : All parallelization in ORCA, NUMFREQ, NUMCALC 
  Giovanni Bistoni       : ED, misc. LED, open-shell LED, HFLD           
  Dmytro Bykov           : pre 5.0 version of the SCF Hessian            
  Marcos Casanova-Páez   : Triplet and SCS-CIS(D). UHF-(DLPNO)-IP/EA/STEOM-CCSD. UHF-CVS-IP/STEOM-CCSD   
  Vijay G. Chilkuri      : MRCI spin determinant printing, contributions to CSF-ICE 
  Pauline Colinet        : FMM embedding                                 
  Dipayan Datta          : RHF DLPNO-CCSD density                        
  Achintya Kumar Dutta   : EOM-CC, STEOM-CC                              
  Nicolas Foglia         : Exact transition moments, OPA infrastructure, MCD improvements    
  Dmitry Ganyushin       : Spin-Orbit,Spin-Spin,Magnetic field MRCI      
  Miquel Garcia-Rates    : C-PCM and meta-GGA Hessian, CCSD/C-PCM, Gaussian charge scheme 
  Tiago L. C. Gouveia    : GS-ROHF, GS-ROCIS                             
  Yang Guo               : DLPNO-NEVPT2, F12-NEVPT2, CIM, IAO-localization        
  Andreas Hansen         : Spin unrestricted coupled pair/coupled cluster methods 
  Ingolf Harden          : AUTO-CI MPn and infrastructure                
  Benjamin Helmich-Paris : MC-RPA, TRAH-(SCF,CASSCF), AVAS, COSX integrals, SCF dyn. polar., MC-PDFT, srDFT 
  Lee Huntington         : MR-EOM, pCC                                   
  Robert Izsak           : Overlap fitted RIJCOSX, COSX-SCS-MP3, EOM     
  Riya Kayal             : Wick's Theorem for AUTO-CI, AUTO-CI UHF-CCSDT 
  Emily Kempfer          : AUTO-CI RHF CISDT and CCSDT, approximate NEVPT4
  Christian Kollmar      : KDIIS, OOCD, Brueckner-CCSD(T), CCSD density, CASPT2, CASPT2-K, improved NEVPT2 
  Axel Koslowski         : Symmetry handling                             
  Simone Kossmann        : meta-GGA functionals, TD-DFT gradient, OOMP2, (MP2 Hessian; deprecated post 5.0) 
  Lucas Lang             : DCDCAS, Hyperfine gauge corrections, ICE-SOC+SSC
  Marvin Lechner         : AUTO-CI (C++ implementation), FIC-MRCC        
  Spencer Leger          : CASSCF response                               
  Dagmar Lenk            : GEPOL surface, SMD, ORCA-2-JSON               
  Dimitrios Liakos       : Extrapolation schemes; Compound Job, Property file
  Dimitrios Manganas     : Further ROCIS development; embedding schemes. LFT, Crystal Embedding 
  Dimitrios Pantazis     : SARC Basis sets                               
  Anastasios Papadopoulos: AUTO-CI, single reference methods and gradients 
  Taras Petrenko         : pre 6.0 DFT Hessian and TD-DFT gradient,  ECA, NRVS 
  Petra Pikulova         : Analytic Raman intensities                    
  Peter Pinski           : DLPNO-MP2, DLPNO-MP2 Gradient                 
  Shashank Vittal Rao    : ES-AILFT, MagRelax                            
  Christoph Reimann      : Effective Core Potentials                     
  Marius Retegan         : Local ZFS, SOC                                
  Christoph Riplinger    : Optimizer, TS searches, QM/MM, DLPNO-CCSD(T), (RO)-DLPNO pert. Triples 
  Michael Roemelt        : Original ROCIS implementation, recursive CI coupling coefficients
  Masaaki Saitow         : Open-shell DLPNO-CCSD energy and density      
  Barbara Sandhoefer     : DKH picture change effects                    
  Yorick L. A. Schmerwitz: GMF and freeze-and-release deltaSCF, NEB S-IDPP initial path                    
  Kantharuban Sivalingam : CASSCF convergence/infrastructure, NEVPT2, NEVPT3, NEVPT4(SD), FIC-MRCI and CEPA variants
  Bernardo de Souza      : ESD, SOC TD-DFT                               
  Georgi L. Stoychev     : AutoAux, RI-MP2 NMR, DLPNO-MP2 response, X2C  
  Van Anh Tran           : RI-MP2 g-tensors                              
  Willem Van den Heuvel  : Paramagnetic NMR                              
  Zikuan Wang            : NOTCH, Electric field optimization            
  Frank Wennmohs         : Technical directorship and infrastructure     
  Hang Xu                : AUTO-CI-Response properties                   
                                                                         
[FACCTs GmbH]                                                            
  Markus Bursch, Nicolas Foglia, Miquel Garcia-Rates, Ingolf Harden, Hagen Neugebauer, Anastasios Papadopoulos, 
  Christoph Riplinger, Bernardo de Souza, Georgi L. Stoychev                                                    
                                                                 
  APM, various basis sets, CI-OPT, improved COSX, DLPNO-Multilevel,           
  DOCKER, DRACO, updates on ESD, Fragmentator, GOAT, IRC, LR-CPCM, L-BFGS, MBIS, meta-GGA TD-DFT gradient, ML-optimized integration grids, 
  MM, NACMEs, nearIR, NEB, NEB-TS, NL-DFT gradient (VV10), 2- and 3-layer-ONIOM, interface openCOSMO-RS, QMMM,   
  Crystal-QMMM, RESP, rigid body optimization, SF, symmetry and pop. for TD-DFT, various functionals, SOLVATOR                                   
                                                                         
[Other institutions]                                                     
  V. Asgeirsson          : NEB                                           
  Christoph Bannwarth    : sTDA-DFT, sTD-DFT, PBEh-3c, B97-3c, D3        
  Giovanni Bistoni       : ETS/NOCV, ADLD/ADEX, COVALED                  
  Martin Brehm           : Molecular dynamics                            
  Ronald Cardenas        : ETS/NOCV                                      
  Martina Colucci        : COVALED                                       
  Sebastian Ehlert       : rSCAN, r2SCAN, r2SCAN-3c, D4, dhf basis sets  
  Marvin Friede          : D4 for Fr, Ra, Ac-Lr                          
  Lars Goerigk           : TD-DFT with DH, B97 family of functionals     
  Stefan Grimme          : VdW corrections, initial TS optimization, DFT functionals, gCP, sTDA/sTD-DF 
  Waldemar Hujo          : DFT-NL                                        
  H. Jonsson             : NEB                                           
  Holger Kruse           : gCP                                           
  Marcel Mueller         : wB97X-3c, vDZP basis set                      
  Hagen Neugebauer       : wr2SCAN, Native XTB                           
  Gianluca Regni         : ADLD/ADEX                                     
  Tobias Risthaus        : pre 6.0 range-separated hybrid DFT and stability analysis
  Lukas Wittmann         : regularized MP2, r2SCAN double-hybrids, wr2SCAN        
                                                                         
We gratefully acknowledge several colleagues who have allowed us to      
interface, adapt or use parts of their codes:                            
  Ed Valeev, F. Pavosevic, A. Kumar             : LibInt (2-el integral package), F12 methods 
  Garnet Chan, S. Sharma, J. Yang, R. Olivares  : DMRG                   
  Ulf Ekstrom                                   : XCFun DFT Library      
  Mihaly Kallay                                 : mrcc  (arbitrary order and MRCC methods)
  Frank Weinhold                                : gennbo (NPA and NBO analysis)           
  Simon Mueller                                 : openCOSMO-RS                            
  Christopher J. Cramer and Donald G. Truhlar   : smd solvation model                     
  S Lehtola, MJT Oliveira, MAL Marques          : LibXC Library                           
  Liviu Ungur et al                             : ANISO software                          


 Your calculation uses the libint2 library for the computation of 2-el integrals
 For citations please refer to: http://libint.valeyev.net

 Your ORCA version has been built with support for libXC version: 7.0.0
 For citations please refer to: https://libxc.gitlab.io

 This ORCA versions uses:
   CBLAS   interface :  Fast vector & matrix operations
   LAPACKE interface :  Fast linear algebra routines
   SCALAPACK package :  Parallel linear algebra routines
   Shared memory     :  Shared parallel matrices
   BLAS/LAPACK       :  OpenBLAS 0.3.29  USE64BITINT DYNAMIC_ARCH NO_AFFINITY Haswell SINGLE_THREADED
        Core in use  :  Haswell
   Copyright (c) 2011-2014, The OpenBLAS Project


  ***********************************
  * Starting time: Sun Aug  9 17:02:13 2026
  * Host name:     localhost.localdomain
  * Process ID:    2960021
  * Working dir.:  /home/dinglab/calculation/templates/NMR_modules/autohnmr/alpha_diol_screening/CONF8/b3lyp-3c
  ***********************************

NOTE: MaxCore=2500 MB was set to SCF,MP2,MDCI,CIPSI,MRCI,RASCI and CIS
      => If you want to overwrite this, your respective input block should be placed after the MaxCore statement
Your calculation utilizes the geometrical counterpoise correction gCP
Please cite in your paper:
H.Kruse, S. Grimme J.Chem.Phys., 136, (2012), 154101 
   

Your calculation utilizes the atom-pairwise dispersion correction
with the Becke-Johnson damping scheme (D3BJ)


Warning: RI is on but no J-basis has been assigned. Assigning Def2/J (nothing to worry about!)
================================================================================

----- Orbital basis set information -----
Your calculation utilizes the basis: def2-mSVP

----- AuxJ basis set information -----
Your calculation utilizes the auxiliary basis: def2/J
   H-Rn: F. Weigend, Phys. Chem. Chem. Phys. 8, 1057 (2006).
   Fr-Lr: K. Eichkorn, F. Weigend, O. Treutler, R. Ahlrichs; Theor. Chem. Acc. 97, 119 (1997).

================================================================================
                                        WARNINGS
                       Please study these warnings very carefully!
================================================================================

WARNING: Old DensityContainer found on disk!
         Will remove this file - 
         If you want to keep old densities, please start your calculation with a different basename. 


================================================================================
                                       INPUT FILE
================================================================================
NAME = inp
|  1> ! b3lyp
|  2> ! d3bj ABC
|  3> ! def2-mSVP
|  4> ! GCP(DFT/SV(P))
|  5> ! DEFGRID2
|  6> ! scfconv6
|  7> ! miniprint nopop noautostart
|  8> %MaxCore 2500
|  9> %pal
| 10>     nprocs 12
| 11> end
| 12> ! CPCM(chloroform)
| 13> *xyz 0 1
| 14> C    0.1268606459  -0.5834780469   0.4101911085
| 15> C   -0.9483905759   0.5298953820   0.7246307523
| 16> C   -0.3478812591   1.9594892238   0.5229966900
| 17> C    0.5979911411   2.1092234794  -0.6906674010
| 18> C    1.5656932023   0.9001745957  -0.8120220458
| 19> C    0.7176818131  -0.3651591070  -1.0175784111
| 20> C    1.3811533853  -0.3374082566   1.3134076244
| 21> C    2.2568046833   0.6343249146   0.5206908624
| 22> O    1.5766926795  -1.4394571953  -1.4214538304
| 23> C   -0.4320601527  -2.0111197256   0.6019255279
| 24> C    3.4191730464   1.1592669823   0.9229375629
| 25> C   -2.3135686435   0.3330305886   0.0449217441
| 26> C   -2.5857079439   0.6253469363  -1.2402617540
| 27> H   -1.1467629907   0.4337988771   1.8059473820
| 28> O   -1.1576915383  -2.5156335284  -0.5328584458
| 29> C   -3.4198020643  -0.1643916619   0.9614110179
| 30> H   -1.1649394494   2.6943609310   0.4573886120
| 31> H    0.2200759293   2.2162673217   1.4314907228
| 32> H    0.0272890651   2.2035152463  -1.6294601998
| 33> H    1.1794086303   3.0389922484  -0.5822340262
| 34> H    2.2755839319   1.0649416838  -1.6374278421
| 35> H   -0.0661029799  -0.2084653201  -1.7755201588
| 36> H    1.9252939835  -1.2820792409   1.4756998754
| 37> H    1.1151678605   0.0501487622   2.3096263755
| 38> H    0.9951037602  -2.2115799381  -1.5862072726
| 39> H   -1.0451345093  -2.0576283583   1.5225409217
| 40> H    0.4010497555  -2.7155200030   0.7430234315
| 41> H    3.8444097998   0.9359961765   1.9047894195
| 42> H    3.9947810509   1.8327622404   0.2830511858
| 43> H   -3.5912231563   0.4886224023  -1.6454555757
| 44> H   -1.8459425051   1.0275871291  -1.9318662668
| 45> H   -1.8298860233  -1.8477888836  -0.7862780405
| 46> H   -3.1560950627  -1.1200448980   1.4435674978
| 47> H   -3.5890158019   0.5583402632   1.7779502773
| 48> H   -4.3683633014  -0.3023765321   0.4226196673
| 49> *
| 50> 
| 51>                          ****END OF INPUT****
================================================================================

                       ****************************
                       * Single Point Calculation *
                       ****************************

---------------------------------
CARTESIAN COORDINATES (ANGSTROEM)
---------------------------------
  C      0.126861   -0.583478    0.410191
  C     -0.948391    0.529895    0.724631
  C     -0.347881    1.959489    0.522997
  C      0.597991    2.109223   -0.690667
  C      1.565693    0.900175   -0.812022
  C      0.717682   -0.365159   -1.017578
  C      1.381153   -0.337408    1.313408
  C      2.256805    0.634325    0.520691
  O      1.576693   -1.439457   -1.421454
  C     -0.432060   -2.011120    0.601926
  C      3.419173    1.159267    0.922938
  C     -2.313569    0.333031    0.044922
  C     -2.585708    0.625347   -1.240262
  H     -1.146763    0.433799    1.805947
  O     -1.157692   -2.515634   -0.532858
  C     -3.419802   -0.164392    0.961411
  H     -1.164939    2.694361    0.457389
  H      0.220076    2.216267    1.431491
  H      0.027289    2.203515   -1.629460
  H      1.179409    3.038992   -0.582234
  H      2.275584    1.064942   -1.637428
  H     -0.066103   -0.208465   -1.775520
  H      1.925294   -1.282079    1.475700
  H      1.115168    0.050149    2.309626
  H      0.995104   -2.211580   -1.586207
  H     -1.045135   -2.057628    1.522541
  H      0.401050   -2.715520    0.743023
  H      3.844410    0.935996    1.904789
  H      3.994781    1.832762    0.283051
  H     -3.591223    0.488622   -1.645456
  H     -1.845943    1.027587   -1.931866
  H     -1.829886   -1.847789   -0.786278
  H     -3.156095   -1.120045    1.443567
  H     -3.589016    0.558340    1.777950
  H     -4.368363   -0.302377    0.422620

----------------------------
CARTESIAN COORDINATES (A.U.)
----------------------------
  NO LB      ZA    FRAG     MASS         X           Y           Z
   0 C     6.0000    0    12.011    0.239732   -1.102614    0.775149
   1 C     6.0000    0    12.011   -1.792198    1.001357    1.369354
   2 C     6.0000    0    12.011   -0.657400    3.702898    0.988321
   3 C     6.0000    0    12.011    1.130039    3.985855   -1.305172
   4 C     6.0000    0    12.011    2.958731    1.701083   -1.534499
   5 C     6.0000    0    12.011    1.356222   -0.690051   -1.922945
   6 C     6.0000    0    12.011    2.610002   -0.637609    2.481981
   7 C     6.0000    0    12.011    4.264743    1.198700    0.983963
   8 O     8.0000    0    15.999    2.979517   -2.720180   -2.686158
   9 C     6.0000    0    12.011   -0.816475   -3.800466    1.137474
  10 C     6.0000    0    12.011    6.461301    2.190697    1.744099
  11 C     6.0000    0    12.011   -4.372011    0.629337    0.084890
  12 C     6.0000    0    12.011   -4.886280    1.181734   -2.343755
  13 H     1.0000    0     1.008   -2.167068    0.819761    3.412746
  14 O     8.0000    0    15.999   -2.187720   -4.753858   -1.006957
  15 C     6.0000    0    12.011   -6.462489   -0.310655    1.816804
  16 H     1.0000    0     1.008   -2.201417    5.091604    0.864339
  17 H     1.0000    0     1.008    0.415883    4.188138    2.705125
  18 H     1.0000    0     1.008    0.051569    4.164040   -3.079234
  19 H     1.0000    0     1.008    2.228759    5.742863   -1.100263
  20 H     1.0000    0     1.008    4.300230    2.012448   -3.094290
  21 H     1.0000    0     1.008   -0.124917   -0.393942   -3.355247
  22 H     1.0000    0     1.008    3.638278   -2.422779    2.788669
  23 H     1.0000    0     1.008    2.107362    0.094767    4.364561
  24 H     1.0000    0     1.008    1.880474   -4.179280   -2.997497
  25 H     1.0000    0     1.008   -1.975018   -3.888354    2.877185
  26 H     1.0000    0     1.008    0.757874   -5.131589    1.404111
  27 H     1.0000    0     1.008    7.264882    1.768776    3.599530
  28 H     1.0000    0     1.008    7.549042    3.463419    0.534889
  29 H     1.0000    0     1.008   -6.786428    0.923363   -3.109460
  30 H     1.0000    0     1.008   -3.488326    1.941858   -3.650698
  31 H     1.0000    0     1.008   -3.457983   -3.491815   -1.485850
  32 H     1.0000    0     1.008   -5.964155   -2.116578    2.727947
  33 H     1.0000    0     1.008   -6.782257    1.055110    3.359839
  34 H     1.0000    0     1.008   -8.255010   -0.571409    0.798635



           ************************************************************
           *        Program running with 12 parallel MPI-processes    *
           *              working on a common directory               *
           ************************************************************
------------------------------------------------------------------------------
                   ___                                                        
                  /   \      - P O W E R E D   B Y -                         
                 /     \                                                     
                 |  |  |   _    _      __       _____    __    __             
                 |  |  |  | |  | |    /  \     |  _  \  |  |  /  |          
                  \  \/   | |  | |   /    \    | | | |  |  | /  /          
                 / \  \   | |__| |  /  /\  \   | |_| |  |  |/  /          
                |  |  |   |  __  | /  /__\  \  |    /   |      \           
                |  |  |   | |  | | |   __   |  |    \   |  |\   \          
                \     /   | |  | | |  |  |  |  | |\  \  |  | \   \       
                 \___/    |_|  |_| |__|  |__|  |_| \__\ |__|  \__/        
                                                                              
                      - O R C A' S   B I G   F R I E N D -                    
                                      &                                       
                       - I N T E G R A L  F E E D E R -                       
                                                                              
 v1 FN, 2020, v2 2021, v3 2022-2024                                           
------------------------------------------------------------------------------


----------------------
SHARK INTEGRAL PACKAGE
----------------------

Number of atoms                             ...     35
Number of basis functions                   ...    265
Number of shells                            ...    145
Maximum angular momentum                    ...      2
Integral batch strategy                     ... SHARK/LIBINT Hybrid
RI-J (if used) integral strategy            ... SPLIT-RIJ (Revised 2003 algorithm where possible)
Printlevel                                  ...      1
Contraction scheme used                     ... SEGMENTED contraction
Prescreening option                         ... SCHWARTZ
   Thresh                                   ... 1.000e-10
   Tcut                                     ... 1.000e-11
   Tpresel                                  ... 1.000e-11 
Coulomb Range Separation                    ... NOT USED
Exchange Range Separation                   ... NOT USED
Multipole approximations                    ... NOT USED
Finite Nucleus Model                        ... NOT USED
CABS basis                                  ... NOT available
Auxiliary Coulomb fitting basis             ... AVAILABLE
   # of basis functions in Aux-J            ...    955
   # of shells in Aux-J                     ...    325
   Maximum angular momentum in Aux-J        ...      4
Auxiliary J/K fitting basis                 ... NOT available
Auxiliary Correlation fitting basis         ... NOT available
Auxiliary 'external' fitting basis          ... NOT available

Checking pre-screening integrals            ... done (  0.0 sec) Dimension = 145
   => SHARK Basis and OBASIS are compatible. Storing Pre-screening
Shell pair information
Shell pair cut-off parameter TPreSel        ...   1.0e-11
Total number of shell pairs                 ...     10585
Shell pairs after pre-screening             ...      8873
Total number of primitive shell pairs       ...     38205
Primitive shell pairs kept                  ...     20879
          la=0 lb=0:   3914 shell pairs
          la=1 lb=0:   2757 shell pairs
          la=1 lb=1:    457 shell pairs
          la=2 lb=0:   1212 shell pairs
          la=2 lb=1:    427 shell pairs
          la=2 lb=2:    106 shell pairs

Checking whether 4 symmetric matrices of dimension 265 fit in memory
:Max Core in MB      =   2500.00
 MB in use           =     14.34
 MB left             =   2485.66
 MB needed           =      1.08
 Data fit in memory  = YES
Calculating RI/J V-Matrix + Cholesky decomp.... done (  0.0 sec)
Calculating Nuclear repulsion               ... done (  0.0 sec) ENN=   1111.472979684550 Eh

Diagonalization of the overlap matrix:
Smallest eigenvalue                        ... 1.927e-03
Time for diagonalization                   ...    0.013 sec
Threshold for overlap eigenvalues          ... 1.000e-07
Number of eigenvalues below threshold      ... 0
Time for construction of square roots      ...    0.004 sec
Total time needed                          ...    0.018 sec

-------------------
DFT GRID GENERATION
-------------------

General Integration Accuracy     IntAcc      ... 4.388
Radial Grid Type                 RadialGrid  ... OptM3 with GC (2021)
Angular Grid (max. ang.)         AngularGrid ... 4 (Lebedev-302)
Angular grid pruning method      GridPruning ... 4 (adaptive)
Weight generation scheme         WeightScheme... mBecke (2022)
Basis function cutoff            BFCut       ... 1.0000e-10
Integration weight cutoff        WCut        ... 1.0000e-14
Partially contracted basis set               ... off
Rotationally invariant grid construction     ... off
Angular grids for H and He will be reduced by one unit

Total number of grid points                  ...   152205
Total number of batches                      ...     2393
Average number of points per batch           ...       63
Average number of grid points per atom       ...     4349

--------------------
COSX GRID GENERATION
--------------------

GRIDX 1
-------
General Integration Accuracy     IntAcc      ... 3.816
Radial Grid Type                 RadialGrid  ... OptM3 with GC (2021)
Angular Grid (max. ang.)         AngularGrid ... 1 (Lebedev-50)
Angular grid pruning method      GridPruning ... 4 (adaptive)
Weight generation scheme         WeightScheme... mBecke (2022)
Basis function cutoff            BFCut       ... 1.0000e-10
Integration weight cutoff        WCut        ... 1.0000e-14
Partially contracted basis set               ... on
Rotationally invariant grid construction     ... off
Angular grids for H and He will be reduced by one unit

Total number of grid points                  ...    19378
Total number of batches                      ...      175
Average number of points per batch           ...      110
Average number of grid points per atom       ...      554
UseSFitting                                  ... on

GRIDX 2
-------
General Integration Accuracy     IntAcc      ... 4.020
Radial Grid Type                 RadialGrid  ... OptM3 with GC (2021)
Angular Grid (max. ang.)         AngularGrid ... 2 (Lebedev-110)
Angular grid pruning method      GridPruning ... 4 (adaptive)
Weight generation scheme         WeightScheme... mBecke (2022)
Basis function cutoff            BFCut       ... 1.0000e-10
Integration weight cutoff        WCut        ... 1.0000e-14
Partially contracted basis set               ... on
Rotationally invariant grid construction     ... off
Angular grids for H and He will be reduced by one unit

Total number of grid points                  ...    40630
Total number of batches                      ...      336
Average number of points per batch           ...      120
Average number of grid points per atom       ...     1161
UseSFitting                                  ... on

GRIDX 3
-------
General Integration Accuracy     IntAcc      ... 4.338
Radial Grid Type                 RadialGrid  ... OptM3 with GC (2021)
Angular Grid (max. ang.)         AngularGrid ... 3 (Lebedev-194)
Angular grid pruning method      GridPruning ... 4 (adaptive)
Weight generation scheme         WeightScheme... mBecke (2022)
Basis function cutoff            BFCut       ... 1.0000e-10
Integration weight cutoff        WCut        ... 1.0000e-14
Partially contracted basis set               ... on
Rotationally invariant grid construction     ... off
Angular grids for H and He will be reduced by one unit

Total number of grid points                  ...    88245
Total number of batches                      ...      706
Average number of points per batch           ...      124
Average number of grid points per atom       ...     2521
UseSFitting                                  ... on
Grids setup in   1.6 sec
Initializing property integral containers    ... done (  0.0 sec)

SHARK setup successfully completed in   1.9 seconds

Maximum memory used throughout the entire STARTUP-calculation: 41.0 MB


           ************************************************************
           *        Program running with 12 parallel MPI-processes    *
           *              working on a common directory               *
           ************************************************************
Loading Hartree-Fock densities                     ... done
Calculating cut-offs                               ... done
Initializing the effective Hamiltonian             ... done
Setting up the integral package (SHARK)            ... done
Starting the Coulomb interaction                   ... done (   0.1 sec)
Making the grid                                    ... done (   0.2 sec)
Mapping shells                                     ... done
Starting the XC term evaluation                    ... done (   0.1 sec)
  promolecular density results
     # of electrons  =    113.978870750
     EX              =    -89.144371814
     EC              =     -3.804940245
     EX+EC           =    -92.949312059
Transforming the Hamiltonian                       ... done (   0.0 sec)
Diagonalizing the Hamiltonian                      ... done (   0.0 sec)
Back transforming the eigenvectors                 ... done (   0.0 sec)
Now organizing SCF variables                       ... done
             **** ENERGY FILE WAS UPDATED (inp.en.tmp) ****
Finished Guess after   0.5 sec
Maximum memory used throughout the entire GUESS-calculation: 17.7 MB


           ************************************************************
           *        Program running with 12 parallel MPI-processes    *
           *              working on a common directory               *
           ************************************************************
--------------------
CPCM SOLVATION MODEL
--------------------
CPCM parameters:
  Epsilon                                         ...       4.8030
  Refrac                                          ...       1.4459
  Rsolv                                           ...       1.3000
  Surface type                                    ... GAUSSIAN VDW
  Discretization scheme                           ... Constant charge density
    Threshold for H atoms                         ...       5.0000 (charges/Ang^2)
    Threshold for non-H atoms                     ...       5.0000 (charges/Ang^2)
  Epsilon function type                           ...         CPCM
Solvent:                                          ... CHLOROFORM
Radii:
  Scheme                                          ... Element-dependent radii
  Radius for C  used is    3.8550 Bohr (=   2.0400 Ang.)
  Radius for O  used is    3.4469 Bohr (=   1.8240 Ang.)
  Radius for H  used is    2.4944 Bohr (=   1.3200 Ang.)
Calculating surface                               ...        done! (  0.0s)
Cavity surface points                             ...         2579
Cavity Volume                                     ...    1810.6887
Cavity Surface-area                               ...     908.4688
Calculating surface distance matrix               ...        done! (  0.1s)
Performing Cholesky decomposition & store         ...        done! (  0.2s)
Overall time for CPCM initialization              ...                 0.3s

----------------------------------------D-I-I-S--------------------------------------------
Iteration    Energy (Eh)           Delta-E    RMSDP     MaxDP     DIISErr   Damp  Time(sec)
-------------------------------------------------------------------------------------------
               ***  Starting incremental Fock matrix formation  ***
    1    -656.9493716540023343     0.00e+00  8.78e-03  7.25e-02  2.39e-01  0.700   2.2
    2    -657.1379738791306409    -1.89e-01  6.32e-03  4.03e-02  1.03e-01  0.700   1.3
                               ***Turning on AO-DIIS***
    3    -657.2162950587451178    -7.83e-02  2.53e-03  1.57e-02  3.79e-02  0.700   1.3
    4    -657.2621676703606681    -4.59e-02  4.29e-03  2.59e-02  1.84e-02  0.000   1.2
    5    -657.3616900831086696    -9.95e-02  8.15e-04  4.79e-03  5.02e-03  0.000   1.3
                              *** Initializing SOSCF ***
---------------------------------------S-O-S-C-F--------------------------------------
Iteration    Energy (Eh)           Delta-E    RMSDP     MaxDP     MaxGrad    Time(sec)
--------------------------------------------------------------------------------------
    6    -657.3620265956546973    -3.37e-04  2.71e-04  1.76e-03  1.01e-03     1.2
               *** Restarting incremental Fock matrix formation ***
    7    -657.3620015118790434     2.51e-05  1.72e-04  1.55e-03  4.10e-04     2.2
    8    -657.3619964902327411     5.02e-06  9.26e-05  8.59e-04  7.86e-04     1.5
    9    -657.3620052029693852    -8.71e-06  1.51e-05  1.23e-04  3.86e-05     1.4
                  *** Gradient check signals convergence ***

               *****************************************************
               *                     SUCCESS                       *
               *           SCF CONVERGED AFTER   9 CYCLES          *
               *****************************************************

Recomputing exchange energy using gridx3       ... done (    2.861 sec)
Old exchange energy                            :    -18.195680922 Eh
New exchange energy                            :    -18.195811574 Eh
Exchange energy change after final integration :     -0.000130652 Eh
Total energy after final integration           :   -657.362135770 Eh
             **** ENERGY FILE WAS UPDATED (inp.en.tmp) ****

----------------
TOTAL SCF ENERGY
----------------

Total Energy       :       -657.36213577047931 Eh          -17887.73311 eV

Components:
Nuclear Repulsion  :       1111.47297968454950 Eh           30244.71739 eV
Electronic Energy  :      -1768.82450134364103 Eh          -48132.16167 eV
One Electron Energy:      -3099.95172115439573 Eh          -84353.97481 eV
Two Electron Energy:       1331.12721981075470 Eh           36221.81313 eV
CPCM Dielectric    :         -0.01048345939871 Eh              -0.28527 eV

Virial components:
Potential Energy   :      -1309.68550035494400 Eh          -35638.35428 eV
Kinetic Energy     :        652.32336458446468 Eh           17750.62117 eV
Virial Ratio       :          2.00772434571499

DFT components:
N(Alpha)           :       56.999992206858 electrons
N(Beta)            :       56.999992206858 electrons
N(Total)           :      113.999984413715 electrons
E(X)               :      -72.172612022298 Eh       
E(C)               :       -4.482065666614 Eh       
E(XC)              :      -76.654677688913 Eh       

CPCM Solvation Model Properties:
Surface-charge          :         -0.02188811187343
Corrected charge        :          0.00000000000000
Outlying charge corr.   :          0.00002371518824 Eh               0.00065 eV
Free-energy (cav+disp)  :  This term is not implemented in the current solvation scheme

---------------
SCF CONVERGENCE
---------------

  Last Energy change         ...    8.7127e-06  Tolerance :   1.0000e-06
  Last MAX-Density change    ...    1.2347e-04  Tolerance :   1.0000e-05
  Last RMS-Density change    ...    1.5083e-05  Tolerance :   1.0000e-06
  Last DIIS Error            ...    1.0074e-03  Tolerance :   1.0000e-06
  Last Orbital Gradient      ...    3.8599e-05  Tolerance :   3.3300e-04
  Last Orbital Rotation      ...    1.2549e-04  Tolerance :   3.3300e-04


----------------
ORBITAL ENERGIES
----------------

  NO   OCC          E(Eh)            E(eV) 
   0   2.0000     -19.129434      -520.5384 
   1   2.0000     -19.123339      -520.3725 
   2   2.0000     -10.217538      -278.0334 
   3   2.0000     -10.217482      -278.0318 
   4   2.0000     -10.195480      -277.4331 
   5   2.0000     -10.188472      -277.2424 
   6   2.0000     -10.187357      -277.2121 
   7   2.0000     -10.182469      -277.0791 
   8   2.0000     -10.176339      -276.9123 
   9   2.0000     -10.173278      -276.8290 
  10   2.0000     -10.173155      -276.8256 
  11   2.0000     -10.172531      -276.8086 
  12   2.0000     -10.172188      -276.7993 
  13   2.0000     -10.169511      -276.7265 
  14   2.0000     -10.159079      -276.4426 
  15   2.0000      -1.008712       -27.4484 
  16   2.0000      -0.996659       -27.1205 
  17   2.0000      -0.854446       -23.2507 
  18   2.0000      -0.803778       -21.8719 
  19   2.0000      -0.759632       -20.6706 
  20   2.0000      -0.752812       -20.4851 
  21   2.0000      -0.714503       -19.4426 
  22   2.0000      -0.680321       -18.5125 
  23   2.0000      -0.667054       -18.1515 
  24   2.0000      -0.661494       -18.0002 
  25   2.0000      -0.605608       -16.4794 
  26   2.0000      -0.588670       -16.0185 
  27   2.0000      -0.549319       -14.9477 
  28   2.0000      -0.525262       -14.2931 
  29   2.0000      -0.511820       -13.9273 
  30   2.0000      -0.493225       -13.4213 
  31   2.0000      -0.483957       -13.1691 
  32   2.0000      -0.470777       -12.8105 
  33   2.0000      -0.464570       -12.6416 
  34   2.0000      -0.439586       -11.9617 
  35   2.0000      -0.433596       -11.7987 
  36   2.0000      -0.427589       -11.6353 
  37   2.0000      -0.414506       -11.2793 
  38   2.0000      -0.407381       -11.0854 
  39   2.0000      -0.402393       -10.9497 
  40   2.0000      -0.395827       -10.7710 
  41   2.0000      -0.384657       -10.4670 
  42   2.0000      -0.376474       -10.2444 
  43   2.0000      -0.374060       -10.1787 
  44   2.0000      -0.361775        -9.8444 
  45   2.0000      -0.356814        -9.7094 
  46   2.0000      -0.351209        -9.5569 
  47   2.0000      -0.342099        -9.3090 
  48   2.0000      -0.330236        -8.9862 
  49   2.0000      -0.312901        -8.5145 
  50   2.0000      -0.306497        -8.3402 
  51   2.0000      -0.300942        -8.1891 
  52   2.0000      -0.292716        -7.9652 
  53   2.0000      -0.265058        -7.2126 
  54   2.0000      -0.252810        -6.8793 
  55   2.0000      -0.243916        -6.6373 
  56   2.0000      -0.237414        -6.4604 
  57   0.0000       0.010090         0.2746 
  58   0.0000       0.018603         0.5062 
  59   0.0000       0.085154         2.3172 
  60   0.0000       0.096071         2.6142 
  61   0.0000       0.117648         3.2014 
  62   0.0000       0.126235         3.4350 
  63   0.0000       0.137017         3.7284 
  64   0.0000       0.143796         3.9129 
  65   0.0000       0.150011         4.0820 
  66   0.0000       0.152359         4.1459 
  67   0.0000       0.154550         4.2055 
*Only the first 10 virtual orbitals were printed.
Total SCF time: 0 days 0 hours 0 min 18 sec 
Finished LeanSCF after  18.2 sec

Maximum memory used throughout the entire LEANSCF-calculation: 31.6 MB


-------------------------------------------------------------------------------
                          DFT DISPERSION CORRECTION                            
                                                                               
                              DFTD3 V3.1  Rev 1                                
                          USING Becke-Johnson damping                          
-------------------------------------------------------------------------------
-------------------------   ----------------
Dispersion correction           -0.074683111
-------------------------   ----------------

NOTIFICATION: Different basis set in ORCA and otool_gcp:
ORCA: 265  gCP: 250 
If you are NOT using ECPs, check your basis set inputs!
------------------   -----------------
gCP correction             0.162475042
------------------   -----------------

-------------------------   --------------------
FINAL SINGLE POINT ENERGY      -657.274343839305
-------------------------   --------------------



           ************************************************************
           *        Program running with 12 parallel MPI-processes    *
           *              working on a common directory               *
           ************************************************************

------------------------------------------------------------------------------
                              ORCA PROPERTY CALCULATIONS
------------------------------------------------------------------------------

GBWName                                 ... inp.gbw
Number of atoms                         ...     35
Number of basis functions               ...    265
Max core memory                         ...   2500 MB

Electric properties:
Dipole moment                           ... YES
Quadrupole moment                       ...  NO
Static polarizability (Dipole/Dipole)   ...  NO
Static polarizability (Dipole/Quad.)    ...  NO
Static polarizability (Quad./Quad.)     ...  NO
Static polarizability (Velocity)        ...  NO
Static hyperpolarizability              ...  NO

Atomic electric properties:
Dipole moment                           ...  NO
Quadrupole moment                       ...  NO
Static polarizability                   ...  NO

Choice of electric origin               ... Center of mass
Position of electric origin             ...     0.009501    -0.008312    -0.000507

General magnetic properties:
Magnetizability                         ...  NO

EPR properties:
g-Tensor (aka g-matrix)                 ...  NO
Zero-Field splitting spin-orbit         ...  NO
Zero-field splitting spin-spin          ...  NO
Hyperfine couplings                     ...  NO (   0 nuclei)
Quadrupole couplings                    ...  NO (   0 nuclei)
Contact density                         ...  NO (   0 nuclei)

NMR properties:
Chemical shifts                         ...  NO (   0 nuclei)
Spin-rotation constants                 ...  NO (   0 nuclei)
Spin-spin couplings                     ...  NO (   0 nuclei,    0 pairs)

Choice of magnetic origin               ... GIAO
Position of magnetic origin             ...     0.000000     0.000000     0.000000

Properties with geometric perturbations:
SCF Hessian                             ...  NO
IR spectrum                             ...  NO
VCD spectrum                            ...  NO
X-ray spectroscopy properties:
SCF XES/XAS/RIXS spectra                ...  NO

SCF SOC stabilization energy            ...  NO
Diagonal Born-Oppenheimer correction    ...  NO

-------------
DIPOLE MOMENT
-------------

Method             : SCF
Type of density    : Electron Density
Multiplicity       :   1
Irrep              :   0
Energy             :  -657.3621357704793127 Eh
Basis              : AO
                                X                 Y                 Z
Electronic contribution:      4.434720021      -3.901208361      -3.169907622
Nuclear contribution   :     -5.553448952       4.527275616       3.731889827
                        -----------------------------------------
Total Dipole Moment    :     -1.118728932       0.626067255       0.561982206
                        -----------------------------------------
Magnitude (a.u.)       :      1.399763776
Magnitude (Debye)      :      3.557916767



--------------------
Rotational spectrum 
--------------------
 
Rotational constants in cm-1:             0.030454             0.017979             0.014975 
Rotational constants in MHz :           912.999809           538.996131           448.952445 

Dipole components along the rotational axes: 
x,y,z [a.u.] :    -0.935897     0.934220     0.458986 
x,y,z [Debye]:    -2.378862     2.374598     1.166650 

 

Dipole moment calculation done in   0.0 sec 

Maximum memory used throughout the entire PROP-calculation: 16.6 MB

--------------------------------
SUGGESTED CITATIONS FOR THIS RUN
--------------------------------

Below you find a list of papers that are relevant to this ORCA run
We neither can nor want to force you to cite these papers, but we appreciate if you do
You receive ORCA, which is the product of decades of hard work by many enthusiastic individuals, for free
The only thing we kindly ask in return is that you cite our papers,
We deeply appreciate it, if you show your appreciation for ORCA by not just citing the generic ORCA reference.

Please note that relegating all ORCA citations to the supporting information does *not* help us.
SI sections are not indexed - citations you put there will not count into any citation statistics
But we need these citations in order to attract the funding resources that allow us to do what we are doing

Therefore, if you are a happy ORCA user, please consider citing a few of the papers listed below in the main body of your paper

In addition to the list printed below, the program has created the file inp.bibtex that contains the list in bibtex format
You can import this file easily into all common literature databanks and citation aid programs

It goes without saying that in many instances, there are alternative algorithms to achieve similar
results as the ones you have gotten from ORCA. It is, of course, also the case that in some instances
ORCA just re-implements algorithms worked out by others. We are fully aware of that and we are also
fully appreciative of our colleagues work. Hence this citation list should not be read as indicating
that the listed papers, which are focused on our own work, are the only ones worth citing. It simply
meant to make it easier for users to cite ORCA specific papers. It is not a substitute for doing your
own literature research and citing the relevant literature in a scientifically appropriate manner.

List of essential papers. We consider these as the minimum necessary citations

  1. Neese, F.
     Software update: the ORCA program system, version 6.0
     WIRES Comput. Molec. Sci. 2025 15(1), e70019
     doi.org/10.1002/wcms.70019

List of papers to cite with high priority. The work reported in these papers was absolutely
necessary for this run to complete.
Our perspective: the developers of density functionals and basis sets usually get cited in chemistry papers
Good! But without the algorithms to do something with them, the functionals or basis sets would not do anything.
Hence, in our opinion, the algorithm design and method developments papers are equally worthy of getting cited

  1. Neese, F.
     An improvement of the resolution of the identity approximation for the formation of the Coulomb matrix
     J. Comp. Chem. 2003 24(14), 1740-1747
     doi.org/10.1002/jcc.10318
  2. Neese, F.; Wennmohs, F.; Hansen, A.; Becker, U.
     Efficient, approximate and parallel Hartree-Fock and hybrid DFT calculations. A 'chain-of-spheres' algorithm for the Hartree-Fock exchange
     Chem. Phys. 2009 356(1-3), 98-109
     doi.org/10.1016/j.chemphys.2008.10.036
  3. Grimme, S.; Antony, J.; Ehrlich, S.; Krieg, H.
     A consistent and accurate ab initio parametrization of density functional dispersion correction (DFT-D) for the 94 elements H-Pu
     J. Chem. Phys. 2010 132 , 154104
     doi.org/10.1063/1.3382344
  4. Grimme, S.; Ehrlich, S.; Goerigk, L.
     Effect of the damping function in dispersion corrected density functional theory
     J. Comput. Chem. 2011 32(7), 1456-1465
     doi.org/10.1002/jcc.21759
  5. Garcia-Rates, M.; Neese, F.
     Effect of the Solute Cavity on the Solvation Energy and its Derivatives within the Framework of the Gaussian Charge Scheme
     J. Comput. Chem. 2020 41 , 922-939
     doi.org/10.1002/jcc.26139
  6. Helmich-Paris, B.; de Souza, B.; Neese, F.; Izsák, R.
     An improved chain of spheres for exchange algorithm
     J. Chem. Phys. 2021 155(10), 104109
     doi.org/10.1063/5.0058766
  7. Neese, F.
     The SHARK Integral Generation and Digestion System
     J. Comp. Chem. 2022 44(3), 381
     doi.org/10.1002/jcc.26942

List of suggested additional citations. These are papers that are important in the 'surrounding' of 
of this run, or papers that preceded the highly important papers. If you like your results we are grateful for a citation.

  1. Izsak, R.; Neese, F.
     An overlap fitted chain of spheres exchange method
     J. Chem. Phys. 2011 135 , 144105
     doi.org/10.1063/1.3646921
  2. Izsak, R.; Hansen, A.; Neese, F.
     The resolution of identity and chain of spheres approximations for the LPNO-CCSD singles Fock term
     Molec. Phys. 2012 110 , 2413-2417
     doi.org/10.1080/00268976.2012.687466
  3. Neese, F.
     The ORCA program system
     WIRES Comput. Molec. Sci. 2012 2(1), 73-78
     doi.org/10.1002/wcms.81
  4. Izsak, R.; Neese, F.; Klopper, W.
     Robust fitting techniques in the chain of spheres approximation to the Fock exchange: The role of the complementary space
     J. Chem. Phys. 2013 139 , 
     doi.org/10.1063/1.4819264
  5. Neese, F.
     Software update: the ORCA program system, version 4.0
     WIRES Comput. Molec. Sci. 2018 8(1), 1-6
     doi.org/10.1002/wcms.1327
  6. Neese, F.; Wennmohs, F.; Becker, U.; Riplinger, C.
     The ORCA quantum chemistry program package
     J. Chem. Phys. 2020 152(22), 224108
     doi.org/10.1063/5.0004608
  7. Neese, F.
     Software update: The ORCA program system—Version 5.0
     WIRES Comput. Molec. Sci. 2022 12(1), e1606
     doi.org/10.1002/wcms.1606

List of optional additional citations

  1. Neese, F.
     Approximate second-order SCF convergence for spin unrestricted wavefunctions
     Chem. Phys. Lett. 2000 325(1-3), 93-98
     doi.org/10.1016/s0009-2614(00)00662-x

Timings for individual modules:

Sum of individual times          ...       21.499 sec (=   0.358 min)
Startup calculation              ...        2.080 sec (=   0.035 min)   9.7 %
SCF iterations                   ...       19.094 sec (=   0.318 min)  88.8 %
Property calculations            ...        0.324 sec (=   0.005 min)   1.5 %
                             ****ORCA TERMINATED NORMALLY****
TOTAL RUN TIME: 0 days 0 hours 0 minutes 21 seconds 828 msec
