 Entering Gaussian System
 *********************************************
 Gaussian 98:
 frequency output generated by the xtb code
 *********************************************
                         Standard orientation:
 --------------------------------------------------------------------
  Center     Atomic     Atomic              Coordinates (Angstroms)
  Number     Number      Type              X           Y           Z
 --------------------------------------------------------------------
    1          6             0        0.045390   -0.768384   -0.033533
    2          6             0        0.647498    0.436827   -0.815683
    3          6             0       -0.409151    1.546909   -0.974558
    4          6             0       -1.250370    1.802272    0.274730
    5          6             0       -1.774505    0.480264    0.846800
    6          6             0       -0.588304   -0.366598    1.316664
    7          6             0       -1.218628   -1.252425   -0.774987
    8          6             0       -2.333950   -0.381019   -0.254875
    9          8             0        0.223550    0.303538    2.250152
   10          6             0        1.057210   -1.909176    0.144449
   11          6             0       -3.579902   -0.370705   -0.692038
   12          6             0        1.992867    0.941225   -0.322842
   13          6             0        3.113813    0.412040   -0.798664
   14          1             0        0.840726    0.051451   -1.826434
   15          8             0        1.349523   -2.598825   -1.051661
   16          6             0        2.064704    2.086460    0.640826
   17          1             0        0.080651    2.469223   -1.289742
   18          1             0       -1.088067    1.256818   -1.779206
   19          1             0       -0.671784    2.304348    1.048178
   20          1             0       -2.094064    2.442115    0.009158
   21          1             0       -2.488882    0.673937    1.648520
   22          1             0       -0.979707   -1.284885    1.786920
   23          1             0       -1.119622   -1.195608   -1.858696
   24          1             0       -1.412457   -2.298755   -0.525182
   25          1             0        0.939217   -0.287226    2.512324
   26          1             0        0.637222   -2.670381    0.809053
   27          1             0        1.983897   -1.525410    0.593720
   28          1             0       -3.902710   -1.007258   -1.499036
   29          1             0       -4.326188    0.274491   -0.260522
   30          1             0        4.082451    0.755453   -0.474581
   31          1             0        3.129423   -0.377897   -1.532597
   32          1             0        1.728060   -1.966528   -1.675979
   33          1             0        1.466647    1.891144    1.525259
   34          1             0        3.095364    2.259375    0.941770
   35          1             0        1.691210    2.997003    0.174755
 --------------------------------------------------------------------
     1 basis functions        1 primitive gaussians
     1 alpha electrons        1 beta electrons
 
 Harmonic frequencies (cm**-1), IR intensities (km*mol⁻¹),
 Raman scattering activities (A**4/amu), Raman depolarization ratios,
 reduced masses (AMU), force constants (mDyne/A) and normal coordinates:
                      1                      2                      3
                        a                      a                      a 
 Frequencies --    45.5196                97.1104               109.1336
 Red. masses --    10.1568                 9.5527                12.0350
 Frc consts  --     0.0000                 0.0000                 0.0000
 IR Inten    --     1.0578                 0.2503                 2.4648
 Raman Activ --     0.0000                 0.0000                 0.0000
 Depolar     --     0.0000                 0.0000                 0.0000
 Atom AN      X      Y      Z        X      Y      Z        X      Y      Z
   1   6     0.02  -0.01  -0.07    -0.03   0.07  -0.05     0.09   0.07   0.01
   2   6     0.05   0.02  -0.00     0.09   0.02  -0.03     0.07   0.11   0.04
   3   6     0.01  -0.03  -0.06     0.14   0.05  -0.11     0.04   0.09   0.06
   4   6    -0.00  -0.01  -0.07     0.05   0.08  -0.18    -0.03   0.00   0.03
   5   6     0.06  -0.00   0.01    -0.02   0.13  -0.11    -0.01  -0.03  -0.04
   6   6     0.09   0.01  -0.05    -0.07   0.08  -0.07     0.02   0.02  -0.01
   7   6    -0.01   0.04  -0.06    -0.02   0.14  -0.13     0.14   0.04  -0.06
   8   6    -0.01  -0.03   0.06    -0.08  -0.01   0.03     0.07  -0.06  -0.06
   9   8     0.18   0.06  -0.15    -0.13   0.00   0.01    -0.07   0.06   0.04
  10   6    -0.04  -0.07  -0.15    -0.09   0.02  -0.00     0.07   0.05  -0.02
  11   6    -0.05  -0.10   0.19    -0.22  -0.43   0.43     0.06  -0.23  -0.05
  12   6    -0.01   0.05   0.16     0.09  -0.06   0.04     0.07   0.12   0.02
  13   6     0.05  -0.18   0.57     0.09  -0.00  -0.04     0.04   0.19  -0.13
  14   1     0.05   0.02   0.00     0.04  -0.00  -0.00     0.02   0.04   0.01
  15   8    -0.20  -0.07  -0.22     0.10   0.14  -0.02    -0.60  -0.42   0.07
  16   6    -0.12   0.30  -0.12     0.11  -0.19   0.19     0.08   0.03   0.12
  17   1    -0.01  -0.01  -0.03     0.06   0.01  -0.02     0.01   0.04   0.04
  18   1     0.01  -0.03  -0.01     0.06   0.02  -0.05     0.03   0.04   0.00
  19   1    -0.01   0.02  -0.03     0.00   0.03  -0.05    -0.03  -0.00   0.02
  20   1    -0.01  -0.02  -0.03     0.02   0.02  -0.07    -0.01  -0.00   0.00
  21   1     0.03   0.00   0.01     0.00   0.07  -0.03    -0.01  -0.02  -0.02
  22   1     0.04   0.01   0.00    -0.04   0.02  -0.04     0.01  -0.00  -0.01
  23   1    -0.01   0.04  -0.02    -0.01   0.10  -0.03     0.05   0.03  -0.02
  24   1     0.01   0.01  -0.04     0.01   0.02  -0.10     0.06   0.00  -0.04
  25   1     0.07   0.03  -0.08    -0.06  -0.02   0.03    -0.01   0.03   0.01
  26   1    -0.02  -0.02  -0.04    -0.06  -0.01  -0.04     0.08   0.09   0.11
  27   1     0.00  -0.05  -0.06    -0.04  -0.01   0.05     0.09   0.03  -0.15
  28   1    -0.03  -0.03   0.06    -0.08  -0.18   0.17     0.04  -0.08  -0.01
  29   1    -0.01  -0.04   0.08    -0.08  -0.17   0.16    -0.01  -0.09  -0.01
  30   1     0.00  -0.05   0.20     0.03  -0.02   0.00     0.02   0.05  -0.06
  31   1     0.05  -0.11   0.23     0.02   0.03  -0.05    -0.01   0.07  -0.05
  32   1    -0.08  -0.02  -0.07     0.07   0.05   0.03    -0.20  -0.18  -0.09
  33   1    -0.04   0.14  -0.03    -0.00  -0.07   0.03     0.01  -0.00   0.02
  34   1    -0.04   0.12  -0.03     0.03  -0.09   0.09     0.02  -0.01   0.05
  35   1    -0.04   0.05  -0.10     0.07  -0.03   0.07     0.04   0.03   0.05
                      4                      5                      6
                        a                      a                      a 
 Frequencies --   122.1852               158.2378               183.1220
 Red. masses --     9.4858                12.1683                 5.9948
 Frc consts  --     0.0000                 0.0000                 0.0000
 IR Inten    --     1.1516                 3.1524                 3.2840
 Raman Activ --     0.0000                 0.0000                 0.0000
 Depolar     --     0.0000                 0.0000                 0.0000
 Atom AN      X      Y      Z        X      Y      Z        X      Y      Z
   1   6     0.00  -0.06  -0.01    -0.04   0.03  -0.17    -0.03  -0.07  -0.05
   2   6     0.05  -0.11  -0.06    -0.04   0.11  -0.06     0.00  -0.04   0.03
   3   6     0.03  -0.17  -0.26    -0.05   0.14   0.10     0.02  -0.02   0.01
   4   6     0.17   0.03  -0.21     0.02   0.03   0.16    -0.16  -0.04  -0.09
   5   6     0.13   0.13  -0.03    -0.01  -0.02  -0.00     0.01  -0.05   0.03
   6   6     0.02  -0.02  -0.01    -0.02  -0.09  -0.14     0.08   0.01  -0.03
   7   6    -0.06  -0.01   0.05    -0.03   0.15  -0.26    -0.07  -0.03  -0.01
   8   6     0.02   0.09   0.06    -0.03   0.07  -0.07    -0.04  -0.02   0.05
   9   8     0.09  -0.29   0.12     0.14  -0.29  -0.16     0.23   0.14  -0.26
  10   6    -0.01  -0.07  -0.00    -0.04   0.05   0.12    -0.06  -0.10  -0.00
  11   6    -0.01   0.19   0.13    -0.09   0.02   0.10    -0.03   0.17   0.04
  12   6    -0.07   0.09   0.04    -0.03   0.08  -0.05    -0.03  -0.01   0.11
  13   6     0.05   0.38  -0.00    -0.06  -0.03   0.02     0.01   0.21  -0.05
  14   1     0.05  -0.06   0.00    -0.02   0.06  -0.03     0.02   0.00   0.01
  15   8    -0.06  -0.15   0.02     0.25  -0.34   0.45     0.08  -0.14   0.05
  16   6    -0.31   0.02   0.16    -0.00   0.12  -0.10    -0.06  -0.08   0.21
  17   1     0.00  -0.07  -0.14    -0.02   0.05   0.04     0.02  -0.00   0.04
  18   1    -0.01  -0.10  -0.04    -0.03   0.07   0.03     0.04   0.01  -0.03
  19   1     0.08   0.02  -0.09     0.02  -0.03   0.06    -0.10   0.06  -0.03
  20   1     0.05   0.01  -0.06     0.01   0.03   0.08    -0.08  -0.07  -0.08
  21   1     0.05   0.08  -0.00     0.00  -0.03   0.01     0.02  -0.02   0.02
  22   1    -0.04   0.00  -0.03    -0.01  -0.03  -0.06     0.04   0.01   0.03
  23   1    -0.03  -0.02   0.01    -0.01   0.11  -0.07    -0.03  -0.00  -0.00
  24   1    -0.03   0.00   0.03    -0.01   0.03  -0.14    -0.02  -0.01  -0.00
  25   1    -0.02  -0.12   0.04     0.03  -0.09  -0.09     0.16   0.10  -0.18
  26   1    -0.00  -0.01   0.01    -0.04   0.06   0.07    -0.04  -0.03  -0.01
  27   1     0.00  -0.02  -0.02    -0.04   0.06   0.05    -0.03  -0.03   0.02
  28   1    -0.04   0.05   0.05    -0.05   0.02   0.02    -0.04   0.08  -0.00
  29   1     0.03   0.08   0.04    -0.02  -0.02   0.08     0.01   0.06   0.03
  30   1    -0.01   0.16   0.01    -0.01  -0.02   0.00    -0.01   0.08  -0.01
  31   1     0.06   0.12  -0.01    -0.03  -0.02   0.02     0.01   0.10  -0.06
  32   1     0.01  -0.05   0.00     0.09  -0.14   0.08     0.07  -0.05   0.03
  33   1     0.01  -0.11   0.09     0.05   0.02   0.00    -0.31   0.14  -0.11
  34   1    -0.09   0.12  -0.03     0.01   0.07  -0.08    -0.06  -0.26   0.35
  35   1    -0.25  -0.03   0.11    -0.05   0.02  -0.01     0.34   0.06  -0.07
                      7                      8                      9
                        a                      a                      a 
 Frequencies --   198.9895               219.2025               256.9985
 Red. masses --     9.0676                 9.0005                10.4959
 Frc consts  --     0.0000                 0.0000                 0.0000
 IR Inten    --     5.2126                 7.4100                 9.6635
 Raman Activ --     0.0000                 0.0000                 0.0000
 Depolar     --     0.0000                 0.0000                 0.0000
 Atom AN      X      Y      Z        X      Y      Z        X      Y      Z
   1   6    -0.06  -0.11   0.07     0.02   0.02   0.06    -0.09   0.01   0.10
   2   6     0.13  -0.12   0.19     0.07  -0.04  -0.00    -0.05  -0.01   0.09
   3   6     0.13  -0.13   0.15     0.09  -0.01   0.01     0.03   0.04  -0.01
   4   6     0.08  -0.11   0.12     0.04  -0.01  -0.01     0.05   0.14  -0.03
   5   6    -0.09  -0.09   0.02     0.01   0.01   0.02    -0.01   0.16  -0.03
   6   6    -0.08  -0.05   0.05    -0.08  -0.09   0.06    -0.08   0.05   0.03
   7   6    -0.05   0.07  -0.10     0.04   0.08  -0.02    -0.01  -0.04   0.09
   8   6    -0.08  -0.00  -0.04     0.01   0.04   0.00     0.02   0.04  -0.02
   9   8    -0.07   0.20  -0.15    -0.25  -0.35   0.38     0.41  -0.35  -0.09
  10   6    -0.26  -0.29   0.05    -0.00  -0.00   0.03    -0.16  -0.01   0.14
  11   6    -0.08  -0.01  -0.03     0.00   0.02   0.04     0.09  -0.31  -0.23
  12   6     0.14   0.04   0.06     0.09   0.02  -0.14    -0.05   0.01   0.06
  13   6     0.17   0.29  -0.14     0.14   0.04  -0.04    -0.08   0.02  -0.04
  14   1     0.04  -0.04   0.05    -0.00  -0.03   0.00    -0.01  -0.01   0.03
  15   8    -0.03   0.00  -0.07    -0.05   0.05  -0.01    -0.17   0.24   0.04
  16   6     0.13   0.23  -0.13    -0.07   0.20  -0.35     0.05   0.06   0.00
  17   1     0.03  -0.04   0.04     0.03  -0.00   0.02     0.03  -0.01  -0.02
  18   1     0.04  -0.04   0.04     0.03   0.01  -0.00     0.00   0.01   0.00
  19   1     0.03  -0.07   0.05    -0.01   0.02  -0.00     0.02   0.03  -0.01
  20   1     0.05   0.00   0.03     0.01  -0.01  -0.02     0.03   0.06  -0.01
  21   1    -0.03  -0.02  -0.00    -0.00   0.02  -0.00    -0.02   0.05  -0.03
  22   1     0.00  -0.00   0.05    -0.06  -0.04  -0.05    -0.07   0.03   0.01
  23   1     0.01   0.07  -0.02     0.02   0.05  -0.00     0.01  -0.05   0.03
  24   1    -0.03   0.01  -0.09     0.01   0.02  -0.03    -0.02  -0.00   0.06
  25   1    -0.00   0.08  -0.01    -0.03  -0.07   0.03     0.19  -0.10  -0.28
  26   1    -0.16  -0.12  -0.08    -0.00  -0.01   0.00    -0.07  -0.02   0.00
  27   1    -0.10  -0.15   0.11     0.00  -0.01   0.01    -0.05  -0.04   0.07
  28   1    -0.02   0.01  -0.02    -0.00   0.01   0.01     0.13  -0.17  -0.05
  29   1    -0.03  -0.02   0.01     0.00  -0.00   0.03    -0.05  -0.12  -0.16
  30   1     0.04   0.16  -0.11     0.03   0.06  -0.02    -0.02   0.01  -0.04
  31   1     0.06   0.06  -0.01     0.06  -0.03   0.03    -0.04   0.00  -0.01
  32   1     0.11   0.03   0.08    -0.02   0.02   0.00    -0.05   0.10   0.05
  33   1     0.14   0.06   0.03    -0.27   0.21  -0.24     0.01   0.05   0.01
  34   1     0.05   0.16  -0.15    -0.07  -0.09   0.15     0.02  -0.00  -0.01
  35   1    -0.08   0.01  -0.04     0.26   0.09  -0.26     0.04   0.02  -0.02
                     10                     11                     12
                        a                      a                      a 
 Frequencies --   275.3902               282.7870               308.9142
 Red. masses --     8.0640                 7.3265                 8.3086
 Frc consts  --     0.0000                 0.0000                 0.0000
 IR Inten    --    26.8428                19.4764                10.7992
 Raman Activ --     0.0000                 0.0000                 0.0000
 Depolar     --     0.0000                 0.0000                 0.0000
 Atom AN      X      Y      Z        X      Y      Z        X      Y      Z
   1   6    -0.05   0.02   0.03     0.09   0.12   0.03    -0.01  -0.07  -0.00
   2   6     0.10   0.01   0.11     0.02   0.10  -0.02    -0.07   0.07   0.13
   3   6     0.00  -0.12  -0.08    -0.14  -0.02  -0.09    -0.08   0.01  -0.10
   4   6    -0.26  -0.17  -0.23    -0.34  -0.05  -0.19     0.00   0.09  -0.10
   5   6    -0.11  -0.12   0.03     0.03  -0.05   0.13     0.03   0.08  -0.10
   6   6    -0.08  -0.07   0.01     0.13   0.06   0.08    -0.04  -0.03  -0.03
   7   6    -0.06   0.01  -0.04     0.15   0.22  -0.10    -0.05  -0.17   0.12
   8   6    -0.13  -0.11   0.05     0.07  -0.04   0.11     0.00   0.00  -0.04
   9   8     0.04  -0.20  -0.03     0.14  -0.05   0.22    -0.06  -0.11   0.03
  10   6     0.10   0.20   0.07    -0.18  -0.13   0.03     0.05  -0.10  -0.12
  11   6    -0.14   0.21   0.05     0.14   0.03  -0.07    -0.03   0.01   0.05
  12   6     0.15   0.02   0.07     0.03   0.05  -0.07    -0.10   0.17   0.19
  13   6     0.12   0.00  -0.02    -0.04  -0.11  -0.04    -0.26   0.02  -0.01
  14   1     0.05  -0.01   0.04     0.00   0.01  -0.00     0.03   0.02   0.04
  15   8    -0.01   0.16   0.10    -0.12   0.00  -0.02     0.12  -0.18  -0.12
  16   6     0.32   0.06   0.02     0.03  -0.03   0.01     0.41   0.28   0.07
  17   1    -0.02  -0.01   0.00    -0.06   0.01  -0.01    -0.02  -0.01  -0.06
  18   1     0.06  -0.06  -0.06     0.00  -0.03  -0.05    -0.02  -0.04  -0.02
  19   1    -0.13   0.04  -0.08    -0.16   0.11  -0.09     0.03   0.02  -0.04
  20   1    -0.11  -0.12  -0.14    -0.16  -0.13  -0.13    -0.00   0.03  -0.01
  21   1    -0.02  -0.01   0.01     0.02  -0.02   0.05     0.01   0.03  -0.03
  22   1    -0.02  -0.03  -0.01     0.04   0.00  -0.00    -0.06   0.01  -0.02
  23   1    -0.02   0.04  -0.01     0.05   0.16  -0.02    -0.02  -0.13   0.03
  24   1     0.01  -0.01  -0.04     0.07   0.03  -0.13    -0.02  -0.03   0.12
  25   1     0.09  -0.02  -0.16    -0.04  -0.07   0.13    -0.17  -0.12   0.20
  26   1     0.11   0.06   0.07    -0.17  -0.04  -0.06     0.01  -0.03  -0.04
  27   1     0.04   0.13  -0.05    -0.06  -0.14   0.10     0.01  -0.03  -0.03
  28   1    -0.10   0.12  -0.01     0.08   0.05  -0.07    -0.04  -0.03   0.05
  29   1     0.01   0.08   0.07     0.01  -0.04  -0.00     0.02   0.04  -0.00
  30   1     0.04   0.01  -0.03     0.00  -0.08  -0.01    -0.04  -0.05  -0.07
  31   1     0.02  -0.02   0.02    -0.04  -0.02  -0.03    -0.16   0.01  -0.01
  32   1    -0.32   0.10  -0.10     0.35  -0.07   0.16     0.20  -0.10   0.02
  33   1     0.18   0.00   0.06     0.05  -0.06   0.02     0.12   0.18   0.05
  34   1     0.11   0.06  -0.10     0.01   0.03  -0.04     0.15  -0.04  -0.02
  35   1     0.00  -0.00   0.04    -0.06  -0.01   0.04     0.22   0.11  -0.01
                     13                     14                     15
                        a                      a                      a 
 Frequencies --   316.9263               323.4032               337.3111
 Red. masses --     5.1082                 5.8885                 7.7776
 Frc consts  --     0.0000                 0.0000                 0.0000
 IR Inten    --   150.6180                68.4748                33.4257
 Raman Activ --     0.0000                 0.0000                 0.0000
 Depolar     --     0.0000                 0.0000                 0.0000
 Atom AN      X      Y      Z        X      Y      Z        X      Y      Z
   1   6    -0.05  -0.04  -0.03     0.00  -0.04   0.05    -0.05   0.14  -0.10
   2   6     0.02  -0.02   0.03    -0.03  -0.06   0.03     0.07   0.05  -0.17
   3   6     0.15   0.15   0.15    -0.17  -0.25  -0.13    -0.16  -0.17  -0.13
   4   6    -0.16   0.06  -0.02     0.17  -0.08   0.04     0.16  -0.18   0.11
   5   6    -0.03   0.02  -0.01     0.05  -0.03   0.04    -0.09  -0.09   0.10
   6   6     0.01   0.03  -0.03     0.03  -0.03   0.06    -0.00  -0.01  -0.04
   7   6    -0.09  -0.09   0.08     0.10   0.20  -0.24    -0.12   0.01   0.08
   8   6    -0.06  -0.03   0.03     0.08   0.04  -0.03    -0.18  -0.05   0.11
   9   8     0.28  -0.03  -0.21     0.12   0.10  -0.09     0.07  -0.02  -0.10
  10   6    -0.02   0.02   0.01    -0.04  -0.02   0.11    -0.03   0.22  -0.00
  11   6    -0.04  -0.03  -0.05     0.08  -0.01  -0.01    -0.10  -0.03  -0.14
  12   6     0.08  -0.07  -0.03    -0.11   0.04   0.07     0.09   0.06  -0.10
  13   6     0.16   0.06   0.01    -0.20  -0.03  -0.05     0.22   0.08   0.15
  14   1    -0.02   0.01  -0.01     0.03  -0.02   0.02     0.03  -0.01  -0.04
  15   8     0.00   0.01   0.02     0.02   0.12   0.08    -0.20   0.11   0.06
  16   6    -0.09  -0.02  -0.09     0.02   0.03   0.08     0.17  -0.05   0.04
  17   1     0.09   0.05   0.13    -0.09  -0.08  -0.13    -0.13  -0.03  -0.11
  18   1     0.08   0.11  -0.02    -0.09  -0.14   0.03    -0.09  -0.13   0.03
  19   1    -0.13   0.07   0.02     0.13  -0.07  -0.02     0.15  -0.14   0.01
  20   1    -0.07  -0.04  -0.08     0.07   0.03   0.08     0.09   0.05   0.12
  21   1    -0.01  -0.00   0.00     0.01  -0.00   0.00    -0.00  -0.00   0.04
  22   1    -0.02   0.03   0.00     0.02   0.00   0.03     0.04  -0.03  -0.02
  23   1    -0.05  -0.06   0.02     0.06   0.20  -0.06    -0.07  -0.04   0.02
  24   1    -0.02  -0.02   0.07     0.01   0.03  -0.21     0.01   0.01   0.07
  25   1    -0.39  -0.31   0.53    -0.18  -0.09   0.28    -0.09  -0.07   0.11
  26   1     0.01   0.00   0.01    -0.01  -0.02   0.01     0.01   0.09   0.04
  27   1    -0.02   0.03  -0.00    -0.02  -0.00   0.05    -0.00   0.09  -0.03
  28   1     0.00  -0.03  -0.01     0.04   0.02  -0.03     0.03  -0.01  -0.06
  29   1    -0.02   0.00  -0.04     0.00  -0.05   0.03    -0.07  -0.03  -0.08
  30   1     0.03   0.07   0.01    -0.04  -0.04  -0.04     0.04   0.03   0.12
  31   1     0.09  -0.01   0.03    -0.10  -0.01  -0.01     0.13   0.04   0.02
  32   1    -0.13   0.04  -0.04    -0.40   0.15  -0.10     0.33  -0.09   0.13
  33   1    -0.05  -0.03  -0.05    -0.07   0.07  -0.02    -0.01  -0.00  -0.03
  34   1    -0.04   0.02   0.01     0.00  -0.10   0.09     0.04  -0.10   0.08
  35   1    -0.03  -0.01  -0.04     0.13   0.04  -0.02     0.14   0.02   0.01
                     16                     17                     18
                        a                      a                      a 
 Frequencies --   355.5050               380.3393               414.0030
 Red. masses --     9.6484                 7.3308                 8.9112
 Frc consts  --     0.0000                 0.0000                 0.0000
 IR Inten    --    44.7518                19.0477                 4.0608
 Raman Activ --     0.0000                 0.0000                 0.0000
 Depolar     --     0.0000                 0.0000                 0.0000
 Atom AN      X      Y      Z        X      Y      Z        X      Y      Z
   1   6     0.01  -0.03   0.08     0.08   0.09  -0.14     0.06  -0.06   0.05
   2   6    -0.04  -0.04   0.05     0.01   0.16  -0.21    -0.01   0.01   0.11
   3   6     0.08   0.04   0.03    -0.10   0.14  -0.06    -0.36  -0.21   0.15
   4   6     0.06  -0.05   0.01    -0.00  -0.03   0.04    -0.24   0.26   0.13
   5   6     0.03  -0.11  -0.18     0.07  -0.10  -0.08    -0.07   0.17  -0.06
   6   6    -0.06  -0.06  -0.02     0.10   0.01  -0.11    -0.10   0.08  -0.07
   7   6     0.18  -0.18  -0.13     0.06  -0.24   0.08     0.11  -0.00  -0.02
   8   6     0.18  -0.13  -0.23     0.10  -0.14  -0.05     0.16   0.21  -0.23
   9   8     0.06  -0.03  -0.17    -0.09  -0.03   0.06    -0.00  -0.06  -0.11
  10   6     0.06   0.11   0.19    -0.33  -0.17   0.12     0.09  -0.08   0.01
  11   6     0.02   0.16   0.24     0.06   0.05   0.09     0.04  -0.01   0.12
  12   6    -0.07  -0.03   0.04     0.03   0.17  -0.17     0.13  -0.07  -0.06
  13   6    -0.11  -0.04  -0.02     0.08   0.06   0.08     0.24   0.04   0.04
  14   1    -0.01  -0.03   0.02    -0.01   0.08  -0.07    -0.03   0.03   0.01
  15   8    -0.36   0.31   0.04    -0.03   0.06   0.11     0.01  -0.05  -0.06
  16   6    -0.08   0.02  -0.02     0.11   0.00   0.05     0.06  -0.12  -0.04
  17   1     0.05   0.01   0.04    -0.05   0.06  -0.00    -0.19  -0.08  -0.16
  18   1     0.03   0.05  -0.01    -0.04   0.04  -0.01    -0.16  -0.23   0.15
  19   1     0.01  -0.05   0.03     0.02  -0.04   0.02    -0.08   0.11   0.02
  20   1     0.02   0.00   0.02    -0.01   0.00   0.06    -0.08   0.05  -0.00
  21   1    -0.04  -0.05  -0.09     0.01  -0.05  -0.02    -0.06  -0.04  -0.03
  22   1    -0.02  -0.01   0.01     0.04  -0.02  -0.06    -0.07   0.04  -0.02
  23   1     0.11  -0.06  -0.03    -0.02  -0.19   0.01     0.07  -0.08  -0.01
  24   1     0.05  -0.05  -0.04     0.04  -0.04   0.16    -0.03   0.03   0.06
  25   1    -0.05  -0.05   0.03     0.01   0.02  -0.01    -0.02  -0.04  -0.05
  26   1     0.04   0.03   0.06    -0.26  -0.05  -0.07     0.04  -0.03   0.00
  27   1     0.03   0.03   0.01    -0.11  -0.17   0.19     0.04  -0.03  -0.01
  28   1    -0.17   0.10   0.10    -0.07   0.03   0.05    -0.04  -0.02   0.07
  29   1     0.14   0.12   0.19     0.08   0.07   0.06     0.04   0.01   0.07
  30   1    -0.02  -0.02  -0.03     0.01   0.00   0.08     0.04   0.06   0.05
  31   1    -0.05   0.00  -0.02     0.06   0.01   0.03     0.14   0.01   0.02
  32   1     0.31  -0.00   0.17    -0.32   0.14  -0.03     0.01  -0.00  -0.01
  33   1    -0.03   0.02  -0.01     0.03  -0.05   0.01    -0.01  -0.05  -0.03
  34   1    -0.02   0.01  -0.00     0.04  -0.05   0.03     0.00  -0.02   0.02
  35   1    -0.02  -0.00  -0.03     0.05   0.04   0.08     0.01  -0.04  -0.02
                     19                     20                     21
                        a                      a                      a 
 Frequencies --   472.4587               496.3437               508.5626
 Red. masses --     7.6429                10.5889                10.9789
 Frc consts  --     0.0000                 0.0000                 0.0000
 IR Inten    --     0.7853                 7.4065                15.3573
 Raman Activ --     0.0000                 0.0000                 0.0000
 Depolar     --     0.0000                 0.0000                 0.0000
 Atom AN      X      Y      Z        X      Y      Z        X      Y      Z
   1   6    -0.11  -0.15   0.09    -0.03  -0.02  -0.23     0.07  -0.12   0.11
   2   6    -0.28  -0.14  -0.09    -0.01  -0.01  -0.03     0.03  -0.03   0.01
   3   6    -0.05   0.14  -0.06    -0.03  -0.00   0.02     0.07  -0.02   0.02
   4   6    -0.03   0.06  -0.04    -0.02   0.11   0.01     0.01   0.03  -0.03
   5   6     0.04   0.03  -0.01     0.18   0.07   0.14    -0.01   0.09   0.12
   6   6    -0.03  -0.00   0.13     0.04  -0.12  -0.22    -0.20  -0.18  -0.06
   7   6    -0.01  -0.02  -0.13    -0.05  -0.07  -0.04     0.03   0.06   0.10
   8   6     0.07  -0.05   0.03     0.16  -0.04   0.32     0.03   0.03   0.25
   9   8     0.03   0.04   0.10    -0.32  -0.05  -0.20    -0.23  -0.07  -0.42
  10   6     0.05  -0.04   0.02    -0.08   0.11   0.02     0.13  -0.14   0.11
  11   6     0.09   0.00   0.01     0.31   0.00   0.04     0.13   0.03   0.03
  12   6    -0.28  -0.09  -0.16    -0.02  -0.29   0.30     0.02   0.38  -0.37
  13   6     0.05   0.26   0.25     0.01   0.08  -0.05    -0.03  -0.10   0.07
  14   1    -0.09  -0.06  -0.02     0.03   0.06  -0.02    -0.03  -0.04   0.01
  15   8    -0.00  -0.02  -0.02    -0.10   0.11   0.09    -0.04   0.04  -0.04
  16   6     0.25  -0.16  -0.13     0.03  -0.01  -0.05    -0.00   0.05   0.07
  17   1     0.08   0.02   0.07    -0.03  -0.01  -0.05     0.05  -0.01   0.04
  18   1    -0.01   0.16  -0.07    -0.02  -0.04   0.03     0.03   0.04  -0.02
  19   1     0.01   0.01  -0.02    -0.04   0.11  -0.02    -0.02   0.06  -0.02
  20   1    -0.02   0.01   0.02    -0.05  -0.04  -0.03    -0.01  -0.02  -0.04
  21   1    -0.01   0.02  -0.02     0.10   0.01   0.09     0.03   0.05   0.05
  22   1    -0.03   0.02   0.06     0.00  -0.05  -0.10    -0.08  -0.04  -0.01
  23   1     0.03   0.14  -0.03    -0.10   0.04  -0.02    -0.02   0.09   0.03
  24   1    -0.02  -0.04  -0.19     0.01  -0.03  -0.04     0.00   0.00  -0.04
  25   1     0.02   0.02   0.00    -0.05   0.05   0.01    -0.06   0.00  -0.06
  26   1     0.07  -0.02   0.03    -0.03   0.05   0.02     0.06  -0.06   0.03
  27   1     0.01   0.03  -0.03    -0.03   0.05   0.02     0.05  -0.04   0.01
  28   1     0.02  -0.00   0.01     0.16  -0.05   0.02     0.09  -0.02   0.01
  29   1     0.03   0.01  -0.00     0.04   0.00  -0.07     0.00   0.00  -0.04
  30   1    -0.08   0.24   0.18    -0.01   0.04  -0.01     0.00  -0.04  -0.00
  31   1     0.24   0.05   0.10     0.02   0.06  -0.06    -0.04  -0.08   0.08
  32   1     0.01  -0.00   0.00     0.00   0.02   0.03     0.03   0.03   0.03
  33   1     0.16   0.00   0.03     0.04   0.13   0.03    -0.02  -0.16  -0.03
  34   1     0.12  -0.16  -0.14     0.02   0.05  -0.08    -0.01  -0.06   0.08
  35   1     0.12   0.01   0.04    -0.01  -0.08  -0.14     0.01   0.11   0.20
                     22                     23                     24
                        a                      a                      a 
 Frequencies --   524.5678               576.1370               595.0643
 Red. masses --     8.5222                10.2411                 9.5614
 Frc consts  --     0.0000                 0.0000                 0.0000
 IR Inten    --     4.4760                 5.7565                 2.1998
 Raman Activ --     0.0000                 0.0000                 0.0000
 Depolar     --     0.0000                 0.0000                 0.0000
 Atom AN      X      Y      Z        X      Y      Z        X      Y      Z
   1   6    -0.03   0.04   0.06     0.10  -0.18  -0.17     0.34   0.03   0.11
   2   6     0.00   0.11   0.09     0.08  -0.18  -0.10    -0.01   0.07  -0.11
   3   6    -0.07   0.08  -0.01     0.07  -0.18   0.25    -0.07   0.12  -0.08
   4   6     0.05   0.17   0.02    -0.04   0.18   0.10    -0.03  -0.02  -0.02
   5   6    -0.14   0.14  -0.12     0.12   0.07  -0.12    -0.08  -0.01  -0.04
   6   6    -0.15   0.19   0.02     0.28   0.16  -0.25     0.05   0.01  -0.16
   7   6     0.09  -0.14  -0.03    -0.16  -0.10  -0.13     0.17   0.22   0.22
   8   6    -0.09  -0.53   0.30    -0.18  -0.08   0.02    -0.21   0.01   0.05
   9   8     0.06  -0.02   0.01     0.02   0.03   0.25    -0.05  -0.09  -0.14
  10   6    -0.01  -0.03  -0.06     0.14  -0.09   0.16     0.29  -0.27   0.22
  11   6     0.04   0.11  -0.06    -0.18   0.01  -0.10    -0.22   0.04  -0.06
  12   6     0.11  -0.03   0.03    -0.05   0.14  -0.08    -0.10  -0.19   0.15
  13   6     0.09  -0.04  -0.05    -0.09  -0.01   0.03    -0.05   0.09   0.00
  14   1    -0.01   0.03   0.02     0.01   0.03  -0.06    -0.00   0.03  -0.04
  15   8     0.08  -0.10  -0.07    -0.12   0.15   0.04    -0.06   0.02  -0.04
  16   6    -0.06  -0.00   0.00     0.04   0.07   0.05     0.00  -0.07  -0.07
  17   1    -0.05   0.01  -0.09     0.03  -0.08  -0.00    -0.00   0.04   0.03
  18   1    -0.05  -0.05   0.05    -0.03  -0.07   0.12    -0.00   0.08  -0.05
  19   1     0.08  -0.08   0.04    -0.09   0.10   0.06     0.05  -0.08   0.00
  20   1     0.08   0.16   0.07    -0.01   0.01  -0.08     0.02   0.06   0.06
  21   1    -0.05   0.07  -0.05     0.09  -0.04   0.03     0.04   0.01   0.04
  22   1    -0.08   0.07   0.01     0.06   0.04  -0.09     0.01  -0.01  -0.08
  23   1    -0.01   0.21  -0.00    -0.07   0.08  -0.04     0.05   0.06   0.06
  24   1     0.17  -0.12  -0.24    -0.03  -0.05  -0.14     0.06   0.06   0.05
  25   1    -0.01  -0.06  -0.05     0.04   0.03   0.02    -0.03  -0.04  -0.02
  26   1    -0.02  -0.01  -0.03     0.08  -0.02   0.07     0.01  -0.08   0.02
  27   1     0.00  -0.03  -0.01     0.04   0.01   0.01     0.12  -0.18   0.08
  28   1    -0.09  -0.00   0.05    -0.06  -0.08   0.04    -0.06   0.04  -0.04
  29   1     0.11   0.19  -0.08    -0.04   0.08  -0.12    -0.07  -0.01   0.00
  30   1     0.03  -0.03  -0.02    -0.01  -0.00  -0.04    -0.03  -0.04   0.13
  31   1     0.00  -0.01  -0.02    -0.05  -0.03   0.04     0.03   0.13  -0.11
  32   1    -0.00  -0.03  -0.03     0.03   0.06   0.07    -0.04   0.06   0.03
  33   1    -0.05  -0.01  -0.03     0.02  -0.02   0.02     0.03   0.11   0.03
  34   1    -0.04   0.04   0.05     0.02  -0.03   0.00     0.02   0.00  -0.09
  35   1    -0.03  -0.02  -0.03     0.03   0.06   0.08     0.01  -0.07  -0.13
                     25                     26                     27
                        a                      a                      a 
 Frequencies --   612.2425               684.7897               700.0219
 Red. masses --     9.9776                 6.4514                 3.0507
 Frc consts  --     0.0000                 0.0000                 0.0000
 IR Inten    --     3.7141                 0.9003                 3.0750
 Raman Activ --     0.0000                 0.0000                 0.0000
 Depolar     --     0.0000                 0.0000                 0.0000
 Atom AN      X      Y      Z        X      Y      Z        X      Y      Z
   1   6     0.06   0.18  -0.09    -0.11  -0.22  -0.07     0.01  -0.09  -0.09
   2   6     0.12  -0.22  -0.22     0.05  -0.01  -0.24    -0.05  -0.02   0.06
   3   6     0.19  -0.30   0.20    -0.06   0.03  -0.07    -0.09   0.09  -0.10
   4   6    -0.05  -0.12   0.06    -0.07  -0.05   0.02    -0.04   0.06  -0.04
   5   6    -0.32   0.10   0.09    -0.16   0.06   0.11    -0.08   0.03   0.04
   6   6    -0.14   0.32  -0.12    -0.13   0.12   0.07     0.03   0.16  -0.13
   7   6     0.17   0.07   0.07    -0.18  -0.16  -0.16    -0.04  -0.06  -0.09
   8   6     0.12  -0.04   0.05     0.12   0.08   0.02     0.01  -0.06   0.09
   9   8     0.01  -0.06  -0.01     0.06   0.04   0.11    -0.01   0.00   0.06
  10   6    -0.07   0.10  -0.11     0.10  -0.17   0.12     0.10  -0.09   0.08
  11   6     0.15   0.02   0.07     0.14  -0.01   0.06     0.05   0.01   0.01
  12   6    -0.19  -0.01   0.00     0.14   0.07   0.01     0.06  -0.05   0.08
  13   6    -0.18   0.07   0.06     0.11  -0.04  -0.04     0.03  -0.03  -0.04
  14   1     0.04  -0.05  -0.07     0.02   0.02  -0.07     0.01   0.04   0.00
  15   8     0.06  -0.06  -0.03    -0.02   0.02  -0.04    -0.03   0.03  -0.02
  16   6     0.03  -0.01  -0.02    -0.00   0.14   0.10    -0.00   0.02   0.03
  17   1     0.08  -0.07   0.13     0.00   0.04   0.09     0.01   0.02   0.02
  18   1     0.06   0.00   0.02     0.00   0.11  -0.07     0.01   0.05  -0.06
  19   1    -0.04  -0.05   0.05     0.04  -0.06  -0.00     0.09  -0.11  -0.01
  20   1     0.07   0.03  -0.09     0.02   0.05   0.04     0.04   0.13   0.10
  21   1    -0.12   0.00   0.00    -0.09   0.01  -0.01     0.01   0.01   0.04
  22   1    -0.03   0.06  -0.08    -0.05   0.05   0.05    -0.00   0.04  -0.04
  23   1     0.01  -0.04   0.01    -0.07  -0.03  -0.05    -0.03  -0.10  -0.03
  24   1     0.08   0.03   0.09    -0.13  -0.03  -0.06    -0.06   0.01   0.06
  25   1    -0.04  -0.10  -0.07    -0.01  -0.03  -0.01    -0.01  -0.02  -0.02
  26   1    -0.07   0.04  -0.04     0.13  -0.06   0.07     0.04  -0.03   0.03
  27   1    -0.02  -0.01  -0.00     0.03   0.03  -0.04     0.03  -0.01   0.01
  28   1     0.02   0.07  -0.02     0.10   0.07  -0.06     0.13   0.33  -0.30
  29   1     0.06  -0.02   0.10    -0.01  -0.09   0.07    -0.10  -0.33   0.30
  30   1    -0.06   0.02   0.03     0.07  -0.34   0.23     0.02   0.24  -0.30
  31   1    -0.04   0.02   0.01    -0.05   0.25  -0.30     0.00  -0.26   0.26
  32   1    -0.02  -0.03  -0.05    -0.00   0.06   0.04     0.03   0.02   0.03
  33   1     0.06   0.05   0.04    -0.01   0.10   0.04    -0.02  -0.06  -0.02
  34   1     0.04  -0.08  -0.08    -0.01   0.11   0.02    -0.02  -0.00   0.07
  35   1     0.05   0.03   0.02    -0.02  -0.01  -0.06    -0.00   0.03   0.06
                     28                     29                     30
                        a                      a                      a 
 Frequencies --   721.4034               794.6884               824.6797
 Red. masses --     4.3596                 7.9861                 9.0558
 Frc consts  --     0.0000                 0.0000                 0.0000
 IR Inten    --     5.6727                 8.4450                 4.0004
 Raman Activ --     0.0000                 0.0000                 0.0000
 Depolar     --     0.0000                 0.0000                 0.0000
 Atom AN      X      Y      Z        X      Y      Z        X      Y      Z
   1   6    -0.02   0.03   0.05    -0.01  -0.03   0.04     0.01   0.01  -0.12
   2   6     0.02   0.04   0.10    -0.15  -0.07   0.48     0.13   0.38   0.28
   3   6     0.16  -0.01   0.12    -0.12  -0.14   0.06     0.15   0.06   0.08
   4   6     0.13   0.24  -0.00    -0.12  -0.11  -0.11     0.10  -0.26  -0.10
   5   6     0.14  -0.00  -0.04     0.10  -0.01  -0.19    -0.10  -0.01  -0.01
   6   6    -0.00  -0.11   0.08     0.22   0.16  -0.30    -0.09   0.11  -0.02
   7   6     0.06  -0.04  -0.03    -0.04   0.09   0.07    -0.18  -0.04  -0.18
   8   6    -0.10  -0.21   0.04     0.03   0.02   0.05     0.05   0.05   0.07
   9   8    -0.02  -0.00  -0.04    -0.05  -0.04   0.02     0.05   0.04   0.07
  10   6    -0.08   0.06  -0.06    -0.11   0.08  -0.09     0.15  -0.14   0.12
  11   6    -0.10  -0.00  -0.08     0.08   0.02   0.03     0.10   0.03   0.07
  12   6    -0.09   0.07  -0.11     0.02   0.09  -0.13    -0.12   0.06  -0.03
  13   6    -0.06   0.03   0.05     0.04  -0.04   0.02    -0.17   0.07   0.06
  14   1    -0.03  -0.01   0.03    -0.05  -0.05   0.14     0.05   0.15   0.06
  15   8     0.02  -0.01   0.02     0.01   0.01   0.04    -0.02  -0.01  -0.04
  16   6     0.00  -0.07  -0.07    -0.02  -0.03  -0.06    -0.02  -0.25  -0.22
  17   1    -0.00  -0.05  -0.17     0.10  -0.05   0.19    -0.14   0.07  -0.10
  18   1    -0.04  -0.15   0.15     0.10   0.08  -0.13     0.06  -0.20   0.08
  19   1    -0.09   0.16   0.03     0.15  -0.23  -0.04    -0.02  -0.07   0.01
  20   1    -0.01  -0.04  -0.12     0.05   0.14   0.15     0.04  -0.07  -0.07
  21   1     0.06   0.05  -0.00     0.10  -0.05   0.03    -0.06   0.06  -0.04
  22   1    -0.01  -0.02   0.03     0.01   0.05  -0.10    -0.01   0.03   0.01
  23   1     0.04  -0.09  -0.01    -0.01   0.02   0.02    -0.15  -0.10  -0.06
  24   1     0.04  -0.00   0.06    -0.02   0.03   0.03    -0.06   0.02   0.06
  25   1     0.01   0.03   0.02    -0.01  -0.01  -0.01    -0.01  -0.04  -0.03
  26   1    -0.03   0.02  -0.01    -0.01   0.03  -0.00     0.03  -0.03   0.03
  27   1    -0.02   0.02  -0.01    -0.04   0.06  -0.03     0.06  -0.06   0.02
  28   1     0.03   0.32  -0.29     0.06   0.00  -0.00     0.09  -0.07   0.06
  29   1    -0.11  -0.29   0.28    -0.00  -0.03   0.02    -0.01   0.02  -0.07
  30   1    -0.04  -0.16   0.25    -0.01  -0.11   0.18    -0.09   0.07   0.07
  31   1     0.02   0.20  -0.19     0.05   0.15  -0.17     0.01   0.02   0.02
  32   1    -0.02  -0.01  -0.02    -0.01  -0.01  -0.01     0.00   0.04   0.04
  33   1     0.02   0.02  -0.00    -0.02  -0.04  -0.03    -0.01  -0.08  -0.07
  34   1     0.02  -0.03  -0.06    -0.02   0.02   0.01     0.00  -0.10  -0.07
  35   1     0.01  -0.02  -0.03    -0.01  -0.00  -0.00     0.00  -0.06  -0.04
                     31                     32                     33
                        a                      a                      a 
 Frequencies --   874.4009               890.1314               892.3495
 Red. masses --     8.2586                 4.1800                 4.0049
 Frc consts  --     0.0000                 0.0000                 0.0000
 IR Inten    --     0.2643                17.3142                33.4291
 Raman Activ --     0.0000                 0.0000                 0.0000
 Depolar     --     0.0000                 0.0000                 0.0000
 Atom AN      X      Y      Z        X      Y      Z        X      Y      Z
   1   6     0.08   0.04  -0.13    -0.02  -0.00   0.06     0.02   0.01   0.02
   2   6     0.04  -0.03   0.20    -0.01   0.04   0.00    -0.06   0.02   0.01
   3   6     0.02  -0.08  -0.14     0.02   0.02   0.00    -0.04  -0.07   0.05
   4   6    -0.06   0.26  -0.02     0.04  -0.06   0.01     0.04  -0.06  -0.01
   5   6    -0.20   0.11   0.46     0.03  -0.02   0.01     0.06   0.05  -0.00
   6   6     0.03  -0.15   0.03     0.02   0.10  -0.07    -0.04   0.03   0.01
   7   6     0.14  -0.19  -0.29    -0.03  -0.11   0.11     0.00  -0.08  -0.04
   8   6    -0.05   0.01  -0.05     0.03   0.12  -0.10    -0.02   0.02   0.01
   9   8     0.02   0.02   0.02    -0.03  -0.02  -0.02    -0.00   0.01  -0.01
  10   6     0.08   0.05  -0.02    -0.01   0.03  -0.01     0.07   0.06  -0.01
  11   6    -0.15  -0.07  -0.01    -0.12  -0.32   0.30    -0.02   0.08  -0.05
  12   6    -0.01   0.04  -0.02     0.00  -0.01   0.01     0.00  -0.08   0.08
  13   6    -0.04   0.02   0.02    -0.00   0.05  -0.05     0.00   0.29  -0.35
  14   1     0.06  -0.02   0.07     0.00   0.01   0.00    -0.01   0.01   0.00
  15   8    -0.03   0.02   0.03     0.01  -0.01  -0.01    -0.02   0.01   0.01
  16   6    -0.01  -0.07  -0.08     0.00  -0.00  -0.01     0.01   0.04  -0.01
  17   1     0.13  -0.05   0.07    -0.03   0.01  -0.03     0.01  -0.01   0.07
  18   1     0.11   0.06  -0.15    -0.01  -0.02   0.03     0.00   0.03  -0.01
  19   1     0.16   0.06  -0.13    -0.02   0.01   0.01     0.01   0.02  -0.02
  20   1     0.04   0.17   0.06    -0.00  -0.04  -0.02    -0.00  -0.04  -0.02
  21   1    -0.01  -0.02   0.18     0.02  -0.00   0.01     0.03   0.04   0.00
  22   1     0.09  -0.08  -0.01    -0.01   0.03  -0.03    -0.03   0.02   0.01
  23   1     0.01  -0.18  -0.09     0.06   0.13   0.04     0.02   0.00  -0.01
  24   1     0.09  -0.03   0.06    -0.02  -0.06  -0.14    -0.01  -0.03  -0.03
  25   1     0.04   0.07   0.06    -0.02  -0.03  -0.03    -0.01  -0.01  -0.02
  26   1    -0.10   0.02  -0.07    -0.02   0.00  -0.02    -0.07   0.01  -0.06
  27   1     0.02  -0.09   0.08    -0.00  -0.01   0.01     0.01  -0.06   0.07
  28   1    -0.09   0.01  -0.00     0.15   0.44  -0.41     0.01  -0.08   0.06
  29   1     0.02   0.14  -0.12     0.11   0.36  -0.34    -0.07  -0.10   0.06
  30   1    -0.02  -0.02   0.05    -0.00  -0.06   0.07    -0.01  -0.39   0.45
  31   1    -0.01   0.04  -0.03     0.00  -0.05   0.06     0.03  -0.37   0.39
  32   1    -0.01  -0.03  -0.03     0.00  -0.02  -0.02     0.02  -0.06  -0.05
  33   1    -0.01  -0.05  -0.03    -0.00  -0.01  -0.01    -0.01  -0.06  -0.03
  34   1    -0.01  -0.02  -0.01    -0.00  -0.00   0.01    -0.01   0.00   0.04
  35   1    -0.00  -0.01  -0.00    -0.00   0.00   0.01    -0.00   0.04   0.06
                     34                     35                     36
                        a                      a                      a 
 Frequencies --   901.1462               916.9381               927.6413
 Red. masses --     7.1643                 6.2649                 6.8571
 Frc consts  --     0.0000                 0.0000                 0.0000
 IR Inten    --    15.0224                11.2048                 0.9858
 Raman Activ --     0.0000                 0.0000                 0.0000
 Depolar     --     0.0000                 0.0000                 0.0000
 Atom AN      X      Y      Z        X      Y      Z        X      Y      Z
   1   6    -0.02  -0.08  -0.07    -0.17  -0.05   0.03    -0.02  -0.08   0.13
   2   6     0.16  -0.06  -0.02     0.03   0.06   0.04     0.22   0.04  -0.00
   3   6     0.10   0.07  -0.08    -0.00   0.08  -0.09     0.11   0.10  -0.15
   4   6    -0.19   0.27  -0.02     0.11  -0.10   0.08    -0.11   0.06   0.08
   5   6    -0.21  -0.13  -0.14     0.07   0.04   0.28    -0.12  -0.06   0.11
   6   6     0.11  -0.24   0.04     0.03   0.23  -0.15     0.11   0.05  -0.11
   7   6    -0.09   0.32   0.12     0.21   0.02  -0.01    -0.06  -0.30   0.27
   8   6     0.07  -0.09   0.04    -0.03  -0.05  -0.07     0.04   0.17  -0.12
   9   8     0.04   0.00   0.03    -0.06  -0.02  -0.02    -0.04  -0.03  -0.03
  10   6    -0.12  -0.11   0.01    -0.28  -0.20   0.08    -0.06   0.09  -0.07
  11   6     0.15  -0.10   0.04    -0.07  -0.05  -0.11     0.01   0.09  -0.05
  12   6    -0.03   0.01   0.04    -0.01   0.01   0.02    -0.01   0.10   0.04
  13   6    -0.05   0.13  -0.07    -0.03   0.03  -0.04    -0.05   0.11   0.10
  14   1     0.06  -0.01  -0.00     0.03   0.01   0.02     0.12  -0.03   0.03
  15   8     0.01   0.03   0.02     0.08  -0.05  -0.10     0.01   0.01   0.03
  16   6    -0.01  -0.05  -0.06     0.01  -0.02  -0.03    -0.02  -0.17  -0.15
  17   1     0.03  -0.02  -0.14    -0.04   0.05  -0.01    -0.05   0.05  -0.11
  18   1     0.02  -0.07   0.01    -0.00   0.00  -0.02     0.04  -0.08  -0.02
  19   1     0.01  -0.12   0.07     0.00   0.11  -0.05     0.01  -0.03   0.02
  20   1     0.04   0.22   0.07    -0.04  -0.13  -0.01    -0.01   0.06   0.06
  21   1    -0.13  -0.12  -0.08     0.13   0.00   0.18    -0.02  -0.13   0.07
  22   1     0.10  -0.09   0.02    -0.01   0.06  -0.05     0.06  -0.01  -0.05
  23   1    -0.12  -0.01   0.02     0.16  -0.07   0.00     0.16   0.28   0.10
  24   1    -0.03   0.11   0.13     0.10   0.01   0.06    -0.09  -0.15  -0.31
  25   1     0.06   0.09   0.08    -0.04  -0.06  -0.05    -0.01  -0.01  -0.01
  26   1     0.15  -0.03   0.11     0.28  -0.05   0.24    -0.03   0.00  -0.05
  27   1    -0.05   0.16  -0.12    -0.07   0.27  -0.26    -0.02   0.00   0.02
  28   1    -0.04   0.06  -0.02    -0.18  -0.02   0.04    -0.01  -0.08   0.07
  29   1     0.17   0.13   0.00     0.07   0.05   0.04    -0.08  -0.19   0.15
  30   1    -0.00  -0.14   0.13    -0.02  -0.03   0.06     0.05  -0.07  -0.06
  31   1    -0.05  -0.11   0.14     0.02  -0.05   0.05    -0.18   0.03   0.02
  32   1     0.02   0.07   0.08     0.02   0.15   0.14     0.00  -0.06  -0.05
  33   1     0.01  -0.03  -0.01    -0.01  -0.03  -0.02     0.01  -0.05  -0.03
  34   1     0.01  -0.06  -0.03    -0.00  -0.00   0.01     0.01  -0.09  -0.07
  35   1     0.01   0.01   0.02    -0.01  -0.01   0.00     0.01  -0.03  -0.02
                     37                     38                     39
                        a                      a                      a 
 Frequencies --   943.2727               954.8139               960.1285
 Red. masses --     6.9708                 6.0264                 5.9542
 Frc consts  --     0.0000                 0.0000                 0.0000
 IR Inten    --    13.7591                 4.8610                 4.8554
 Raman Activ --     0.0000                 0.0000                 0.0000
 Depolar     --     0.0000                 0.0000                 0.0000
 Atom AN      X      Y      Z        X      Y      Z        X      Y      Z
   1   6     0.03  -0.06  -0.02     0.03  -0.08  -0.10     0.03  -0.08  -0.08
   2   6     0.21   0.06  -0.14    -0.03   0.21  -0.04     0.01   0.16  -0.05
   3   6    -0.18  -0.14   0.17    -0.11  -0.18   0.21     0.06  -0.07   0.13
   4   6    -0.12  -0.00  -0.07     0.11  -0.06  -0.15    -0.04   0.01  -0.16
   5   6     0.22   0.14  -0.17    -0.01   0.21   0.07    -0.17   0.05  -0.03
   6   6    -0.09  -0.12   0.18     0.02  -0.15   0.06     0.07  -0.18   0.02
   7   6     0.17  -0.05  -0.06    -0.14   0.02   0.22     0.20  -0.18   0.11
   8   6    -0.06   0.00   0.06     0.04  -0.01  -0.11    -0.02   0.13   0.01
   9   8     0.01   0.02  -0.01     0.02   0.00   0.00     0.04   0.00   0.02
  10   6    -0.14  -0.01  -0.02     0.02  -0.00  -0.03    -0.15  -0.04  -0.04
  11   6    -0.12   0.07   0.09     0.08  -0.21  -0.22    -0.08   0.14   0.11
  12   6     0.02   0.09   0.09     0.01   0.01   0.02    -0.05  -0.08  -0.05
  13   6     0.01   0.16   0.14    -0.01  -0.00   0.02    -0.11  -0.18  -0.15
  14   1     0.06   0.10  -0.07    -0.01   0.19  -0.06    -0.00   0.15  -0.06
  15   8     0.02   0.01  -0.01    -0.02   0.02   0.04     0.01   0.00   0.02
  16   6    -0.05  -0.21  -0.15     0.02  -0.05  -0.03     0.05   0.14   0.12
  17   1    -0.04   0.03   0.24    -0.03   0.01   0.21    -0.03   0.00   0.02
  18   1     0.05   0.07  -0.08     0.04   0.05  -0.04     0.05  -0.06   0.02
  19   1     0.10  -0.08  -0.06     0.09   0.04  -0.12     0.04  -0.09  -0.02
  20   1    -0.00   0.08   0.09     0.07   0.02  -0.10     0.10   0.14  -0.07
  21   1     0.07   0.10  -0.05     0.03   0.15   0.02    -0.08   0.05  -0.04
  22   1    -0.13   0.03   0.08    -0.00  -0.03   0.01     0.05  -0.07  -0.00
  23   1     0.07  -0.07  -0.02    -0.07   0.17   0.06     0.16   0.08   0.04
  24   1     0.10  -0.01   0.04    -0.08  -0.02  -0.11     0.07  -0.08  -0.11
  25   1     0.03   0.04   0.02     0.04   0.08   0.06     0.06   0.09   0.08
  26   1     0.07   0.00   0.07    -0.02   0.01  -0.01     0.07   0.02   0.09
  27   1    -0.04   0.10  -0.08    -0.00  -0.00   0.02    -0.04   0.11  -0.10
  28   1     0.16   0.02  -0.06    -0.36   0.12  -0.04     0.19  -0.05   0.01
  29   1    -0.16  -0.02  -0.13     0.29   0.04   0.27    -0.20  -0.09  -0.08
  30   1     0.11  -0.10  -0.16    -0.01   0.05  -0.03    -0.18   0.21   0.15
  31   1    -0.28   0.01   0.07     0.00   0.00   0.00     0.33  -0.04  -0.04
  32   1     0.01   0.04   0.04     0.00   0.00   0.01     0.00   0.08   0.09
  33   1     0.02  -0.01  -0.01    -0.02  -0.02  -0.02    -0.03   0.01   0.00
  34   1     0.02  -0.12  -0.11    -0.01   0.03   0.01    -0.02   0.12   0.10
  35   1     0.02  -0.04  -0.05    -0.02  -0.03  -0.03    -0.03   0.00   0.01
                     40                     41                     42
                        a                      a                      a 
 Frequencies --   996.8566              1015.7045              1027.4616
 Red. masses --     7.0639                 5.0590                 8.8042
 Frc consts  --     0.0000                 0.0000                 0.0000
 IR Inten    --     1.8964                13.4124                83.8253
 Raman Activ --     0.0000                 0.0000                 0.0000
 Depolar     --     0.0000                 0.0000                 0.0000
 Atom AN      X      Y      Z        X      Y      Z        X      Y      Z
   1   6     0.02   0.05   0.10    -0.03  -0.12   0.07    -0.02   0.41   0.11
   2   6     0.41   0.01  -0.09     0.08   0.01  -0.02    -0.02   0.11   0.03
   3   6    -0.00  -0.05  -0.08     0.12   0.16   0.13    -0.02  -0.16   0.05
   4   6    -0.22   0.08   0.16    -0.16  -0.10  -0.16     0.03   0.13  -0.03
   5   6     0.31   0.01  -0.04     0.04   0.08   0.09     0.05  -0.09   0.01
   6   6    -0.11   0.08   0.14     0.04   0.01   0.01     0.09   0.01   0.07
   7   6    -0.16  -0.00  -0.04     0.05   0.00  -0.09    -0.23  -0.11  -0.02
   8   6    -0.00  -0.05  -0.03    -0.02   0.03   0.02     0.04  -0.00  -0.09
   9   8    -0.04  -0.00  -0.05    -0.02  -0.02  -0.02    -0.05  -0.06  -0.08
  10   6     0.01   0.05   0.02     0.02   0.03  -0.07    -0.05   0.02   0.33
  11   6     0.00  -0.06  -0.06     0.00  -0.05  -0.06     0.02   0.02   0.02
  12   6    -0.05   0.01  -0.00    -0.05  -0.09  -0.14    -0.00  -0.02  -0.07
  13   6    -0.23  -0.13  -0.11     0.13  -0.07  -0.08     0.09  -0.03  -0.04
  14   1     0.20  -0.08   0.03    -0.09  -0.01  -0.02    -0.06  -0.03   0.02
  15   8     0.01  -0.02  -0.03    -0.02   0.04   0.06     0.10  -0.18  -0.30
  16   6     0.05   0.02   0.02    -0.27   0.11   0.16    -0.17   0.00   0.09
  17   1    -0.04   0.05   0.09    -0.17   0.10  -0.10     0.06  -0.05   0.09
  18   1     0.10  -0.01  -0.10     0.06  -0.20   0.10     0.06   0.02  -0.06
  19   1     0.07  -0.04  -0.01     0.06  -0.20  -0.00     0.08   0.07  -0.09
  20   1    -0.10   0.04   0.22     0.04   0.12   0.07     0.02   0.05  -0.03
  21   1     0.12  -0.09   0.05     0.17   0.09   0.15    -0.09  -0.11  -0.07
  22   1    -0.15   0.09   0.06    -0.08   0.05   0.03     0.11  -0.08  -0.07
  23   1    -0.09  -0.00  -0.01     0.09  -0.07  -0.02    -0.12   0.07  -0.01
  24   1    -0.04   0.00   0.00    -0.08   0.03   0.02     0.07  -0.07  -0.08
  25   1    -0.04  -0.06  -0.06     0.00   0.01   0.02    -0.01   0.01   0.02
  26   1    -0.02   0.01  -0.02    -0.02  -0.03  -0.07     0.02   0.07   0.17
  27   1     0.02  -0.03   0.02    -0.02  -0.00   0.04     0.07  -0.03  -0.07
  28   1    -0.08   0.04  -0.02    -0.10  -0.01   0.02     0.05  -0.00  -0.01
  29   1     0.06   0.01   0.05     0.07   0.05   0.02    -0.04  -0.05   0.02
  30   1    -0.21   0.21   0.16     0.04  -0.04  -0.02     0.04  -0.02  -0.04
  31   1     0.27  -0.02  -0.03     0.06  -0.06   0.02     0.02  -0.06   0.04
  32   1     0.01  -0.03  -0.03     0.00  -0.07  -0.06     0.00   0.13   0.10
  33   1    -0.03  -0.02  -0.03     0.15   0.28   0.24     0.08   0.20   0.15
  34   1    -0.02   0.08   0.06     0.06  -0.24  -0.23     0.03  -0.13  -0.16
  35   1    -0.03  -0.03  -0.03     0.14   0.13   0.07     0.09   0.03  -0.02
                     43                     44                     45
                        a                      a                      a 
 Frequencies --  1040.4723              1055.9219              1075.6640
 Red. masses --     4.4778                 7.2156                 7.6343
 Frc consts  --     0.0000                 0.0000                 0.0000
 IR Inten    --     2.4308                55.1392                33.8632
 Raman Activ --     0.0000                 0.0000                 0.0000
 Depolar     --     0.0000                 0.0000                 0.0000
 Atom AN      X      Y      Z        X      Y      Z        X      Y      Z
   1   6     0.03   0.03  -0.11     0.13  -0.13  -0.18    -0.05  -0.05   0.17
   2   6     0.04  -0.00   0.03     0.13   0.02   0.20    -0.07   0.26  -0.12
   3   6    -0.04   0.01  -0.02    -0.14  -0.02  -0.16     0.03  -0.17   0.09
   4   6    -0.00  -0.00   0.02     0.15   0.03   0.19     0.09   0.20  -0.12
   5   6     0.04   0.00  -0.02    -0.04  -0.01  -0.05     0.06  -0.28   0.09
   6   6    -0.08  -0.02   0.03    -0.13   0.01  -0.04     0.07   0.21   0.12
   7   6     0.01  -0.02   0.07     0.04   0.01   0.13    -0.09   0.10  -0.04
   8   6     0.00   0.03  -0.02     0.00  -0.00  -0.02     0.01  -0.14  -0.02
   9   8     0.02   0.04   0.02     0.05   0.07   0.07    -0.12  -0.06  -0.09
  10   6     0.00  -0.01   0.01     0.01  -0.13  -0.27     0.05  -0.12  -0.21
  11   6    -0.01  -0.00  -0.01    -0.03   0.03   0.02     0.00   0.04   0.04
  12   6    -0.02  -0.25   0.21     0.01   0.06  -0.09     0.01  -0.05   0.05
  13   6     0.05  -0.05  -0.01     0.04  -0.08  -0.08     0.02  -0.01   0.00
  14   1     0.04   0.05  -0.01     0.09   0.02   0.05    -0.04   0.19  -0.08
  15   8     0.00  -0.02  -0.02    -0.06   0.13   0.24    -0.04   0.11   0.21
  16   6    -0.12   0.28  -0.27    -0.21  -0.05   0.09    -0.02   0.03  -0.04
  17   1     0.01  -0.01   0.00     0.05  -0.01   0.09     0.07  -0.05   0.07
  18   1     0.01  -0.02  -0.01     0.01   0.10  -0.11     0.06   0.01  -0.04
  19   1     0.02   0.02  -0.03    -0.00   0.22  -0.06     0.12   0.09  -0.13
  20   1    -0.05  -0.04   0.05    -0.11  -0.19   0.01     0.09   0.11  -0.10
  21   1    -0.02   0.01  -0.03    -0.17  -0.05  -0.14    -0.04  -0.29   0.03
  22   1    -0.01  -0.01   0.01     0.01  -0.00   0.01     0.06   0.04   0.06
  23   1    -0.06   0.06   0.02    -0.16   0.09   0.02     0.19  -0.07   0.01
  24   1     0.06  -0.03  -0.03     0.12  -0.03  -0.01    -0.21   0.07   0.03
  25   1    -0.00  -0.01  -0.03    -0.03  -0.07  -0.05    -0.11  -0.16  -0.14
  26   1    -0.01   0.04   0.04     0.04  -0.03  -0.03     0.08  -0.11  -0.09
  27   1     0.02  -0.02  -0.02    -0.03   0.04  -0.05    -0.00  -0.01  -0.02
  28   1    -0.01   0.01  -0.01     0.04   0.02  -0.03     0.07  -0.05   0.03
  29   1    -0.01  -0.02   0.02    -0.05  -0.04   0.00    -0.03   0.02  -0.07
  30   1     0.01  -0.03   0.02    -0.02   0.02   0.02     0.01   0.02  -0.03
  31   1     0.04   0.14  -0.17     0.11  -0.06   0.03    -0.00   0.01  -0.01
  32   1    -0.01   0.05   0.05    -0.00   0.01   0.04     0.00  -0.06  -0.03
  33   1     0.07  -0.34  -0.09     0.09   0.23   0.17     0.01  -0.04  -0.01
  34   1     0.01  -0.30   0.01     0.04  -0.15  -0.21    -0.00  -0.03   0.01
  35   1     0.06   0.38   0.48     0.10   0.01  -0.05     0.01   0.04   0.04
                     46                     47                     48
                        a                      a                      a 
 Frequencies --  1083.5490              1096.9347              1123.5901
 Red. masses --     6.6472                 8.6042                 6.7231
 Frc consts  --     0.0000                 0.0000                 0.0000
 IR Inten    --     8.9660                 2.1555                27.5168
 Raman Activ --     0.0000                 0.0000                 0.0000
 Depolar     --     0.0000                 0.0000                 0.0000
 Atom AN      X      Y      Z        X      Y      Z        X      Y      Z
   1   6     0.07  -0.10  -0.31    -0.12  -0.31  -0.11     0.15   0.08   0.20
   2   6    -0.21   0.02   0.03     0.07   0.10   0.03    -0.06   0.21  -0.05
   3   6     0.19  -0.05   0.01    -0.07  -0.05  -0.06     0.03  -0.16  -0.13
   4   6    -0.12   0.06  -0.08     0.11   0.07   0.06     0.00   0.02   0.12
   5   6     0.16  -0.23   0.08    -0.06  -0.07  -0.05    -0.08   0.02  -0.10
   6   6    -0.29   0.04   0.08    -0.07  -0.06  -0.15    -0.22  -0.23  -0.25
   7   6     0.12   0.02   0.16     0.11   0.14   0.08    -0.09  -0.05  -0.08
   8   6     0.01   0.11  -0.06    -0.03  -0.08   0.08    -0.02  -0.01   0.07
   9   8     0.05   0.12   0.08     0.07   0.06   0.10     0.17   0.15   0.15
  10   6     0.01   0.05   0.06    -0.04   0.29   0.40    -0.05  -0.00  -0.14
  11   6    -0.03  -0.01  -0.03     0.01   0.02   0.02     0.07  -0.01   0.01
  12   6    -0.00   0.02  -0.06     0.02   0.03  -0.00     0.02  -0.00   0.05
  13   6     0.04   0.03   0.02     0.00  -0.05  -0.03     0.03  -0.01  -0.02
  14   1    -0.10   0.22  -0.09     0.10   0.12  -0.01     0.02  -0.05   0.03
  15   8    -0.00  -0.04  -0.07     0.02  -0.11  -0.31     0.03  -0.03   0.05
  16   6     0.03  -0.02   0.05    -0.08  -0.02  -0.01    -0.05  -0.01  -0.01
  17   1     0.21  -0.17  -0.20     0.02  -0.00   0.07     0.13  -0.09   0.02
  18   1     0.06  -0.09   0.02     0.00   0.06  -0.06    -0.05   0.10  -0.03
  19   1     0.06  -0.11  -0.01    -0.00   0.12  -0.03    -0.15  -0.04   0.17
  20   1    -0.05   0.05   0.15    -0.00  -0.05  -0.06     0.06   0.02  -0.12
  21   1     0.14  -0.12   0.12    -0.03  -0.11  -0.00     0.25  -0.07   0.23
  22   1    -0.13   0.08   0.10    -0.03   0.03   0.03    -0.17   0.02  -0.01
  23   1    -0.15   0.11   0.03     0.25  -0.05   0.04     0.15  -0.05  -0.01
  24   1     0.15  -0.03  -0.03    -0.19   0.08   0.05    -0.26   0.03  -0.02
  25   1    -0.09  -0.17  -0.15     0.01  -0.00  -0.00     0.02   0.01   0.02
  26   1    -0.09   0.10   0.06    -0.07  -0.02  -0.06    -0.07   0.15   0.10
  27   1     0.01  -0.00   0.01    -0.09   0.10   0.22     0.08  -0.10  -0.14
  28   1    -0.04  -0.01   0.01     0.03  -0.01   0.01     0.02  -0.00   0.01
  29   1    -0.00  -0.01   0.02     0.01   0.03  -0.03     0.05   0.03   0.01
  30   1     0.04  -0.04  -0.02    -0.02   0.03   0.02     0.01   0.01  -0.03
  31   1    -0.05  -0.01   0.02     0.06   0.00  -0.02     0.03  -0.02   0.01
  32   1    -0.00   0.08   0.08     0.03  -0.18  -0.20    -0.02   0.17   0.17
  33   1    -0.02   0.05   0.01     0.03   0.04   0.04     0.02   0.03   0.02
  34   1    -0.01   0.06   0.02     0.01  -0.07  -0.07     0.01  -0.06  -0.05
  35   1    -0.01  -0.05  -0.06     0.03   0.02   0.01     0.02   0.02   0.01
                     49                     50                     51
                        a                      a                      a 
 Frequencies --  1127.4357              1138.9589              1154.7221
 Red. masses --     6.0408                 7.4328                 4.1743
 Frc consts  --     0.0000                 0.0000                 0.0000
 IR Inten    --   127.9725                23.4172                34.5841
 Raman Activ --     0.0000                 0.0000                 0.0000
 Depolar     --     0.0000                 0.0000                 0.0000
 Atom AN      X      Y      Z        X      Y      Z        X      Y      Z
   1   6    -0.25   0.16   0.09     0.26  -0.07   0.05     0.19  -0.26   0.05
   2   6     0.01   0.06  -0.08     0.16  -0.30   0.03    -0.02   0.08   0.01
   3   6     0.00  -0.03   0.08    -0.18   0.25   0.21    -0.04   0.01  -0.09
   4   6     0.03   0.06  -0.06     0.16   0.09  -0.24     0.08  -0.02   0.01
   5   6     0.01  -0.07  -0.03    -0.06  -0.18   0.04    -0.06  -0.03   0.02
   6   6    -0.21  -0.20  -0.29    -0.15  -0.05  -0.09     0.18   0.11   0.15
   7   6    -0.00   0.01   0.06    -0.04  -0.00  -0.01     0.07   0.00  -0.03
   8   6     0.03   0.03  -0.10     0.00  -0.02  -0.00     0.02   0.05  -0.05
   9   8     0.15   0.16   0.16     0.06   0.13   0.09    -0.09  -0.12  -0.10
  10   6     0.06  -0.14   0.05    -0.10   0.13  -0.04    -0.09   0.12   0.02
  11   6     0.03   0.02   0.04     0.01   0.01   0.02    -0.04   0.01  -0.00
  12   6    -0.02  -0.05  -0.01    -0.02   0.00  -0.01    -0.00  -0.02   0.03
  13   6     0.00   0.01   0.02    -0.05   0.02   0.01     0.01  -0.00  -0.00
  14   1    -0.05  -0.16   0.04    -0.05  -0.10   0.00    -0.00  -0.10   0.05
  15   8    -0.02   0.07   0.05     0.03  -0.05  -0.04     0.01  -0.02  -0.06
  16   6     0.03   0.03   0.01     0.04   0.01   0.01    -0.01   0.01  -0.01
  17   1    -0.15   0.10   0.09    -0.25   0.18   0.08    -0.12   0.10   0.07
  18   1     0.04  -0.04  -0.00    -0.03  -0.03   0.07    -0.08   0.08   0.01
  19   1     0.06   0.04  -0.07     0.16   0.12  -0.22    -0.12  -0.01   0.12
  20   1     0.08   0.07  -0.10     0.03   0.02  -0.05     0.23   0.14  -0.34
  21   1     0.17  -0.17   0.18     0.01  -0.05   0.03     0.04  -0.29   0.13
  22   1    -0.03  -0.04  -0.06     0.10  -0.05  -0.00    -0.25   0.21   0.16
  23   1    -0.20   0.06  -0.00    -0.04   0.00  -0.01    -0.39   0.03  -0.04
  24   1     0.35  -0.06   0.03    -0.16   0.02  -0.02     0.17  -0.02   0.04
  25   1     0.01  -0.02  -0.00    -0.10  -0.19  -0.16     0.04   0.09   0.06
  26   1     0.17  -0.24  -0.12    -0.11   0.17   0.09    -0.07   0.09   0.04
  27   1    -0.06   0.07   0.08     0.04  -0.04  -0.09    -0.03   0.04   0.01
  28   1     0.06  -0.00  -0.00     0.02  -0.02   0.01    -0.01  -0.00  -0.00
  29   1    -0.02  -0.03   0.02     0.00   0.01  -0.01    -0.03  -0.02  -0.00
  30   1     0.00   0.01  -0.01    -0.02  -0.01   0.02     0.01   0.00  -0.01
  31   1    -0.03   0.01  -0.01    -0.02   0.00   0.01     0.00   0.00  -0.00
  32   1     0.01  -0.20  -0.19    -0.01   0.12   0.11     0.01   0.00  -0.00
  33   1    -0.01  -0.02  -0.01    -0.01  -0.03  -0.02     0.00  -0.01  -0.00
  34   1    -0.01   0.03   0.03    -0.01   0.05   0.04     0.00  -0.02  -0.01
  35   1    -0.01  -0.00   0.00    -0.01  -0.02  -0.03    -0.00   0.02   0.03
                     52                     53                     54
                        a                      a                      a 
 Frequencies --  1163.1703              1180.2768              1211.1041
 Red. masses --     3.8317                 6.7133                 4.9796
 Frc consts  --     0.0000                 0.0000                 0.0000
 IR Inten    --     5.9736                 9.2905                23.3118
 Raman Activ --     0.0000                 0.0000                 0.0000
 Depolar     --     0.0000                 0.0000                 0.0000
 Atom AN      X      Y      Z        X      Y      Z        X      Y      Z
   1   6    -0.23  -0.03  -0.11     0.42  -0.11   0.28     0.01   0.06   0.06
   2   6    -0.09   0.00  -0.01    -0.09   0.15  -0.07     0.11  -0.15   0.01
   3   6     0.17  -0.02  -0.03     0.15  -0.03  -0.01    -0.12   0.14   0.13
   4   6    -0.03  -0.05   0.13    -0.04  -0.07   0.09     0.09  -0.04  -0.16
   5   6     0.07   0.13   0.00    -0.05   0.12   0.00    -0.10  -0.08   0.10
   6   6    -0.01  -0.02  -0.10    -0.03  -0.03  -0.13    -0.10   0.11  -0.05
   7   6     0.02   0.11   0.09    -0.02  -0.05  -0.11    -0.14   0.07   0.05
   8   6    -0.01  -0.11   0.01    -0.01  -0.02   0.04     0.07  -0.18  -0.22
   9   8     0.04  -0.04   0.01     0.05   0.01   0.02     0.05  -0.13  -0.04
  10   6     0.17  -0.02  -0.08    -0.26   0.08   0.05     0.02  -0.02  -0.03
  11   6    -0.02   0.02   0.01    -0.02  -0.01  -0.01     0.01   0.07   0.08
  12   6    -0.06  -0.06  -0.08    -0.08  -0.14  -0.05     0.07   0.10   0.07
  13   6     0.03   0.04   0.03     0.03   0.04   0.04    -0.05  -0.03  -0.03
  14   1    -0.06  -0.08   0.02    -0.20   0.04  -0.05     0.03   0.20  -0.08
  15   8    -0.01  -0.05   0.01     0.03   0.04  -0.02     0.00   0.01   0.02
  16   6     0.05   0.04   0.04     0.05   0.06   0.03    -0.03  -0.04  -0.03
  17   1    -0.23   0.17   0.07     0.06  -0.05  -0.08     0.21  -0.15  -0.15
  18   1     0.21  -0.19  -0.08     0.15  -0.13  -0.05    -0.16   0.10   0.11
  19   1     0.16   0.13  -0.18     0.14   0.09  -0.16     0.10   0.04  -0.13
  20   1    -0.03  -0.04   0.05    -0.16  -0.14   0.21    -0.08  -0.09   0.10
  21   1    -0.18  -0.31  -0.09    -0.15  -0.05  -0.10     0.11  -0.02   0.14
  22   1    -0.23   0.11  -0.00    -0.07   0.01  -0.06    -0.26   0.10  -0.07
  23   1     0.16  -0.01   0.03    -0.24  -0.02  -0.05    -0.01   0.03   0.02
  24   1    -0.01   0.03   0.01    -0.11   0.01  -0.01     0.02   0.01   0.01
  25   1     0.12   0.20   0.17     0.05   0.07   0.05     0.21   0.35   0.30
  26   1    -0.16   0.17   0.05     0.11  -0.08   0.01     0.01  -0.00  -0.00
  27   1     0.08  -0.13   0.00    -0.08   0.12  -0.05     0.00  -0.01   0.01
  28   1     0.02   0.01  -0.02    -0.03   0.02  -0.01     0.12  -0.05   0.02
  29   1    -0.03  -0.01  -0.02    -0.01  -0.01  -0.01    -0.05  -0.02  -0.04
  30   1     0.04  -0.05  -0.03     0.03  -0.01  -0.04    -0.04   0.03   0.04
  31   1    -0.06   0.00   0.01    -0.07   0.01   0.01     0.05  -0.00  -0.01
  32   1    -0.04   0.19   0.18     0.03  -0.16  -0.16     0.01  -0.02  -0.02
  33   1    -0.02  -0.01  -0.01    -0.01  -0.02  -0.01     0.00   0.00   0.00
  34   1    -0.01   0.07   0.05    -0.01   0.06   0.07     0.01  -0.04  -0.05
  35   1    -0.02  -0.01  -0.01    -0.02   0.01   0.02     0.01   0.00  -0.00
                     55                     56                     57
                        a                      a                      a 
 Frequencies --  1233.1463              1247.4782              1263.1096
 Red. masses --     5.6343                 7.4875                 8.8232
 Frc consts  --     0.0000                 0.0000                 0.0000
 IR Inten    --     0.0237                 9.0922                43.8905
 Raman Activ --     0.0000                 0.0000                 0.0000
 Depolar     --     0.0000                 0.0000                 0.0000
 Atom AN      X      Y      Z        X      Y      Z        X      Y      Z
   1   6     0.12   0.17  -0.08    -0.25  -0.19   0.31    -0.07   0.14  -0.09
   2   6    -0.02  -0.12   0.05     0.08   0.10  -0.15     0.09  -0.04   0.06
   3   6    -0.05   0.09   0.04    -0.02  -0.00   0.11    -0.08  -0.02   0.01
   4   6    -0.03  -0.08  -0.14     0.04   0.01  -0.10     0.15   0.13  -0.02
   5   6     0.29   0.01   0.14    -0.11  -0.08  -0.07    -0.17  -0.26  -0.30
   6   6    -0.16  -0.02  -0.04     0.16  -0.04  -0.19    -0.09   0.18   0.16
   7   6     0.01  -0.11  -0.05     0.05  -0.03  -0.13     0.25  -0.17  -0.06
   8   6    -0.08   0.20   0.26    -0.08   0.28   0.23    -0.11   0.30   0.29
   9   8     0.06   0.05   0.02    -0.02   0.00   0.03     0.01  -0.13  -0.06
  10   6    -0.06  -0.07   0.03     0.05   0.12  -0.07     0.01  -0.06   0.00
  11   6    -0.03  -0.09  -0.11     0.04  -0.07  -0.07     0.04  -0.07  -0.06
  12   6     0.05   0.07   0.05     0.10   0.11   0.12    -0.09  -0.11  -0.11
  13   6    -0.02  -0.02  -0.02    -0.05  -0.03  -0.03     0.02   0.03   0.03
  14   1     0.04   0.01   0.01    -0.04   0.02  -0.04    -0.02   0.05  -0.02
  15   8     0.01   0.05   0.02     0.01  -0.06  -0.00    -0.00   0.02   0.02
  16   6    -0.02  -0.03  -0.02    -0.04  -0.05  -0.05     0.03   0.04   0.04
  17   1     0.05  -0.03  -0.05     0.14  -0.11  -0.07    -0.04   0.03   0.07
  18   1    -0.15   0.08   0.10    -0.08   0.06   0.07     0.10  -0.05  -0.08
  19   1    -0.04  -0.12   0.05     0.09   0.03  -0.10    -0.01   0.06   0.01
  20   1     0.12   0.10  -0.13    -0.12  -0.10   0.14    -0.10  -0.12   0.06
  21   1    -0.33  -0.37  -0.23    -0.12  -0.05  -0.10     0.20  -0.09   0.15
  22   1    -0.18  -0.01  -0.16     0.02   0.09   0.14     0.05  -0.02  -0.02
  23   1     0.17  -0.03   0.00    -0.05  -0.06  -0.04    -0.06   0.02  -0.02
  24   1    -0.05  -0.02  -0.03     0.35  -0.05   0.07    -0.20   0.01  -0.03
  25   1     0.04   0.07   0.05    -0.03  -0.05  -0.03     0.12   0.19   0.17
  26   1     0.09  -0.08   0.00    -0.10   0.09  -0.01     0.05  -0.05  -0.01
  27   1    -0.01   0.03  -0.04     0.07  -0.15   0.00     0.01  -0.00  -0.02
  28   1    -0.17   0.05  -0.01    -0.09   0.03  -0.01    -0.08   0.02   0.00
  29   1     0.05   0.02   0.04     0.09   0.02   0.07     0.10   0.04   0.07
  30   1    -0.02   0.01   0.02    -0.04   0.05   0.02     0.02  -0.02  -0.01
  31   1     0.03   0.00  -0.01     0.05  -0.01   0.00    -0.06   0.01   0.00
  32   1     0.01  -0.09  -0.09    -0.01   0.11   0.11     0.00  -0.02  -0.02
  33   1     0.00   0.01   0.00     0.01  -0.02   0.00    -0.01   0.01  -0.00
  34   1     0.01  -0.03  -0.03     0.01  -0.05  -0.04    -0.01   0.05   0.03
  35   1     0.00  -0.00   0.00     0.01  -0.01  -0.02    -0.01   0.00   0.01
                     58                     59                     60
                        a                      a                      a 
 Frequencies --  1267.8675              1279.7876              1289.7940
 Red. masses --     5.2604                 7.4033                 5.0420
 Frc consts  --     0.0000                 0.0000                 0.0000
 IR Inten    --     4.1700                13.3311                17.7346
 Raman Activ --     0.0000                 0.0000                 0.0000
 Depolar     --     0.0000                 0.0000                 0.0000
 Atom AN      X      Y      Z        X      Y      Z        X      Y      Z
   1   6    -0.17   0.00  -0.02     0.01  -0.08  -0.05     0.11   0.17  -0.28
   2   6    -0.06   0.18  -0.11     0.24   0.22   0.04    -0.06   0.09  -0.03
   3   6     0.06  -0.06   0.10    -0.12  -0.05   0.03     0.03   0.04   0.12
   4   6    -0.05   0.04  -0.08     0.05   0.15  -0.09    -0.02  -0.08   0.00
   5   6     0.11  -0.09   0.11     0.08  -0.32   0.21    -0.21   0.06  -0.14
   6   6    -0.04   0.05  -0.10    -0.03   0.05  -0.16     0.22  -0.13   0.11
   7   6     0.38  -0.04   0.07    -0.11   0.02   0.03    -0.07  -0.05   0.01
   8   6     0.04  -0.07  -0.05     0.01   0.03  -0.02    -0.03   0.03   0.05
   9   8     0.01  -0.01   0.02     0.01  -0.02   0.02    -0.06   0.01  -0.01
  10   6     0.05  -0.03  -0.01    -0.00  -0.02  -0.01    -0.02  -0.16   0.07
  11   6    -0.08   0.03  -0.00     0.00  -0.01  -0.01     0.04  -0.01   0.01
  12   6     0.11   0.12   0.14    -0.23  -0.28  -0.22     0.03   0.02   0.04
  13   6    -0.03  -0.03  -0.03     0.05   0.07   0.06    -0.00  -0.01  -0.00
  14   1    -0.01  -0.37   0.14    -0.02  -0.22   0.10     0.05  -0.38   0.16
  15   8    -0.01  -0.02  -0.00     0.01   0.04   0.00     0.01   0.10   0.00
  16   6    -0.04  -0.05  -0.05     0.07   0.09   0.08    -0.01  -0.01  -0.01
  17   1     0.03  -0.04  -0.02     0.09  -0.06   0.04     0.11  -0.08  -0.07
  18   1    -0.09   0.06   0.09    -0.03   0.06  -0.02    -0.10   0.04   0.11
  19   1     0.05  -0.04  -0.04    -0.08  -0.07   0.12     0.17   0.12  -0.22
  20   1    -0.03   0.02   0.07    -0.00   0.03   0.01    -0.06  -0.06   0.07
  21   1    -0.08   0.11  -0.10    -0.13   0.33  -0.18     0.07  -0.07   0.09
  22   1     0.02  -0.01  -0.03    -0.18   0.13   0.05    -0.20   0.20   0.28
  23   1    -0.37   0.10  -0.02     0.13  -0.01   0.02     0.21   0.00   0.02
  24   1    -0.44   0.09  -0.01     0.11  -0.02  -0.00    -0.03  -0.01  -0.03
  25   1     0.03   0.06   0.05     0.04   0.07   0.06    -0.07  -0.12  -0.11
  26   1    -0.02   0.00  -0.01    -0.05   0.08   0.06     0.00   0.03   0.10
  27   1    -0.01   0.02   0.02     0.02  -0.03  -0.02    -0.02   0.08  -0.04
  28   1    -0.05   0.00   0.01    -0.01  -0.02   0.02     0.04  -0.00  -0.00
  29   1    -0.09  -0.02  -0.07     0.01   0.01   0.00     0.05   0.01   0.04
  30   1    -0.02   0.03   0.01     0.05  -0.04  -0.06    -0.00   0.01  -0.01
  31   1     0.06  -0.01  -0.00    -0.13   0.01   0.02     0.01  -0.00   0.00
  32   1    -0.01   0.04   0.04    -0.00  -0.03  -0.04     0.01  -0.13  -0.14
  33   1     0.01  -0.02   0.00    -0.02   0.04   0.00     0.01  -0.01   0.01
  34   1     0.01  -0.06  -0.04    -0.02   0.10   0.10    -0.00  -0.00   0.00
  35   1     0.01  -0.01  -0.01    -0.03   0.01   0.04     0.01  -0.00  -0.02
                     61                     62                     63
                        a                      a                      a 
 Frequencies --  1297.9350              1303.7411              1321.0559
 Red. masses --     5.7641                 4.7631                 4.9981
 Frc consts  --     0.0000                 0.0000                 0.0000
 IR Inten    --     1.8679                41.8802                20.0259
 Raman Activ --     0.0000                 0.0000                 0.0000
 Depolar     --     0.0000                 0.0000                 0.0000
 Atom AN      X      Y      Z        X      Y      Z        X      Y      Z
   1   6    -0.06   0.05   0.03     0.25   0.02   0.01     0.12  -0.27  -0.03
   2   6     0.30   0.08   0.08    -0.17  -0.00  -0.07    -0.13   0.21  -0.06
   3   6    -0.11   0.07   0.02     0.06  -0.06  -0.00     0.09  -0.03   0.09
   4   6    -0.00  -0.14  -0.05     0.02   0.11   0.01    -0.04  -0.03  -0.08
   5   6    -0.01   0.25  -0.03    -0.01  -0.20   0.01     0.05   0.09  -0.07
   6   6     0.05  -0.07   0.05    -0.07   0.08   0.01    -0.26   0.20   0.12
   7   6     0.05  -0.03   0.01    -0.15  -0.02  -0.04    -0.12   0.06  -0.00
   8   6     0.01  -0.05  -0.01    -0.03   0.08   0.05    -0.02   0.01   0.00
   9   8    -0.01   0.04   0.00     0.01  -0.03  -0.02     0.02  -0.07  -0.03
  10   6     0.16   0.04  -0.08     0.13  -0.01  -0.09    -0.05   0.06  -0.01
  11   6    -0.01   0.01   0.01     0.03  -0.02  -0.01     0.01  -0.01  -0.00
  12   6    -0.17  -0.22  -0.18     0.13   0.14   0.16    -0.08  -0.04  -0.03
  13   6     0.02   0.06   0.05    -0.03  -0.03  -0.03     0.05  -0.00   0.00
  14   1    -0.09  -0.02   0.00    -0.11  -0.16   0.03     0.35  -0.26   0.17
  15   8    -0.08  -0.16  -0.04    -0.09  -0.14  -0.06     0.01   0.01   0.00
  16   6     0.05   0.06   0.05    -0.03  -0.04  -0.05     0.00   0.00   0.01
  17   1     0.21  -0.14  -0.09    -0.11   0.08   0.06     0.01  -0.01   0.00
  18   1    -0.16   0.12   0.08     0.09  -0.07  -0.05    -0.15   0.07   0.14
  19   1     0.01  -0.02  -0.03    -0.01   0.01   0.02     0.07  -0.03  -0.06
  20   1     0.01  -0.02  -0.01    -0.03  -0.00   0.03    -0.05  -0.03   0.07
  21   1    -0.01  -0.26   0.07     0.01   0.16  -0.04     0.08  -0.15   0.08
  22   1     0.07  -0.05  -0.01    -0.09   0.03  -0.04     0.37  -0.23  -0.16
  23   1    -0.05   0.02  -0.00     0.15  -0.05   0.00     0.10  -0.05   0.01
  24   1    -0.10   0.01  -0.01     0.12  -0.04  -0.03     0.19  -0.02   0.02
  25   1    -0.05  -0.08  -0.08     0.05   0.07   0.05     0.07   0.12   0.11
  26   1     0.01  -0.09  -0.15    -0.01  -0.06  -0.12    -0.02   0.05   0.03
  27   1    -0.20   0.26   0.26    -0.31   0.43   0.33     0.02  -0.05  -0.02
  28   1    -0.01   0.02  -0.01     0.01  -0.01   0.01     0.03  -0.00  -0.01
  29   1    -0.03  -0.01  -0.02     0.05   0.02   0.04     0.03   0.01   0.03
  30   1     0.02  -0.02  -0.03    -0.02   0.02   0.02     0.06  -0.05  -0.07
  31   1    -0.11   0.01   0.01     0.07  -0.00  -0.01     0.04  -0.01   0.00
  32   1    -0.04   0.22   0.24    -0.04   0.18   0.19    -0.00   0.01   0.00
  33   1    -0.01   0.03   0.01     0.00  -0.03  -0.01    -0.00   0.01   0.00
  34   1    -0.02   0.08   0.08     0.01  -0.06  -0.05    -0.01   0.02   0.01
  35   1    -0.02   0.01   0.04     0.01  -0.01  -0.02    -0.00   0.00   0.01
                     64                     65                     66
                        a                      a                      a 
 Frequencies --  1329.9699              1338.3726              1352.6166
 Red. masses --     3.7786                 4.2228                 3.5688
 Frc consts  --     0.0000                 0.0000                 0.0000
 IR Inten    --     8.7791                 9.3039                45.8097
 Raman Activ --     0.0000                 0.0000                 0.0000
 Depolar     --     0.0000                 0.0000                 0.0000
 Atom AN      X      Y      Z        X      Y      Z        X      Y      Z
   1   6     0.01  -0.06  -0.12     0.02   0.13   0.10     0.08  -0.02  -0.17
   2   6     0.14   0.05   0.02    -0.18  -0.07  -0.00    -0.03   0.02   0.02
   3   6     0.00  -0.11  -0.04     0.11  -0.11   0.02     0.04  -0.03  -0.00
   4   6     0.18   0.11  -0.23     0.16   0.16  -0.26     0.03   0.04  -0.05
   5   6    -0.02   0.19   0.06    -0.08   0.07   0.10    -0.05  -0.02   0.02
   6   6    -0.05   0.03   0.04     0.12  -0.11  -0.07     0.06  -0.02   0.04
   7   6    -0.06   0.04   0.04     0.01  -0.03  -0.02    -0.04   0.02   0.03
   8   6     0.03  -0.07  -0.06     0.04  -0.04  -0.03     0.00  -0.01  -0.02
   9   8    -0.02  -0.03  -0.01    -0.02   0.03   0.01    -0.00   0.01  -0.00
  10   6    -0.01  -0.04   0.02     0.03  -0.05  -0.01    -0.16   0.34   0.08
  11   6    -0.01   0.01   0.01    -0.01   0.01   0.01    -0.00   0.01   0.01
  12   6     0.13   0.05   0.09    -0.11  -0.03  -0.07    -0.00   0.01   0.01
  13   6    -0.06  -0.00  -0.01     0.06  -0.00   0.00    -0.00   0.01   0.00
  14   1    -0.54  -0.15  -0.04     0.48   0.18   0.03    -0.04  -0.11   0.04
  15   8     0.02   0.05   0.00    -0.01  -0.01  -0.01    -0.01  -0.13   0.06
  16   6    -0.01  -0.01  -0.02     0.02   0.00   0.01     0.00   0.00   0.00
  17   1    -0.08   0.05   0.10    -0.18   0.13   0.15    -0.05   0.03   0.03
  18   1    -0.02   0.04  -0.01    -0.09   0.03   0.09    -0.04   0.02   0.03
  19   1    -0.19  -0.18   0.26    -0.13  -0.14   0.18    -0.01  -0.01   0.02
  20   1    -0.19  -0.16   0.22    -0.22  -0.16   0.29    -0.05  -0.04   0.07
  21   1    -0.01  -0.24   0.08    -0.07  -0.11   0.01    -0.00   0.01   0.01
  22   1     0.15  -0.03   0.07    -0.12   0.11   0.12    -0.15   0.06  -0.00
  23   1     0.09  -0.03   0.01    -0.07   0.05  -0.01     0.06   0.01   0.01
  24   1     0.03  -0.01  -0.04    -0.05   0.02   0.03     0.01  -0.00  -0.01
  25   1     0.01   0.01   0.02    -0.04  -0.06  -0.05    -0.01  -0.01  -0.01
  26   1    -0.04   0.07   0.08    -0.01   0.01   0.01     0.34  -0.48  -0.38
  27   1     0.03  -0.03  -0.04    -0.07   0.10   0.05     0.19  -0.29  -0.14
  28   1     0.00   0.00  -0.00    -0.03   0.01   0.00     0.02  -0.01   0.00
  29   1    -0.03  -0.01  -0.02    -0.04  -0.02  -0.04     0.00   0.00   0.00
  30   1    -0.08   0.09   0.08     0.08  -0.09  -0.08     0.01  -0.02  -0.02
  31   1    -0.05   0.00   0.01     0.06  -0.00  -0.01     0.02  -0.00   0.00
  32   1     0.01  -0.07  -0.08     0.00   0.01   0.01    -0.03   0.19   0.22
  33   1     0.00  -0.01  -0.00    -0.01   0.04  -0.00    -0.00  -0.01  -0.00
  34   1     0.01  -0.05  -0.02    -0.01   0.03   0.02     0.00  -0.00  -0.00
  35   1    -0.01  -0.01  -0.00    -0.01   0.01   0.03    -0.00  -0.00  -0.01
                     67                     68                     69
                        a                      a                      a 
 Frequencies --  1356.8373              1369.8874              1397.0200
 Red. masses --     4.2793                 3.3754                 3.1158
 Frc consts  --     0.0000                 0.0000                 0.0000
 IR Inten    --    12.7565                18.5567                13.6184
 Raman Activ --     0.0000                 0.0000                 0.0000
 Depolar     --     0.0000                 0.0000                 0.0000
 Atom AN      X      Y      Z        X      Y      Z        X      Y      Z
   1   6    -0.01   0.01   0.00     0.10   0.12  -0.01     0.02   0.00  -0.00
   2   6     0.07  -0.00   0.14    -0.01  -0.06   0.03    -0.06  -0.02  -0.03
   3   6     0.34  -0.21  -0.23     0.02   0.01  -0.03    -0.01   0.02  -0.00
   4   6    -0.17   0.01   0.07    -0.07  -0.04   0.05    -0.00   0.01   0.01
   5   6    -0.00  -0.10  -0.05     0.12   0.04   0.03     0.01  -0.00   0.00
   6   6    -0.00   0.01   0.01    -0.22   0.03  -0.26    -0.02   0.00  -0.02
   7   6     0.01  -0.02  -0.01    -0.03  -0.03  -0.00    -0.00   0.00   0.00
   8   6    -0.02   0.04   0.02     0.01  -0.01   0.00     0.00  -0.00   0.00
   9   8     0.01   0.00  -0.00    -0.04  -0.16   0.00    -0.00  -0.02   0.00
  10   6     0.01  -0.02  -0.00    -0.02   0.02   0.01    -0.01   0.01  -0.00
  11   6     0.01  -0.01  -0.01     0.00  -0.00  -0.00     0.00  -0.00   0.00
  12   6     0.01  -0.06  -0.04    -0.01  -0.01  -0.01     0.12   0.02   0.01
  13   6    -0.00   0.01   0.01     0.00   0.00   0.00     0.01  -0.03  -0.03
  14   1    -0.19   0.17  -0.07     0.01   0.07  -0.02     0.04  -0.02   0.01
  15   8     0.00   0.01  -0.00    -0.01  -0.02   0.01    -0.00  -0.00   0.00
  16   6    -0.00   0.01   0.00    -0.00   0.03   0.03    -0.01  -0.31  -0.27
  17   1    -0.23   0.18   0.13    -0.01   0.01  -0.01     0.01   0.01   0.03
  18   1    -0.49   0.34   0.28    -0.02   0.01   0.01     0.02  -0.06   0.01
  19   1     0.13   0.10  -0.18     0.02  -0.00  -0.02     0.02  -0.01  -0.01
  20   1    -0.01   0.06   0.06     0.06   0.05  -0.07    -0.00  -0.01  -0.03
  21   1     0.03   0.12  -0.02    -0.02  -0.00  -0.04     0.00   0.00  -0.00
  22   1    -0.03  -0.01  -0.05     0.41   0.21   0.70     0.04   0.02   0.06
  23   1     0.01   0.02  -0.00     0.03   0.06   0.01     0.00   0.00   0.00
  24   1    -0.00   0.00   0.02    -0.04   0.01   0.02     0.00   0.00   0.00
  25   1     0.01   0.01   0.01     0.08   0.12   0.13     0.00   0.01   0.02
  26   1    -0.01   0.03   0.03     0.06  -0.08  -0.06     0.02  -0.01  -0.00
  27   1    -0.01   0.01   0.01    -0.01   0.02  -0.01     0.00  -0.01   0.00
  28   1     0.02  -0.01   0.00    -0.03   0.01  -0.00    -0.00   0.00  -0.00
  29   1     0.03   0.01   0.03    -0.02  -0.01  -0.02    -0.00  -0.00  -0.00
  30   1    -0.03   0.04   0.04     0.01  -0.01  -0.01    -0.11   0.14   0.13
  31   1    -0.08   0.01   0.00     0.01   0.00  -0.00    -0.20  -0.00  -0.00
  32   1     0.01  -0.02  -0.02    -0.00   0.03   0.03     0.00   0.01   0.01
  33   1     0.02   0.00   0.02    -0.01  -0.04  -0.01     0.11   0.49   0.16
  34   1    -0.01   0.02   0.02     0.02  -0.02  -0.04    -0.15   0.32   0.28
  35   1     0.02   0.02   0.01     0.01  -0.02  -0.04     0.03   0.22   0.43
                     70                     71                     72
                        a                      a                      a 
 Frequencies --  1410.4766              1431.1591              1462.5797
 Red. masses --     2.3577                 2.5627                 1.7884
 Frc consts  --     0.0000                 0.0000                 0.0000
 IR Inten    --     5.8556                 6.3269                 2.5697
 Raman Activ --     0.0000                 0.0000                 0.0000
 Depolar     --     0.0000                 0.0000                 0.0000
 Atom AN      X      Y      Z        X      Y      Z        X      Y      Z
   1   6     0.01  -0.01  -0.01    -0.01   0.01  -0.01     0.01  -0.01  -0.02
   2   6    -0.00   0.00   0.00     0.11  -0.00   0.02     0.01  -0.01   0.01
   3   6     0.01  -0.00  -0.00     0.01  -0.01  -0.03     0.01  -0.03   0.06
   4   6    -0.01   0.01   0.03    -0.01  -0.03   0.01    -0.03   0.13   0.07
   5   6    -0.07  -0.05  -0.08     0.00  -0.01  -0.01    -0.00   0.02   0.01
   6   6    -0.01   0.01   0.02    -0.00   0.00  -0.00     0.01  -0.00   0.01
   7   6    -0.09   0.04   0.01     0.00   0.01   0.01    -0.02  -0.09  -0.08
   8   6     0.25   0.01   0.09     0.00   0.00   0.01     0.00  -0.02  -0.01
   9   8     0.01   0.00  -0.00    -0.00  -0.00   0.00    -0.00   0.00  -0.00
  10   6     0.00   0.00  -0.00     0.01  -0.02   0.02    -0.03   0.02  -0.05
  11   6     0.16  -0.00   0.05     0.01  -0.00   0.00    -0.01   0.00  -0.00
  12   6     0.01  -0.00  -0.00    -0.21   0.13   0.13    -0.02   0.03  -0.00
  13   6    -0.00   0.00   0.00    -0.08   0.03   0.03    -0.03   0.01   0.01
  14   1    -0.01  -0.01   0.00    -0.21   0.01  -0.04    -0.03  -0.00  -0.00
  15   8    -0.00   0.00   0.00     0.00   0.01   0.01    -0.00  -0.00  -0.01
  16   6    -0.00   0.00   0.00     0.09  -0.14  -0.10    -0.01   0.07  -0.11
  17   1    -0.00   0.00  -0.01    -0.00   0.00   0.00    -0.11   0.00  -0.17
  18   1    -0.01   0.01   0.00    -0.02   0.02   0.00     0.05   0.16  -0.10
  19   1     0.04   0.01  -0.03    -0.02   0.06  -0.03     0.22  -0.27   0.02
  20   1     0.00  -0.01  -0.03     0.03   0.04   0.03    -0.11  -0.24  -0.26
  21   1     0.07   0.03   0.04     0.01   0.00   0.00    -0.00   0.00   0.00
  22   1    -0.01  -0.01  -0.03     0.01   0.00   0.01    -0.01  -0.01  -0.02
  23   1     0.06  -0.03   0.01     0.00  -0.03  -0.00     0.07   0.31   0.02
  24   1     0.05  -0.01  -0.01    -0.00  -0.01  -0.03    -0.00   0.07   0.30
  25   1     0.00   0.00   0.00    -0.00  -0.00   0.00    -0.00  -0.00  -0.00
  26   1     0.00   0.00   0.00    -0.03   0.00  -0.01     0.13   0.03   0.11
  27   1     0.00  -0.01   0.00     0.01   0.01  -0.03    -0.03  -0.10   0.15
  28   1    -0.61   0.24   0.05    -0.01   0.01   0.00     0.01  -0.00  -0.00
  29   1    -0.44  -0.24  -0.42    -0.01  -0.01  -0.01     0.00   0.00   0.00
  30   1    -0.01   0.01   0.01     0.26  -0.37  -0.34     0.04  -0.06  -0.05
  31   1    -0.01   0.00   0.00     0.58   0.00  -0.01     0.09   0.00   0.00
  32   1    -0.00   0.00   0.00     0.00  -0.03  -0.03     0.00  -0.01  -0.01
  33   1     0.01  -0.01   0.00    -0.13   0.23  -0.05     0.27   0.01   0.17
  34   1    -0.00  -0.00   0.00    -0.02   0.06   0.04    -0.07  -0.20   0.35
  35   1     0.01  -0.00  -0.01    -0.15   0.03   0.21    -0.14  -0.11  -0.12
                     73                     74                     75
                        a                      a                      a 
 Frequencies --  1465.3852              1473.6406              1477.5401
 Red. masses --     1.8104                 1.8353                 1.7379
 Frc consts  --     0.0000                 0.0000                 0.0000
 IR Inten    --     3.4736                 8.0014                 3.2748
 Raman Activ --     0.0000                 0.0000                 0.0000
 Depolar     --     0.0000                 0.0000                 0.0000
 Atom AN      X      Y      Z        X      Y      Z        X      Y      Z
   1   6     0.01  -0.02  -0.02    -0.01   0.03  -0.02    -0.00   0.02  -0.00
   2   6    -0.01   0.01  -0.01     0.00  -0.02   0.01    -0.02  -0.01   0.01
   3   6    -0.01  -0.00   0.00    -0.00   0.03  -0.05     0.01  -0.03   0.06
   4   6     0.03  -0.10  -0.05    -0.02   0.05   0.02     0.03  -0.10  -0.05
   5   6     0.00  -0.00  -0.01    -0.00  -0.00   0.01    -0.00  -0.01  -0.01
   6   6    -0.00   0.00   0.01     0.01  -0.01  -0.01    -0.01   0.00  -0.01
   7   6    -0.03  -0.11  -0.10     0.04   0.12   0.11     0.02   0.06   0.05
   8   6    -0.00  -0.01  -0.00     0.00   0.01   0.00    -0.00   0.01   0.01
   9   8     0.00   0.01   0.00    -0.00  -0.00   0.00     0.00  -0.01   0.00
  10   6    -0.07   0.06  -0.13    -0.07   0.06  -0.16    -0.02   0.01  -0.04
  11   6     0.01  -0.00   0.00    -0.01   0.00  -0.00     0.00  -0.00  -0.00
  12   6     0.02  -0.01   0.01    -0.01   0.01   0.00     0.02   0.00  -0.03
  13   6     0.01  -0.01  -0.00    -0.03   0.01   0.01     0.05  -0.02  -0.02
  14   1    -0.03  -0.03   0.00     0.00   0.01  -0.00     0.06   0.01   0.01
  15   8    -0.00  -0.01  -0.03    -0.00  -0.01  -0.03    -0.00  -0.00  -0.01
  16   6     0.03  -0.04   0.07    -0.05  -0.02  -0.01     0.12   0.12  -0.07
  17   1     0.01  -0.00   0.00     0.06   0.01   0.10    -0.07  -0.00  -0.10
  18   1     0.03  -0.03  -0.01    -0.05  -0.08   0.07     0.04   0.12  -0.07
  19   1    -0.17   0.20  -0.01     0.09  -0.11   0.01    -0.17   0.23  -0.02
  20   1     0.08   0.17   0.18    -0.04  -0.09  -0.10     0.08   0.18   0.20
  21   1     0.00  -0.01  -0.00    -0.00   0.01  -0.00     0.00  -0.01  -0.00
  22   1    -0.00  -0.01  -0.02    -0.00   0.03   0.04     0.01   0.01   0.03
  23   1     0.09   0.38   0.03    -0.08  -0.38  -0.02    -0.04  -0.19  -0.01
  24   1    -0.01   0.09   0.37    -0.03  -0.08  -0.38    -0.01  -0.04  -0.19
  25   1    -0.01  -0.01  -0.01    -0.00  -0.01  -0.01    -0.00   0.00   0.01
  26   1     0.31   0.07   0.27     0.37   0.07   0.31     0.09   0.01   0.07
  27   1    -0.07  -0.23   0.35    -0.08  -0.27   0.41    -0.02  -0.07   0.09
  28   1    -0.02   0.01   0.00     0.02  -0.01  -0.00    -0.00   0.00   0.00
  29   1    -0.01  -0.01  -0.01     0.01   0.01   0.01    -0.00  -0.00  -0.00
  30   1    -0.01   0.02   0.02     0.03  -0.05  -0.04    -0.04   0.07   0.07
  31   1    -0.03   0.00  -0.00     0.07   0.01  -0.00    -0.11  -0.01  -0.00
  32   1     0.00  -0.00  -0.01     0.00  -0.01  -0.01     0.00   0.00   0.00
  33   1    -0.21   0.05  -0.12     0.09  -0.09   0.04     0.01   0.23   0.04
  34   1     0.05   0.08  -0.22    -0.03   0.10   0.03     0.02  -0.46   0.22
  35   1     0.02   0.06   0.11     0.14   0.03  -0.06    -0.51  -0.18   0.03
                     76                     77                     78
                        a                      a                      a 
 Frequencies --  1491.3948              1502.5461              1699.6848
 Red. masses --     1.7315                 1.8466                11.1688
 Frc consts  --     0.0000                 0.0000                 0.0000
 IR Inten    --     2.0349                 1.4052                30.1369
 Raman Activ --     0.0000                 0.0000                 0.0000
 Depolar     --     0.0000                 0.0000                 0.0000
 Atom AN      X      Y      Z        X      Y      Z        X      Y      Z
   1   6     0.00   0.01  -0.00    -0.00  -0.01   0.00     0.00   0.01  -0.00
   2   6    -0.01  -0.00   0.01    -0.01   0.00  -0.02     0.07  -0.01   0.00
   3   6     0.02  -0.04   0.07    -0.03   0.13  -0.20     0.01   0.00   0.00
   4   6    -0.04   0.13   0.07    -0.02   0.06   0.03    -0.00  -0.00   0.00
   5   6    -0.00   0.01   0.00    -0.00  -0.01   0.00     0.00   0.00   0.00
   6   6     0.01  -0.01   0.00     0.00   0.00   0.00    -0.00  -0.00   0.00
   7   6     0.01   0.02   0.02    -0.01  -0.03  -0.02    -0.00  -0.00  -0.00
   8   6     0.00  -0.00  -0.00     0.01  -0.00  -0.01    -0.00  -0.00  -0.00
   9   8    -0.00   0.00   0.00    -0.00   0.00   0.00    -0.00  -0.00  -0.00
  10   6    -0.00   0.00  -0.01     0.00   0.00   0.00    -0.00   0.00  -0.00
  11   6    -0.01  -0.00  -0.00    -0.00   0.00   0.00     0.00  -0.00   0.00
  12   6     0.01  -0.03  -0.00     0.01   0.02   0.00    -0.59   0.31   0.27
  13   6     0.06  -0.03  -0.02     0.02  -0.01  -0.01     0.53  -0.25  -0.22
  14   1     0.03   0.00   0.01    -0.02  -0.00  -0.01    -0.06  -0.00  -0.01
  15   8     0.00  -0.00  -0.00     0.00  -0.00   0.00     0.00  -0.00  -0.00
  16   6     0.13  -0.02   0.11     0.08   0.06   0.00     0.03  -0.05  -0.04
  17   1    -0.12   0.01  -0.17     0.31   0.01   0.50     0.00   0.00   0.00
  18   1     0.04   0.18  -0.09    -0.15  -0.48   0.30     0.00  -0.00   0.00
  19   1     0.26  -0.27  -0.01     0.12  -0.11  -0.02     0.00  -0.00   0.00
  20   1    -0.10  -0.23  -0.24    -0.04  -0.09  -0.12    -0.00  -0.00  -0.00
  21   1    -0.00   0.01   0.00     0.00   0.01   0.00     0.00  -0.00  -0.00
  22   1    -0.00   0.00   0.00    -0.00  -0.00  -0.01    -0.00   0.00   0.00
  23   1    -0.01  -0.08  -0.01     0.01   0.11   0.01     0.00   0.00   0.00
  24   1    -0.00  -0.02  -0.08     0.00   0.02   0.09    -0.00   0.00   0.00
  25   1    -0.01  -0.02  -0.01    -0.00  -0.00  -0.00     0.00   0.00  -0.00
  26   1     0.02   0.00   0.01    -0.01  -0.00  -0.01     0.01   0.00   0.01
  27   1    -0.00  -0.01   0.02     0.00   0.00  -0.01    -0.00  -0.01   0.01
  28   1     0.01  -0.00  -0.00    -0.00   0.00   0.00    -0.00   0.00   0.00
  29   1     0.01   0.01   0.01    -0.00  -0.00  -0.00    -0.00  -0.00  -0.00
  30   1    -0.04   0.08   0.07    -0.02   0.03   0.03     0.03   0.12   0.11
  31   1    -0.11  -0.00  -0.01    -0.03  -0.00  -0.00    -0.13  -0.08  -0.07
  32   1    -0.00   0.00   0.00     0.00   0.00   0.00    -0.00  -0.00  -0.00
  33   1    -0.45   0.19  -0.26    -0.09   0.11  -0.04     0.02  -0.08  -0.01
  34   1     0.12  -0.05  -0.35     0.04  -0.23   0.02    -0.02   0.05   0.04
  35   1    -0.21   0.03   0.23    -0.28  -0.10   0.02     0.03  -0.02  -0.06
                     79                     80                     81
                        a                      a                      a 
 Frequencies --  1740.3051              2821.5231              2880.7008
 Red. masses --    11.5887                 1.7178                 1.7544
 Frc consts  --     0.0000                 0.0000                 0.0000
 IR Inten    --    29.5947               141.1904                79.3607
 Raman Activ --     0.0000                 0.0000                 0.0000
 Depolar     --     0.0000                 0.0000                 0.0000
 Atom AN      X      Y      Z        X      Y      Z        X      Y      Z
   1   6    -0.02   0.01   0.00    -0.00  -0.01   0.01    -0.01  -0.00  -0.00
   2   6     0.00   0.00  -0.00    -0.00   0.00   0.00     0.01  -0.02  -0.04
   3   6     0.00  -0.00   0.00     0.00   0.00  -0.00     0.00   0.00   0.00
   4   6    -0.00  -0.01   0.00     0.00   0.00  -0.00     0.00  -0.00   0.00
   5   6    -0.06  -0.03  -0.06     0.00  -0.01  -0.00    -0.00   0.00   0.00
   6   6    -0.01  -0.01  -0.01    -0.08  -0.21   0.12    -0.00  -0.00  -0.00
   7   6    -0.08   0.03   0.00     0.00   0.00  -0.00     0.00   0.00   0.00
   8   6     0.71  -0.01   0.25     0.00  -0.00  -0.00    -0.00  -0.00  -0.00
   9   8     0.00   0.00   0.00    -0.01  -0.01  -0.01     0.00   0.00   0.00
  10   6     0.00  -0.00   0.00     0.00   0.00  -0.00    -0.22  -0.10  -0.07
  11   6    -0.58   0.00  -0.20     0.00   0.00   0.00    -0.00   0.00   0.00
  12   6    -0.00   0.00   0.00     0.00  -0.00   0.00     0.00  -0.00  -0.00
  13   6     0.00  -0.00  -0.00    -0.00   0.00   0.00    -0.00  -0.00   0.00
  14   1    -0.00  -0.00  -0.00     0.00  -0.01  -0.01    -0.03   0.05   0.14
  15   8     0.00  -0.00   0.00     0.00   0.00  -0.00    -0.00  -0.01  -0.01
  16   6     0.00  -0.00  -0.00     0.00   0.00  -0.00    -0.00  -0.00   0.00
  17   1     0.00  -0.00  -0.00    -0.00  -0.00   0.00    -0.00  -0.00   0.00
  18   1     0.00  -0.00  -0.00    -0.00   0.00  -0.00    -0.01  -0.00  -0.01
  19   1    -0.00   0.01  -0.01    -0.00   0.00  -0.00    -0.00  -0.00  -0.00
  20   1     0.00   0.00   0.00    -0.00   0.00   0.00    -0.00   0.00  -0.00
  21   1     0.03   0.01   0.02    -0.01   0.00   0.02     0.00  -0.00  -0.00
  22   1     0.00  -0.00   0.00     0.34   0.80  -0.41     0.00   0.00  -0.00
  23   1     0.02   0.00   0.00     0.00   0.00   0.00     0.00   0.00  -0.00
  24   1     0.01   0.00   0.01    -0.00  -0.01   0.00     0.00  -0.01   0.00
  25   1    -0.00  -0.00  -0.00     0.00   0.00  -0.00    -0.00   0.00   0.00
  26   1    -0.00  -0.00  -0.00    -0.01  -0.01   0.01     0.01   0.06  -0.07
  27   1    -0.00   0.00  -0.00     0.00   0.00   0.00     0.80   0.34   0.37
  28   1     0.05  -0.09  -0.08    -0.00  -0.00  -0.00    -0.00  -0.00  -0.00
  29   1    -0.01   0.09   0.10    -0.00  -0.00  -0.00     0.00  -0.00  -0.00
  30   1     0.00   0.00   0.00     0.00   0.00   0.00     0.00   0.00   0.00
  31   1    -0.00  -0.00  -0.00     0.00  -0.00  -0.00    -0.00   0.00   0.00
  32   1    -0.00   0.00   0.00    -0.00  -0.00   0.00     0.00   0.00   0.00
  33   1    -0.00  -0.00  -0.00    -0.00   0.00   0.00     0.00   0.00  -0.00
  34   1    -0.00   0.00   0.00     0.00   0.00   0.00     0.00  -0.00   0.00
  35   1    -0.00  -0.00  -0.00     0.00  -0.00   0.00    -0.00   0.00  -0.00
                     82                     83                     84
                        a                      a                      a 
 Frequencies --  2882.3396              2954.1549              2957.6801
 Red. masses --     1.7495                 1.8349                 1.7065
 Frc consts  --     0.0000                 0.0000                 0.0000
 IR Inten    --    72.4596                 7.8639                87.9427
 Raman Activ --     0.0000                 0.0000                 0.0000
 Depolar     --     0.0000                 0.0000                 0.0000
 Atom AN      X      Y      Z        X      Y      Z        X      Y      Z
   1   6     0.01   0.00  -0.01    -0.00  -0.00   0.00     0.00   0.01  -0.01
   2   6     0.04  -0.09  -0.23    -0.00   0.00  -0.00    -0.00  -0.00  -0.00
   3   6     0.01   0.00   0.01    -0.01  -0.00  -0.01     0.00   0.00   0.00
   4   6     0.00  -0.00   0.00    -0.00   0.00  -0.00     0.00  -0.00   0.00
   5   6    -0.00   0.00   0.00     0.00  -0.00  -0.00    -0.00   0.00   0.00
   6   6    -0.00  -0.00   0.00    -0.00  -0.00   0.00     0.00   0.00  -0.00
   7   6    -0.00  -0.00   0.00    -0.05  -0.21   0.12     0.02   0.10  -0.06
   8   6     0.00  -0.00  -0.00     0.00  -0.01   0.00    -0.00   0.00  -0.00
   9   8    -0.00  -0.00  -0.00     0.00   0.00   0.00     0.00   0.00   0.00
  10   6     0.04   0.02   0.01     0.03   0.08  -0.07     0.07   0.15  -0.14
  11   6     0.00   0.00   0.00    -0.00   0.00  -0.00     0.00  -0.00   0.00
  12   6    -0.00  -0.01  -0.01     0.00  -0.00   0.00    -0.00  -0.00  -0.00
  13   6     0.00   0.00   0.00    -0.00   0.00   0.00    -0.00   0.00   0.00
  14   1    -0.17   0.33   0.88     0.00  -0.00  -0.00    -0.00   0.00   0.01
  15   8     0.00   0.00   0.00     0.00  -0.00  -0.00     0.00  -0.00  -0.01
  16   6    -0.00   0.00   0.00    -0.00   0.00  -0.00     0.00  -0.00  -0.00
  17   1     0.00   0.00   0.00    -0.00   0.00  -0.00    -0.00  -0.00   0.00
  18   1    -0.04  -0.02  -0.04     0.02   0.01   0.03    -0.01  -0.01  -0.01
  19   1    -0.00  -0.00  -0.00    -0.00  -0.00  -0.00     0.00  -0.00  -0.00
  20   1    -0.00   0.00  -0.00     0.00  -0.00   0.00    -0.00   0.00  -0.00
  21   1     0.00  -0.00  -0.00    -0.01   0.00   0.01     0.01  -0.00  -0.02
  22   1     0.01   0.01  -0.01     0.00   0.01  -0.00    -0.01  -0.01   0.01
  23   1     0.00   0.00  -0.01     0.02  -0.02  -0.25    -0.01   0.01   0.13
  24   1     0.00   0.00   0.00     0.14   0.78  -0.19    -0.07  -0.39   0.09
  25   1    -0.00   0.00  -0.00     0.00   0.00   0.00     0.00   0.00   0.00
  26   1    -0.00  -0.01   0.01    -0.17  -0.30   0.26    -0.34  -0.60   0.52
  27   1    -0.13  -0.06  -0.06     0.05   0.03   0.01     0.08   0.06   0.01
  28   1    -0.00  -0.00  -0.00    -0.00  -0.00  -0.00     0.00   0.00   0.00
  29   1    -0.00   0.00  -0.00     0.00   0.00   0.00     0.00  -0.00  -0.00
  30   1    -0.00  -0.00   0.00     0.00   0.00   0.00    -0.00  -0.00   0.00
  31   1    -0.00  -0.01  -0.01    -0.00  -0.00  -0.00    -0.00  -0.00  -0.00
  32   1    -0.00   0.00   0.00     0.00   0.00  -0.00     0.01   0.01  -0.01
  33   1     0.00   0.00  -0.00     0.00   0.00  -0.00    -0.00  -0.00   0.00
  34   1     0.01  -0.00   0.00     0.00   0.00   0.00    -0.00  -0.00  -0.00
  35   1    -0.00  -0.00   0.00     0.00  -0.00   0.00    -0.00   0.00  -0.00
                     85                     86                     87
                        a                      a                      a 
 Frequencies --  2967.2085              2969.4527              2977.2543
 Red. masses --     1.8682                 1.8280                 1.8213
 Frc consts  --     0.0000                 0.0000                 0.0000
 IR Inten    --    37.8054                63.4155                98.9676
 Raman Activ --     0.0000                 0.0000                 0.0000
 Depolar     --     0.0000                 0.0000                 0.0000
 Atom AN      X      Y      Z        X      Y      Z        X      Y      Z
   1   6    -0.00  -0.00   0.00     0.00   0.00   0.00    -0.00  -0.00   0.00
   2   6     0.00   0.01   0.01    -0.00  -0.01  -0.01     0.00   0.00   0.00
   3   6     0.14   0.13   0.10    -0.12  -0.11  -0.07     0.06   0.08   0.00
   4   6    -0.09   0.05  -0.04    -0.01   0.02  -0.00     0.19  -0.11   0.08
   5   6     0.09  -0.02  -0.10     0.14  -0.04  -0.15     0.06  -0.02  -0.06
   6   6     0.00   0.00  -0.00     0.00   0.00  -0.01     0.00   0.00  -0.00
   7   6    -0.00  -0.00  -0.00     0.00   0.01   0.00    -0.00  -0.00  -0.00
   8   6     0.00  -0.00  -0.00     0.00  -0.00  -0.00     0.00  -0.00  -0.00
   9   8    -0.00   0.00   0.00     0.00   0.00   0.00    -0.00   0.00   0.00
  10   6     0.00   0.00  -0.00     0.00   0.00  -0.00     0.00   0.00  -0.00
  11   6    -0.00   0.00   0.00    -0.00   0.00   0.00    -0.00   0.00   0.00
  12   6    -0.00  -0.00   0.00     0.00   0.00  -0.00    -0.00  -0.00   0.00
  13   6    -0.00  -0.00  -0.00     0.00   0.00   0.00     0.00   0.00   0.00
  14   1     0.00  -0.01  -0.03    -0.01   0.01   0.03     0.00  -0.00  -0.01
  15   8     0.00  -0.00  -0.00     0.00  -0.00  -0.00     0.00  -0.00  -0.00
  16   6     0.00  -0.00   0.00    -0.00   0.01  -0.00     0.01  -0.01   0.00
  17   1    -0.14  -0.27   0.11     0.13   0.26  -0.10    -0.14  -0.27   0.09
  18   1    -0.40  -0.17  -0.47     0.29   0.12   0.35    -0.07  -0.02  -0.09
  19   1     0.04   0.05   0.06    -0.04  -0.03  -0.05    -0.03  -0.07  -0.07
  20   1     0.31  -0.23   0.10     0.09  -0.06   0.03    -0.65   0.48  -0.21
  21   1    -0.32   0.09   0.36    -0.50   0.14   0.56    -0.21   0.06   0.23
  22   1    -0.00  -0.01   0.01    -0.01  -0.01   0.01    -0.00  -0.01   0.00
  23   1    -0.00  -0.00   0.02     0.00   0.00  -0.02    -0.00  -0.00   0.01
  24   1     0.00   0.02  -0.01    -0.01  -0.04   0.01     0.00   0.01  -0.00
  25   1     0.00  -0.00   0.00     0.00  -0.00   0.00     0.00  -0.00   0.00
  26   1    -0.00  -0.00   0.00    -0.00  -0.01   0.01    -0.00  -0.00   0.00
  27   1     0.00   0.00   0.00     0.00   0.00   0.00    -0.00  -0.00  -0.00
  28   1    -0.00  -0.00  -0.00    -0.00   0.00   0.00    -0.00  -0.00  -0.00
  29   1     0.00  -0.00  -0.00     0.00  -0.00  -0.00     0.00  -0.00  -0.00
  30   1     0.00   0.00  -0.00    -0.00  -0.00  -0.00    -0.00  -0.00  -0.00
  31   1     0.00   0.00   0.00    -0.00  -0.00  -0.00    -0.00   0.00   0.00
  32   1     0.00   0.00  -0.00    -0.00   0.00  -0.00    -0.00   0.00   0.00
  33   1    -0.00  -0.00   0.00     0.00   0.00  -0.00    -0.00  -0.00   0.01
  34   1     0.00  -0.00   0.00    -0.00   0.00  -0.00    -0.00  -0.00  -0.00
  35   1    -0.01   0.02  -0.01     0.01  -0.02   0.01    -0.01   0.03  -0.02
                     88                     89                     90
                        a                      a                      a 
 Frequencies --  2994.0328              2994.3582              3010.1136
 Red. masses --     1.5476                 1.6009                 1.8067
 Frc consts  --     0.0000                 0.0000                 0.0000
 IR Inten    --    57.1579                61.5652                47.7411
 Raman Activ --     0.0000                 0.0000                 0.0000
 Depolar     --     0.0000                 0.0000                 0.0000
 Atom AN      X      Y      Z        X      Y      Z        X      Y      Z
   1   6    -0.00   0.00   0.00     0.00  -0.00  -0.01    -0.00   0.00   0.00
   2   6     0.00   0.00  -0.01     0.00  -0.00  -0.01     0.00   0.00  -0.00
   3   6     0.01   0.13  -0.15    -0.01   0.03  -0.05     0.01   0.02  -0.01
   4   6    -0.05   0.03  -0.03    -0.01   0.01  -0.01     0.00   0.00   0.00
   5   6    -0.01   0.00   0.01     0.00   0.00  -0.00    -0.00  -0.00   0.00
   6   6     0.00   0.00  -0.00    -0.00  -0.00   0.00     0.00   0.00  -0.00
   7   6    -0.00   0.02   0.07     0.01  -0.05  -0.22     0.00   0.00  -0.00
   8   6    -0.00   0.00   0.00     0.00  -0.00  -0.00    -0.00   0.00  -0.00
   9   8     0.00  -0.00   0.00     0.00  -0.00  -0.00     0.00  -0.00  -0.00
  10   6     0.00   0.00   0.00    -0.00  -0.00  -0.00    -0.00  -0.00  -0.00
  11   6     0.00  -0.00  -0.00    -0.00   0.00   0.00     0.00  -0.00  -0.00
  12   6     0.00  -0.00   0.00     0.00  -0.00   0.00    -0.01   0.01  -0.00
  13   6    -0.00   0.00   0.00    -0.00   0.00   0.00     0.00   0.00   0.00
  14   1    -0.00   0.01   0.03    -0.00   0.01   0.02    -0.00   0.00   0.00
  15   8    -0.00   0.00  -0.00     0.00  -0.00   0.00     0.00   0.00   0.00
  16   6     0.01  -0.02   0.02     0.00  -0.01   0.00    -0.11   0.20  -0.14
  17   1    -0.36  -0.64   0.18    -0.10  -0.18   0.05    -0.06  -0.11   0.03
  18   1     0.32   0.16   0.34     0.12   0.06   0.14     0.02   0.01   0.02
  19   1     0.02   0.03   0.03    -0.00  -0.00  -0.00    -0.01  -0.01  -0.02
  20   1     0.15  -0.11   0.05     0.06  -0.04   0.02     0.00  -0.00   0.00
  21   1     0.02  -0.00  -0.02    -0.00   0.00   0.00     0.00  -0.00  -0.00
  22   1    -0.00  -0.00   0.00     0.00   0.00  -0.00    -0.00  -0.00   0.00
  23   1     0.03   0.02  -0.27    -0.08  -0.07   0.87    -0.00  -0.00   0.00
  24   1    -0.02  -0.10   0.04     0.05   0.26  -0.10    -0.00  -0.00   0.00
  25   1    -0.00   0.00   0.00    -0.00   0.00  -0.00    -0.00   0.00  -0.00
  26   1    -0.00  -0.00   0.00     0.00   0.00  -0.00     0.00   0.00  -0.00
  27   1    -0.00  -0.00  -0.00     0.00   0.00   0.00     0.00  -0.00   0.00
  28   1     0.00   0.00   0.00    -0.00  -0.01  -0.01     0.00   0.00   0.00
  29   1    -0.00   0.00   0.00     0.00   0.00   0.00    -0.00   0.00   0.00
  30   1     0.00   0.00   0.00     0.00   0.00   0.00     0.00   0.00  -0.00
  31   1     0.00  -0.00  -0.00    -0.00  -0.00  -0.00    -0.00  -0.01  -0.01
  32   1     0.00  -0.00   0.00    -0.00   0.00  -0.00    -0.00  -0.00  -0.00
  33   1     0.01  -0.00  -0.00     0.00  -0.00   0.00    -0.07   0.01   0.05
  34   1    -0.02  -0.01  -0.00    -0.00  -0.00  -0.00     0.14   0.05   0.02
  35   1    -0.04   0.09  -0.05    -0.01   0.03  -0.02     0.33  -0.78   0.41
                     91                     92                     93
                        a                      a                      a 
 Frequencies --  3021.6548              3036.2406              3068.0991
 Red. masses --     1.6774                 1.6494                 1.6679
 Frc consts  --     0.0000                 0.0000                 0.0000
 IR Inten    --    50.3385                51.9107                 8.5247
 Raman Activ --     0.0000                 0.0000                 0.0000
 Depolar     --     0.0000                 0.0000                 0.0000
 Atom AN      X      Y      Z        X      Y      Z        X      Y      Z
   1   6    -0.00   0.00   0.00    -0.00   0.00  -0.00    -0.00  -0.00  -0.00
   2   6     0.00   0.00   0.00     0.00   0.00   0.00     0.00  -0.00  -0.00
   3   6     0.02   0.02   0.01     0.00  -0.00   0.00    -0.00  -0.00  -0.00
   4   6     0.11   0.13   0.17     0.01   0.01   0.01    -0.01  -0.01  -0.01
   5   6    -0.00   0.01   0.01    -0.00   0.00   0.00    -0.00   0.00   0.00
   6   6     0.00   0.00   0.00     0.00   0.00  -0.00     0.00   0.00   0.00
   7   6    -0.00   0.00   0.00     0.00   0.00   0.00    -0.00  -0.00   0.00
   8   6    -0.00  -0.00  -0.00     0.00   0.00  -0.00    -0.00   0.00   0.00
   9   8     0.00  -0.00   0.00     0.00  -0.00   0.00     0.00   0.00  -0.00
  10   6     0.00  -0.00   0.00     0.00   0.00   0.00    -0.00  -0.00   0.00
  11   6    -0.00  -0.00  -0.00    -0.00  -0.00  -0.00    -0.00  -0.00  -0.00
  12   6     0.00  -0.00  -0.00    -0.01  -0.00  -0.00     0.01  -0.00  -0.01
  13   6    -0.00  -0.00  -0.00     0.01   0.01   0.01    -0.00  -0.00  -0.00
  14   1     0.00  -0.00  -0.00     0.00  -0.00  -0.01    -0.00   0.00   0.00
  15   8    -0.00   0.00  -0.00     0.00  -0.00   0.00     0.00   0.00  -0.00
  16   6     0.03   0.00  -0.00    -0.23  -0.07  -0.05     0.14   0.03  -0.19
  17   1    -0.02  -0.04   0.02     0.00   0.00   0.00     0.01   0.01  -0.00
  18   1    -0.04  -0.01  -0.04     0.00   0.00   0.00     0.00   0.00   0.01
  19   1    -0.52  -0.42  -0.67    -0.03  -0.03  -0.04     0.03   0.02   0.04
  20   1     0.12  -0.06   0.06     0.01  -0.01   0.00    -0.00   0.00  -0.00
  21   1     0.03  -0.01  -0.03     0.00  -0.00  -0.00     0.00  -0.00  -0.00
  22   1     0.00   0.00   0.00    -0.00  -0.00   0.00    -0.00  -0.00  -0.00
  23   1     0.00   0.00  -0.02     0.00   0.00  -0.00     0.00   0.00  -0.00
  24   1    -0.00  -0.00   0.00    -0.00  -0.00   0.00     0.00   0.00   0.00
  25   1    -0.00   0.00  -0.00    -0.00  -0.00  -0.00     0.00  -0.00   0.00
  26   1     0.00   0.00  -0.00     0.00   0.00  -0.00     0.00   0.00  -0.00
  27   1    -0.00  -0.00  -0.00    -0.00  -0.00  -0.00     0.00  -0.00   0.00
  28   1     0.00   0.00   0.00     0.00   0.00   0.00     0.00   0.00   0.00
  29   1     0.00  -0.00  -0.00     0.00  -0.00  -0.00     0.00  -0.00  -0.00
  30   1     0.00   0.00   0.00    -0.03  -0.01  -0.01     0.00   0.00   0.00
  31   1    -0.00  -0.00  -0.00     0.00  -0.01  -0.01    -0.00   0.00   0.01
  32   1     0.00  -0.00   0.00    -0.00   0.00  -0.00    -0.00  -0.00   0.00
  33   1    -0.02  -0.01   0.04    -0.02  -0.00  -0.02    -0.54  -0.19   0.78
  34   1    -0.06  -0.01  -0.02     0.91   0.13   0.26     0.02   0.01  -0.02
  35   1    -0.00   0.02  -0.01    -0.09   0.12  -0.08    -0.01   0.08  -0.06
                     94                     95                     96
                        a                      a                      a 
 Frequencies --  3085.8801              3099.2309              3106.6009
 Red. masses --     1.6198                 1.5230                 1.9771
 Frc consts  --     0.0000                 0.0000                 0.0000
 IR Inten    --    66.3291                40.3355                86.6135
 Raman Activ --     0.0000                 0.0000                 0.0000
 Depolar     --     0.0000                 0.0000                 0.0000
 Atom AN      X      Y      Z        X      Y      Z        X      Y      Z
   1   6    -0.00  -0.00   0.00    -0.00   0.00  -0.00     0.00  -0.00   0.00
   2   6     0.00   0.00   0.00     0.00  -0.00  -0.00    -0.00  -0.00  -0.00
   3   6     0.00  -0.00   0.00    -0.00  -0.00   0.00     0.00   0.00   0.00
   4   6     0.00  -0.00  -0.00    -0.00  -0.00  -0.00    -0.00   0.00  -0.00
   5   6     0.00  -0.00  -0.00    -0.00   0.00   0.00    -0.00   0.00   0.00
   6   6     0.00   0.00  -0.00    -0.00  -0.00   0.00     0.00   0.00   0.00
   7   6     0.00   0.00   0.00     0.00  -0.00  -0.00     0.00  -0.00   0.00
   8   6     0.00  -0.00   0.00     0.01  -0.00   0.00    -0.00  -0.00  -0.00
   9   8    -0.00  -0.00   0.00    -0.00   0.00  -0.00    -0.00  -0.00  -0.00
  10   6    -0.00  -0.00   0.00     0.00  -0.00   0.00    -0.00  -0.00   0.00
  11   6    -0.00  -0.00  -0.00    -0.19  -0.03  -0.10    -0.00  -0.00  -0.00
  12   6     0.02  -0.00  -0.00     0.00  -0.00  -0.00     0.00   0.01   0.01
  13   6    -0.10   0.16   0.15    -0.00  -0.00  -0.00     0.22   0.14   0.13
  14   1    -0.00  -0.00  -0.01    -0.00   0.00   0.00    -0.00  -0.00  -0.01
  15   8    -0.00  -0.00   0.00    -0.00   0.00   0.00    -0.00  -0.00   0.00
  16   6     0.00  -0.00  -0.00     0.00   0.00   0.00     0.01   0.00   0.00
  17   1     0.00   0.00  -0.00     0.00   0.00   0.00    -0.00  -0.00   0.00
  18   1    -0.00  -0.00  -0.00    -0.00  -0.00  -0.00    -0.00  -0.00  -0.00
  19   1     0.00   0.00   0.00     0.00   0.00   0.00     0.00   0.00   0.00
  20   1    -0.00   0.00  -0.00     0.00  -0.00   0.00     0.00  -0.00   0.00
  21   1    -0.00   0.00   0.00     0.00  -0.00  -0.00     0.00  -0.00  -0.00
  22   1    -0.00  -0.00   0.00     0.00   0.00  -0.00     0.00   0.00  -0.00
  23   1     0.00   0.00  -0.00    -0.00  -0.00   0.01    -0.00  -0.00  -0.00
  24   1    -0.00  -0.00   0.00     0.00   0.01  -0.00     0.00   0.00  -0.00
  25   1     0.00   0.00   0.00    -0.00   0.00   0.00     0.00   0.00   0.00
  26   1     0.00   0.00  -0.00     0.00   0.00  -0.00     0.00   0.00  -0.00
  27   1    -0.00  -0.00   0.00    -0.00  -0.00  -0.00     0.00   0.00   0.00
  28   1     0.00   0.00   0.00     0.21   0.47   0.58     0.00   0.00   0.01
  29   1     0.00  -0.00  -0.00     0.39  -0.36  -0.25     0.00  -0.00  -0.00
  30   1     0.30   0.13   0.12     0.00   0.00   0.00    -0.81  -0.28  -0.27
  31   1    -0.00  -0.67  -0.62    -0.00   0.00   0.00     0.03  -0.23  -0.22
  32   1     0.00   0.00  -0.01     0.00  -0.00   0.00     0.00   0.00  -0.00
  33   1    -0.00   0.00   0.00     0.00   0.00  -0.00    -0.00  -0.00   0.01
  34   1    -0.00  -0.00  -0.00    -0.00  -0.00  -0.00    -0.04  -0.01  -0.01
  35   1    -0.00   0.01  -0.00     0.00  -0.00   0.00     0.00  -0.00   0.00
                     97                     98                     99
                        a                      a                      a 
 Frequencies --  3121.0001              3504.5224              3536.2797
 Red. masses --     2.0838                 1.8723                 1.8738
 Frc consts  --     0.0000                 0.0000                 0.0000
 IR Inten    --    58.9388                52.4250                30.6864
 Raman Activ --     0.0000                 0.0000                 0.0000
 Depolar     --     0.0000                 0.0000                 0.0000
 Atom AN      X      Y      Z        X      Y      Z        X      Y      Z
   1   6    -0.00   0.00   0.00    -0.00  -0.00  -0.00     0.00  -0.00  -0.00
   2   6    -0.00   0.00   0.00     0.00   0.00   0.00    -0.00   0.00  -0.00
   3   6    -0.00  -0.00  -0.00    -0.00  -0.00  -0.00    -0.00   0.00  -0.00
   4   6    -0.00   0.00  -0.00     0.00  -0.00  -0.00     0.00   0.00   0.00
   5   6    -0.00  -0.00   0.00     0.00   0.00  -0.00    -0.00  -0.00   0.00
   6   6     0.00   0.00   0.00     0.00   0.00  -0.00    -0.00   0.00  -0.00
   7   6     0.00  -0.00   0.00    -0.00   0.00  -0.00    -0.00  -0.00  -0.00
   8   6    -0.00   0.01   0.01    -0.00  -0.00   0.00    -0.00   0.00   0.00
   9   8     0.00  -0.00  -0.00     0.00  -0.00   0.00    -0.18   0.15  -0.06
  10   6     0.00  -0.00   0.00     0.00   0.00  -0.01     0.00  -0.00  -0.00
  11   6    -0.10   0.22   0.20     0.00  -0.00  -0.00    -0.00   0.00  -0.00
  12   6     0.00   0.00   0.00    -0.00  -0.00  -0.00     0.00  -0.00  -0.00
  13   6     0.00   0.00   0.00    -0.00   0.00   0.00    -0.00  -0.00  -0.00
  14   1     0.00  -0.00  -0.00    -0.00  -0.00  -0.00     0.00   0.00   0.00
  15   8    -0.00   0.00  -0.00     0.09   0.16  -0.15     0.00   0.00  -0.00
  16   6    -0.00   0.00  -0.00     0.00   0.00  -0.00    -0.00  -0.00   0.00
  17   1    -0.00  -0.00   0.00     0.00   0.00   0.00    -0.00  -0.00   0.00
  18   1     0.00   0.00   0.00    -0.00   0.00   0.00     0.00   0.00   0.00
  19   1    -0.00   0.00  -0.00     0.00   0.00   0.00    -0.00  -0.00  -0.00
  20   1     0.00  -0.00   0.00    -0.00  -0.00   0.00     0.00  -0.00   0.00
  21   1     0.00  -0.00  -0.01    -0.00   0.00   0.00     0.00  -0.00  -0.00
  22   1    -0.00   0.00   0.00    -0.00  -0.00   0.00     0.00  -0.00   0.00
  23   1     0.00   0.00  -0.01     0.00  -0.00   0.00     0.00  -0.00   0.00
  24   1     0.00  -0.00   0.00    -0.00  -0.00  -0.00     0.00   0.00  -0.00
  25   1    -0.00   0.00  -0.00    -0.00   0.00  -0.00     0.72  -0.59   0.27
  26   1     0.00  -0.00   0.00    -0.00  -0.01   0.00     0.00  -0.00   0.00
  27   1    -0.00  -0.00  -0.00     0.00  -0.00   0.00     0.00  -0.00   0.00
  28   1    -0.19  -0.33  -0.43     0.00  -0.00   0.00    -0.00  -0.00  -0.00
  29   1     0.54  -0.45  -0.29    -0.00   0.00   0.00     0.00  -0.00  -0.00
  30   1    -0.00  -0.00  -0.00     0.00  -0.00   0.00     0.00   0.00   0.00
  31   1     0.00  -0.00  -0.00     0.00  -0.01  -0.01    -0.00   0.00   0.00
  32   1     0.00  -0.00   0.00    -0.38  -0.63   0.63    -0.00  -0.00   0.00
  33   1    -0.00   0.00  -0.00     0.00  -0.00  -0.00     0.00   0.00  -0.00
  34   1     0.00   0.00   0.00     0.00   0.00   0.00     0.00   0.00   0.00
  35   1     0.00  -0.00   0.00    -0.00   0.00   0.00    -0.00  -0.00   0.00
