35
 xtb: 6.7.1 (edcfbbe)
c            0.09781805176815       -0.63693885626761        0.10088735722081
c           -0.96376784503221        0.39943066321596        0.65063730318655
c           -0.34376126542283        1.82896401128474        0.76075202128417
c            0.57457709036772        2.23723386112615       -0.41284940459072
c            1.51331623603741        1.07194513177189       -0.81937605759437
c            0.65179704768131       -0.13159281176129       -1.26003820593170
c            1.37938165656376       -0.58894579289249        1.00009721612989
c            2.24530167588421        0.51813711857520        0.39852854198523
o            1.45123529124197       -1.17424865546026       -1.84367034000796
c           -0.48026589790786       -2.05525106356233       -0.00172324677878
c            3.43411661299002        0.93089897814501        0.85132414902443
c           -2.32193731713353        0.36691873193450       -0.06523622110420
c           -2.59909058478168        0.99590211868810       -1.22009040686814
h           -1.16735641311128        0.07673386441675        1.68406491507549
o           -0.87193563129076       -2.49013698282122        1.31243272841902
c           -3.41626984218907       -0.38795596916272        0.66929364701086
h           -1.15150703845502        2.56659401551249        0.88325758115629
h            0.24967454865047        1.87065359340425        1.68827118113632
h           -0.01481642053902        2.54554477153206       -1.29231052892374
h            1.17717646736489        3.11168430647902       -0.11836945310335
h            2.20114354358113        1.40777924548467       -1.61362852233601
h           -0.15083564977389        0.16069792575178       -1.95749619402122
h            1.91119099412562       -1.55279003754661        0.95285315615883
h            1.14310544654833       -0.40824988106596        2.05983955716818
h            1.92784557839064       -0.78799226968261       -2.60662325242785
h            0.28896814853598       -2.72692341289607       -0.41743247742357
h           -1.34115637885035       -2.06410646623989       -0.69727197942140
h            3.89274974696716        0.50137294566123        1.74570729997391
h            3.99569207092170        1.72164825869884        0.34735449928764
h           -3.59907577481716        0.94871444131872       -1.65835327448628
h           -1.86990943476352        1.58962985995632       -1.77036254319244
h           -1.16532572402607       -3.42036593236912        1.24207369353404
h           -3.64466047832718        0.11349042779120        1.62677734875589
h           -4.34510640591518       -0.43825716691574        0.08216636121224
h           -3.09897825491373       -1.41024484625697        0.92449059470134
