
                                 *****************
                                 * O   R   C   A *
                                 *****************

                                            #,                                       
                                            ###                                      
                                            ####                                     
                                            #####                                    
                                            ######                                   
                                           ########,                                 
                                     ,,################,,,,,                         
                               ,,#################################,,                 
                          ,,##########################################,,             
                       ,#########################################, ''#####,          
                    ,#############################################,,   '####,        
                  ,##################################################,,,,####,       
                ,###########''''           ''''###############################       
              ,#####''   ,,,,##########,,,,          '''####'''          '####       
            ,##' ,,,,###########################,,,                        '##       
           ' ,,###''''                  '''############,,,                           
         ,,##''                                '''############,,,,        ,,,,,,###''
      ,#''                                            '''#######################'''  
     '                                                          ''''####''''         
             ,#######,   #######,   ,#######,      ##                                
            ,#'     '#,  ##    ##  ,#'     '#,    #''#        ,####,    ,#,          
            ##       ##  ##   ,#'  ##            #'  '#       #'       ,# #          
            ##       ##  #######   ##           ,######,      #####,      #          
            '#,     ,#'  ##    ##  '#,     ,#' ,#      #,     #,   #      #          
             '#######'   ##     ##  '#######'  #'      '#     '####' #    #          



                #########################################################
                #                        -***-                          #
                #          Department of theory and spectroscopy        #
                #                                                       #
                #                      Frank Neese                      #
                #                                                       #
                #     Directorship, Architecture, Infrastructure        #
                #                    SHARK, DRIVERS                     #
                #        Core code/Algorithms in most modules           #
                #                                                       #
                #        Max Planck Institute fuer Kohlenforschung      #
                #                Kaiser Wilhelm Platz 1                 #
                #                 D-45470 Muelheim/Ruhr                 #
                #                      Germany                          #
                #                                                       #
                #                  All rights reserved                  #
                #                        -***-                          #
                #########################################################


                         Program Version 6.1.1  -  RELEASE   -
                                (GIT: $487d211c$)
                          ($2025-11-21 10:33:24 +0100$)


 With contributions from (in alphabetic order):
[Max-Planck-Institut fuer Kohlenforschung]                               
  Daniel Aravena         : Magnetic Suceptibility                        
  Michael Atanasov       : Ab Initio Ligand Field Theory (pilot matlab implementation)
  Alexander A. Auer      : GIAO ZORA, VPT2 properties, NMR spectrum      
  Ute Becker             : All parallelization in ORCA, NUMFREQ, NUMCALC 
  Giovanni Bistoni       : ED, misc. LED, open-shell LED, HFLD           
  Dmytro Bykov           : pre 5.0 version of the SCF Hessian            
  Marcos Casanova-Páez   : Triplet and SCS-CIS(D). UHF-(DLPNO)-IP/EA/STEOM-CCSD. UHF-CVS-IP/STEOM-CCSD   
  Vijay G. Chilkuri      : MRCI spin determinant printing, contributions to CSF-ICE 
  Pauline Colinet        : FMM embedding                                 
  Dipayan Datta          : RHF DLPNO-CCSD density                        
  Achintya Kumar Dutta   : EOM-CC, STEOM-CC                              
  Nicolas Foglia         : Exact transition moments, OPA infrastructure, MCD improvements    
  Dmitry Ganyushin       : Spin-Orbit,Spin-Spin,Magnetic field MRCI      
  Miquel Garcia-Rates    : C-PCM and meta-GGA Hessian, CCSD/C-PCM, Gaussian charge scheme 
  Tiago L. C. Gouveia    : GS-ROHF, GS-ROCIS                             
  Yang Guo               : DLPNO-NEVPT2, F12-NEVPT2, CIM, IAO-localization        
  Andreas Hansen         : Spin unrestricted coupled pair/coupled cluster methods 
  Ingolf Harden          : AUTO-CI MPn and infrastructure                
  Benjamin Helmich-Paris : MC-RPA, TRAH-(SCF,CASSCF), AVAS, COSX integrals, SCF dyn. polar., MC-PDFT, srDFT 
  Lee Huntington         : MR-EOM, pCC                                   
  Robert Izsak           : Overlap fitted RIJCOSX, COSX-SCS-MP3, EOM     
  Riya Kayal             : Wick's Theorem for AUTO-CI, AUTO-CI UHF-CCSDT 
  Emily Kempfer          : AUTO-CI RHF CISDT and CCSDT, approximate NEVPT4
  Christian Kollmar      : KDIIS, OOCD, Brueckner-CCSD(T), CCSD density, CASPT2, CASPT2-K, improved NEVPT2 
  Axel Koslowski         : Symmetry handling                             
  Simone Kossmann        : meta-GGA functionals, TD-DFT gradient, OOMP2, (MP2 Hessian; deprecated post 5.0) 
  Lucas Lang             : DCDCAS, Hyperfine gauge corrections, ICE-SOC+SSC
  Marvin Lechner         : AUTO-CI (C++ implementation), FIC-MRCC        
  Spencer Leger          : CASSCF response                               
  Dagmar Lenk            : GEPOL surface, SMD, ORCA-2-JSON               
  Dimitrios Liakos       : Extrapolation schemes; Compound Job, Property file
  Dimitrios Manganas     : Further ROCIS development; embedding schemes. LFT, Crystal Embedding 
  Dimitrios Pantazis     : SARC Basis sets                               
  Anastasios Papadopoulos: AUTO-CI, single reference methods and gradients 
  Taras Petrenko         : pre 6.0 DFT Hessian and TD-DFT gradient,  ECA, NRVS 
  Petra Pikulova         : Analytic Raman intensities                    
  Peter Pinski           : DLPNO-MP2, DLPNO-MP2 Gradient                 
  Shashank Vittal Rao    : ES-AILFT, MagRelax                            
  Christoph Reimann      : Effective Core Potentials                     
  Marius Retegan         : Local ZFS, SOC                                
  Christoph Riplinger    : Optimizer, TS searches, QM/MM, DLPNO-CCSD(T), (RO)-DLPNO pert. Triples 
  Michael Roemelt        : Original ROCIS implementation, recursive CI coupling coefficients
  Masaaki Saitow         : Open-shell DLPNO-CCSD energy and density      
  Barbara Sandhoefer     : DKH picture change effects                    
  Yorick L. A. Schmerwitz: GMF and freeze-and-release deltaSCF, NEB S-IDPP initial path                    
  Kantharuban Sivalingam : CASSCF convergence/infrastructure, NEVPT2, NEVPT3, NEVPT4(SD), FIC-MRCI and CEPA variants
  Bernardo de Souza      : ESD, SOC TD-DFT                               
  Georgi L. Stoychev     : AutoAux, RI-MP2 NMR, DLPNO-MP2 response, X2C  
  Van Anh Tran           : RI-MP2 g-tensors                              
  Willem Van den Heuvel  : Paramagnetic NMR                              
  Zikuan Wang            : NOTCH, Electric field optimization            
  Frank Wennmohs         : Technical directorship and infrastructure     
  Hang Xu                : AUTO-CI-Response properties                   
                                                                         
[FACCTs GmbH]                                                            
  Markus Bursch, Nicolas Foglia, Miquel Garcia-Rates, Ingolf Harden, Hagen Neugebauer, Anastasios Papadopoulos, 
  Christoph Riplinger, Bernardo de Souza, Georgi L. Stoychev                                                    
                                                                 
  APM, various basis sets, CI-OPT, improved COSX, DLPNO-Multilevel,           
  DOCKER, DRACO, updates on ESD, Fragmentator, GOAT, IRC, LR-CPCM, L-BFGS, MBIS, meta-GGA TD-DFT gradient, ML-optimized integration grids, 
  MM, NACMEs, nearIR, NEB, NEB-TS, NL-DFT gradient (VV10), 2- and 3-layer-ONIOM, interface openCOSMO-RS, QMMM,   
  Crystal-QMMM, RESP, rigid body optimization, SF, symmetry and pop. for TD-DFT, various functionals, SOLVATOR                                   
                                                                         
[Other institutions]                                                     
  V. Asgeirsson          : NEB                                           
  Christoph Bannwarth    : sTDA-DFT, sTD-DFT, PBEh-3c, B97-3c, D3        
  Giovanni Bistoni       : ETS/NOCV, ADLD/ADEX, COVALED                  
  Martin Brehm           : Molecular dynamics                            
  Ronald Cardenas        : ETS/NOCV                                      
  Martina Colucci        : COVALED                                       
  Sebastian Ehlert       : rSCAN, r2SCAN, r2SCAN-3c, D4, dhf basis sets  
  Marvin Friede          : D4 for Fr, Ra, Ac-Lr                          
  Lars Goerigk           : TD-DFT with DH, B97 family of functionals     
  Stefan Grimme          : VdW corrections, initial TS optimization, DFT functionals, gCP, sTDA/sTD-DF 
  Waldemar Hujo          : DFT-NL                                        
  H. Jonsson             : NEB                                           
  Holger Kruse           : gCP                                           
  Marcel Mueller         : wB97X-3c, vDZP basis set                      
  Hagen Neugebauer       : wr2SCAN, Native XTB                           
  Gianluca Regni         : ADLD/ADEX                                     
  Tobias Risthaus        : pre 6.0 range-separated hybrid DFT and stability analysis
  Lukas Wittmann         : regularized MP2, r2SCAN double-hybrids, wr2SCAN        
                                                                         
We gratefully acknowledge several colleagues who have allowed us to      
interface, adapt or use parts of their codes:                            
  Ed Valeev, F. Pavosevic, A. Kumar             : LibInt (2-el integral package), F12 methods 
  Garnet Chan, S. Sharma, J. Yang, R. Olivares  : DMRG                   
  Ulf Ekstrom                                   : XCFun DFT Library      
  Mihaly Kallay                                 : mrcc  (arbitrary order and MRCC methods)
  Frank Weinhold                                : gennbo (NPA and NBO analysis)           
  Simon Mueller                                 : openCOSMO-RS                            
  Christopher J. Cramer and Donald G. Truhlar   : smd solvation model                     
  S Lehtola, MJT Oliveira, MAL Marques          : LibXC Library                           
  Liviu Ungur et al                             : ANISO software                          


 Your calculation uses the libint2 library for the computation of 2-el integrals
 For citations please refer to: http://libint.valeyev.net

 Your ORCA version has been built with support for libXC version: 7.0.0
 For citations please refer to: https://libxc.gitlab.io

 This ORCA versions uses:
   CBLAS   interface :  Fast vector & matrix operations
   LAPACKE interface :  Fast linear algebra routines
   SCALAPACK package :  Parallel linear algebra routines
   Shared memory     :  Shared parallel matrices
   BLAS/LAPACK       :  OpenBLAS 0.3.29  USE64BITINT DYNAMIC_ARCH NO_AFFINITY Haswell SINGLE_THREADED
        Core in use  :  Haswell
   Copyright (c) 2011-2014, The OpenBLAS Project


  ***********************************
  * Starting time: Sun Aug  9 15:25:10 2026
  * Host name:     localhost.localdomain
  * Process ID:    2828253
  * Working dir.:  /home/dinglab/calculation/templates/NMR_modules/autohnmr/alpha_diol_screening/CONF19/b3lyp-3c
  ***********************************

NOTE: MaxCore=2500 MB was set to SCF,MP2,MDCI,CIPSI,MRCI,RASCI and CIS
      => If you want to overwrite this, your respective input block should be placed after the MaxCore statement
Your calculation utilizes the geometrical counterpoise correction gCP
Please cite in your paper:
H.Kruse, S. Grimme J.Chem.Phys., 136, (2012), 154101 
   

Your calculation utilizes the atom-pairwise dispersion correction
with the Becke-Johnson damping scheme (D3BJ)


Warning: RI is on but no J-basis has been assigned. Assigning Def2/J (nothing to worry about!)
================================================================================

----- Orbital basis set information -----
Your calculation utilizes the basis: def2-mSVP

----- AuxJ basis set information -----
Your calculation utilizes the auxiliary basis: def2/J
   H-Rn: F. Weigend, Phys. Chem. Chem. Phys. 8, 1057 (2006).
   Fr-Lr: K. Eichkorn, F. Weigend, O. Treutler, R. Ahlrichs; Theor. Chem. Acc. 97, 119 (1997).

================================================================================
                                        WARNINGS
                       Please study these warnings very carefully!
================================================================================


================================================================================
                                       INPUT FILE
================================================================================
NAME = inp
|  1> ! b3lyp
|  2> ! d3bj ABC
|  3> ! def2-mSVP
|  4> ! GCP(DFT/SV(P))
|  5> ! DEFGRID2
|  6> ! scfconv6
|  7> ! miniprint nopop noautostart
|  8> %MaxCore 2500
|  9> %pal
| 10>     nprocs 12
| 11> end
| 12> ! CPCM(chloroform)
| 13> *xyz 0 1
| 14> C   -0.0573229640  -0.4704300037   0.1299985913
| 15> C   -1.0149900268   0.7260798821   0.4238324176
| 16> C   -0.6379300781   1.9817224318  -0.3814199950
| 17> C    0.8653850163   2.2505419959  -0.4064483104
| 18> C    1.6707125869   0.9572151447  -0.6405142789
| 19> C    0.7575319137  -0.1643453948  -1.1501869325
| 20> C    1.0561664262  -0.5264284523   1.1956381811
| 21> C    2.1261968171   0.4004506576   0.6868652308
| 22> O    1.5078047516  -1.2618318726  -1.6308588169
| 23> C   -0.8061365956  -1.8153945609   0.0617222377
| 24> C    3.2698839324   0.6773782044   1.2864342765
| 25> C   -2.4861700662   0.4254219524   0.2135574276
| 26> C   -3.0275959884   0.2281387369  -0.9780760649
| 27> H   -0.8909624516   0.9722874822   1.4831793715
| 28> O    0.0502917226  -2.9255704685  -0.0147289511
| 29> C   -3.3155155445   0.4085955202   1.4623005519
| 30> H   -1.0027136165   1.8816595599  -1.4031216610
| 31> H   -1.1536770375   2.8402806091   0.0536644516
| 32> H    1.0803397110   2.9738288854  -1.1946479871
| 33> H    1.1822037030   2.6931526397   0.5402084115
| 34> H    2.5081685571   1.1429361799  -1.3165416656
| 35> H    0.1282206427   0.1231046807  -1.9927390112
| 36> H    1.4333388670  -1.5502297279   1.2787467158
| 37> H    0.7033770738  -0.2379023005   2.1862874927
| 38> H    2.2416982302  -1.4093464083  -1.0212109355
| 39> H   -1.4938539791  -1.8092424216  -0.7923294123
| 40> H   -1.3921716757  -1.9528707097   0.9741165960
| 41> H    3.5226556147   0.2589109447   2.2460802443
| 42> H    3.9918335748   1.3458506929   0.8486861070
| 43> H   -4.0803738558   0.0341878018  -1.0928480837
| 44> H   -2.4528044586   0.2365751965  -1.8882158279
| 45> H    0.5651826958  -2.8221246421  -0.8298893746
| 46> H   -2.9301157814  -0.3291518839   2.1648438068
| 47> H   -3.2765432104   1.3824983928   1.9505199778
| 48> H   -4.3528128260   0.1724378256   1.2414713666
| 49> *
| 50> 
| 51>                          ****END OF INPUT****
================================================================================

                       ****************************
                       * Single Point Calculation *
                       ****************************

---------------------------------
CARTESIAN COORDINATES (ANGSTROEM)
---------------------------------
  C     -0.057323   -0.470430    0.129999
  C     -1.014990    0.726080    0.423832
  C     -0.637930    1.981722   -0.381420
  C      0.865385    2.250542   -0.406448
  C      1.670713    0.957215   -0.640514
  C      0.757532   -0.164345   -1.150187
  C      1.056166   -0.526428    1.195638
  C      2.126197    0.400451    0.686865
  O      1.507805   -1.261832   -1.630859
  C     -0.806137   -1.815395    0.061722
  C      3.269884    0.677378    1.286434
  C     -2.486170    0.425422    0.213557
  C     -3.027596    0.228139   -0.978076
  H     -0.890962    0.972287    1.483179
  O      0.050292   -2.925570   -0.014729
  C     -3.315516    0.408596    1.462301
  H     -1.002714    1.881660   -1.403122
  H     -1.153677    2.840281    0.053664
  H      1.080340    2.973829   -1.194648
  H      1.182204    2.693153    0.540208
  H      2.508169    1.142936   -1.316542
  H      0.128221    0.123105   -1.992739
  H      1.433339   -1.550230    1.278747
  H      0.703377   -0.237902    2.186287
  H      2.241698   -1.409346   -1.021211
  H     -1.493854   -1.809242   -0.792329
  H     -1.392172   -1.952871    0.974117
  H      3.522656    0.258911    2.246080
  H      3.991834    1.345851    0.848686
  H     -4.080374    0.034188   -1.092848
  H     -2.452804    0.236575   -1.888216
  H      0.565183   -2.822125   -0.829889
  H     -2.930116   -0.329152    2.164844
  H     -3.276543    1.382498    1.950520
  H     -4.352813    0.172438    1.241471

----------------------------
CARTESIAN COORDINATES (A.U.)
----------------------------
  NO LB      ZA    FRAG     MASS         X           Y           Z
   0 C     6.0000    0    12.011   -0.108325   -0.888984    0.245662
   1 C     6.0000    0    12.011   -1.918053    1.372092    0.800927
   2 C     6.0000    0    12.011   -1.205513    3.744913   -0.720779
   3 C     6.0000    0    12.011    1.635341    4.252908   -0.768076
   4 C     6.0000    0    12.011    3.157189    1.808874   -1.210397
   5 C     6.0000    0    12.011    1.431528   -0.310568   -2.173538
   6 C     6.0000    0    12.011    1.995865   -0.994806    2.259429
   7 C     6.0000    0    12.011    4.017930    0.756742    1.297987
   8 O     8.0000    0    15.999    2.849338   -2.384517   -3.081877
   9 C     6.0000    0    12.011   -1.523377   -3.430599    0.116638
  10 C     6.0000    0    12.011    6.179185    1.280059    2.431008
  11 C     6.0000    0    12.011   -4.698181    0.803931    0.403565
  12 C     6.0000    0    12.011   -5.721327    0.431120   -1.848296
  13 H     1.0000    0     1.008   -1.683675    1.837357    2.802803
  14 O     8.0000    0    15.999    0.095038   -5.528527   -0.027834
  15 C     6.0000    0    12.011   -6.265416    0.772134    2.763348
  16 H     1.0000    0     1.008   -1.894854    3.555821   -2.651516
  17 H     1.0000    0     1.008   -2.180134    5.367352    0.101411
  18 H     1.0000    0     1.008    2.041546    5.619722   -2.257558
  19 H     1.0000    0     1.008    2.234041    5.089321    1.020846
  20 H     1.0000    0     1.008    4.739752    2.159836   -2.487903
  21 H     1.0000    0     1.008    0.242302    0.232634   -3.765731
  22 H     1.0000    0     1.008    2.708618   -2.929510    2.416481
  23 H     1.0000    0     1.008    1.329190   -0.449570    4.131485
  24 H     1.0000    0     1.008    4.236196   -2.663279   -1.929809
  25 H     1.0000    0     1.008   -2.822975   -3.418973   -1.497286
  26 H     1.0000    0     1.008   -2.630823   -3.690391    1.840814
  27 H     1.0000    0     1.008    6.656854    0.489271    4.244477
  28 H     1.0000    0     1.008    7.543472    2.543289    1.603784
  29 H     1.0000    0     1.008   -7.710789    0.064606   -2.065184
  30 H     1.0000    0     1.008   -4.635129    0.447062   -3.568211
  31 H     1.0000    0     1.008    1.068041   -5.333043   -1.568264
  32 H     1.0000    0     1.008   -5.537116   -0.622007    4.090962
  33 H     1.0000    0     1.008   -6.191769    2.612543    3.685949
  34 H     1.0000    0     1.008   -8.225624    0.325860    2.346041



           ************************************************************
           *        Program running with 12 parallel MPI-processes    *
           *              working on a common directory               *
           ************************************************************
------------------------------------------------------------------------------
                   ___                                                        
                  /   \      - P O W E R E D   B Y -                         
                 /     \                                                     
                 |  |  |   _    _      __       _____    __    __             
                 |  |  |  | |  | |    /  \     |  _  \  |  |  /  |          
                  \  \/   | |  | |   /    \    | | | |  |  | /  /          
                 / \  \   | |__| |  /  /\  \   | |_| |  |  |/  /          
                |  |  |   |  __  | /  /__\  \  |    /   |      \           
                |  |  |   | |  | | |   __   |  |    \   |  |\   \          
                \     /   | |  | | |  |  |  |  | |\  \  |  | \   \       
                 \___/    |_|  |_| |__|  |__|  |_| \__\ |__|  \__/        
                                                                              
                      - O R C A' S   B I G   F R I E N D -                    
                                      &                                       
                       - I N T E G R A L  F E E D E R -                       
                                                                              
 v1 FN, 2020, v2 2021, v3 2022-2024                                           
------------------------------------------------------------------------------


----------------------
SHARK INTEGRAL PACKAGE
----------------------

Number of atoms                             ...     35
Number of basis functions                   ...    265
Number of shells                            ...    145
Maximum angular momentum                    ...      2
Integral batch strategy                     ... SHARK/LIBINT Hybrid
RI-J (if used) integral strategy            ... SPLIT-RIJ (Revised 2003 algorithm where possible)
Printlevel                                  ...      1
Contraction scheme used                     ... SEGMENTED contraction
Prescreening option                         ... SCHWARTZ
   Thresh                                   ... 1.000e-10
   Tcut                                     ... 1.000e-11
   Tpresel                                  ... 1.000e-11 
Coulomb Range Separation                    ... NOT USED
Exchange Range Separation                   ... NOT USED
Multipole approximations                    ... NOT USED
Finite Nucleus Model                        ... NOT USED
CABS basis                                  ... NOT available
Auxiliary Coulomb fitting basis             ... AVAILABLE
   # of basis functions in Aux-J            ...    955
   # of shells in Aux-J                     ...    325
   Maximum angular momentum in Aux-J        ...      4
Auxiliary J/K fitting basis                 ... NOT available
Auxiliary Correlation fitting basis         ... NOT available
Auxiliary 'external' fitting basis          ... NOT available

Checking pre-screening integrals            ... done (  0.0 sec) Dimension = 145
   => SHARK Basis and OBASIS are compatible. Storing Pre-screening
Shell pair information
Shell pair cut-off parameter TPreSel        ...   1.0e-11
Total number of shell pairs                 ...     10585
Shell pairs after pre-screening             ...      8819
Total number of primitive shell pairs       ...     38205
Primitive shell pairs kept                  ...     20851
          la=0 lb=0:   3900 shell pairs
          la=1 lb=0:   2744 shell pairs
          la=1 lb=1:    452 shell pairs
          la=2 lb=0:   1192 shell pairs
          la=2 lb=1:    428 shell pairs
          la=2 lb=2:    103 shell pairs

Checking whether 4 symmetric matrices of dimension 265 fit in memory
:Max Core in MB      =   2500.00
 MB in use           =     14.29
 MB left             =   2485.71
 MB needed           =      1.08
 Data fit in memory  = YES
Calculating RI/J V-Matrix + Cholesky decomp.... done (  0.0 sec)
Calculating Nuclear repulsion               ... done (  0.0 sec) ENN=   1115.008494122012 Eh

Diagonalization of the overlap matrix:
Smallest eigenvalue                        ... 1.816e-03
Time for diagonalization                   ...    0.014 sec
Threshold for overlap eigenvalues          ... 1.000e-07
Number of eigenvalues below threshold      ... 0
Time for construction of square roots      ...    0.004 sec
Total time needed                          ...    0.019 sec

-------------------
DFT GRID GENERATION
-------------------

General Integration Accuracy     IntAcc      ... 4.388
Radial Grid Type                 RadialGrid  ... OptM3 with GC (2021)
Angular Grid (max. ang.)         AngularGrid ... 4 (Lebedev-302)
Angular grid pruning method      GridPruning ... 4 (adaptive)
Weight generation scheme         WeightScheme... mBecke (2022)
Basis function cutoff            BFCut       ... 1.0000e-10
Integration weight cutoff        WCut        ... 1.0000e-14
Partially contracted basis set               ... off
Rotationally invariant grid construction     ... off
Angular grids for H and He will be reduced by one unit

Total number of grid points                  ...   152108
Total number of batches                      ...     2396
Average number of points per batch           ...       63
Average number of grid points per atom       ...     4346

--------------------
COSX GRID GENERATION
--------------------

GRIDX 1
-------
General Integration Accuracy     IntAcc      ... 3.816
Radial Grid Type                 RadialGrid  ... OptM3 with GC (2021)
Angular Grid (max. ang.)         AngularGrid ... 1 (Lebedev-50)
Angular grid pruning method      GridPruning ... 4 (adaptive)
Weight generation scheme         WeightScheme... mBecke (2022)
Basis function cutoff            BFCut       ... 1.0000e-10
Integration weight cutoff        WCut        ... 1.0000e-14
Partially contracted basis set               ... on
Rotationally invariant grid construction     ... off
Angular grids for H and He will be reduced by one unit

Total number of grid points                  ...    19363
Total number of batches                      ...      175
Average number of points per batch           ...      110
Average number of grid points per atom       ...      553
UseSFitting                                  ... on

GRIDX 2
-------
General Integration Accuracy     IntAcc      ... 4.020
Radial Grid Type                 RadialGrid  ... OptM3 with GC (2021)
Angular Grid (max. ang.)         AngularGrid ... 2 (Lebedev-110)
Angular grid pruning method      GridPruning ... 4 (adaptive)
Weight generation scheme         WeightScheme... mBecke (2022)
Basis function cutoff            BFCut       ... 1.0000e-10
Integration weight cutoff        WCut        ... 1.0000e-14
Partially contracted basis set               ... on
Rotationally invariant grid construction     ... off
Angular grids for H and He will be reduced by one unit

Total number of grid points                  ...    40578
Total number of batches                      ...      333
Average number of points per batch           ...      121
Average number of grid points per atom       ...     1159
UseSFitting                                  ... on

GRIDX 3
-------
General Integration Accuracy     IntAcc      ... 4.338
Radial Grid Type                 RadialGrid  ... OptM3 with GC (2021)
Angular Grid (max. ang.)         AngularGrid ... 3 (Lebedev-194)
Angular grid pruning method      GridPruning ... 4 (adaptive)
Weight generation scheme         WeightScheme... mBecke (2022)
Basis function cutoff            BFCut       ... 1.0000e-10
Integration weight cutoff        WCut        ... 1.0000e-14
Partially contracted basis set               ... on
Rotationally invariant grid construction     ... off
Angular grids for H and He will be reduced by one unit

Total number of grid points                  ...    88173
Total number of batches                      ...      707
Average number of points per batch           ...      124
Average number of grid points per atom       ...     2519
UseSFitting                                  ... on
Grids setup in   1.5 sec
Initializing property integral containers    ... done (  0.0 sec)

SHARK setup successfully completed in   1.7 seconds

Maximum memory used throughout the entire STARTUP-calculation: 40.4 MB


           ************************************************************
           *        Program running with 12 parallel MPI-processes    *
           *              working on a common directory               *
           ************************************************************
Loading Hartree-Fock densities                     ... done
Calculating cut-offs                               ... done
Initializing the effective Hamiltonian             ... done
Setting up the integral package (SHARK)            ... done
Starting the Coulomb interaction                   ... done (   0.1 sec)
Making the grid                                    ... done (   0.2 sec)
Mapping shells                                     ... done
Starting the XC term evaluation                    ... done (   0.1 sec)
  promolecular density results
     # of electrons  =    113.994205046
     EX              =    -89.282255067
     EC              =     -3.817830095
     EX+EC           =    -93.100085162
Transforming the Hamiltonian                       ... done (   0.0 sec)
Diagonalizing the Hamiltonian                      ... done (   0.0 sec)
Back transforming the eigenvectors                 ... done (   0.0 sec)
Now organizing SCF variables                       ... done
             **** ENERGY FILE WAS UPDATED (inp.en.tmp) ****
Finished Guess after   0.6 sec
Maximum memory used throughout the entire GUESS-calculation: 17.6 MB


           ************************************************************
           *        Program running with 12 parallel MPI-processes    *
           *              working on a common directory               *
           ************************************************************
--------------------
CPCM SOLVATION MODEL
--------------------
CPCM parameters:
  Epsilon                                         ...       4.8030
  Refrac                                          ...       1.4459
  Rsolv                                           ...       1.3000
  Surface type                                    ... GAUSSIAN VDW
  Discretization scheme                           ... Constant charge density
    Threshold for H atoms                         ...       5.0000 (charges/Ang^2)
    Threshold for non-H atoms                     ...       5.0000 (charges/Ang^2)
  Epsilon function type                           ...         CPCM
Solvent:                                          ... CHLOROFORM
Radii:
  Scheme                                          ... Element-dependent radii
  Radius for C  used is    3.8550 Bohr (=   2.0400 Ang.)
  Radius for O  used is    3.4469 Bohr (=   1.8240 Ang.)
  Radius for H  used is    2.4944 Bohr (=   1.3200 Ang.)
Calculating surface                               ...        done! (  0.0s)
Cavity surface points                             ...         2610
Cavity Volume                                     ...    1779.0422
Cavity Surface-area                               ...     904.7602
Calculating surface distance matrix               ...        done! (  0.1s)
Performing Cholesky decomposition & store         ...        done! (  0.2s)
Overall time for CPCM initialization              ...                 0.3s

----------------------------------------D-I-I-S--------------------------------------------
Iteration    Energy (Eh)           Delta-E    RMSDP     MaxDP     DIISErr   Damp  Time(sec)
-------------------------------------------------------------------------------------------
               ***  Starting incremental Fock matrix formation  ***
    1    -656.9164584347856817     0.00e+00  8.96e-03  7.31e-02  2.49e-01  0.700   2.3
    2    -657.1143348043462993    -1.98e-01  6.53e-03  4.29e-02  1.11e-01  0.700   1.3
                               ***Turning on AO-DIIS***
    3    -657.1981866387886839    -8.39e-02  2.63e-03  1.68e-02  3.91e-02  0.700   1.3
    4    -657.2469299087927084    -4.87e-02  4.46e-03  2.66e-02  2.01e-02  0.000   1.2
    5    -657.3521028761458638    -1.05e-01  8.47e-04  4.88e-03  4.98e-03  0.000   1.3
                              *** Initializing SOSCF ***
---------------------------------------S-O-S-C-F--------------------------------------
Iteration    Energy (Eh)           Delta-E    RMSDP     MaxDP     MaxGrad    Time(sec)
--------------------------------------------------------------------------------------
    6    -657.3524451325547489    -3.42e-04  2.80e-04  1.73e-03  1.02e-03     1.2
               *** Restarting incremental Fock matrix formation ***
    7    -657.3524138447282894     3.13e-05  1.57e-04  1.07e-03  3.09e-04     2.1
    8    -657.3524104054665713     3.44e-06  8.10e-05  7.37e-04  5.54e-04     1.5
    9    -657.3524169601109861    -6.55e-06  1.36e-05  9.59e-05  2.19e-05     1.4
                  *** Gradient check signals convergence ***

               *****************************************************
               *                     SUCCESS                       *
               *           SCF CONVERGED AFTER   9 CYCLES          *
               *****************************************************

Recomputing exchange energy using gridx3       ... done (    2.828 sec)
Old exchange energy                            :    -18.245239155 Eh
New exchange energy                            :    -18.245251972 Eh
Exchange energy change after final integration :     -0.000012817 Eh
Total energy after final integration           :   -657.352429699 Eh
             **** ENERGY FILE WAS UPDATED (inp.en.tmp) ****

----------------
TOTAL SCF ENERGY
----------------

Total Energy       :       -657.35242969882597 Eh          -17887.46899 eV

Components:
Nuclear Repulsion  :       1115.00849412201183 Eh           30340.92363 eV
Electronic Energy  :      -1772.35110815582470 Eh          -48228.12552 eV
One Electron Energy:      -3106.61138269393405 Eh          -84535.19341 eV
Two Electron Energy:       1334.26027453810934 Eh           36307.06789 eV
CPCM Dielectric    :         -0.00980284836686 Eh              -0.26675 eV

Virial components:
Potential Energy   :      -1310.59665246729173 Eh          -35663.14799 eV
Kinetic Energy     :        653.24422276846587 Eh           17775.67900 eV
Virial Ratio       :          2.00628892960270

DFT components:
N(Alpha)           :       56.999999321411 electrons
N(Beta)            :       56.999999321411 electrons
N(Total)           :      113.999998642823 electrons
E(X)               :      -72.349087074260 Eh       
E(C)               :       -4.495918035904 Eh       
E(XC)              :      -76.845005110164 Eh       

CPCM Solvation Model Properties:
Surface-charge          :         -0.02160339831363
Corrected charge        :          0.00000000000000
Outlying charge corr.   :          0.00002309040468 Eh               0.00063 eV
Free-energy (cav+disp)  :  This term is not implemented in the current solvation scheme

---------------
SCF CONVERGENCE
---------------

  Last Energy change         ...    6.5546e-06  Tolerance :   1.0000e-06
  Last MAX-Density change    ...    9.5856e-05  Tolerance :   1.0000e-05
  Last RMS-Density change    ...    1.3554e-05  Tolerance :   1.0000e-06
  Last DIIS Error            ...    1.0162e-03  Tolerance :   1.0000e-06
  Last Orbital Gradient      ...    2.1896e-05  Tolerance :   3.3300e-04
  Last Orbital Rotation      ...    6.7468e-05  Tolerance :   3.3300e-04


----------------
ORBITAL ENERGIES
----------------

  NO   OCC          E(Eh)            E(eV) 
   0   2.0000     -19.141455      -520.8655 
   1   2.0000     -19.112129      -520.0675 
   2   2.0000     -10.220715      -278.1198 
   3   2.0000     -10.204685      -277.6836 
   4   2.0000     -10.179267      -276.9919 
   5   2.0000     -10.178633      -276.9747 
   6   2.0000     -10.178615      -276.9742 
   7   2.0000     -10.177244      -276.9369 
   8   2.0000     -10.174194      -276.8539 
   9   2.0000     -10.167265      -276.6653 
  10   2.0000     -10.165649      -276.6214 
  11   2.0000     -10.163286      -276.5571 
  12   2.0000     -10.162003      -276.5222 
  13   2.0000     -10.156404      -276.3698 
  14   2.0000     -10.153661      -276.2952 
  15   2.0000      -1.033158       -28.1137 
  16   2.0000      -1.000392       -27.2220 
  17   2.0000      -0.863192       -23.4887 
  18   2.0000      -0.809840       -22.0369 
  19   2.0000      -0.766123       -20.8473 
  20   2.0000      -0.756410       -20.5830 
  21   2.0000      -0.713557       -19.4169 
  22   2.0000      -0.680594       -18.5199 
  23   2.0000      -0.668683       -18.1958 
  24   2.0000      -0.660406       -17.9706 
  25   2.0000      -0.625157       -17.0114 
  26   2.0000      -0.584745       -15.9117 
  27   2.0000      -0.560799       -15.2601 
  28   2.0000      -0.522739       -14.2244 
  29   2.0000      -0.517275       -14.0758 
  30   2.0000      -0.498370       -13.5613 
  31   2.0000      -0.493245       -13.4219 
  32   2.0000      -0.462096       -12.5743 
  33   2.0000      -0.461452       -12.5568 
  34   2.0000      -0.445005       -12.1092 
  35   2.0000      -0.438633       -11.9358 
  36   2.0000      -0.422373       -11.4933 
  37   2.0000      -0.419846       -11.4246 
  38   2.0000      -0.414409       -11.2767 
  39   2.0000      -0.406627       -11.0649 
  40   2.0000      -0.400793       -10.9061 
  41   2.0000      -0.391868       -10.6633 
  42   2.0000      -0.381255       -10.3745 
  43   2.0000      -0.371304       -10.1037 
  44   2.0000      -0.368676       -10.0322 
  45   2.0000      -0.354516        -9.6469 
  46   2.0000      -0.342337        -9.3155 
  47   2.0000      -0.338757        -9.2180 
  48   2.0000      -0.333155        -9.0656 
  49   2.0000      -0.326077        -8.8730 
  50   2.0000      -0.309573        -8.4239 
  51   2.0000      -0.297996        -8.1089 
  52   2.0000      -0.293626        -7.9900 
  53   2.0000      -0.262537        -7.1440 
  54   2.0000      -0.252413        -6.8685 
  55   2.0000      -0.237484        -6.4623 
  56   2.0000      -0.231577        -6.3015 
  57   0.0000       0.014474         0.3939 
  58   0.0000       0.023960         0.6520 
  59   0.0000       0.096816         2.6345 
  60   0.0000       0.100102         2.7239 
  61   0.0000       0.121273         3.3000 
  62   0.0000       0.124614         3.3909 
  63   0.0000       0.139174         3.7871 
  64   0.0000       0.149547         4.0694 
  65   0.0000       0.153957         4.1894 
  66   0.0000       0.157758         4.2928 
  67   0.0000       0.162591         4.4243 
*Only the first 10 virtual orbitals were printed.
Total SCF time: 0 days 0 hours 0 min 17 sec 
Finished LeanSCF after  18.1 sec

Maximum memory used throughout the entire LEANSCF-calculation: 31.5 MB


-------------------------------------------------------------------------------
                          DFT DISPERSION CORRECTION                            
                                                                               
                              DFTD3 V3.1  Rev 1                                
                          USING Becke-Johnson damping                          
-------------------------------------------------------------------------------
-------------------------   ----------------
Dispersion correction           -0.074714555
-------------------------   ----------------

NOTIFICATION: Different basis set in ORCA and otool_gcp:
ORCA: 265  gCP: 250 
If you are NOT using ECPs, check your basis set inputs!
------------------   -----------------
gCP correction             0.168946980
------------------   -----------------

-------------------------   --------------------
FINAL SINGLE POINT ENERGY      -657.258197274215
-------------------------   --------------------



           ************************************************************
           *        Program running with 12 parallel MPI-processes    *
           *              working on a common directory               *
           ************************************************************

------------------------------------------------------------------------------
                              ORCA PROPERTY CALCULATIONS
------------------------------------------------------------------------------

GBWName                                 ... inp.gbw
Number of atoms                         ...     35
Number of basis functions               ...    265
Max core memory                         ...   2500 MB

Electric properties:
Dipole moment                           ... YES
Quadrupole moment                       ...  NO
Static polarizability (Dipole/Dipole)   ...  NO
Static polarizability (Dipole/Quad.)    ...  NO
Static polarizability (Quad./Quad.)     ...  NO
Static polarizability (Velocity)        ...  NO
Static hyperpolarizability              ...  NO

Atomic electric properties:
Dipole moment                           ...  NO
Quadrupole moment                       ...  NO
Static polarizability                   ...  NO

Choice of electric origin               ... Center of mass
Position of electric origin             ...    -0.000013     0.000031     0.000012

General magnetic properties:
Magnetizability                         ...  NO

EPR properties:
g-Tensor (aka g-matrix)                 ...  NO
Zero-Field splitting spin-orbit         ...  NO
Zero-field splitting spin-spin          ...  NO
Hyperfine couplings                     ...  NO (   0 nuclei)
Quadrupole couplings                    ...  NO (   0 nuclei)
Contact density                         ...  NO (   0 nuclei)

NMR properties:
Chemical shifts                         ...  NO (   0 nuclei)
Spin-rotation constants                 ...  NO (   0 nuclei)
Spin-spin couplings                     ...  NO (   0 nuclei,    0 pairs)

Choice of magnetic origin               ... GIAO
Position of magnetic origin             ...     0.000000     0.000000     0.000000

Properties with geometric perturbations:
SCF Hessian                             ...  NO
IR spectrum                             ...  NO
VCD spectrum                            ...  NO
X-ray spectroscopy properties:
SCF XES/XAS/RIXS spectra                ...  NO

SCF SOC stabilization energy            ...  NO
Diagonal Born-Oppenheimer correction    ...  NO

-------------
DIPOLE MOMENT
-------------

Method             : SCF
Type of density    : Electron Density
Multiplicity       :   1
Irrep              :   0
Energy             :  -657.3524296988259721 Eh
Basis              : AO
                                X                 Y                 Z
Electronic contribution:      5.383787112      -4.500934677      -3.050046381
Nuclear contribution   :     -5.295363198       5.516953141       3.199357705
                        -----------------------------------------
Total Dipole Moment    :      0.088423914       1.016018464       0.149311325
                        -----------------------------------------
Magnitude (a.u.)       :      1.030730896
Magnitude (Debye)      :      2.619909730



--------------------
Rotational spectrum 
--------------------
 
Rotational constants in cm-1:             0.028506             0.018171             0.014786 
Rotational constants in MHz :           854.598623           544.748475           443.273491 

Dipole components along the rotational axes: 
x,y,z [a.u.] :     0.075193     1.026789     0.049572 
x,y,z [Debye]:     0.191125     2.609889     0.126003 

 

Dipole moment calculation done in   0.0 sec 

Maximum memory used throughout the entire PROP-calculation: 16.6 MB

--------------------------------
SUGGESTED CITATIONS FOR THIS RUN
--------------------------------

Below you find a list of papers that are relevant to this ORCA run
We neither can nor want to force you to cite these papers, but we appreciate if you do
You receive ORCA, which is the product of decades of hard work by many enthusiastic individuals, for free
The only thing we kindly ask in return is that you cite our papers,
We deeply appreciate it, if you show your appreciation for ORCA by not just citing the generic ORCA reference.

Please note that relegating all ORCA citations to the supporting information does *not* help us.
SI sections are not indexed - citations you put there will not count into any citation statistics
But we need these citations in order to attract the funding resources that allow us to do what we are doing

Therefore, if you are a happy ORCA user, please consider citing a few of the papers listed below in the main body of your paper

In addition to the list printed below, the program has created the file inp.bibtex that contains the list in bibtex format
You can import this file easily into all common literature databanks and citation aid programs

It goes without saying that in many instances, there are alternative algorithms to achieve similar
results as the ones you have gotten from ORCA. It is, of course, also the case that in some instances
ORCA just re-implements algorithms worked out by others. We are fully aware of that and we are also
fully appreciative of our colleagues work. Hence this citation list should not be read as indicating
that the listed papers, which are focused on our own work, are the only ones worth citing. It simply
meant to make it easier for users to cite ORCA specific papers. It is not a substitute for doing your
own literature research and citing the relevant literature in a scientifically appropriate manner.

List of essential papers. We consider these as the minimum necessary citations

  1. Neese, F.
     Software update: the ORCA program system, version 6.0
     WIRES Comput. Molec. Sci. 2025 15(1), e70019
     doi.org/10.1002/wcms.70019

List of papers to cite with high priority. The work reported in these papers was absolutely
necessary for this run to complete.
Our perspective: the developers of density functionals and basis sets usually get cited in chemistry papers
Good! But without the algorithms to do something with them, the functionals or basis sets would not do anything.
Hence, in our opinion, the algorithm design and method developments papers are equally worthy of getting cited

  1. Neese, F.
     An improvement of the resolution of the identity approximation for the formation of the Coulomb matrix
     J. Comp. Chem. 2003 24(14), 1740-1747
     doi.org/10.1002/jcc.10318
  2. Neese, F.; Wennmohs, F.; Hansen, A.; Becker, U.
     Efficient, approximate and parallel Hartree-Fock and hybrid DFT calculations. A 'chain-of-spheres' algorithm for the Hartree-Fock exchange
     Chem. Phys. 2009 356(1-3), 98-109
     doi.org/10.1016/j.chemphys.2008.10.036
  3. Grimme, S.; Antony, J.; Ehrlich, S.; Krieg, H.
     A consistent and accurate ab initio parametrization of density functional dispersion correction (DFT-D) for the 94 elements H-Pu
     J. Chem. Phys. 2010 132 , 154104
     doi.org/10.1063/1.3382344
  4. Grimme, S.; Ehrlich, S.; Goerigk, L.
     Effect of the damping function in dispersion corrected density functional theory
     J. Comput. Chem. 2011 32(7), 1456-1465
     doi.org/10.1002/jcc.21759
  5. Garcia-Rates, M.; Neese, F.
     Effect of the Solute Cavity on the Solvation Energy and its Derivatives within the Framework of the Gaussian Charge Scheme
     J. Comput. Chem. 2020 41 , 922-939
     doi.org/10.1002/jcc.26139
  6. Helmich-Paris, B.; de Souza, B.; Neese, F.; Izsák, R.
     An improved chain of spheres for exchange algorithm
     J. Chem. Phys. 2021 155(10), 104109
     doi.org/10.1063/5.0058766
  7. Neese, F.
     The SHARK Integral Generation and Digestion System
     J. Comp. Chem. 2022 44(3), 381
     doi.org/10.1002/jcc.26942

List of suggested additional citations. These are papers that are important in the 'surrounding' of 
of this run, or papers that preceded the highly important papers. If you like your results we are grateful for a citation.

  1. Izsak, R.; Neese, F.
     An overlap fitted chain of spheres exchange method
     J. Chem. Phys. 2011 135 , 144105
     doi.org/10.1063/1.3646921
  2. Izsak, R.; Hansen, A.; Neese, F.
     The resolution of identity and chain of spheres approximations for the LPNO-CCSD singles Fock term
     Molec. Phys. 2012 110 , 2413-2417
     doi.org/10.1080/00268976.2012.687466
  3. Neese, F.
     The ORCA program system
     WIRES Comput. Molec. Sci. 2012 2(1), 73-78
     doi.org/10.1002/wcms.81
  4. Izsak, R.; Neese, F.; Klopper, W.
     Robust fitting techniques in the chain of spheres approximation to the Fock exchange: The role of the complementary space
     J. Chem. Phys. 2013 139 , 
     doi.org/10.1063/1.4819264
  5. Neese, F.
     Software update: the ORCA program system, version 4.0
     WIRES Comput. Molec. Sci. 2018 8(1), 1-6
     doi.org/10.1002/wcms.1327
  6. Neese, F.; Wennmohs, F.; Becker, U.; Riplinger, C.
     The ORCA quantum chemistry program package
     J. Chem. Phys. 2020 152(22), 224108
     doi.org/10.1063/5.0004608
  7. Neese, F.
     Software update: The ORCA program system—Version 5.0
     WIRES Comput. Molec. Sci. 2022 12(1), e1606
     doi.org/10.1002/wcms.1606

List of optional additional citations

  1. Neese, F.
     Approximate second-order SCF convergence for spin unrestricted wavefunctions
     Chem. Phys. Lett. 2000 325(1-3), 93-98
     doi.org/10.1016/s0009-2614(00)00662-x

Timings for individual modules:

Sum of individual times          ...       21.313 sec (=   0.355 min)
Startup calculation              ...        1.978 sec (=   0.033 min)   9.3 %
SCF iterations                   ...       19.012 sec (=   0.317 min)  89.2 %
Property calculations            ...        0.324 sec (=   0.005 min)   1.5 %
                             ****ORCA TERMINATED NORMALLY****
TOTAL RUN TIME: 0 days 0 hours 0 minutes 21 seconds 688 msec
