 Entering Gaussian System, Link 0=g16
 Initial command:
 /home/dinglab/software/g16/l1.exe "/home/dinglab/software/g16/scratch/Gau-2805012.inp" -scrdir="/home/dinglab/software/g16/scratch/"
 Default is to use a total of  18 processors:
                               18 via shared-memory
                                1 via Linda
 Entering Link 1 = /home/dinglab/software/g16/l1.exe PID=   2805013.
  
 Copyright (c) 1988,1990,1992,1993,1995,1998,2003,2009,2016,
            Gaussian, Inc.  All Rights Reserved.
  
 This is part of the Gaussian(R) 16 program.  It is based on
 the Gaussian(R) 09 system (copyright 2009, Gaussian, Inc.),
 the Gaussian(R) 03 system (copyright 2003, Gaussian, Inc.),
 the Gaussian(R) 98 system (copyright 1998, Gaussian, Inc.),
 the Gaussian(R) 94 system (copyright 1995, Gaussian, Inc.),
 the Gaussian 92(TM) system (copyright 1992, Gaussian, Inc.),
 the Gaussian 90(TM) system (copyright 1990, Gaussian, Inc.),
 the Gaussian 88(TM) system (copyright 1988, Gaussian, Inc.),
 the Gaussian 86(TM) system (copyright 1986, Carnegie Mellon
 University), and the Gaussian 82(TM) system (copyright 1983,
 Carnegie Mellon University). Gaussian is a federally registered
 trademark of Gaussian, Inc.
  
 This software contains proprietary and confidential information,
 including trade secrets, belonging to Gaussian, Inc.
  
 This software is provided under written license and may be
 used, copied, transmitted, or stored only in accord with that
 written license.
  
 The following legend is applicable only to US Government
 contracts under FAR:
  
                    RESTRICTED RIGHTS LEGEND
  
 Use, reproduction and disclosure by the US Government is
 subject to restrictions as set forth in subparagraphs (a)
 and (c) of the Commercial Computer Software - Restricted
 Rights clause in FAR 52.227-19.
  
 Gaussian, Inc.
 340 Quinnipiac St., Bldg. 40, Wallingford CT 06492
  
  
 ---------------------------------------------------------------
 Warning -- This program may not be used in any manner that
 competes with the business of Gaussian, Inc. or will provide
 assistance to any competitor of Gaussian, Inc.  The licensee
 of this program is prohibited from giving any competitor of
 Gaussian, Inc. access to this program.  By using this program,
 the user acknowledges that Gaussian, Inc. is engaged in the
 business of creating and licensing software in the field of
 computational chemistry and represents and warrants to the
 licensee that it is not a competitor of Gaussian, Inc. and that
 it will not use this program in any manner prohibited above.
 ---------------------------------------------------------------
  

 Cite this work as:
 Gaussian 16, Revision A.03,
 M. J. Frisch, G. W. Trucks, H. B. Schlegel, G. E. Scuseria, 
 M. A. Robb, J. R. Cheeseman, G. Scalmani, V. Barone, 
 G. A. Petersson, H. Nakatsuji, X. Li, M. Caricato, A. V. Marenich, 
 J. Bloino, B. G. Janesko, R. Gomperts, B. Mennucci, H. P. Hratchian, 
 J. V. Ortiz, A. F. Izmaylov, J. L. Sonnenberg, D. Williams-Young, 
 F. Ding, F. Lipparini, F. Egidi, J. Goings, B. Peng, A. Petrone, 
 T. Henderson, D. Ranasinghe, V. G. Zakrzewski, J. Gao, N. Rega, 
 G. Zheng, W. Liang, M. Hada, M. Ehara, K. Toyota, R. Fukuda, 
 J. Hasegawa, M. Ishida, T. Nakajima, Y. Honda, O. Kitao, H. Nakai, 
 T. Vreven, K. Throssell, J. A. Montgomery, Jr., J. E. Peralta, 
 F. Ogliaro, M. J. Bearpark, J. J. Heyd, E. N. Brothers, K. N. Kudin, 
 V. N. Staroverov, T. A. Keith, R. Kobayashi, J. Normand, 
 K. Raghavachari, A. P. Rendell, J. C. Burant, S. S. Iyengar, 
 J. Tomasi, M. Cossi, J. M. Millam, M. Klene, C. Adamo, R. Cammi, 
 J. W. Ochterski, R. L. Martin, K. Morokuma, O. Farkas, 
 J. B. Foresman, and D. J. Fox, Gaussian, Inc., Wallingford CT, 2016.
 
 ******************************************
 Gaussian 16:  ES64L-G16RevA.03 25-Dec-2016
                 9-Aug-2026 
 ******************************************
 %mem=24GB
 %nprocs=12
 Will use up to   12 processors via shared memory.
 ----------------------------------------------------------------------
 # mPW1PW91/6-31G** nmr scrf(solvent=chloroform,pcm) g09default scf=noi
 ncore
 ----------------------------------------------------------------------
 1/38=1,158=3,167=1,172=1/1;
 2/12=2,17=6,18=5,40=1/2;
 3/5=1,6=6,7=101,11=2,25=1,27=10,30=1,70=2201,72=7,74=-7,75=-4,158=3/1,2,3,8;
 4/60=-1/1;
 5/5=4,38=5,53=7,87=10/2;
 8/6=1,10=90,11=11,87=10/1;
 10/13=100,20=2,30=2,45=16,87=10/2;
 6/7=2,8=2,9=2,10=2,28=1,87=10/1;
 99/9=1/99;
 Using 2006 physical constants.
 -------------
 Template file
 -------------
 Symbolic Z-matrix:
 Charge =  0 Multiplicity = 1
 C                    -1.35261  -1.59458   1.93141 
 C                    -2.72644  -1.37216   1.28939 
 C                    -2.72354  -0.69343  -0.10293 
 C                    -1.66356   0.48422  -0.19534 
 C                    -0.24326   0.22789   0.53754 
 C                    -0.53896  -0.29249   1.97171 
 C                    -1.37147   0.87751  -1.66087 
 C                    -0.56165   2.17905  -1.73853 
 C                     0.75602   2.13374  -0.94256 
 C                     0.63253   1.59994   0.53643 
 C                     0.87416  -0.77823  -0.03102 
 C                     2.03034   1.09478   0.94734 
 C                     2.1369   -0.24267   0.30415 
 C                     3.34879  -0.88545   0.07761 
 C                     3.34497  -2.14313  -0.52086 
 C                     2.12549  -2.71341  -0.84804 
 C                     0.8945   -2.07826  -0.59921 
 O                    -0.17006  -2.85956  -0.91713 
 O                     4.50051  -0.2319    0.46637 
 O                    -2.39662  -1.64571  -1.14818 
 C                    -4.17502  -0.27737  -0.4342 
 C                    -2.40516   1.6747    0.4825 
 C                     1.46584   3.49475  -1.05404 
 C                     0.27582   2.72467   1.54382 
 H                    -1.49775  -1.97184   2.95172 
 H                    -0.80192  -2.36791   1.38825 
 H                    -3.33014  -0.75046   1.96283 
 H                    -3.27025  -2.32494   1.20365 
 H                     0.39817  -0.46365   2.51142 
 H                    -1.09927   0.45385   2.54903 
 H                    -0.81899   0.07068  -2.15401 
 H                    -2.30784   0.99748  -2.22004 
 H                    -0.31731   2.38561  -2.7893 
 H                    -1.17719   3.02749  -1.41103 
 H                     1.38962   1.40273  -1.46041 
 H                     2.10953   1.0142    2.04183 
 H                     2.82816   1.7776    0.63854 
 H                     4.27538  -2.67056  -0.7255 
 H                     2.0777   -3.6963   -1.30603 
 H                    -0.9908   -2.32063  -1.00259 
 H                     5.25891  -0.78372   0.22206 
 H                    -3.03169  -2.37905  -1.09299 
 H                    -4.78851  -1.18674  -0.49317 
 H                    -4.6287    0.36001   0.32633 
 H                    -4.23836   0.2245   -1.4038 
 H                    -2.79029   1.425     1.47515 
 H                    -1.78761   2.55289   0.59206 
 H                    -3.25446   1.97704  -0.13523 
 H                     0.856     4.30996  -0.64691 
 H                     2.43176   3.51051  -0.53881 
 H                     1.65611   3.72824  -2.10845 
 H                     1.19731   3.23802   1.84114 
 H                    -0.38314   3.50192   1.15024 
 H                    -0.17729   2.33508   2.45985 
 
 Stoichiometry    C21H30O3
 Framework group  C1[X(C21H30O3)]
 Deg. of freedom   156
 Full point group                 C1      NOp   1
 Largest Abelian subgroup         C1      NOp   1
 Largest concise Abelian subgroup C1      NOp   1
                         Standard orientation:                         
 ---------------------------------------------------------------------
 Center     Atomic      Atomic             Coordinates (Angstroms)
 Number     Number       Type             X           Y           Z
 ---------------------------------------------------------------------
      1          6           0       -1.352609   -1.594581    1.931411
      2          6           0       -2.726436   -1.372157    1.289386
      3          6           0       -2.723536   -0.693432   -0.102933
      4          6           0       -1.663556    0.484218   -0.195336
      5          6           0       -0.243256    0.227893    0.537541
      6          6           0       -0.538957   -0.292486    1.971712
      7          6           0       -1.371473    0.877512   -1.660871
      8          6           0       -0.561651    2.179049   -1.738532
      9          6           0        0.756019    2.133740   -0.942564
     10          6           0        0.632525    1.599938    0.536432
     11          6           0        0.874162   -0.778233   -0.031022
     12          6           0        2.030339    1.094776    0.947342
     13          6           0        2.136898   -0.242667    0.304152
     14          6           0        3.348791   -0.885449    0.077609
     15          6           0        3.344972   -2.143126   -0.520862
     16          6           0        2.125489   -2.713413   -0.848037
     17          6           0        0.894498   -2.078263   -0.599208
     18          8           0       -0.170057   -2.859563   -0.917131
     19          8           0        4.500509   -0.231903    0.466369
     20          8           0       -2.396619   -1.645714   -1.148184
     21          6           0       -4.175019   -0.277370   -0.434202
     22          6           0       -2.405155    1.674700    0.482495
     23          6           0        1.465836    3.494753   -1.054041
     24          6           0        0.275820    2.724665    1.543815
     25          1           0       -1.497754   -1.971844    2.951721
     26          1           0       -0.801917   -2.367914    1.388252
     27          1           0       -3.330144   -0.750455    1.962830
     28          1           0       -3.270248   -2.324937    1.203649
     29          1           0        0.398165   -0.463645    2.511423
     30          1           0       -1.099267    0.453845    2.549026
     31          1           0       -0.818989    0.070682   -2.154013
     32          1           0       -2.307837    0.997481   -2.220041
     33          1           0       -0.317314    2.385611   -2.789304
     34          1           0       -1.177191    3.027486   -1.411031
     35          1           0        1.389620    1.402733   -1.460407
     36          1           0        2.109526    1.014203    2.041830
     37          1           0        2.828156    1.777604    0.638538
     38          1           0        4.275379   -2.670560   -0.725496
     39          1           0        2.077705   -3.696295   -1.306030
     40          1           0       -0.990800   -2.320626   -1.002595
     41          1           0        5.258907   -0.783721    0.222064
     42          1           0       -3.031687   -2.379047   -1.092989
     43          1           0       -4.788505   -1.186735   -0.493169
     44          1           0       -4.628698    0.360007    0.326332
     45          1           0       -4.238363    0.224497   -1.403797
     46          1           0       -2.790286    1.424997    1.475152
     47          1           0       -1.787610    2.552887    0.592062
     48          1           0       -3.254462    1.977044   -0.135227
     49          1           0        0.856003    4.309962   -0.646905
     50          1           0        2.431759    3.510513   -0.538811
     51          1           0        1.656108    3.728239   -2.108447
     52          1           0        1.197309    3.238021    1.841143
     53          1           0       -0.383141    3.501919    1.150243
     54          1           0       -0.177292    2.335082    2.459846
 ---------------------------------------------------------------------
 Rotational constants (GHZ):           0.3515954           0.2477206           0.1877131
 Standard basis: 6-31G(d,p) (6D, 7F)
 There are   510 symmetry adapted cartesian basis functions of A   symmetry.
 There are   510 symmetry adapted basis functions of A   symmetry.
   510 basis functions,   882 primitive gaussians,   510 cartesian basis functions
    90 alpha electrons       90 beta electrons
       nuclear repulsion energy      2401.9301915020 Hartrees.
 NAtoms=   54 NActive=   54 NUniq=   54 SFac= 1.00D+00 NAtFMM=   60 NAOKFM=F Big=F
 Integral buffers will be    131072 words long.
 Raffenetti 2 integral format.
 Two-electron integral symmetry is turned on.
 Force PCM accuracy= 1.00D-10.
 ------------------------------------------------------------------------------
 Polarizable Continuum Model (PCM)
 =================================
 Model                : PCM (using non-symmetric T matrix).
 Atomic radii         : UFF (Universal Force Field).
 Polarization charges : Total charges.
 Charge compensation  : None.
 Solution method      : On-the-fly selection.
 Cavity type          : Scaled VdW (van der Waals Surface) (Alpha=1.100).
 Cavity algorithm     : GePol (No added spheres)
                        Default sphere list used, NSphG=   54.
                        Lebedev-Laikov grids with approx.  5.0 points / Ang**2.
                        Smoothing algorithm: York/Karplus (Gamma=1.0000).
                        Polarization charges: spherical gaussians, with
                                              point-specific exponents (IZeta= 3).
                        Self-potential: point-specific (ISelfS= 7).
                        Self-field    : sphere-specific E.n sum rule (ISelfD= 2).
 Solvent              : Chloroform, Eps=   4.711300 Eps(inf)=   2.090627
 ------------------------------------------------------------------------------
 One-electron integrals computed using PRISM.
 NBasis=   510 RedAO= T EigKep=  3.15D-04  NBF=   510
 NBsUse=   510 1.00D-06 EigRej= -1.00D+00 NBFU=   510
 ExpMin= 1.61D-01 ExpMax= 5.48D+03 ExpMxC= 8.25D+02 IAcc=2 IRadAn=         4 AccDes= 0.00D+00
 Harris functional with IExCor=  908 and IRadAn=      -1 diagonalized for initial guess.
 HarFok:  IExCor=  908 AccDes= 0.00D+00 IRadAn=        -1 IDoV= 1 UseB2=F ITyADJ=14
 ICtDFT=  3500011 ScaDFX=  1.000000  1.000000  1.000000  1.000000
 FoFCou: FMM=F IPFlag=           0 FMFlag=      100000 FMFlg1=           0
         NFxFlg=           0 DoJE=T BraDBF=F KetDBF=T FulRan=T
         wScrn=  0.000000 ICntrl=       500 IOpCl=  0 I1Cent=   200000004 NGrid=           0
         NMat0=    1 NMatS0=      1 NMatT0=    0 NMatD0=    1 NMtDS0=    0 NMtDT0=    0
 Petite list used in FoFCou.
 Requested convergence on RMS density matrix=1.00D-08 within 128 cycles.
 Requested convergence on MAX density matrix=1.00D-06.
 Requested convergence on             energy=1.00D-06.
 No special actions if energy rises.
 Inv3:  Mode=1 IEnd=    24350403.
 Iteration    1 A*A^-1 deviation from unit magnitude is 3.33D-15 for    389.
 Iteration    1 A*A^-1 deviation from orthogonality  is 2.68D-15 for   2253    852.
 Iteration    1 A^-1*A deviation from unit magnitude is 3.33D-15 for   1521.
 Iteration    1 A^-1*A deviation from orthogonality  is 3.74D-13 for   2410   2378.
 Error on total polarization charges =  0.00880
 SCF Done:  E(RmPW1PW91) =  -1043.78469357     A.U. after   12 cycles
            NFock= 12  Conv=0.59D-08     -V/T= 2.0096
 DoSCS=F DFT=T ScalE2(SS,OS)=  1.000000  1.000000
 Range of M.O.s used for correlation:     1   510
 NBasis=   510 NAE=    90 NBE=    90 NFC=     0 NFV=     0
 NROrb=    510 NOA=    90 NOB=    90 NVA=   420 NVB=   420
 NEqPCM:  Using equilibrium solvation (IEInf=0, Eps=   4.7113, EpsInf=   2.0906)
          Differentiating once with respect to magnetic field using GIAOs.
          Electric field/nuclear overlap derivatives assumed to be zero.
 FoFJK:  IHMeth= 1 ICntrl=    6127 DoSepK=F KAlg= 0 I1Cent=           0 FoldK=F
 IRaf=         1 NMat=       1 IRICut=       1 DoRegI=T DoRafI=F ISym2E= 0 IDoP0=0 IntGTp=1.
          There are     3 degrees of freedom in the 1st order CPHF.  IDoFFX=0 NUNeed=     3.
      3 vectors produced by pass  0 Test12= 1.26D-12 3.33D-08 XBig12= 5.59D+01 1.64D+00.
 AX will form     3 AO Fock derivatives at one time.
      3 vectors produced by pass  1 Test12= 1.26D-12 3.33D-08 XBig12= 1.22D-01 1.29D-01.
      3 vectors produced by pass  2 Test12= 1.26D-12 3.33D-08 XBig12= 5.37D-04 6.18D-03.
      3 vectors produced by pass  3 Test12= 1.26D-12 3.33D-08 XBig12= 1.37D-06 2.84D-04.
      3 vectors produced by pass  4 Test12= 1.26D-12 3.33D-08 XBig12= 2.68D-09 1.80D-05.
      3 vectors produced by pass  5 Test12= 1.26D-12 3.33D-08 XBig12= 9.87D-12 6.66D-07.
      1 vectors produced by pass  6 Test12= 1.26D-12 3.33D-08 XBig12= 3.44D-14 3.88D-08.
 InvSVY:  IOpt=1 It=  1 EMax= 1.78D-15
 Solved reduced A of dimension    19 with     3 vectors.
 Calculating GIAO nuclear magnetic shielding tensors.
 SCF GIAO Magnetic shielding tensor (ppm):
      1  C    Isotropic =   174.0398   Anisotropy =    11.3155
   XX=   175.2185   YX=     6.6677   ZX=     0.3578
   XY=     5.8293   YY=   173.6389   ZY=    -3.5594
   XZ=    -0.2873   YZ=    -4.2727   ZZ=   173.2621
   Eigenvalues:   166.6935   173.8425   181.5835
      2  C    Isotropic =   156.7394   Anisotropy =    24.5868
   XX=   150.2105   YX=     1.8266   ZX=     3.9551
   XY=    -1.4402   YY=   152.2010   ZY=   -12.6435
   XZ=     9.4951   YZ=    -4.2177   ZZ=   167.8067
   Eigenvalues:   145.7707   151.3169   173.1306
      3  C    Isotropic =   117.3285   Anisotropy =    49.3653
   XX=   101.8397   YX=    -5.7183   ZX=    -4.6433
   XY=   -11.8813   YY=   135.8765   ZY=    20.5984
   XZ=    -8.3124   YZ=    19.3773   ZZ=   114.2693
   Eigenvalues:    99.0712   102.6757   150.2388
      4  C    Isotropic =   146.8226   Anisotropy =    15.9039
   XX=   144.6006   YX=     1.6359   ZX=     7.2931
   XY=     4.8525   YY=   153.7745   ZY=     6.4079
   XZ=     7.0116   YZ=     1.3052   ZZ=   142.0925
   Eigenvalues:   136.0383   147.0042   157.4252
      5  C    Isotropic =   127.2776   Anisotropy =    27.6402
   XX=   127.8528   YX=    -6.3085   ZX=     1.8375
   XY=    -0.0281   YY=   137.6285   ZY=    17.3313
   XZ=   -12.0156   YZ=     9.8206   ZZ=   116.3514
   Eigenvalues:   109.1755   126.9528   145.7044
      6  C    Isotropic =   163.3306   Anisotropy =    12.4039
   XX=   162.9021   YX=    -4.8752   ZX=    -3.2366
   XY=     3.8078   YY=   161.3941   ZY=    -4.5829
   XZ=   -11.0096   YZ=     2.0119   ZZ=   165.6956
   Eigenvalues:   156.7153   161.6766   171.5999
      7  C    Isotropic =   165.0596   Anisotropy =     6.7860
   XX=   165.0575   YX=    -0.0054   ZX=    -0.0895
   XY=     1.2526   YY=   161.3094   ZY=    -5.6443
   XZ=    -1.7731   YZ=     1.5420   ZZ=   168.8119
   Eigenvalues:   160.7518   164.8434   169.5836
      8  C    Isotropic =   166.2013   Anisotropy =    28.3329
   XX=   176.3615   YX=    15.4647   ZX=     7.6363
   XY=     6.4508   YY=   162.0257   ZY=    -1.2718
   XZ=    11.9066   YZ=    -0.4861   ZZ=   160.2167
   Eigenvalues:   151.5625   161.9515   185.0898
      9  C    Isotropic =   159.5807   Anisotropy =    11.7033
   XX=   159.3506   YX=     4.2756   ZX=     0.1243
   XY=     2.2259   YY=   153.2919   ZY=    -7.0829
   XZ=     4.6011   YZ=    -0.3127   ZZ=   166.0995
   Eigenvalues:   150.6580   160.7011   167.3828
     10  C    Isotropic =   141.5155   Anisotropy =    28.2098
   XX=   148.6284   YX=     7.6576   ZX=    -7.8667
   XY=     4.3541   YY=   157.0629   ZY=     9.1879
   XZ=    -4.3628   YZ=    -8.0760   ZZ=   118.8551
   Eigenvalues:   117.5723   146.6521   160.3220
     11  C    Isotropic =    61.3509   Anisotropy =   127.0783
   XX=    13.2585   YX=    26.8209   ZX=     6.9488
   XY=    -0.9212   YY=    52.4023   ZY=   -43.2515
   XZ=    -4.1939   YZ=   -58.1358   ZZ=   118.3920
   Eigenvalues:     5.5828    32.4002   146.0698
     12  C    Isotropic =   153.6911   Anisotropy =    45.2604
   XX=   159.4596   YX=   -25.4228   ZX=     1.9684
   XY=   -22.2271   YY=   160.4950   ZY=     4.7698
   XZ=     9.4735   YZ=    10.6925   ZZ=   141.1188
   Eigenvalues:   128.8009   148.4078   183.8647
     13  C    Isotropic =    68.8359   Anisotropy =   133.6881
   XX=    43.7345   YX=    -6.4075   ZX=    -9.3171
   XY=     0.6202   YY=    36.3768   ZY=   -61.2344
   XZ=    14.5228   YZ=   -62.3798   ZZ=   126.3965
   Eigenvalues:     4.8770    43.6695   157.9613
     14  C    Isotropic =    55.7448   Anisotropy =   112.0281
   XX=     0.5204   YX=   -26.8478   ZX=   -20.4033
   XY=   -20.3646   YY=    57.0953   ZY=   -37.2206
   XZ=   -20.4142   YZ=   -39.9263   ZZ=   109.6187
   Eigenvalues:   -17.0271    53.8313   130.4302
     15  C    Isotropic =    85.6713   Anisotropy =   121.8818
   XX=    29.9837   YX=    30.9591   ZX=     8.1869
   XY=    26.1225   YY=    79.6224   ZY=   -40.3342
   XZ=     0.2472   YZ=   -40.8549   ZZ=   147.4078
   Eigenvalues:    13.3724    76.7156   166.9258
     16  C    Isotropic =    81.6811   Anisotropy =   122.7402
   XX=    75.3335   YX=     0.2999   ZX=    -4.3379
   XY=    -5.8349   YY=    33.8133   ZY=   -61.1015
   XZ=    -0.3677   YZ=   -58.5536   ZZ=   135.8966
   Eigenvalues:     6.0361    75.4993   163.5079
     17  C    Isotropic =    49.5802   Anisotropy =   122.1968
   XX=    -5.5331   YX=   -29.4216   ZX=   -15.4313
   XY=   -13.4417   YY=    38.5533   ZY=   -39.3209
   XZ=    -9.3846   YZ=   -35.7171   ZZ=   115.7203
   Eigenvalues:   -19.6195    37.3153   131.0447
     18  O    Isotropic =   227.1970   Anisotropy =    79.0663
   XX=   215.5471   YX=    22.1759   ZX=     0.0424
   XY=    13.3249   YY=   195.7881   ZY=   -26.7328
   XZ=    28.8102   YZ=   -26.3246   ZZ=   270.2557
   Eigenvalues:   175.7161   225.9669   279.9078
     19  O    Isotropic =   239.6285   Anisotropy =    45.3057
   XX=   257.5622   YX=    27.3339   ZX=    13.9683
   XY=    22.5646   YY=   218.3422   ZY=   -15.1334
   XZ=    -6.4708   YZ=    -8.9508   ZZ=   242.9811
   Eigenvalues:   202.3837   246.6696   269.8323
     20  O    Isotropic =   244.8122   Anisotropy =    80.6039
   XX=   249.0782   YX=    29.7082   ZX=    -8.5435
   XY=    28.0040   YY=   279.0852   ZY=    29.4402
   XZ=   -14.4373   YZ=    14.6725   ZZ=   206.2731
   Eigenvalues:   192.9526   242.9358   298.5481
     21  C    Isotropic =   164.7891   Anisotropy =    37.7709
   XX=   183.5456   YX=   -16.1787   ZX=     9.8314
   XY=    -6.8303   YY=   159.2699   ZY=     6.8948
   XZ=    11.9703   YZ=     3.7836   ZZ=   151.5519
   Eigenvalues:   143.0945   161.3032   189.9697
     22  C    Isotropic =   172.5261   Anisotropy =    14.0710
   XX=   177.7284   YX=    -5.5404   ZX=     0.4900
   XY=    -3.9076   YY=   172.5000   ZY=     8.0415
   XZ=    -0.7007   YZ=     7.1054   ZZ=   167.3498
   Eigenvalues:   161.4626   174.2088   181.9067
     23  C    Isotropic =   177.2479   Anisotropy =    28.8816
   XX=   175.7610   YX=    12.2421   ZX=     2.2033
   XY=    15.9325   YY=   186.8807   ZY=    -0.0795
   XZ=     0.3493   YZ=    -4.0750   ZZ=   169.1020
   Eigenvalues:   164.9700   170.2714   196.5023
     24  C    Isotropic =   172.3812   Anisotropy =    18.5636
   XX=   176.8114   YX=    -4.9629   ZX=     4.0193
   XY=    -8.5684   YY=   174.0829   ZY=    10.2615
   XZ=     3.7284   YZ=    14.4077   ZZ=   166.2493
   Eigenvalues:   154.8746   177.5121   184.7569
     25  H    Isotropic =    30.3067   Anisotropy =    12.8530
   XX=    27.2132   YX=     1.5583   ZX=    -0.2686
   XY=     2.1110   YY=    28.5431   ZY=    -6.2997
   XZ=    -1.0265   YZ=    -5.6484   ZZ=    35.1637
   Eigenvalues:    24.4276    27.6171    38.8753
     26  H    Isotropic =    29.5704   Anisotropy =     6.7630
   XX=    28.5862   YX=    -2.9835   ZX=    -2.1539
   XY=    -1.9311   YY=    32.3276   ZY=     0.5520
   XZ=    -3.9487   YZ=     0.1767   ZZ=    27.7975
   Eigenvalues:    24.8477    29.7845    34.0791
     27  H    Isotropic =    29.5390   Anisotropy =     7.2216
   XX=    31.1018   YX=    -1.4673   ZX=    -3.0024
   XY=    -0.6297   YY=    26.3672   ZY=    -0.3724
   XZ=    -3.3613   YZ=    -0.0041   ZZ=    31.1481
   Eigenvalues:    25.9398    28.3239    34.3534
     28  H    Isotropic =    30.1582   Anisotropy =     8.6309
   XX=    31.5431   YX=     4.1822   ZX=     0.6027
   XY=     4.2540   YY=    31.4900   ZY=    -1.8862
   XZ=    -0.0815   YZ=    -2.0563   ZZ=    27.4416
   Eigenvalues:    25.7156    28.8469    35.9121
     29  H    Isotropic =    30.2615   Anisotropy =     6.4819
   XX=    32.1362   YX=     1.2906   ZX=     3.3997
   XY=     2.7276   YY=    26.5759   ZY=    -3.5420
   XZ=     1.5442   YZ=    -1.0868   ZZ=    32.0725
   Eigenvalues:    24.6822    31.5196    34.5828
     30  H    Isotropic =    29.6959   Anisotropy =     6.3270
   XX=    27.5351   YX=     0.1635   ZX=    -2.0163
   XY=     0.4851   YY=    29.6484   ZY=     1.5567
   XZ=    -2.7251   YZ=     3.0641   ZZ=    31.9041
   Eigenvalues:    26.0078    29.1660    33.9139
     31  H    Isotropic =    29.7309   Anisotropy =     5.3077
   XX=    27.0812   YX=     0.2158   ZX=    -1.9694
   XY=    -1.4586   YY=    31.1989   ZY=     1.9115
   XZ=    -0.1836   YZ=     2.0468   ZZ=    30.9125
   Eigenvalues:    26.7965    29.1268    33.2693
     32  H    Isotropic =    30.0948   Anisotropy =     9.3662
   XX=    32.3087   YX=     2.5937   ZX=     4.3452
   XY=     1.9992   YY=    26.9229   ZY=    -2.1509
   XZ=     4.8749   YZ=    -2.4586   ZZ=    31.0529
   Eigenvalues:    23.7268    30.2188    36.3390
     33  H    Isotropic =    30.2791   Anisotropy =    10.7268
   XX=    27.2041   YX=     2.3164   ZX=     0.3336
   XY=     2.4405   YY=    27.8052   ZY=    -3.7993
   XZ=     0.7358   YZ=    -4.0079   ZZ=    35.8279
   Eigenvalues:    24.2522    29.1548    37.4302
     34  H    Isotropic =    30.0579   Anisotropy =     6.4471
   XX=    30.4596   YX=    -1.5171   ZX=     0.1459
   XY=    -1.7564   YY=    32.8897   ZY=    -1.5409
   XZ=     0.2324   YZ=    -3.1406   ZZ=    26.8243
   Eigenvalues:    25.9965    29.8212    34.3559
     35  H    Isotropic =    29.9087   Anisotropy =     4.9178
   XX=    29.4953   YX=    -2.4412   ZX=    -2.4792
   XY=    -1.9918   YY=    31.6447   ZY=    -0.5326
   XZ=    -1.0098   YZ=    -3.3507   ZZ=    28.5861
   Eigenvalues:    25.7932    30.7457    33.1872
     36  H    Isotropic =    29.2175   Anisotropy =     7.1517
   XX=    30.0907   YX=    -0.9466   ZX=     2.8077
   XY=    -1.0250   YY=    25.6458   ZY=    -0.2630
   XZ=     2.8451   YZ=     2.4608   ZZ=    31.9160
   Eigenvalues:    24.9575    28.7096    33.9853
     37  H    Isotropic =    28.8456   Anisotropy =     7.6669
   XX=    33.7538   YX=     0.6715   ZX=     0.7269
   XY=     1.0589   YY=    29.8000   ZY=    -0.3997
   XZ=     0.6432   YZ=    -1.3922   ZZ=    22.9832
   Eigenvalues:    22.8099    29.7701    33.9569
     38  H    Isotropic =    25.1574   Anisotropy =     3.6720
   XX=    26.7511   YX=    -0.0089   ZX=     0.3387
   XY=    -0.3840   YY=    26.5090   ZY=     2.4060
   XZ=     0.0311   YZ=     2.4235   ZZ=    22.2121
   Eigenvalues:    21.1174    26.7494    27.6054
     39  H    Isotropic =    24.9583   Anisotropy =     6.0776
   XX=    28.5036   YX=    -1.4151   ZX=    -0.4461
   XY=    -0.9208   YY=    24.8660   ZY=     1.9200
   XZ=    -0.4993   YZ=     2.3003   ZZ=    21.5052
   Eigenvalues:    20.4873    25.3776    29.0100
     40  H    Isotropic =    20.7820   Anisotropy =    33.7185
   XX=    36.0737   YX=   -12.9071   ZX=     2.4947
   XY=   -13.0332   YY=    19.5272   ZY=     2.6546
   XZ=     3.6078   YZ=     1.5612   ZZ=     6.7450
   Eigenvalues:     5.1581    13.9268    43.2610
     41  H    Isotropic =    27.9915   Anisotropy =    17.0247
   XX=    36.8815   YX=    -5.7772   ZX=    -1.7746
   XY=    -4.2194   YY=    26.5356   ZY=     3.3686
   XZ=    -1.5737   YZ=     3.5020   ZZ=    20.5573
   Eigenvalues:    18.9726    25.6605    39.3413
     42  H    Isotropic =    30.8956   Anisotropy =    17.5887
   XX=    31.4716   YX=     7.0468   ZX=     0.0953
   XY=     8.2963   YY=    36.2772   ZY=     3.5622
   XZ=     0.5301   YZ=     4.6879   ZZ=    24.9380
   Eigenvalues:    22.7436    27.3217    42.6214
     43  H    Isotropic =    30.9982   Anisotropy =     9.4770
   XX=    35.2083   YX=     3.9214   ZX=     1.4065
   XY=     2.9916   YY=    30.5114   ZY=     0.1660
   XZ=     1.7380   YZ=     1.0293   ZZ=    27.2750
   Eigenvalues:    26.9730    28.7055    37.3162
     44  H    Isotropic =    30.4025   Anisotropy =     8.6778
   XX=    34.5639   YX=    -2.2166   ZX=    -2.6747
   XY=    -1.6731   YY=    29.6124   ZY=     3.0036
   XZ=    -1.4946   YZ=     2.4938   ZZ=    27.0312
   Eigenvalues:    25.2218    29.7980    36.1877
     45  H    Isotropic =    30.0033   Anisotropy =     8.6606
   XX=    32.2752   YX=    -0.5071   ZX=     4.7445
   XY=     0.1289   YY=    27.3911   ZY=    -2.8560
   XZ=     2.9574   YZ=    -3.0648   ZZ=    30.3437
   Eigenvalues:    24.9536    29.2794    35.7771
     46  H    Isotropic =    30.5543   Anisotropy =     6.8066
   XX=    30.6389   YX=    -0.8330   ZX=    -3.6354
   XY=    -1.0503   YY=    29.1335   ZY=     1.9142
   XZ=    -2.9457   YZ=     0.9059   ZZ=    31.8904
   Eigenvalues:    27.8789    28.6920    35.0920
     47  H    Isotropic =    29.6114   Anisotropy =    10.0312
   XX=    32.6845   YX=     2.7532   ZX=     1.1962
   XY=     3.8423   YY=    32.1058   ZY=     2.4697
   XZ=     1.2563   YZ=     2.7818   ZZ=    24.0440
   Eigenvalues:    23.2573    29.2780    36.2989
     48  H    Isotropic =    30.9197   Anisotropy =     8.8483
   XX=    35.0804   YX=    -2.3977   ZX=     2.6200
   XY=    -2.4865   YY=    31.6091   ZY=    -0.5050
   XZ=     2.1420   YZ=    -0.1028   ZZ=    26.0697
   Eigenvalues:    25.4638    30.4768    36.8186
     49  H    Isotropic =    30.8590   Anisotropy =     8.7004
   XX=    28.0802   YX=    -0.0399   ZX=    -1.4055
   XY=    -1.2444   YY=    36.5924   ZY=     0.6731
   XZ=    -1.5632   YZ=    -0.0949   ZZ=    27.9044
   Eigenvalues:    26.5001    29.4177    36.6593
     50  H    Isotropic =    30.5006   Anisotropy =    10.1368
   XX=    34.9294   YX=     3.4344   ZX=     2.3997
   XY=     4.5758   YY=    30.0205   ZY=    -1.1620
   XZ=     1.8836   YZ=    -2.7034   ZZ=    26.5518
   Eigenvalues:    24.3234    29.9199    37.2584
     51  H    Isotropic =    31.0088   Anisotropy =    11.7524
   XX=    28.6550   YX=     3.3318   ZX=    -3.1864
   XY=     2.8514   YY=    30.3300   ZY=    -4.5163
   XZ=    -2.9227   YZ=    -4.4824   ZZ=    34.0415
   Eigenvalues:    26.2598    27.9229    38.8438
     52  H    Isotropic =    30.7590   Anisotropy =    10.7975
   XX=    31.4799   YX=     3.3862   ZX=     2.1708
   XY=     3.0430   YY=    31.8342   ZY=     4.6210
   XZ=     3.0041   YZ=     4.8184   ZZ=    28.9628
   Eigenvalues:    25.4590    28.8606    37.9573
     53  H    Isotropic =    30.3662   Anisotropy =     7.8180
   XX=    30.0824   YX=    -2.9751   ZX=     0.8964
   XY=    -3.0505   YY=    33.7851   ZY=     0.8436
   XZ=     0.0028   YZ=     1.8183   ZZ=    27.2311
   Eigenvalues:    26.5454    28.9750    35.5783
     54  H    Isotropic =    30.1524   Anisotropy =     6.6166
   XX=    27.8547   YX=     2.0703   ZX=    -2.4289
   XY=     1.3845   YY=    29.4345   ZY=     2.4408
   XZ=    -2.5038   YZ=     1.8555   ZZ=    33.1679
   Eigenvalues:    25.3910    30.5027    34.5634
 End of Minotr F.D. properties file   721 does not exist.
 End of Minotr F.D. properties file   722 does not exist.
 End of Minotr F.D. properties file   788 does not exist.

 **********************************************************************

            Population analysis using the SCF density.

 **********************************************************************

 Orbital symmetries:
       Occupied  (A) (A) (A) (A) (A) (A) (A) (A) (A) (A) (A) (A)
                 (A) (A) (A) (A) (A) (A) (A) (A) (A) (A) (A) (A)
                 (A) (A) (A) (A) (A) (A) (A) (A) (A) (A) (A) (A)
                 (A) (A) (A) (A) (A) (A) (A) (A) (A) (A) (A) (A)
                 (A) (A) (A) (A) (A) (A) (A) (A) (A) (A) (A) (A)
                 (A) (A) (A) (A) (A) (A) (A) (A) (A) (A) (A) (A)
                 (A) (A) (A) (A) (A) (A) (A) (A) (A) (A) (A) (A)
                 (A) (A) (A) (A) (A) (A)
       Virtual   (A) (A) (A) (A) (A) (A) (A) (A) (A) (A) (A) (A)
                 (A) (A) (A) (A) (A) (A) (A) (A) (A) (A) (A) (A)
                 (A) (A) (A) (A) (A) (A) (A) (A) (A) (A) (A) (A)
                 (A) (A) (A) (A) (A) (A) (A) (A) (A) (A) (A) (A)
                 (A) (A) (A) (A) (A) (A) (A) (A) (A) (A) (A) (A)
                 (A) (A) (A) (A) (A) (A) (A) (A) (A) (A) (A) (A)
                 (A) (A) (A) (A) (A) (A) (A) (A) (A) (A) (A) (A)
                 (A) (A) (A) (A) (A) (A) (A) (A) (A) (A) (A) (A)
                 (A) (A) (A) (A) (A) (A) (A) (A) (A) (A) (A) (A)
                 (A) (A) (A) (A) (A) (A) (A) (A) (A) (A) (A) (A)
                 (A) (A) (A) (A) (A) (A) (A) (A) (A) (A) (A) (A)
                 (A) (A) (A) (A) (A) (A) (A) (A) (A) (A) (A) (A)
                 (A) (A) (A) (A) (A) (A) (A) (A) (A) (A) (A) (A)
                 (A) (A) (A) (A) (A) (A) (A) (A) (A) (A) (A) (A)
                 (A) (A) (A) (A) (A) (A) (A) (A) (A) (A) (A) (A)
                 (A) (A) (A) (A) (A) (A) (A) (A) (A) (A) (A) (A)
                 (A) (A) (A) (A) (A) (A) (A) (A) (A) (A) (A) (A)
                 (A) (A) (A) (A) (A) (A) (A) (A) (A) (A) (A) (A)
                 (A) (A) (A) (A) (A) (A) (A) (A) (A) (A) (A) (A)
                 (A) (A) (A) (A) (A) (A) (A) (A) (A) (A) (A) (A)
                 (A) (A) (A) (A) (A) (A) (A) (A) (A) (A) (A) (A)
                 (A) (A) (A) (A) (A) (A) (A) (A) (A) (A) (A) (A)
                 (A) (A) (A) (A) (A) (A) (A) (A) (A) (A) (A) (A)
                 (A) (A) (A) (A) (A) (A) (A) (A) (A) (A) (A) (A)
                 (A) (A) (A) (A) (A) (A) (A) (A) (A) (A) (A) (A)
                 (A) (A) (A) (A) (A) (A) (A) (A) (A) (A) (A) (A)
                 (A) (A) (A) (A) (A) (A) (A) (A) (A) (A) (A) (A)
                 (A) (A) (A) (A) (A) (A) (A) (A) (A) (A) (A) (A)
                 (A) (A) (A) (A) (A) (A) (A) (A) (A) (A) (A) (A)
                 (A) (A) (A) (A) (A) (A) (A) (A) (A) (A) (A) (A)
                 (A) (A) (A) (A) (A) (A) (A) (A) (A) (A) (A) (A)
                 (A) (A) (A) (A) (A) (A) (A) (A) (A) (A) (A) (A)
                 (A) (A) (A) (A) (A) (A) (A) (A) (A) (A) (A) (A)
                 (A) (A) (A) (A) (A) (A) (A) (A) (A) (A) (A) (A)
                 (A) (A) (A) (A) (A) (A) (A) (A) (A) (A) (A) (A)
 The electronic state is 1-A.
 Alpha  occ. eigenvalues --  -19.26270 -19.25863 -19.22705 -10.31683 -10.29440
 Alpha  occ. eigenvalues --  -10.29137 -10.27696 -10.26982 -10.26085 -10.25269
 Alpha  occ. eigenvalues --  -10.24476 -10.24196 -10.24124 -10.23917 -10.23902
 Alpha  occ. eigenvalues --  -10.23732 -10.23661 -10.23352 -10.23299 -10.23248
 Alpha  occ. eigenvalues --  -10.23243 -10.23031 -10.22754 -10.22694  -1.07522
 Alpha  occ. eigenvalues --   -1.07217  -1.04855  -0.89431  -0.85641  -0.83571
 Alpha  occ. eigenvalues --   -0.81480  -0.78330  -0.77747  -0.75671  -0.74364
 Alpha  occ. eigenvalues --   -0.71828  -0.70892  -0.69054  -0.68561  -0.66840
 Alpha  occ. eigenvalues --   -0.63696  -0.62172  -0.61381  -0.58685  -0.57507
 Alpha  occ. eigenvalues --   -0.56232  -0.54966  -0.53790  -0.51479  -0.50310
 Alpha  occ. eigenvalues --   -0.49926  -0.48288  -0.47565  -0.46896  -0.45846
 Alpha  occ. eigenvalues --   -0.45452  -0.44650  -0.43928  -0.43230  -0.42499
 Alpha  occ. eigenvalues --   -0.42215  -0.41733  -0.41089  -0.40784  -0.40312
 Alpha  occ. eigenvalues --   -0.39987  -0.39535  -0.38980  -0.38453  -0.38232
 Alpha  occ. eigenvalues --   -0.37820  -0.37278  -0.36915  -0.36251  -0.36041
 Alpha  occ. eigenvalues --   -0.35529  -0.34570  -0.34068  -0.33756  -0.33445
 Alpha  occ. eigenvalues --   -0.32783  -0.32477  -0.31460  -0.31045  -0.30126
 Alpha  occ. eigenvalues --   -0.29581  -0.28098  -0.27899  -0.23657  -0.19632
 Alpha virt. eigenvalues --    0.00930   0.03967   0.07163   0.09391   0.10056
 Alpha virt. eigenvalues --    0.10640   0.11279   0.12212   0.12605   0.13047
 Alpha virt. eigenvalues --    0.13252   0.13622   0.14971   0.15072   0.15376
 Alpha virt. eigenvalues --    0.16147   0.16608   0.17287   0.17903   0.18387
 Alpha virt. eigenvalues --    0.18733   0.18991   0.19162   0.20026   0.20133
 Alpha virt. eigenvalues --    0.20545   0.20703   0.21461   0.21648   0.22443
 Alpha virt. eigenvalues --    0.22520   0.22704   0.23348   0.24315   0.24633
 Alpha virt. eigenvalues --    0.24805   0.25446   0.25976   0.26227   0.26885
 Alpha virt. eigenvalues --    0.27584   0.27917   0.28573   0.28839   0.29985
 Alpha virt. eigenvalues --    0.30557   0.30645   0.31257   0.31776   0.32374
 Alpha virt. eigenvalues --    0.32608   0.33122   0.34712   0.36608   0.37781
 Alpha virt. eigenvalues --    0.39426   0.41844   0.43136   0.50523   0.51422
 Alpha virt. eigenvalues --    0.51792   0.52624   0.52997   0.53678   0.54457
 Alpha virt. eigenvalues --    0.54768   0.55946   0.56342   0.57055   0.57721
 Alpha virt. eigenvalues --    0.58217   0.58737   0.59688   0.60026   0.61375
 Alpha virt. eigenvalues --    0.61973   0.62308   0.63228   0.63575   0.64418
 Alpha virt. eigenvalues --    0.65488   0.65800   0.66274   0.66559   0.67248
 Alpha virt. eigenvalues --    0.67794   0.68485   0.69049   0.70143   0.71242
 Alpha virt. eigenvalues --    0.72096   0.72915   0.73851   0.74458   0.75424
 Alpha virt. eigenvalues --    0.75595   0.76955   0.77252   0.78849   0.79085
 Alpha virt. eigenvalues --    0.80538   0.80708   0.81824   0.82030   0.83687
 Alpha virt. eigenvalues --    0.83733   0.84605   0.85587   0.86297   0.86787
 Alpha virt. eigenvalues --    0.87040   0.87391   0.87752   0.88574   0.88981
 Alpha virt. eigenvalues --    0.89191   0.89491   0.90106   0.90837   0.91209
 Alpha virt. eigenvalues --    0.91346   0.91967   0.92169   0.92958   0.93530
 Alpha virt. eigenvalues --    0.93869   0.94877   0.95178   0.95553   0.95730
 Alpha virt. eigenvalues --    0.96540   0.96704   0.97547   0.98335   0.98699
 Alpha virt. eigenvalues --    0.99606   1.00488   1.01581   1.02166   1.02276
 Alpha virt. eigenvalues --    1.03074   1.03415   1.04795   1.05242   1.05513
 Alpha virt. eigenvalues --    1.07329   1.07912   1.08127   1.09244   1.11055
 Alpha virt. eigenvalues --    1.12188   1.14662   1.15196   1.17091   1.17650
 Alpha virt. eigenvalues --    1.18328   1.19320   1.19901   1.21568   1.22087
 Alpha virt. eigenvalues --    1.24628   1.26047   1.26830   1.27743   1.28674
 Alpha virt. eigenvalues --    1.29954   1.31491   1.33820   1.35401   1.36152
 Alpha virt. eigenvalues --    1.37045   1.37669   1.37806   1.40455   1.41592
 Alpha virt. eigenvalues --    1.42529   1.43056   1.44386   1.45468   1.46272
 Alpha virt. eigenvalues --    1.46372   1.50837   1.52780   1.53360   1.55344
 Alpha virt. eigenvalues --    1.56294   1.57536   1.58950   1.60798   1.61560
 Alpha virt. eigenvalues --    1.62197   1.64428   1.64876   1.65624   1.67152
 Alpha virt. eigenvalues --    1.68841   1.69385   1.69682   1.71159   1.71748
 Alpha virt. eigenvalues --    1.73460   1.74342   1.74621   1.76019   1.77957
 Alpha virt. eigenvalues --    1.78850   1.79247   1.80345   1.81443   1.81715
 Alpha virt. eigenvalues --    1.82632   1.83633   1.83764   1.85451   1.86811
 Alpha virt. eigenvalues --    1.86848   1.87734   1.88585   1.89105   1.89626
 Alpha virt. eigenvalues --    1.90177   1.91796   1.91920   1.92503   1.93241
 Alpha virt. eigenvalues --    1.94030   1.94270   1.94602   1.95823   1.96890
 Alpha virt. eigenvalues --    1.97157   1.97806   1.98095   1.99022   1.99674
 Alpha virt. eigenvalues --    2.00336   2.00936   2.01435   2.04440   2.04810
 Alpha virt. eigenvalues --    2.05792   2.06484   2.07162   2.08209   2.08870
 Alpha virt. eigenvalues --    2.09685   2.10358   2.11043   2.11975   2.12615
 Alpha virt. eigenvalues --    2.13363   2.13929   2.14560   2.15681   2.16190
 Alpha virt. eigenvalues --    2.16876   2.17321   2.17505   2.18507   2.19007
 Alpha virt. eigenvalues --    2.19019   2.19945   2.20160   2.22175   2.23205
 Alpha virt. eigenvalues --    2.23790   2.24444   2.25624   2.26513   2.27093
 Alpha virt. eigenvalues --    2.27269   2.28524   2.28795   2.30890   2.31421
 Alpha virt. eigenvalues --    2.32803   2.33351   2.34430   2.34940   2.35611
 Alpha virt. eigenvalues --    2.37204   2.38280   2.39003   2.40048   2.40767
 Alpha virt. eigenvalues --    2.40958   2.41956   2.43248   2.43811   2.44236
 Alpha virt. eigenvalues --    2.45077   2.45904   2.46182   2.46722   2.49394
 Alpha virt. eigenvalues --    2.50425   2.51408   2.51987   2.53074   2.54300
 Alpha virt. eigenvalues --    2.54762   2.55575   2.56269   2.57492   2.58397
 Alpha virt. eigenvalues --    2.59143   2.60083   2.60885   2.62653   2.63008
 Alpha virt. eigenvalues --    2.63387   2.63854   2.64358   2.65951   2.67457
 Alpha virt. eigenvalues --    2.68736   2.69203   2.70682   2.71356   2.71651
 Alpha virt. eigenvalues --    2.72834   2.73765   2.73922   2.74413   2.75286
 Alpha virt. eigenvalues --    2.76431   2.77072   2.77385   2.78410   2.79430
 Alpha virt. eigenvalues --    2.80143   2.80764   2.81913   2.82734   2.83360
 Alpha virt. eigenvalues --    2.84220   2.84721   2.85551   2.86572   2.86766
 Alpha virt. eigenvalues --    2.88223   2.88551   2.90533   2.91007   2.91736
 Alpha virt. eigenvalues --    2.92823   2.93334   2.93853   2.94391   2.95060
 Alpha virt. eigenvalues --    2.96388   2.96684   2.98534   2.98859   2.99653
 Alpha virt. eigenvalues --    3.01871   3.05224   3.06489   3.07954   3.10138
 Alpha virt. eigenvalues --    3.11241   3.14607   3.16474   3.23047   3.24565
 Alpha virt. eigenvalues --    3.24805   3.27581   3.29159   3.29734   3.31803
 Alpha virt. eigenvalues --    3.32078   3.33780   3.36590   3.37438   3.38030
 Alpha virt. eigenvalues --    3.39308   3.41869   3.42020   3.43625   3.48090
 Alpha virt. eigenvalues --    3.49077   3.49352   3.49435   3.50615   3.51208
 Alpha virt. eigenvalues --    3.52027   3.52423   3.53283   3.53926   3.54451
 Alpha virt. eigenvalues --    3.56443   3.58158   3.60867   3.62051   3.70194
 Alpha virt. eigenvalues --    3.80840   4.13198   4.16810   4.23969   4.26887
 Alpha virt. eigenvalues --    4.28552   4.36601   4.39575   4.45601   4.49165
 Alpha virt. eigenvalues --    4.53718   4.55887   4.59558   4.61257   4.62833
 Alpha virt. eigenvalues --    4.64459   4.68771   4.71696   4.76350   4.82864
 Alpha virt. eigenvalues --    4.83801   4.89994   4.93352   4.96829   4.98580
          Condensed to atoms (all electrons):
 Mulliken charges:
               1
     1  C   -0.265374
     2  C   -0.240292
     3  C    0.226495
     4  C   -0.015861
     5  C   -0.028243
     6  C   -0.227872
     7  C   -0.223354
     8  C   -0.248297
     9  C   -0.092617
    10  C   -0.012338
    11  C    0.033169
    12  C   -0.275910
    13  C    0.023612
    14  C    0.267341
    15  C   -0.186106
    16  C   -0.168607
    17  C    0.234789
    18  O   -0.653491
    19  O   -0.610091
    20  O   -0.601830
    21  C   -0.396760
    22  C   -0.386858
    23  C   -0.397643
    24  C   -0.412820
    25  H    0.130027
    26  H    0.143632
    27  H    0.134606
    28  H    0.124758
    29  H    0.133401
    30  H    0.121799
    31  H    0.135920
    32  H    0.117672
    33  H    0.125007
    34  H    0.118614
    35  H    0.132150
    36  H    0.141644
    37  H    0.143035
    38  H    0.132937
    39  H    0.132232
    40  H    0.387302
    41  H    0.345074
    42  H    0.348213
    43  H    0.126680
    44  H    0.144193
    45  H    0.148697
    46  H    0.130229
    47  H    0.128261
    48  H    0.138224
    49  H    0.127709
    50  H    0.129133
    51  H    0.130914
    52  H    0.134867
    53  H    0.135812
    54  H    0.136216
 Sum of Mulliken charges =  -0.00000
 Mulliken charges with hydrogens summed into heavy atoms:
               1
     1  C    0.008284
     2  C    0.019072
     3  C    0.226495
     4  C   -0.015861
     5  C   -0.028243
     6  C    0.027328
     7  C    0.030238
     8  C   -0.004676
     9  C    0.039533
    10  C   -0.012338
    11  C    0.033169
    12  C    0.008769
    13  C    0.023612
    14  C    0.267341
    15  C   -0.053169
    16  C   -0.036375
    17  C    0.234789
    18  O   -0.266189
    19  O   -0.265017
    20  O   -0.253617
    21  C    0.022810
    22  C    0.009855
    23  C   -0.009887
    24  C   -0.005924
 Electronic spatial extent (au):  <R**2>=           6599.0561
 Charge=             -0.0000 electrons
 Dipole moment (field-independent basis, Debye):
    X=             -3.0283    Y=              0.8166    Z=              0.9656  Tot=              3.2817
 Quadrupole moment (field-independent basis, Debye-Ang):
   XX=           -120.9098   YY=           -145.6738   ZZ=           -146.0093
   XY=              0.1729   XZ=             -2.5875   YZ=             -0.6760
 Traceless Quadrupole moment (field-independent basis, Debye-Ang):
   XX=             16.6212   YY=             -8.1429   ZZ=             -8.4783
   XY=              0.1729   XZ=             -2.5875   YZ=             -0.6760
 Octapole moment (field-independent basis, Debye-Ang**2):
  XXX=             37.7836  YYY=             -7.7092  ZZZ=              1.2955  XYY=             -9.2761
  XXY=            -70.3675  XXZ=            -17.2859  XZZ=             -7.5379  YZZ=             -0.3879
  YYZ=             -3.0637  XYZ=              0.6532
 Hexadecapole moment (field-independent basis, Debye-Ang**3):
 XXXX=          -3688.6657 YYYY=          -3051.3207 ZZZZ=          -1263.1261 XXXY=           -118.2164
 XXXZ=            -11.5884 YYYX=             47.0013 YYYZ=             34.6384 ZZZX=             16.1635
 ZZZY=             -1.6651 XXYY=          -1099.6382 XXZZ=           -965.0827 YYZZ=           -718.4232
 XXYZ=             39.1408 YYXZ=              9.9818 ZZXY=             17.5521
 N-N= 2.401930191502D+03 E-N=-7.230174791056D+03  KE= 1.033865393681D+03
 1\1\GINC-LOCALHOST\SP\RmPW1PW91\6-31G(d,p)\C21H30O3\DINGLAB\09-Aug-202
 6\0\\# mPW1PW91/6-31G** nmr scrf(solvent=chloroform,pcm) g09default sc
 f=noincore\\Template file\\0,1\C,0,-1.352609,-1.594581,1.931411\C,0,-2
 .726436,-1.372157,1.289386\C,0,-2.723536,-0.693432,-0.102933\C,0,-1.66
 3556,0.484218,-0.195336\C,0,-0.243256,0.227893,0.537541\C,0,-0.538957,
 -0.292486,1.971712\C,0,-1.371473,0.877512,-1.660871\C,0,-0.561651,2.17
 9049,-1.738532\C,0,0.756019,2.13374,-0.942564\C,0,0.632525,1.599938,0.
 536432\C,0,0.874162,-0.778233,-0.031022\C,0,2.030339,1.094776,0.947342
 \C,0,2.136898,-0.242667,0.304152\C,0,3.348791,-0.885449,0.077609\C,0,3
 .344972,-2.143126,-0.520862\C,0,2.125489,-2.713413,-0.848037\C,0,0.894
 498,-2.078263,-0.599208\O,0,-0.170057,-2.859563,-0.917131\O,0,4.500509
 ,-0.231903,0.466369\O,0,-2.396619,-1.645714,-1.148184\C,0,-4.175019,-0
 .27737,-0.434202\C,0,-2.405155,1.6747,0.482495\C,0,1.465836,3.494753,-
 1.054041\C,0,0.27582,2.724665,1.543815\H,0,-1.497754,-1.971844,2.95172
 1\H,0,-0.801917,-2.367914,1.388252\H,0,-3.330144,-0.750455,1.96283\H,0
 ,-3.270248,-2.324937,1.203649\H,0,0.398165,-0.463645,2.511423\H,0,-1.0
 99267,0.453845,2.549026\H,0,-0.818989,0.070682,-2.154013\H,0,-2.307837
 ,0.997481,-2.220041\H,0,-0.317314,2.385611,-2.789304\H,0,-1.177191,3.0
 27486,-1.411031\H,0,1.38962,1.402733,-1.460407\H,0,2.109526,1.014203,2
 .04183\H,0,2.828156,1.777604,0.638538\H,0,4.275379,-2.67056,-0.725496\
 H,0,2.077705,-3.696295,-1.30603\H,0,-0.9908,-2.320626,-1.002595\H,0,5.
 258907,-0.783721,0.222064\H,0,-3.031687,-2.379047,-1.092989\H,0,-4.788
 505,-1.186735,-0.493169\H,0,-4.628698,0.360007,0.326332\H,0,-4.238363,
 0.224497,-1.403797\H,0,-2.790286,1.424997,1.475152\H,0,-1.78761,2.5528
 87,0.592062\H,0,-3.254462,1.977044,-0.135227\H,0,0.856003,4.309962,-0.
 646905\H,0,2.431759,3.510513,-0.538811\H,0,1.656108,3.728239,-2.108447
 \H,0,1.197309,3.238021,1.841143\H,0,-0.383141,3.501919,1.150243\H,0,-0
 .177292,2.335082,2.459846\\Version=ES64L-G16RevA.03\State=1-A\HF=-1043
 .7846936\RMSD=5.932e-09\Dipole=-1.1914201,0.3212856,0.3799141\Quadrupo
 le=12.3574583,-6.0540311,-6.3034272,0.1285234,-1.9237273,-0.5026164\PG
 =C01 [X(C21H30O3)]\\@


 YE HAVE SOWN MUCH, AND BRING IN LITTLE.
 YE EAT, BUT YE HAVE NOT ENOUGH.
 YE DRINK, BUT YE ARE NOT FILLED WITH DRINK.
 YE CLOTHE YOU, BUT THERE IS NONE WARM.
 AND HE THAT EARNETH WAGES EARNETH WAGES TO PUT
 IT INTO A BAG WITH HOLES.
                                     HAGGAI I,6
 Job cpu time:       0 days  0 hours 38 minutes 33.0 seconds.
 Elapsed time:       0 days  0 hours  3 minutes 42.8 seconds.
 File lengths (MBytes):  RWF=    289 Int=      0 D2E=      0 Chk=     22 Scr=      1
 Normal termination of Gaussian 16 at Sun Aug  9 13:04:41 2026.
