      -----------------------------------------------------------      
     |                   =====================                   |     
     |                           x T B                           |     
     |                   =====================                   |     
     |                         S. Grimme                         |     
     |          Mulliken Center for Theoretical Chemistry        |     
     |                    University of Bonn                     |     
      -----------------------------------------------------------      

   * xtb version 6.7.1 (edcfbbe) compiled by 'albert@albert-system' on 2024-07-22

   xtb is free software: you can redistribute it and/or modify it under
   the terms of the GNU Lesser General Public License as published by
   the Free Software Foundation, either version 3 of the License, or
   (at your option) any later version.
   
   xtb is distributed in the hope that it will be useful,
   but WITHOUT ANY WARRANTY; without even the implied warranty of
   MERCHANTABILITY or FITNESS FOR A PARTICULAR PURPOSE.  See the
   GNU Lesser General Public License for more details.
   
   Cite this work as:
   * C. Bannwarth, E. Caldeweyher, S. Ehlert, A. Hansen, P. Pracht,
     J. Seibert, S. Spicher, S. Grimme, WIREs Comput. Mol. Sci., 2020, 11,
     e01493. DOI: 10.1002/wcms.1493
   
   for GFN2-xTB:
   * C. Bannwarth, S. Ehlert and S. Grimme., J. Chem. Theory Comput., 2019,
     15, 1652-1671. DOI: 10.1021/acs.jctc.8b01176
   for GFN1-xTB:
   * S. Grimme, C. Bannwarth, P. Shushkov, J. Chem. Theory Comput., 2017,
     13, 1989-2009. DOI: 10.1021/acs.jctc.7b00118
   for GFN0-xTB:
   * P. Pracht, E. Caldeweyher, S. Ehlert, S. Grimme, ChemRxiv, 2019, preprint.
     DOI: 10.26434/chemrxiv.8326202.v1
   for GFN-FF:
   * S. Spicher and S. Grimme, Angew. Chem. Int. Ed., 2020, 59, 15665-15673.
     DOI: 10.1002/anie.202004239
   
   for ALPB and GBSA implicit solvation:
   * S. Ehlert, M. Stahn, S. Spicher, S. Grimme, J. Chem. Theory Comput.,
     2021, 17, 4250-4261. DOI: 10.1021/acs.jctc.1c00471
   
   for ddCOSMO and CPCM-X implicit solvation:
   * M. Stahn, S. Ehlert, S. Grimme, J. Phys. Chem. A,
     2023, XX, XXXX-XXXX. DOI: 10.1021/acs.jpca.3c04382
   
   for DFT-D4:
   * E. Caldeweyher, C. Bannwarth and S. Grimme, J. Chem. Phys., 2017,
     147, 034112. DOI: 10.1063/1.4993215
   * E. Caldeweyher, S. Ehlert, A. Hansen, H. Neugebauer, S. Spicher,
     C. Bannwarth and S. Grimme, J. Chem. Phys., 2019, 150, 154122.
     DOI: 10.1063/1.5090222
   * E. Caldeweyher, J.-M. Mewes, S. Ehlert and S. Grimme, Phys. Chem. Chem. Phys.
     2020, 22, 8499-8512. DOI: 10.1039/D0CP00502A
   
   for sTDA-xTB:
   * S. Grimme and C. Bannwarth, J. Chem. Phys., 2016, 145, 054103.
     DOI: 10.1063/1.4959605
   
   in the mass-spec context:
   * V. Asgeirsson, C. Bauer and S. Grimme, Chem. Sci., 2017, 8, 4879.
     DOI: 10.1039/c7sc00601b
   * J. Koopman and S. Grimme, ACS Omega 2019, 4, 12, 15120-15133.
     DOI: 10.1021/acsomega.9b02011
   
   for metadynamics refer to:
   * S. Grimme, J. Chem. Theory Comput., 2019, 155, 2847-2862
     DOI: 10.1021/acs.jctc.9b00143
   
   for SPH calculations refer to:
   * S. Spicher and S. Grimme, J. Chem. Theory Comput., 2021, 17, 1701-1714
     DOI: 10.1021/acs.jctc.0c01306
   
   for ONIOM refer to:
   * C. Plett, A. Katbashev, S. Ehlert, S. Grimme, M. Bursch,
     Phys. Chem. Chem. Phys., 2023, 25, 17860-17868. DOI: 10.1039/D3CP02178E
   
   for DIPRO refer to:
   * J. Kohn, N. Gildemeister, S. Grimme, D. Fazzi, A. Hansen,
     J. Chem. Phys., 2023, just accepted.
   
   for PTB refer to:
   * S. Grimme, M. Mueller, A. Hansen, J. Chem. Phys., 2023, 158, 124111.
     DOI: 10.1063/5.0137838
   
   with help from (in alphabetical order)
   P. Atkinson, C. Bannwarth, F. Bohle, G. Brandenburg, E. Caldeweyher
   M. Checinski, S. Dohm, S. Ehlert, S. Ehrlich, I. Gerasimov, C. Hölzer
   A. Katbashev, J. Kohn, J. Koopman, C. Lavigne, S. Lehtola, F. März, M. Müller,
   F. Musil, H. Neugebauer, J. Pisarek, C. Plett, P. Pracht, F. Pultar,
   J. Seibert, P. Shushkov, S. Spicher, M. Stahn, M. Steiner, T. Strunk,
   J. Stückrath, T. Rose, and J. Unsleber
   
 * started run on 2026/08/09 at 16:39:59.118     
   ID    Z sym.   atoms
    1    6 c      1-8, 10-13, 16
    2    8 o      9, 15
    3    1 h      14, 17-35

           -------------------------------------------------
          |                Calculation Setup                |
           -------------------------------------------------

          program call               : /home/dinglab/software/xtb_6.7.1/xtb_dist/bin/xtb coord --opt normal --orca -I opt.inp
          hostname                   : localhost
          coordinate file            : coord
          omp threads                :                    12

           -------------------------------------------------
          |                   Orca driver                   |
           -------------------------------------------------
orca executable           : /home/dinglab/software/orca_6.1.1/orca
orca input file           : inp
orca input line           : 
orca parallel             : true
orca number of threads    : 12
                         * ORCA takes the control...
  ------------------------------------------------------------------------

                                 *****************
                                 * O   R   C   A *
                                 *****************

                                            #,                                       
                                            ###                                      
                                            ####                                     
                                            #####                                    
                                            ######                                   
                                           ########,                                 
                                     ,,################,,,,,                         
                               ,,#################################,,                 
                          ,,##########################################,,             
                       ,#########################################, ''#####,          
                    ,#############################################,,   '####,        
                  ,##################################################,,,,####,       
                ,###########''''           ''''###############################       
              ,#####''   ,,,,##########,,,,          '''####'''          '####       
            ,##' ,,,,###########################,,,                        '##       
           ' ,,###''''                  '''############,,,                           
         ,,##''                                '''############,,,,        ,,,,,,###''
      ,#''                                            '''#######################'''  
     '                                                          ''''####''''         
             ,#######,   #######,   ,#######,      ##                                
            ,#'     '#,  ##    ##  ,#'     '#,    #''#        ,####,    ,#,          
            ##       ##  ##   ,#'  ##            #'  '#       #'       ,# #          
            ##       ##  #######   ##           ,######,      #####,      #          
            '#,     ,#'  ##    ##  '#,     ,#' ,#      #,     #,   #      #          
             '#######'   ##     ##  '#######'  #'      '#     '####' #    #          



                #########################################################
                #                        -***-                          #
                #          Department of theory and spectroscopy        #
                #                                                       #
                #                      Frank Neese                      #
                #                                                       #
                #     Directorship, Architecture, Infrastructure        #
                #                    SHARK, DRIVERS                     #
                #        Core code/Algorithms in most modules           #
                #                                                       #
                #        Max Planck Institute fuer Kohlenforschung      #
                #                Kaiser Wilhelm Platz 1                 #
                #                 D-45470 Muelheim/Ruhr                 #
                #                      Germany                          #
                #                                                       #
                #                  All rights reserved                  #
                #                        -***-                          #
                #########################################################


                         Program Version 6.1.1  -  RELEASE   -
                                (GIT: $487d211c$)
                          ($2025-11-21 10:33:24 +0100$)


 With contributions from (in alphabetic order):
[Max-Planck-Institut fuer Kohlenforschung]                               
  Daniel Aravena         : Magnetic Suceptibility                        
  Michael Atanasov       : Ab Initio Ligand Field Theory (pilot matlab implementation)
  Alexander A. Auer      : GIAO ZORA, VPT2 properties, NMR spectrum      
  Ute Becker             : All parallelization in ORCA, NUMFREQ, NUMCALC 
  Giovanni Bistoni       : ED, misc. LED, open-shell LED, HFLD           
  Dmytro Bykov           : pre 5.0 version of the SCF Hessian            
  Marcos Casanova-Páez   : Triplet and SCS-CIS(D). UHF-(DLPNO)-IP/EA/STEOM-CCSD. UHF-CVS-IP/STEOM-CCSD   
  Vijay G. Chilkuri      : MRCI spin determinant printing, contributions to CSF-ICE 
  Pauline Colinet        : FMM embedding                                 
  Dipayan Datta          : RHF DLPNO-CCSD density                        
  Achintya Kumar Dutta   : EOM-CC, STEOM-CC                              
  Nicolas Foglia         : Exact transition moments, OPA infrastructure, MCD improvements    
  Dmitry Ganyushin       : Spin-Orbit,Spin-Spin,Magnetic field MRCI      
  Miquel Garcia-Rates    : C-PCM and meta-GGA Hessian, CCSD/C-PCM, Gaussian charge scheme 
  Tiago L. C. Gouveia    : GS-ROHF, GS-ROCIS                             
  Yang Guo               : DLPNO-NEVPT2, F12-NEVPT2, CIM, IAO-localization        
  Andreas Hansen         : Spin unrestricted coupled pair/coupled cluster methods 
  Ingolf Harden          : AUTO-CI MPn and infrastructure                
  Benjamin Helmich-Paris : MC-RPA, TRAH-(SCF,CASSCF), AVAS, COSX integrals, SCF dyn. polar., MC-PDFT, srDFT 
  Lee Huntington         : MR-EOM, pCC                                   
  Robert Izsak           : Overlap fitted RIJCOSX, COSX-SCS-MP3, EOM     
  Riya Kayal             : Wick's Theorem for AUTO-CI, AUTO-CI UHF-CCSDT 
  Emily Kempfer          : AUTO-CI RHF CISDT and CCSDT, approximate NEVPT4
  Christian Kollmar      : KDIIS, OOCD, Brueckner-CCSD(T), CCSD density, CASPT2, CASPT2-K, improved NEVPT2 
  Axel Koslowski         : Symmetry handling                             
  Simone Kossmann        : meta-GGA functionals, TD-DFT gradient, OOMP2, (MP2 Hessian; deprecated post 5.0) 
  Lucas Lang             : DCDCAS, Hyperfine gauge corrections, ICE-SOC+SSC
  Marvin Lechner         : AUTO-CI (C++ implementation), FIC-MRCC        
  Spencer Leger          : CASSCF response                               
  Dagmar Lenk            : GEPOL surface, SMD, ORCA-2-JSON               
  Dimitrios Liakos       : Extrapolation schemes; Compound Job, Property file
  Dimitrios Manganas     : Further ROCIS development; embedding schemes. LFT, Crystal Embedding 
  Dimitrios Pantazis     : SARC Basis sets                               
  Anastasios Papadopoulos: AUTO-CI, single reference methods and gradients 
  Taras Petrenko         : pre 6.0 DFT Hessian and TD-DFT gradient,  ECA, NRVS 
  Petra Pikulova         : Analytic Raman intensities                    
  Peter Pinski           : DLPNO-MP2, DLPNO-MP2 Gradient                 
  Shashank Vittal Rao    : ES-AILFT, MagRelax                            
  Christoph Reimann      : Effective Core Potentials                     
  Marius Retegan         : Local ZFS, SOC                                
  Christoph Riplinger    : Optimizer, TS searches, QM/MM, DLPNO-CCSD(T), (RO)-DLPNO pert. Triples 
  Michael Roemelt        : Original ROCIS implementation, recursive CI coupling coefficients
  Masaaki Saitow         : Open-shell DLPNO-CCSD energy and density      
  Barbara Sandhoefer     : DKH picture change effects                    
  Yorick L. A. Schmerwitz: GMF and freeze-and-release deltaSCF, NEB S-IDPP initial path                    
  Kantharuban Sivalingam : CASSCF convergence/infrastructure, NEVPT2, NEVPT3, NEVPT4(SD), FIC-MRCI and CEPA variants
  Bernardo de Souza      : ESD, SOC TD-DFT                               
  Georgi L. Stoychev     : AutoAux, RI-MP2 NMR, DLPNO-MP2 response, X2C  
  Van Anh Tran           : RI-MP2 g-tensors                              
  Willem Van den Heuvel  : Paramagnetic NMR                              
  Zikuan Wang            : NOTCH, Electric field optimization            
  Frank Wennmohs         : Technical directorship and infrastructure     
  Hang Xu                : AUTO-CI-Response properties                   
                                                                         
[FACCTs GmbH]                                                            
  Markus Bursch, Nicolas Foglia, Miquel Garcia-Rates, Ingolf Harden, Hagen Neugebauer, Anastasios Papadopoulos, 
  Christoph Riplinger, Bernardo de Souza, Georgi L. Stoychev                                                    
                                                                 
  APM, various basis sets, CI-OPT, improved COSX, DLPNO-Multilevel,           
  DOCKER, DRACO, updates on ESD, Fragmentator, GOAT, IRC, LR-CPCM, L-BFGS, MBIS, meta-GGA TD-DFT gradient, ML-optimized integration grids, 
  MM, NACMEs, nearIR, NEB, NEB-TS, NL-DFT gradient (VV10), 2- and 3-layer-ONIOM, interface openCOSMO-RS, QMMM,   
  Crystal-QMMM, RESP, rigid body optimization, SF, symmetry and pop. for TD-DFT, various functionals, SOLVATOR                                   
                                                                         
[Other institutions]                                                     
  V. Asgeirsson          : NEB                                           
  Christoph Bannwarth    : sTDA-DFT, sTD-DFT, PBEh-3c, B97-3c, D3        
  Giovanni Bistoni       : ETS/NOCV, ADLD/ADEX, COVALED                  
  Martin Brehm           : Molecular dynamics                            
  Ronald Cardenas        : ETS/NOCV                                      
  Martina Colucci        : COVALED                                       
  Sebastian Ehlert       : rSCAN, r2SCAN, r2SCAN-3c, D4, dhf basis sets  
  Marvin Friede          : D4 for Fr, Ra, Ac-Lr                          
  Lars Goerigk           : TD-DFT with DH, B97 family of functionals     
  Stefan Grimme          : VdW corrections, initial TS optimization, DFT functionals, gCP, sTDA/sTD-DF 
  Waldemar Hujo          : DFT-NL                                        
  H. Jonsson             : NEB                                           
  Holger Kruse           : gCP                                           
  Marcel Mueller         : wB97X-3c, vDZP basis set                      
  Hagen Neugebauer       : wr2SCAN, Native XTB                           
  Gianluca Regni         : ADLD/ADEX                                     
  Tobias Risthaus        : pre 6.0 range-separated hybrid DFT and stability analysis
  Lukas Wittmann         : regularized MP2, r2SCAN double-hybrids, wr2SCAN        
                                                                         
We gratefully acknowledge several colleagues who have allowed us to      
interface, adapt or use parts of their codes:                            
  Ed Valeev, F. Pavosevic, A. Kumar             : LibInt (2-el integral package), F12 methods 
  Garnet Chan, S. Sharma, J. Yang, R. Olivares  : DMRG                   
  Ulf Ekstrom                                   : XCFun DFT Library      
  Mihaly Kallay                                 : mrcc  (arbitrary order and MRCC methods)
  Frank Weinhold                                : gennbo (NPA and NBO analysis)           
  Simon Mueller                                 : openCOSMO-RS                            
  Christopher J. Cramer and Donald G. Truhlar   : smd solvation model                     
  S Lehtola, MJT Oliveira, MAL Marques          : LibXC Library                           
  Liviu Ungur et al                             : ANISO software                          


 Your calculation uses the libint2 library for the computation of 2-el integrals
 For citations please refer to: http://libint.valeyev.net

 Your ORCA version has been built with support for libXC version: 7.0.0
 For citations please refer to: https://libxc.gitlab.io

 This ORCA versions uses:
   CBLAS   interface :  Fast vector & matrix operations
   LAPACKE interface :  Fast linear algebra routines
   SCALAPACK package :  Parallel linear algebra routines
   Shared memory     :  Shared parallel matrices
   BLAS/LAPACK       :  OpenBLAS 0.3.29  USE64BITINT DYNAMIC_ARCH NO_AFFINITY Haswell SINGLE_THREADED
        Core in use  :  Haswell
   Copyright (c) 2011-2014, The OpenBLAS Project


  ***********************************
  * Starting time: Sun Aug  9 16:39:59 2026
  * Host name:     localhost.localdomain
  * Process ID:    2931083
  * Working dir.:  /home/dinglab/calculation/templates/NMR_modules/autohnmr/alpha_diol_screening/CONF18/b3lyp-3c
  ***********************************

NOTE: MaxCore=2500 MB was set to SCF,MP2,MDCI,CIPSI,MRCI,RASCI and CIS
      => If you want to overwrite this, your respective input block should be placed after the MaxCore statement


***************************************
The coordinates will be read from file: inp.xyz
***************************************


Your calculation utilizes the geometrical counterpoise correction gCP
Please cite in your paper:
H.Kruse, S. Grimme J.Chem.Phys., 136, (2012), 154101 
   

Your calculation utilizes the atom-pairwise dispersion correction
with the Becke-Johnson damping scheme (D3BJ)


Warning: RI is on but no J-basis has been assigned. Assigning Def2/J (nothing to worry about!)
================================================================================

----- Orbital basis set information -----
Your calculation utilizes the basis: def2-mSVP

----- AuxJ basis set information -----
Your calculation utilizes the auxiliary basis: def2/J
   H-Rn: F. Weigend, Phys. Chem. Chem. Phys. 8, 1057 (2006).
   Fr-Lr: K. Eichkorn, F. Weigend, O. Treutler, R. Ahlrichs; Theor. Chem. Acc. 97, 119 (1997).

================================================================================
                                        WARNINGS
                       Please study these warnings very carefully!
================================================================================

WARNING: Old DensityContainer found on disk!
         Will remove this file - 
         If you want to keep old densities, please start your calculation with a different basename. 


WARNING: Gradients are needed
  ===> : At least TightSCF should be used for SCF convergence

================================================================================
                                       INPUT FILE
================================================================================
NAME = inp
|  1> ! b3lyp
|  2> ! d3bj ABC
|  3> ! def2-mSVP
|  4> ! GCP(DFT/SV(P))
|  5> ! DEFGRID2
|  6> ! scfconv6
|  7> ! miniprint nopop noautostart
|  8> %MaxCore 2500
|  9> ! ENGRAD
| 10> %pal
| 11>     nprocs 12
| 12> end
| 13> ! CPCM(chloroform)
| 14> * xyzfile 0 1 inp.xyz
| 15> 
| 16>                          ****END OF INPUT****
================================================================================

                     *******************************
                     * Energy+Gradient Calculation *
                     *******************************

---------------------------------
CARTESIAN COORDINATES (ANGSTROEM)
---------------------------------
  C     -0.019943   -0.581741    0.294011
  C     -1.015843    0.568185    0.722655
  C     -0.362235    1.982415    0.575470
  C      0.559460    2.154432   -0.652566
  C      1.469301    0.915622   -0.846926
  C      0.583558   -0.313719   -1.121450
  C      1.260612   -0.472390    1.185960
  C      2.155431    0.535363    0.462768
  O      1.429411   -1.374112   -1.583716
  C     -0.760689   -1.931136    0.434002
  C      3.325642    1.009264    0.904055
  C     -2.427941    0.512914    0.127762
  C     -3.469619    0.235825    0.931530
  H     -1.163901    0.411879    1.804563
  O      0.023813   -3.095954    0.088598
  C     -2.668091    0.833735   -1.336077
  H     -1.151402    2.751199    0.570680
  H      0.235364    2.172530    1.481110
  H     -0.028257    2.308725   -1.572935
  H      1.178231    3.056355   -0.517999
  H      2.185142    1.093793   -1.664844
  H     -0.191538   -0.098682   -1.876538
  H      1.781641   -1.441444    1.255325
  H      1.024910   -0.167414    2.217955
  H      1.048459   -2.220058   -1.254558
  H     -1.620677   -1.958732   -0.250036
  H     -1.157300   -2.030715    1.460656
  H      3.745103    0.707639    1.867516
  H      3.912037    1.719943    0.316193
  H     -4.496537    0.227197    0.557982
  H     -3.337317    0.013038    1.993259
  H      0.650628   -3.279872    0.817414
  H     -2.209873    1.793282   -1.622908
  H     -2.242430    0.066387   -2.001670
  H     -3.744907    0.897394   -1.550397

----------------------------
CARTESIAN COORDINATES (A.U.)
----------------------------
  NO LB      ZA    FRAG     MASS         X           Y           Z
   0 C     6.0000    0    12.011   -0.037688   -1.099331    0.555600
   1 C     6.0000    0    12.011   -1.919666    1.073714    1.365620
   2 C     6.0000    0    12.011   -0.684525    3.746222    1.087480
   3 C     6.0000    0    12.011    1.057226    4.071286   -1.233171
   4 C     6.0000    0    12.011    2.776577    1.730274   -1.600458
   5 C     6.0000    0    12.011    1.102764   -0.592842   -2.119234
   6 C     6.0000    0    12.011    2.382212   -0.892687    2.241140
   7 C     6.0000    0    12.011    4.073174    1.011689    0.874504
   8 O     8.0000    0    15.999    2.701195   -2.596694   -2.992790
   9 C     6.0000    0    12.011   -1.437494   -3.649319    0.820144
  10 C     6.0000    0    12.011    6.284552    1.907232    1.708415
  11 C     6.0000    0    12.011   -4.588144    0.969267    0.241436
  12 C     6.0000    0    12.011   -6.556630    0.445644    1.760337
  13 H     1.0000    0     1.008   -2.199454    0.778338    3.410131
  14 O     8.0000    0    15.999    0.045000   -5.850505    0.167426
  15 C     6.0000    0    12.011   -5.041962    1.575530   -2.524820
  16 H     1.0000    0     1.008   -2.175834    5.199012    1.078429
  17 H     1.0000    0     1.008    0.444774    4.105486    2.798892
  18 H     1.0000    0     1.008   -0.053398    4.362859   -2.972417
  19 H     1.0000    0     1.008    2.226534    5.775675   -0.978877
  20 H     1.0000    0     1.008    4.129321    2.066970   -3.146100
  21 H     1.0000    0     1.008   -0.361955   -0.186481   -3.546142
  22 H     1.0000    0     1.008    3.366813   -2.723934    2.372221
  23 H     1.0000    0     1.008    1.936799   -0.316367    4.191328
  24 H     1.0000    0     1.008    1.981300   -4.195302   -2.370771
  25 H     1.0000    0     1.008   -3.062635   -3.701467   -0.472499
  26 H     1.0000    0     1.008   -2.186980   -3.837495    2.760239
  27 H     1.0000    0     1.008    7.077219    1.337245    3.529094
  28 H     1.0000    0     1.008    7.392679    3.250221    0.597519
  29 H     1.0000    0     1.008   -8.497224    0.429340    1.054432
  30 H     1.0000    0     1.008   -6.306616    0.024639    3.766713
  31 H     1.0000    0     1.008    1.229509   -6.198059    1.544689
  32 H     1.0000    0     1.008   -4.176055    3.388812   -3.066851
  33 H     1.0000    0     1.008   -4.237578    0.125453   -3.782608
  34 H     1.0000    0     1.008   -7.076848    1.695830   -2.929826



           ************************************************************
           *        Program running with 12 parallel MPI-processes    *
           *              working on a common directory               *
           ************************************************************
------------------------------------------------------------------------------
                   ___                                                        
                  /   \      - P O W E R E D   B Y -                         
                 /     \                                                     
                 |  |  |   _    _      __       _____    __    __             
                 |  |  |  | |  | |    /  \     |  _  \  |  |  /  |          
                  \  \/   | |  | |   /    \    | | | |  |  | /  /          
                 / \  \   | |__| |  /  /\  \   | |_| |  |  |/  /          
                |  |  |   |  __  | /  /__\  \  |    /   |      \           
                |  |  |   | |  | | |   __   |  |    \   |  |\   \          
                \     /   | |  | | |  |  |  |  | |\  \  |  | \   \       
                 \___/    |_|  |_| |__|  |__|  |_| \__\ |__|  \__/        
                                                                              
                      - O R C A' S   B I G   F R I E N D -                    
                                      &                                       
                       - I N T E G R A L  F E E D E R -                       
                                                                              
 v1 FN, 2020, v2 2021, v3 2022-2024                                           
------------------------------------------------------------------------------


----------------------
SHARK INTEGRAL PACKAGE
----------------------

Number of atoms                             ...     35
Number of basis functions                   ...    265
Number of shells                            ...    145
Maximum angular momentum                    ...      2
Integral batch strategy                     ... SHARK/LIBINT Hybrid
RI-J (if used) integral strategy            ... SPLIT-RIJ (Revised 2003 algorithm where possible)
Printlevel                                  ...      1
Contraction scheme used                     ... SEGMENTED contraction
Prescreening option                         ... SCHWARTZ
   Thresh                                   ... 1.000e-10
   Tcut                                     ... 1.000e-11
   Tpresel                                  ... 1.000e-11 
Coulomb Range Separation                    ... NOT USED
Exchange Range Separation                   ... NOT USED
Multipole approximations                    ... NOT USED
Finite Nucleus Model                        ... NOT USED
CABS basis                                  ... NOT available
Auxiliary Coulomb fitting basis             ... AVAILABLE
   # of basis functions in Aux-J            ...    955
   # of shells in Aux-J                     ...    325
   Maximum angular momentum in Aux-J        ...      4
Auxiliary J/K fitting basis                 ... NOT available
Auxiliary Correlation fitting basis         ... NOT available
Auxiliary 'external' fitting basis          ... NOT available

Checking pre-screening integrals            ... done (  0.0 sec) Dimension = 145
   => SHARK Basis and OBASIS are compatible. Storing Pre-screening
Shell pair information
Shell pair cut-off parameter TPreSel        ...   1.0e-11
Total number of shell pairs                 ...     10585
Shell pairs after pre-screening             ...      8852
Total number of primitive shell pairs       ...     38205
Primitive shell pairs kept                  ...     20841
          la=0 lb=0:   3914 shell pairs
          la=1 lb=0:   2752 shell pairs
          la=1 lb=1:    455 shell pairs
          la=2 lb=0:   1204 shell pairs
          la=2 lb=1:    423 shell pairs
          la=2 lb=2:    104 shell pairs

Checking whether 4 symmetric matrices of dimension 265 fit in memory
:Max Core in MB      =   2500.00
 MB in use           =     14.32
 MB left             =   2485.68
 MB needed           =      1.08
 Data fit in memory  = YES
Calculating RI/J V-Matrix + Cholesky decomp.... done (  0.0 sec)
Calculating Nuclear repulsion               ... done (  0.0 sec) ENN=   1106.266024986360 Eh

Diagonalization of the overlap matrix:
Smallest eigenvalue                        ... 1.949e-03
Time for diagonalization                   ...    0.013 sec
Threshold for overlap eigenvalues          ... 1.000e-07
Number of eigenvalues below threshold      ... 0
Time for construction of square roots      ...    0.004 sec
Total time needed                          ...    0.018 sec

-------------------
DFT GRID GENERATION
-------------------

General Integration Accuracy     IntAcc      ... 4.388
Radial Grid Type                 RadialGrid  ... OptM3 with GC (2021)
Angular Grid (max. ang.)         AngularGrid ... 4 (Lebedev-302)
Angular grid pruning method      GridPruning ... 4 (adaptive)
Weight generation scheme         WeightScheme... mBecke (2022)
Basis function cutoff            BFCut       ... 1.0000e-10
Integration weight cutoff        WCut        ... 1.0000e-14
Partially contracted basis set               ... off
Rotationally invariant grid construction     ... off
Angular grids for H and He will be reduced by one unit

Total number of grid points                  ...   152203
Total number of batches                      ...     2394
Average number of points per batch           ...       63
Average number of grid points per atom       ...     4349

--------------------
COSX GRID GENERATION
--------------------

GRIDX 1
-------
General Integration Accuracy     IntAcc      ... 3.816
Radial Grid Type                 RadialGrid  ... OptM3 with GC (2021)
Angular Grid (max. ang.)         AngularGrid ... 1 (Lebedev-50)
Angular grid pruning method      GridPruning ... 4 (adaptive)
Weight generation scheme         WeightScheme... mBecke (2022)
Basis function cutoff            BFCut       ... 1.0000e-10
Integration weight cutoff        WCut        ... 1.0000e-14
Partially contracted basis set               ... on
Rotationally invariant grid construction     ... off
Angular grids for H and He will be reduced by one unit

Total number of grid points                  ...    19390
Total number of batches                      ...      176
Average number of points per batch           ...      110
Average number of grid points per atom       ...      554
UseSFitting                                  ... on

GRIDX 2
-------
General Integration Accuracy     IntAcc      ... 4.020
Radial Grid Type                 RadialGrid  ... OptM3 with GC (2021)
Angular Grid (max. ang.)         AngularGrid ... 2 (Lebedev-110)
Angular grid pruning method      GridPruning ... 4 (adaptive)
Weight generation scheme         WeightScheme... mBecke (2022)
Basis function cutoff            BFCut       ... 1.0000e-10
Integration weight cutoff        WCut        ... 1.0000e-14
Partially contracted basis set               ... on
Rotationally invariant grid construction     ... off
Angular grids for H and He will be reduced by one unit

Total number of grid points                  ...    40588
Total number of batches                      ...      335
Average number of points per batch           ...      121
Average number of grid points per atom       ...     1160
UseSFitting                                  ... on

GRIDX 3
-------
General Integration Accuracy     IntAcc      ... 4.338
Radial Grid Type                 RadialGrid  ... OptM3 with GC (2021)
Angular Grid (max. ang.)         AngularGrid ... 3 (Lebedev-194)
Angular grid pruning method      GridPruning ... 4 (adaptive)
Weight generation scheme         WeightScheme... mBecke (2022)
Basis function cutoff            BFCut       ... 1.0000e-10
Integration weight cutoff        WCut        ... 1.0000e-14
Partially contracted basis set               ... on
Rotationally invariant grid construction     ... off
Angular grids for H and He will be reduced by one unit

Total number of grid points                  ...    88274
Total number of batches                      ...      710
Average number of points per batch           ...      124
Average number of grid points per atom       ...     2522
UseSFitting                                  ... on
Grids setup in   1.6 sec
Initializing property integral containers    ... done (  0.0 sec)

SHARK setup successfully completed in   1.8 seconds

Maximum memory used throughout the entire STARTUP-calculation: 40.9 MB


           ************************************************************
           *        Program running with 12 parallel MPI-processes    *
           *              working on a common directory               *
           ************************************************************
Loading Hartree-Fock densities                     ... done
Calculating cut-offs                               ... done
Initializing the effective Hamiltonian             ... done
Setting up the integral package (SHARK)            ... done
Starting the Coulomb interaction                   ... done (   0.1 sec)
Making the grid                                    ... done (   0.2 sec)
Mapping shells                                     ... done
Starting the XC term evaluation                    ... done (   0.1 sec)
  promolecular density results
     # of electrons  =    113.987417846
     EX              =    -89.149307314
     EC              =     -3.805325132
     EX+EC           =    -92.954632446
Transforming the Hamiltonian                       ... done (   0.0 sec)
Diagonalizing the Hamiltonian                      ... done (   0.0 sec)
Back transforming the eigenvectors                 ... done (   0.0 sec)
Now organizing SCF variables                       ... done
             **** ENERGY FILE WAS UPDATED (inp.en.tmp) ****
Finished Guess after   0.6 sec
Maximum memory used throughout the entire GUESS-calculation: 17.6 MB


           ************************************************************
           *        Program running with 12 parallel MPI-processes    *
           *              working on a common directory               *
           ************************************************************
--------------------
CPCM SOLVATION MODEL
--------------------
CPCM parameters:
  Epsilon                                         ...       4.8030
  Refrac                                          ...       1.4459
  Rsolv                                           ...       1.3000
  Surface type                                    ... GAUSSIAN VDW
  Discretization scheme                           ... Constant charge density
    Threshold for H atoms                         ...       5.0000 (charges/Ang^2)
    Threshold for non-H atoms                     ...       5.0000 (charges/Ang^2)
  Epsilon function type                           ...         CPCM
Solvent:                                          ... CHLOROFORM
Radii:
  Scheme                                          ... Element-dependent radii
  Radius for C  used is    3.8550 Bohr (=   2.0400 Ang.)
  Radius for O  used is    3.4469 Bohr (=   1.8240 Ang.)
  Radius for H  used is    2.4944 Bohr (=   1.3200 Ang.)
Calculating surface                               ...        done! (  0.0s)
Cavity surface points                             ...         2592
Cavity Volume                                     ...    1805.9820
Cavity Surface-area                               ...     913.4151
Calculating surface distance matrix               ...        done! (  0.1s)
Performing Cholesky decomposition & store         ...        done! (  0.2s)
Overall time for CPCM initialization              ...                 0.3s

----------------------------------------D-I-I-S--------------------------------------------
Iteration    Energy (Eh)           Delta-E    RMSDP     MaxDP     DIISErr   Damp  Time(sec)
-------------------------------------------------------------------------------------------
               ***  Starting incremental Fock matrix formation  ***
    1    -656.9530530884899235     0.00e+00  8.65e-03  7.35e-02  2.43e-01  0.700   2.2
    2    -657.1407228580540050    -1.88e-01  6.28e-03  4.14e-02  1.06e-01  0.700   1.5
                               ***Turning on AO-DIIS***
    3    -657.2190244512437403    -7.83e-02  2.54e-03  1.60e-02  3.74e-02  0.700   1.6
    4    -657.2648033792074784    -4.58e-02  4.28e-03  2.61e-02  1.82e-02  0.000   1.2
    5    -657.3639783615376473    -9.92e-02  8.37e-04  4.81e-03  4.84e-03  0.000   1.3
                              *** Initializing SOSCF ***
---------------------------------------S-O-S-C-F--------------------------------------
Iteration    Energy (Eh)           Delta-E    RMSDP     MaxDP     MaxGrad    Time(sec)
--------------------------------------------------------------------------------------
    6    -657.3643139410294225    -3.36e-04  2.74e-04  1.77e-03  1.00e-03     1.2
               *** Restarting incremental Fock matrix formation ***
    7    -657.3643982604189659    -8.43e-05  1.75e-04  1.18e-03  3.85e-04     2.2
    8    -657.3643928518301891     5.41e-06  9.57e-05  7.68e-04  7.02e-04     1.6
    9    -657.3644020362480660    -9.18e-06  1.54e-05  1.18e-04  3.01e-05     1.4
                  *** Gradient check signals convergence ***

               *****************************************************
               *                     SUCCESS                       *
               *           SCF CONVERGED AFTER   9 CYCLES          *
               *****************************************************

Recomputing exchange energy using gridx3       ... done (    2.783 sec)
Old exchange energy                            :    -18.195498071 Eh
New exchange energy                            :    -18.195552196 Eh
Exchange energy change after final integration :     -0.000054125 Eh
Total energy after final integration           :   -657.364456061 Eh
             **** ENERGY FILE WAS UPDATED (inp.en.tmp) ****

----------------
TOTAL SCF ENERGY
----------------

Total Energy       :       -657.36445606123652 Eh          -17887.79625 eV

Components:
Nuclear Repulsion  :       1106.26602498636043 Eh           30103.02895 eV
Electronic Energy  :      -1763.61773668432033 Eh          -47990.47840 eV
One Electron Energy:      -3089.57887723310523 Eh          -84071.71537 eV
Two Electron Energy:       1325.96114054878490 Eh           36081.23697 eV
CPCM Dielectric    :         -0.01269023804862 Eh              -0.34532 eV

Virial components:
Potential Energy   :      -1309.68261009816706 Eh          -35638.27564 eV
Kinetic Energy     :        652.31815403693065 Eh           17750.47939 eV
Virial Ratio       :          2.00773595214709

DFT components:
N(Alpha)           :       56.999832702251 electrons
N(Beta)            :       56.999832702251 electrons
N(Total)           :      113.999665404502 electrons
E(X)               :      -72.172889016027 Eh       
E(C)               :       -4.482416086969 Eh       
E(XC)              :      -76.655305102995 Eh       

CPCM Solvation Model Properties:
Surface-charge          :         -0.02166352178404
Corrected charge        :         -0.00000000000000
Outlying charge corr.   :          0.00002314641370 Eh               0.00063 eV
Free-energy (cav+disp)  :  This term is not implemented in the current solvation scheme

---------------
SCF CONVERGENCE
---------------

  Last Energy change         ...    9.1844e-06  Tolerance :   1.0000e-06
  Last MAX-Density change    ...    1.1796e-04  Tolerance :   1.0000e-07
  Last RMS-Density change    ...    1.5369e-05  Tolerance :   5.0000e-09
  Last DIIS Error            ...    1.0033e-03  Tolerance :   1.0000e-06
  Last Orbital Gradient      ...    3.0125e-05  Tolerance :   3.3300e-04
  Last Orbital Rotation      ...    9.7103e-05  Tolerance :   3.3300e-04


----------------
ORBITAL ENERGIES
----------------

  NO   OCC          E(Eh)            E(eV) 
   0   2.0000     -19.146220      -520.9951 
   1   2.0000     -19.111142      -520.0406 
   2   2.0000     -10.223726      -278.2017 
   3   2.0000     -10.215914      -277.9892 
   4   2.0000     -10.191037      -277.3122 
   5   2.0000     -10.189100      -277.2595 
   6   2.0000     -10.186639      -277.1926 
   7   2.0000     -10.182417      -277.0776 
   8   2.0000     -10.174960      -276.8747 
   9   2.0000     -10.173674      -276.8397 
  10   2.0000     -10.171667      -276.7851 
  11   2.0000     -10.171250      -276.7738 
  12   2.0000     -10.168706      -276.7046 
  13   2.0000     -10.162941      -276.5477 
  14   2.0000     -10.159005      -276.4406 
  15   2.0000      -1.019389       -27.7390 
  16   2.0000      -0.990125       -26.9427 
  17   2.0000      -0.853419       -23.2227 
  18   2.0000      -0.801175       -21.8011 
  19   2.0000      -0.760072       -20.6826 
  20   2.0000      -0.751088       -20.4381 
  21   2.0000      -0.713468       -19.4145 
  22   2.0000      -0.677617       -18.4389 
  23   2.0000      -0.676233       -18.4012 
  24   2.0000      -0.655207       -17.8291 
  25   2.0000      -0.601336       -16.3632 
  26   2.0000      -0.587103       -15.9759 
  27   2.0000      -0.551287       -15.0013 
  28   2.0000      -0.530591       -14.4381 
  29   2.0000      -0.510440       -13.8898 
  30   2.0000      -0.496579       -13.5126 
  31   2.0000      -0.474040       -12.8993 
  32   2.0000      -0.471874       -12.8403 
  33   2.0000      -0.464982       -12.6528 
  34   2.0000      -0.442146       -12.0314 
  35   2.0000      -0.433995       -11.8096 
  36   2.0000      -0.427301       -11.6274 
  37   2.0000      -0.413038       -11.2393 
  38   2.0000      -0.408159       -11.1066 
  39   2.0000      -0.402248       -10.9457 
  40   2.0000      -0.399176       -10.8621 
  41   2.0000      -0.378102       -10.2887 
  42   2.0000      -0.373942       -10.1755 
  43   2.0000      -0.371999       -10.1226 
  44   2.0000      -0.361495        -9.8368 
  45   2.0000      -0.356584        -9.7032 
  46   2.0000      -0.351470        -9.5640 
  47   2.0000      -0.343900        -9.3580 
  48   2.0000      -0.325990        -8.8706 
  49   2.0000      -0.321328        -8.7438 
  50   2.0000      -0.307529        -8.3683 
  51   2.0000      -0.300408        -8.1745 
  52   2.0000      -0.292391        -7.9564 
  53   2.0000      -0.263533        -7.1711 
  54   2.0000      -0.250842        -6.8257 
  55   2.0000      -0.240028        -6.5315 
  56   2.0000      -0.237343        -6.4584 
  57   0.0000       0.016901         0.4599 
  58   0.0000       0.021551         0.5864 
  59   0.0000       0.079644         2.1672 
  60   0.0000       0.098286         2.6745 
  61   0.0000       0.115918         3.1543 
  62   0.0000       0.127069         3.4577 
  63   0.0000       0.138463         3.7678 
  64   0.0000       0.147293         4.0081 
  65   0.0000       0.150616         4.0985 
  66   0.0000       0.154876         4.2144 
  67   0.0000       0.160659         4.3717 
*Only the first 10 virtual orbitals were printed.
Total SCF time: 0 days 0 hours 0 min 18 sec 
Finished LeanSCF after  18.8 sec

Maximum memory used throughout the entire LEANSCF-calculation: 31.6 MB


-------------------------------------------------------------------------------
                          DFT DISPERSION CORRECTION                            
                                                                               
                              DFTD3 V3.1  Rev 1                                
                          USING Becke-Johnson damping                          
-------------------------------------------------------------------------------
-------------------------   ----------------
Dispersion correction           -0.073915079
-------------------------   ----------------

NOTIFICATION: Different basis set in ORCA and otool_gcp:
ORCA: 265  gCP: 250 
If you are NOT using ECPs, check your basis set inputs!
------------------   -----------------
gCP correction             0.163076130
------------------   -----------------

-------------------------   --------------------
FINAL SINGLE POINT ENERGY      -657.275295010216
-------------------------   --------------------



           ************************************************************
           *        Program running with 12 parallel MPI-processes    *
           *              working on a common directory               *
           ************************************************************
------------------------------------------------------------------------------
                         ORCA SCF GRADIENT CALCULATION
------------------------------------------------------------------------------

Nuc. rep. gradient        (SHARK) ... done (  0.0 sec)
HCore & Overlap gradient  (SHARK) ... done (  0.1 sec)
Split-RIJ-J gradient      (SHARK) ... done (  0.6 sec)
COSX-gradient                     ... done (  7.2 sec)
XC gradient                       ... done (  2.0 sec)
CPCM gradient                     ... done (  0.6 sec)
Dispersion correction             ... done (  0.0 sec)

-------------------
DISPERSION GRADIENT
-------------------

   1   C   :    0.000224793   -0.000534008    0.000225401
   2   C   :   -0.000517721    0.000265017    0.000589794
   3   C   :   -0.000122459    0.001028718    0.000376774
   4   C   :    0.000292500    0.000968238   -0.000355990
   5   C   :    0.000629180    0.000321276   -0.000546598
   6   C   :    0.000608769   -0.000290585   -0.000741898
   7   C   :    0.000588669   -0.000285362    0.000683156
   8   C   :    0.000810145    0.000052601    0.000124018
   9   O   :    0.000353514   -0.000452384   -0.000735846
  10   C   :   -0.000202181   -0.001150723    0.000226756
  11   C   :    0.001195293    0.000205536    0.000401398
  12   C   :   -0.001188687    0.000192498    0.000108610
  13   C   :   -0.001066927    0.000047268    0.000427074
  14   H   :   -0.000215618    0.000091268    0.000479283
  15   O   :   -0.000090765   -0.000775063    0.000025246
  16   C   :   -0.000982215    0.000199252   -0.000657180
  17   H   :   -0.000059200    0.000518126    0.000185733
  18   H   :   -0.000099998    0.000490650    0.000363468
  19   H   :    0.000096983    0.000481731   -0.000353915
  20   H   :    0.000043331    0.000492287   -0.000149938
  21   H   :    0.000270451    0.000133879   -0.000392353
  22   H   :    0.000071243   -0.000137117   -0.000637792
  23   H   :    0.000288805   -0.000293232    0.000340972
  24   H   :    0.000169570   -0.000108938    0.000563626
  25   H   :    0.000137065   -0.000394320   -0.000335137
  26   H   :   -0.000215233   -0.000561923   -0.000039276
  27   H   :   -0.000129198   -0.000478094    0.000236982
  28   H   :    0.000306253    0.000066338    0.000152054
  29   H   :    0.000368518    0.000100261    0.000075641
  30   H   :   -0.000295275   -0.000022036    0.000106733
  31   H   :   -0.000339339    0.000003102    0.000262986
  32   H   :    0.000026360   -0.000450843    0.000111185
  33   H   :   -0.000356864    0.000222292   -0.000390277
  34   H   :   -0.000370808   -0.000003020   -0.000505653
  35   H   :   -0.000228954    0.000057309   -0.000225037

Difference to translation invariance:
           :   -0.0000000000   -0.0000000000   -0.0000000000

Difference to rotation invariance:
           :   -0.0000000000   -0.0000000000    0.0000000000

Norm of the Dispersion gradient    ...    0.0045869560
RMS gradient                       ...    0.0004476411
MAX gradient                       ...    0.0011952930
gCP correction                   ... done

------------------
CARTESIAN GRADIENT
------------------

   1   C   :   -0.000086746    0.000286598    0.000118550
   2   C   :   -0.000011194   -0.000157194   -0.000345323
   3   C   :   -0.000060584   -0.000140469    0.000048134
   4   C   :    0.000136000   -0.000192745   -0.000008274
   5   C   :   -0.000147117    0.000106805    0.000199259
   6   C   :    0.000185963   -0.000368914   -0.000005671
   7   C   :   -0.000050306    0.000106634   -0.000216962
   8   C   :   -0.000334164   -0.000220598   -0.000141124
   9   O   :   -0.000218607    0.000053454    0.000095361
  10   C   :    0.000091216   -0.000123959   -0.000061279
  11   C   :    0.000300304    0.000029364    0.000096061
  12   C   :    0.000229120   -0.000088997    0.000033176
  13   C   :    0.000069492   -0.000198761   -0.000068953
  14   H   :    0.000057620   -0.000029971    0.000043553
  15   O   :    0.000194242    0.000198671    0.000162146
  16   C   :    0.000015990   -0.000024672    0.000182695
  17   H   :   -0.000061951    0.000023309   -0.000009980
  18   H   :    0.000030430    0.000104490    0.000023821
  19   H   :   -0.000021547    0.000020662   -0.000075506
  20   H   :    0.000006442    0.000034707   -0.000019386
  21   H   :    0.000084666   -0.000044035   -0.000078662
  22   H   :   -0.000069170    0.000055139   -0.000033185
  23   H   :   -0.000007254    0.000017609    0.000079534
  24   H   :   -0.000082080   -0.000028696   -0.000016591
  25   H   :    0.000074320    0.000193880    0.000045038
  26   H   :   -0.000089346    0.000008378    0.000062812
  27   H   :    0.000019060    0.000011767    0.000002948
  28   H   :   -0.000072036   -0.000010545    0.000127699
  29   H   :   -0.000084108    0.000049625   -0.000058589
  30   H   :   -0.000085723    0.000136306   -0.000065266
  31   H   :    0.000068001    0.000055806    0.000198941
  32   H   :   -0.000227055   -0.000050643   -0.000187128
  33   H   :    0.000074363    0.000126851   -0.000005968
  34   H   :    0.000114510    0.000027321   -0.000046434
  35   H   :   -0.000042751    0.000032825   -0.000075449

Difference to translation invariance:
           :    0.0000000000   -0.0000000000   -0.0000000000

Difference to rotation invariance:
           :   -0.0000867945   -0.0010795325   -0.0009730694

Norm of the Cartesian gradient     ...    0.0012746835
RMS gradient                       ...    0.0001243964
MAX gradient                       ...    0.0003689142

-------
TIMINGS
-------

Total SCF gradient time     ....       10.578 sec

Densities                   ....       0.001 sec  (  0.0%)
One electron gradient       ....       0.130 sec  (  1.2%)
RI-J Coulomb gradient       ....       0.581 sec  (  5.5%)
COSX gradient               ....       7.174 sec  ( 67.8%)
XC gradient                 ....       1.984 sec  ( 18.8%)
CPCM gradient               ....       0.642 sec  (  6.1%)
   A-Matrix (El+Nuc)        ....       0.024 sec  (  0.2%)
   Potential                ....       0.618 sec  (  5.8%)

Maximum memory used throughout the entire SCFGRAD-calculation: 37.8 MB


           ************************************************************
           *        Program running with 12 parallel MPI-processes    *
           *              working on a common directory               *
           ************************************************************

------------------------------------------------------------------------------
                              ORCA PROPERTY CALCULATIONS
------------------------------------------------------------------------------

GBWName                                 ... inp.gbw
Number of atoms                         ...     35
Number of basis functions               ...    265
Max core memory                         ...   2500 MB

Electric properties:
Dipole moment                           ... YES
Quadrupole moment                       ...  NO
Static polarizability (Dipole/Dipole)   ...  NO
Static polarizability (Dipole/Quad.)    ...  NO
Static polarizability (Quad./Quad.)     ...  NO
Static polarizability (Velocity)        ...  NO
Static hyperpolarizability              ...  NO

Atomic electric properties:
Dipole moment                           ...  NO
Quadrupole moment                       ...  NO
Static polarizability                   ...  NO

Choice of electric origin               ... Center of mass
Position of electric origin             ...     0.010555    -0.000007    -0.015246

General magnetic properties:
Magnetizability                         ...  NO

EPR properties:
g-Tensor (aka g-matrix)                 ...  NO
Zero-Field splitting spin-orbit         ...  NO
Zero-field splitting spin-spin          ...  NO
Hyperfine couplings                     ...  NO (   0 nuclei)
Quadrupole couplings                    ...  NO (   0 nuclei)
Contact density                         ...  NO (   0 nuclei)

NMR properties:
Chemical shifts                         ...  NO (   0 nuclei)
Spin-rotation constants                 ...  NO (   0 nuclei)
Spin-spin couplings                     ...  NO (   0 nuclei,    0 pairs)

Choice of magnetic origin               ... GIAO
Position of magnetic origin             ...     0.000000     0.000000     0.000000

Properties with geometric perturbations:
SCF Hessian                             ...  NO
IR spectrum                             ...  NO
VCD spectrum                            ...  NO
X-ray spectroscopy properties:
SCF XES/XAS/RIXS spectra                ...  NO

SCF SOC stabilization energy            ...  NO
Diagonal Born-Oppenheimer correction    ...  NO

-------------
DIPOLE MOMENT
-------------

Method             : SCF
Type of density    : Electron Density
Multiplicity       :   1
Irrep              :   0
Energy             :  -657.3644560612365240 Eh
Basis              : AO
                                X                 Y                 Z
Electronic contribution:      4.674197820      -5.435959351      -1.017179974
Nuclear contribution   :     -5.320961251       5.584080321       2.034729763
                        -----------------------------------------
Total Dipole Moment    :     -0.646763431       0.148120969       1.017549789
                        -----------------------------------------
Magnitude (a.u.)       :      1.214763487
Magnitude (Debye)      :      3.087683403



--------------------
Rotational spectrum 
--------------------
 
Rotational constants in cm-1:             0.026757             0.019003             0.014744 
Rotational constants in MHz :           802.159212           569.689439           442.016065 

Dipole components along the rotational axes: 
x,y,z [a.u.] :    -0.655682     0.151930     1.011261 
x,y,z [Debye]:    -1.666611     0.386176     2.570421 

 

Dipole moment calculation done in   0.0 sec 

Maximum memory used throughout the entire PROP-calculation: 16.6 MB

--------------------------------
SUGGESTED CITATIONS FOR THIS RUN
--------------------------------

Below you find a list of papers that are relevant to this ORCA run
We neither can nor want to force you to cite these papers, but we appreciate if you do
You receive ORCA, which is the product of decades of hard work by many enthusiastic individuals, for free
The only thing we kindly ask in return is that you cite our papers,
We deeply appreciate it, if you show your appreciation for ORCA by not just citing the generic ORCA reference.

Please note that relegating all ORCA citations to the supporting information does *not* help us.
SI sections are not indexed - citations you put there will not count into any citation statistics
But we need these citations in order to attract the funding resources that allow us to do what we are doing

Therefore, if you are a happy ORCA user, please consider citing a few of the papers listed below in the main body of your paper

In addition to the list printed below, the program has created the file inp.bibtex that contains the list in bibtex format
You can import this file easily into all common literature databanks and citation aid programs

It goes without saying that in many instances, there are alternative algorithms to achieve similar
results as the ones you have gotten from ORCA. It is, of course, also the case that in some instances
ORCA just re-implements algorithms worked out by others. We are fully aware of that and we are also
fully appreciative of our colleagues work. Hence this citation list should not be read as indicating
that the listed papers, which are focused on our own work, are the only ones worth citing. It simply
meant to make it easier for users to cite ORCA specific papers. It is not a substitute for doing your
own literature research and citing the relevant literature in a scientifically appropriate manner.

List of essential papers. We consider these as the minimum necessary citations

  1. Neese, F.
     Software update: the ORCA program system, version 6.0
     WIRES Comput. Molec. Sci. 2025 15(1), e70019
     doi.org/10.1002/wcms.70019

List of papers to cite with high priority. The work reported in these papers was absolutely
necessary for this run to complete.
Our perspective: the developers of density functionals and basis sets usually get cited in chemistry papers
Good! But without the algorithms to do something with them, the functionals or basis sets would not do anything.
Hence, in our opinion, the algorithm design and method developments papers are equally worthy of getting cited

  1. Neese, F.
     An improvement of the resolution of the identity approximation for the formation of the Coulomb matrix
     J. Comp. Chem. 2003 24(14), 1740-1747
     doi.org/10.1002/jcc.10318
  2. Neese, F.; Wennmohs, F.; Hansen, A.; Becker, U.
     Efficient, approximate and parallel Hartree-Fock and hybrid DFT calculations. A 'chain-of-spheres' algorithm for the Hartree-Fock exchange
     Chem. Phys. 2009 356(1-3), 98-109
     doi.org/10.1016/j.chemphys.2008.10.036
  3. Grimme, S.; Antony, J.; Ehrlich, S.; Krieg, H.
     A consistent and accurate ab initio parametrization of density functional dispersion correction (DFT-D) for the 94 elements H-Pu
     J. Chem. Phys. 2010 132 , 154104
     doi.org/10.1063/1.3382344
  4. Grimme, S.; Ehrlich, S.; Goerigk, L.
     Effect of the damping function in dispersion corrected density functional theory
     J. Comput. Chem. 2011 32(7), 1456-1465
     doi.org/10.1002/jcc.21759
  5. Garcia-Rates, M.; Neese, F.
     Effect of the Solute Cavity on the Solvation Energy and its Derivatives within the Framework of the Gaussian Charge Scheme
     J. Comput. Chem. 2020 41 , 922-939
     doi.org/10.1002/jcc.26139
  6. Helmich-Paris, B.; de Souza, B.; Neese, F.; Izsák, R.
     An improved chain of spheres for exchange algorithm
     J. Chem. Phys. 2021 155(10), 104109
     doi.org/10.1063/5.0058766
  7. Neese, F.
     The SHARK Integral Generation and Digestion System
     J. Comp. Chem. 2022 44(3), 381
     doi.org/10.1002/jcc.26942

List of suggested additional citations. These are papers that are important in the 'surrounding' of 
of this run, or papers that preceded the highly important papers. If you like your results we are grateful for a citation.

  1. Izsak, R.; Neese, F.
     An overlap fitted chain of spheres exchange method
     J. Chem. Phys. 2011 135 , 144105
     doi.org/10.1063/1.3646921
  2. Izsak, R.; Hansen, A.; Neese, F.
     The resolution of identity and chain of spheres approximations for the LPNO-CCSD singles Fock term
     Molec. Phys. 2012 110 , 2413-2417
     doi.org/10.1080/00268976.2012.687466
  3. Neese, F.
     The ORCA program system
     WIRES Comput. Molec. Sci. 2012 2(1), 73-78
     doi.org/10.1002/wcms.81
  4. Izsak, R.; Neese, F.; Klopper, W.
     Robust fitting techniques in the chain of spheres approximation to the Fock exchange: The role of the complementary space
     J. Chem. Phys. 2013 139 , 
     doi.org/10.1063/1.4819264
  5. Neese, F.
     Software update: the ORCA program system, version 4.0
     WIRES Comput. Molec. Sci. 2018 8(1), 1-6
     doi.org/10.1002/wcms.1327
  6. Neese, F.; Wennmohs, F.; Becker, U.; Riplinger, C.
     The ORCA quantum chemistry program package
     J. Chem. Phys. 2020 152(22), 224108
     doi.org/10.1063/5.0004608
  7. Neese, F.
     Software update: The ORCA program system—Version 5.0
     WIRES Comput. Molec. Sci. 2022 12(1), e1606
     doi.org/10.1002/wcms.1606

List of optional additional citations

  1. Neese, F.
     Approximate second-order SCF convergence for spin unrestricted wavefunctions
     Chem. Phys. Lett. 2000 325(1-3), 93-98
     doi.org/10.1016/s0009-2614(00)00662-x

Timings for individual modules:

Sum of individual times          ...       33.066 sec (=   0.551 min)
Startup calculation              ...        2.069 sec (=   0.034 min)   6.3 %
SCF iterations                   ...       19.725 sec (=   0.329 min)  59.7 %
Property calculations            ...        0.336 sec (=   0.006 min)   1.0 %
SCF Gradient evaluation          ...       10.937 sec (=   0.182 min)  33.1 %
                             ****ORCA TERMINATED NORMALLY****
TOTAL RUN TIME: 0 days 0 hours 0 minutes 33 seconds 426 msec
  ------------------------------------------------------------------------
          * successful ORCA run, taking over control again...

         :::::::::::::::::::::::::::::::::::::::::::::::::::::
         ::                  ORCA SUMMARY                   ::
         :::::::::::::::::::::::::::::::::::::::::::::::::::::
         :: total energy            -657.275295010216 Eh    ::
         :: gradient norm              0.001274683507 Eh/a0 ::
         :: HOMO-LUMO gap              0.000000000000 eV    ::
         :::::::::::::::::::::::::::::::::::::::::::::::::::::

      ----------------------------------------------------------- 
     |                       L-ANC optimizer                     |
      ----------------------------------------------------------- 
          low memory version by Sebastian Ehlert

          ...................................................
          :                      SETUP                      :
          :.................................................:
          :   energy convergence        0.5000000E-05 Eh    :
          :   grad. convergence         0.1000000E-02 Eh/a0 :
          :   optimization log               true           :
          :   writing optlog all                1     steps :
          :   Hessian reset                     8     steps :
          :   maximium step len.        1.0000000     a0    :
          :   LBFGS images                      8           :
          ...................................................
 * calculating model hessian...
Using Lindh-Hessian (1995)
 Shifting diagonal of input Hessian by   1.000000000000000E-002
 Lowest  eigenvalues of input Hessian
    0.000000    0.000000    0.000000    0.000000    0.000000    0.000000
    0.011208    0.011477    0.012258    0.013215    0.014695    0.015515
    0.017338    0.017395    0.018526    0.019319    0.020029    0.020408
 Highest eigenvalues
    1.387522    1.394523    1.409244    1.417856    1.791962    1.860943
 

........................................................................
.............................. CYCLE    1 ..............................
........................................................................
                         * ORCA takes the control...
  ------------------------------------------------------------------------

                                 *****************
                                 * O   R   C   A *
                                 *****************

                                            #,                                       
                                            ###                                      
                                            ####                                     
                                            #####                                    
                                            ######                                   
                                           ########,                                 
                                     ,,################,,,,,                         
                               ,,#################################,,                 
                          ,,##########################################,,             
                       ,#########################################, ''#####,          
                    ,#############################################,,   '####,        
                  ,##################################################,,,,####,       
                ,###########''''           ''''###############################       
              ,#####''   ,,,,##########,,,,          '''####'''          '####       
            ,##' ,,,,###########################,,,                        '##       
           ' ,,###''''                  '''############,,,                           
         ,,##''                                '''############,,,,        ,,,,,,###''
      ,#''                                            '''#######################'''  
     '                                                          ''''####''''         
             ,#######,   #######,   ,#######,      ##                                
            ,#'     '#,  ##    ##  ,#'     '#,    #''#        ,####,    ,#,          
            ##       ##  ##   ,#'  ##            #'  '#       #'       ,# #          
            ##       ##  #######   ##           ,######,      #####,      #          
            '#,     ,#'  ##    ##  '#,     ,#' ,#      #,     #,   #      #          
             '#######'   ##     ##  '#######'  #'      '#     '####' #    #          



                #########################################################
                #                        -***-                          #
                #          Department of theory and spectroscopy        #
                #                                                       #
                #                      Frank Neese                      #
                #                                                       #
                #     Directorship, Architecture, Infrastructure        #
                #                    SHARK, DRIVERS                     #
                #        Core code/Algorithms in most modules           #
                #                                                       #
                #        Max Planck Institute fuer Kohlenforschung      #
                #                Kaiser Wilhelm Platz 1                 #
                #                 D-45470 Muelheim/Ruhr                 #
                #                      Germany                          #
                #                                                       #
                #                  All rights reserved                  #
                #                        -***-                          #
                #########################################################


                         Program Version 6.1.1  -  RELEASE   -
                                (GIT: $487d211c$)
                          ($2025-11-21 10:33:24 +0100$)


 With contributions from (in alphabetic order):
[Max-Planck-Institut fuer Kohlenforschung]                               
  Daniel Aravena         : Magnetic Suceptibility                        
  Michael Atanasov       : Ab Initio Ligand Field Theory (pilot matlab implementation)
  Alexander A. Auer      : GIAO ZORA, VPT2 properties, NMR spectrum      
  Ute Becker             : All parallelization in ORCA, NUMFREQ, NUMCALC 
  Giovanni Bistoni       : ED, misc. LED, open-shell LED, HFLD           
  Dmytro Bykov           : pre 5.0 version of the SCF Hessian            
  Marcos Casanova-Páez   : Triplet and SCS-CIS(D). UHF-(DLPNO)-IP/EA/STEOM-CCSD. UHF-CVS-IP/STEOM-CCSD   
  Vijay G. Chilkuri      : MRCI spin determinant printing, contributions to CSF-ICE 
  Pauline Colinet        : FMM embedding                                 
  Dipayan Datta          : RHF DLPNO-CCSD density                        
  Achintya Kumar Dutta   : EOM-CC, STEOM-CC                              
  Nicolas Foglia         : Exact transition moments, OPA infrastructure, MCD improvements    
  Dmitry Ganyushin       : Spin-Orbit,Spin-Spin,Magnetic field MRCI      
  Miquel Garcia-Rates    : C-PCM and meta-GGA Hessian, CCSD/C-PCM, Gaussian charge scheme 
  Tiago L. C. Gouveia    : GS-ROHF, GS-ROCIS                             
  Yang Guo               : DLPNO-NEVPT2, F12-NEVPT2, CIM, IAO-localization        
  Andreas Hansen         : Spin unrestricted coupled pair/coupled cluster methods 
  Ingolf Harden          : AUTO-CI MPn and infrastructure                
  Benjamin Helmich-Paris : MC-RPA, TRAH-(SCF,CASSCF), AVAS, COSX integrals, SCF dyn. polar., MC-PDFT, srDFT 
  Lee Huntington         : MR-EOM, pCC                                   
  Robert Izsak           : Overlap fitted RIJCOSX, COSX-SCS-MP3, EOM     
  Riya Kayal             : Wick's Theorem for AUTO-CI, AUTO-CI UHF-CCSDT 
  Emily Kempfer          : AUTO-CI RHF CISDT and CCSDT, approximate NEVPT4
  Christian Kollmar      : KDIIS, OOCD, Brueckner-CCSD(T), CCSD density, CASPT2, CASPT2-K, improved NEVPT2 
  Axel Koslowski         : Symmetry handling                             
  Simone Kossmann        : meta-GGA functionals, TD-DFT gradient, OOMP2, (MP2 Hessian; deprecated post 5.0) 
  Lucas Lang             : DCDCAS, Hyperfine gauge corrections, ICE-SOC+SSC
  Marvin Lechner         : AUTO-CI (C++ implementation), FIC-MRCC        
  Spencer Leger          : CASSCF response                               
  Dagmar Lenk            : GEPOL surface, SMD, ORCA-2-JSON               
  Dimitrios Liakos       : Extrapolation schemes; Compound Job, Property file
  Dimitrios Manganas     : Further ROCIS development; embedding schemes. LFT, Crystal Embedding 
  Dimitrios Pantazis     : SARC Basis sets                               
  Anastasios Papadopoulos: AUTO-CI, single reference methods and gradients 
  Taras Petrenko         : pre 6.0 DFT Hessian and TD-DFT gradient,  ECA, NRVS 
  Petra Pikulova         : Analytic Raman intensities                    
  Peter Pinski           : DLPNO-MP2, DLPNO-MP2 Gradient                 
  Shashank Vittal Rao    : ES-AILFT, MagRelax                            
  Christoph Reimann      : Effective Core Potentials                     
  Marius Retegan         : Local ZFS, SOC                                
  Christoph Riplinger    : Optimizer, TS searches, QM/MM, DLPNO-CCSD(T), (RO)-DLPNO pert. Triples 
  Michael Roemelt        : Original ROCIS implementation, recursive CI coupling coefficients
  Masaaki Saitow         : Open-shell DLPNO-CCSD energy and density      
  Barbara Sandhoefer     : DKH picture change effects                    
  Yorick L. A. Schmerwitz: GMF and freeze-and-release deltaSCF, NEB S-IDPP initial path                    
  Kantharuban Sivalingam : CASSCF convergence/infrastructure, NEVPT2, NEVPT3, NEVPT4(SD), FIC-MRCI and CEPA variants
  Bernardo de Souza      : ESD, SOC TD-DFT                               
  Georgi L. Stoychev     : AutoAux, RI-MP2 NMR, DLPNO-MP2 response, X2C  
  Van Anh Tran           : RI-MP2 g-tensors                              
  Willem Van den Heuvel  : Paramagnetic NMR                              
  Zikuan Wang            : NOTCH, Electric field optimization            
  Frank Wennmohs         : Technical directorship and infrastructure     
  Hang Xu                : AUTO-CI-Response properties                   
                                                                         
[FACCTs GmbH]                                                            
  Markus Bursch, Nicolas Foglia, Miquel Garcia-Rates, Ingolf Harden, Hagen Neugebauer, Anastasios Papadopoulos, 
  Christoph Riplinger, Bernardo de Souza, Georgi L. Stoychev                                                    
                                                                 
  APM, various basis sets, CI-OPT, improved COSX, DLPNO-Multilevel,           
  DOCKER, DRACO, updates on ESD, Fragmentator, GOAT, IRC, LR-CPCM, L-BFGS, MBIS, meta-GGA TD-DFT gradient, ML-optimized integration grids, 
  MM, NACMEs, nearIR, NEB, NEB-TS, NL-DFT gradient (VV10), 2- and 3-layer-ONIOM, interface openCOSMO-RS, QMMM,   
  Crystal-QMMM, RESP, rigid body optimization, SF, symmetry and pop. for TD-DFT, various functionals, SOLVATOR                                   
                                                                         
[Other institutions]                                                     
  V. Asgeirsson          : NEB                                           
  Christoph Bannwarth    : sTDA-DFT, sTD-DFT, PBEh-3c, B97-3c, D3        
  Giovanni Bistoni       : ETS/NOCV, ADLD/ADEX, COVALED                  
  Martin Brehm           : Molecular dynamics                            
  Ronald Cardenas        : ETS/NOCV                                      
  Martina Colucci        : COVALED                                       
  Sebastian Ehlert       : rSCAN, r2SCAN, r2SCAN-3c, D4, dhf basis sets  
  Marvin Friede          : D4 for Fr, Ra, Ac-Lr                          
  Lars Goerigk           : TD-DFT with DH, B97 family of functionals     
  Stefan Grimme          : VdW corrections, initial TS optimization, DFT functionals, gCP, sTDA/sTD-DF 
  Waldemar Hujo          : DFT-NL                                        
  H. Jonsson             : NEB                                           
  Holger Kruse           : gCP                                           
  Marcel Mueller         : wB97X-3c, vDZP basis set                      
  Hagen Neugebauer       : wr2SCAN, Native XTB                           
  Gianluca Regni         : ADLD/ADEX                                     
  Tobias Risthaus        : pre 6.0 range-separated hybrid DFT and stability analysis
  Lukas Wittmann         : regularized MP2, r2SCAN double-hybrids, wr2SCAN        
                                                                         
We gratefully acknowledge several colleagues who have allowed us to      
interface, adapt or use parts of their codes:                            
  Ed Valeev, F. Pavosevic, A. Kumar             : LibInt (2-el integral package), F12 methods 
  Garnet Chan, S. Sharma, J. Yang, R. Olivares  : DMRG                   
  Ulf Ekstrom                                   : XCFun DFT Library      
  Mihaly Kallay                                 : mrcc  (arbitrary order and MRCC methods)
  Frank Weinhold                                : gennbo (NPA and NBO analysis)           
  Simon Mueller                                 : openCOSMO-RS                            
  Christopher J. Cramer and Donald G. Truhlar   : smd solvation model                     
  S Lehtola, MJT Oliveira, MAL Marques          : LibXC Library                           
  Liviu Ungur et al                             : ANISO software                          


 Your calculation uses the libint2 library for the computation of 2-el integrals
 For citations please refer to: http://libint.valeyev.net

 Your ORCA version has been built with support for libXC version: 7.0.0
 For citations please refer to: https://libxc.gitlab.io

 This ORCA versions uses:
   CBLAS   interface :  Fast vector & matrix operations
   LAPACKE interface :  Fast linear algebra routines
   SCALAPACK package :  Parallel linear algebra routines
   Shared memory     :  Shared parallel matrices
   BLAS/LAPACK       :  OpenBLAS 0.3.29  USE64BITINT DYNAMIC_ARCH NO_AFFINITY Haswell SINGLE_THREADED
        Core in use  :  Haswell
   Copyright (c) 2011-2014, The OpenBLAS Project


  ***********************************
  * Starting time: Sun Aug  9 16:40:32 2026
  * Host name:     localhost.localdomain
  * Process ID:    2931821
  * Working dir.:  /home/dinglab/calculation/templates/NMR_modules/autohnmr/alpha_diol_screening/CONF18/b3lyp-3c
  ***********************************

NOTE: MaxCore=2500 MB was set to SCF,MP2,MDCI,CIPSI,MRCI,RASCI and CIS
      => If you want to overwrite this, your respective input block should be placed after the MaxCore statement


***************************************
The coordinates will be read from file: inp.xyz
***************************************


Your calculation utilizes the geometrical counterpoise correction gCP
Please cite in your paper:
H.Kruse, S. Grimme J.Chem.Phys., 136, (2012), 154101 
   

Your calculation utilizes the atom-pairwise dispersion correction
with the Becke-Johnson damping scheme (D3BJ)


Warning: RI is on but no J-basis has been assigned. Assigning Def2/J (nothing to worry about!)
================================================================================

----- Orbital basis set information -----
Your calculation utilizes the basis: def2-mSVP

----- AuxJ basis set information -----
Your calculation utilizes the auxiliary basis: def2/J
   H-Rn: F. Weigend, Phys. Chem. Chem. Phys. 8, 1057 (2006).
   Fr-Lr: K. Eichkorn, F. Weigend, O. Treutler, R. Ahlrichs; Theor. Chem. Acc. 97, 119 (1997).

================================================================================
                                        WARNINGS
                       Please study these warnings very carefully!
================================================================================

WARNING: Old DensityContainer found on disk!
         Will remove this file - 
         If you want to keep old densities, please start your calculation with a different basename. 


WARNING: Gradients are needed
  ===> : At least TightSCF should be used for SCF convergence

================================================================================
                                       INPUT FILE
================================================================================
NAME = inp
|  1> ! b3lyp
|  2> ! d3bj ABC
|  3> ! def2-mSVP
|  4> ! GCP(DFT/SV(P))
|  5> ! DEFGRID2
|  6> ! scfconv6
|  7> ! miniprint nopop noautostart
|  8> %MaxCore 2500
|  9> ! ENGRAD
| 10> %pal
| 11>     nprocs 12
| 12> end
| 13> ! CPCM(chloroform)
| 14> * xyzfile 0 1 inp.xyz
| 15> 
| 16>                          ****END OF INPUT****
================================================================================

                     *******************************
                     * Energy+Gradient Calculation *
                     *******************************

---------------------------------
CARTESIAN COORDINATES (ANGSTROEM)
---------------------------------
  C     -0.019822   -0.581578    0.294470
  C     -1.016377    0.568931    0.723208
  C     -0.361761    1.982791    0.576066
  C      0.559770    2.155172   -0.651839
  C      1.469720    0.916194   -0.846567
  C      0.583876   -0.313061   -1.120997
  C      1.261349   -0.472410    1.186344
  C      2.155888    0.536233    0.463350
  O      1.429593   -1.374138   -1.583310
  C     -0.760861   -1.930934    0.434020
  C      3.326102    1.009788    0.904143
  C     -2.428916    0.515170    0.127669
  C     -3.470948    0.239319    0.931348
  H     -1.165330    0.412885    1.804931
  O      0.023510   -3.096574    0.090172
  C     -2.669359    0.832724   -1.336920
  H     -1.150206    2.752152    0.571817
  H      0.235897    2.171111    1.481901
  H     -0.028068    2.309567   -1.571950
  H      1.178781    3.056794   -0.516941
  H      2.185263    1.094896   -1.664356
  H     -0.190877   -0.098299   -1.876290
  H      1.782413   -1.441582    1.254078
  H      1.026858   -0.167889    2.218771
  H      1.047069   -2.220496   -1.256206
  H     -1.619556   -1.958618   -0.251566
  H     -1.158875   -2.030100    1.460181
  H      3.747643    0.705648    1.865731
  H      3.914019    1.718586    0.315676
  H     -4.497102    0.223975    0.556505
  H     -3.338805    0.011825    1.991739
  H      0.651833   -3.278094    0.818750
  H     -2.210561    1.791038   -1.626095
  H     -2.245668    0.063201   -2.001079
  H     -3.746252    0.896920   -1.549913

----------------------------
CARTESIAN COORDINATES (A.U.)
----------------------------
  NO LB      ZA    FRAG     MASS         X           Y           Z
   0 C     6.0000    0    12.011   -0.037458   -1.099023    0.556467
   1 C     6.0000    0    12.011   -1.920674    1.075124    1.366666
   2 C     6.0000    0    12.011   -0.683630    3.746932    1.088607
   3 C     6.0000    0    12.011    1.057811    4.072684   -1.231797
   4 C     6.0000    0    12.011    2.777369    1.731355   -1.599780
   5 C     6.0000    0    12.011    1.103366   -0.591600   -2.118377
   6 C     6.0000    0    12.011    2.383605   -0.892726    2.241866
   7 C     6.0000    0    12.011    4.074039    1.013333    0.875605
   8 O     8.0000    0    15.999    2.701539   -2.596744   -2.992023
   9 C     6.0000    0    12.011   -1.437820   -3.648936    0.820179
  10 C     6.0000    0    12.011    6.285422    1.908224    1.708583
  11 C     6.0000    0    12.011   -4.589985    0.973529    0.241260
  12 C     6.0000    0    12.011   -6.559142    0.452248    1.759993
  13 H     1.0000    0     1.008   -2.202155    0.780239    3.410826
  14 O     8.0000    0    15.999    0.044427   -5.851676    0.170401
  15 C     6.0000    0    12.011   -5.044357    1.573620   -2.526412
  16 H     1.0000    0     1.008   -2.173574    5.200813    1.080578
  17 H     1.0000    0     1.008    0.445781    4.102805    2.800388
  18 H     1.0000    0     1.008   -0.053041    4.364450   -2.970556
  19 H     1.0000    0     1.008    2.227573    5.776504   -0.976878
  20 H     1.0000    0     1.008    4.129549    2.069054   -3.145177
  21 H     1.0000    0     1.008   -0.360706   -0.185758   -3.545674
  22 H     1.0000    0     1.008    3.368272   -2.724195    2.369864
  23 H     1.0000    0     1.008    1.940480   -0.317264    4.192869
  24 H     1.0000    0     1.008    1.978673   -4.196129   -2.373885
  25 H     1.0000    0     1.008   -3.060516   -3.701252   -0.475391
  26 H     1.0000    0     1.008   -2.189957   -3.836334    2.759342
  27 H     1.0000    0     1.008    7.082020    1.333482    3.525720
  28 H     1.0000    0     1.008    7.396425    3.247658    0.596541
  29 H     1.0000    0     1.008   -8.498290    0.423251    1.051641
  30 H     1.0000    0     1.008   -6.309427    0.022347    3.763841
  31 H     1.0000    0     1.008    1.231786   -6.194701    1.547213
  32 H     1.0000    0     1.008   -4.177355    3.384572   -3.072874
  33 H     1.0000    0     1.008   -4.243698    0.119433   -3.781491
  34 H     1.0000    0     1.008   -7.079390    1.694933   -2.928911



           ************************************************************
           *        Program running with 12 parallel MPI-processes    *
           *              working on a common directory               *
           ************************************************************
------------------------------------------------------------------------------
                   ___                                                        
                  /   \      - P O W E R E D   B Y -                         
                 /     \                                                     
                 |  |  |   _    _      __       _____    __    __             
                 |  |  |  | |  | |    /  \     |  _  \  |  |  /  |          
                  \  \/   | |  | |   /    \    | | | |  |  | /  /          
                 / \  \   | |__| |  /  /\  \   | |_| |  |  |/  /          
                |  |  |   |  __  | /  /__\  \  |    /   |      \           
                |  |  |   | |  | | |   __   |  |    \   |  |\   \          
                \     /   | |  | | |  |  |  |  | |\  \  |  | \   \       
                 \___/    |_|  |_| |__|  |__|  |_| \__\ |__|  \__/        
                                                                              
                      - O R C A' S   B I G   F R I E N D -                    
                                      &                                       
                       - I N T E G R A L  F E E D E R -                       
                                                                              
 v1 FN, 2020, v2 2021, v3 2022-2024                                           
------------------------------------------------------------------------------


----------------------
SHARK INTEGRAL PACKAGE
----------------------

Number of atoms                             ...     35
Number of basis functions                   ...    265
Number of shells                            ...    145
Maximum angular momentum                    ...      2
Integral batch strategy                     ... SHARK/LIBINT Hybrid
RI-J (if used) integral strategy            ... SPLIT-RIJ (Revised 2003 algorithm where possible)
Printlevel                                  ...      1
Contraction scheme used                     ... SEGMENTED contraction
Prescreening option                         ... SCHWARTZ
   Thresh                                   ... 1.000e-10
   Tcut                                     ... 1.000e-11
   Tpresel                                  ... 1.000e-11 
Coulomb Range Separation                    ... NOT USED
Exchange Range Separation                   ... NOT USED
Multipole approximations                    ... NOT USED
Finite Nucleus Model                        ... NOT USED
CABS basis                                  ... NOT available
Auxiliary Coulomb fitting basis             ... AVAILABLE
   # of basis functions in Aux-J            ...    955
   # of shells in Aux-J                     ...    325
   Maximum angular momentum in Aux-J        ...      4
Auxiliary J/K fitting basis                 ... NOT available
Auxiliary Correlation fitting basis         ... NOT available
Auxiliary 'external' fitting basis          ... NOT available

Checking pre-screening integrals            ... done (  0.0 sec) Dimension = 145
   => SHARK Basis and OBASIS are compatible. Storing Pre-screening
Shell pair information
Shell pair cut-off parameter TPreSel        ...   1.0e-11
Total number of shell pairs                 ...     10585
Shell pairs after pre-screening             ...      8852
Total number of primitive shell pairs       ...     38205
Primitive shell pairs kept                  ...     20840
          la=0 lb=0:   3914 shell pairs
          la=1 lb=0:   2752 shell pairs
          la=1 lb=1:    455 shell pairs
          la=2 lb=0:   1204 shell pairs
          la=2 lb=1:    423 shell pairs
          la=2 lb=2:    104 shell pairs

Checking whether 4 symmetric matrices of dimension 265 fit in memory
:Max Core in MB      =   2500.00
 MB in use           =     14.32
 MB left             =   2485.68
 MB needed           =      1.08
 Data fit in memory  = YES
Calculating RI/J V-Matrix + Cholesky decomp.... done (  0.0 sec)
Calculating Nuclear repulsion               ... done (  0.0 sec) ENN=   1106.075240620666 Eh

Diagonalization of the overlap matrix:
Smallest eigenvalue                        ... 1.952e-03
Time for diagonalization                   ...    0.013 sec
Threshold for overlap eigenvalues          ... 1.000e-07
Number of eigenvalues below threshold      ... 0
Time for construction of square roots      ...    0.004 sec
Total time needed                          ...    0.018 sec

-------------------
DFT GRID GENERATION
-------------------

General Integration Accuracy     IntAcc      ... 4.388
Radial Grid Type                 RadialGrid  ... OptM3 with GC (2021)
Angular Grid (max. ang.)         AngularGrid ... 4 (Lebedev-302)
Angular grid pruning method      GridPruning ... 4 (adaptive)
Weight generation scheme         WeightScheme... mBecke (2022)
Basis function cutoff            BFCut       ... 1.0000e-10
Integration weight cutoff        WCut        ... 1.0000e-14
Partially contracted basis set               ... off
Rotationally invariant grid construction     ... off
Angular grids for H and He will be reduced by one unit

Total number of grid points                  ...   152211
Total number of batches                      ...     2393
Average number of points per batch           ...       63
Average number of grid points per atom       ...     4349

--------------------
COSX GRID GENERATION
--------------------

GRIDX 1
-------
General Integration Accuracy     IntAcc      ... 3.816
Radial Grid Type                 RadialGrid  ... OptM3 with GC (2021)
Angular Grid (max. ang.)         AngularGrid ... 1 (Lebedev-50)
Angular grid pruning method      GridPruning ... 4 (adaptive)
Weight generation scheme         WeightScheme... mBecke (2022)
Basis function cutoff            BFCut       ... 1.0000e-10
Integration weight cutoff        WCut        ... 1.0000e-14
Partially contracted basis set               ... on
Rotationally invariant grid construction     ... off
Angular grids for H and He will be reduced by one unit

Total number of grid points                  ...    19390
Total number of batches                      ...      176
Average number of points per batch           ...      110
Average number of grid points per atom       ...      554
UseSFitting                                  ... on

GRIDX 2
-------
General Integration Accuracy     IntAcc      ... 4.020
Radial Grid Type                 RadialGrid  ... OptM3 with GC (2021)
Angular Grid (max. ang.)         AngularGrid ... 2 (Lebedev-110)
Angular grid pruning method      GridPruning ... 4 (adaptive)
Weight generation scheme         WeightScheme... mBecke (2022)
Basis function cutoff            BFCut       ... 1.0000e-10
Integration weight cutoff        WCut        ... 1.0000e-14
Partially contracted basis set               ... on
Rotationally invariant grid construction     ... off
Angular grids for H and He will be reduced by one unit

Total number of grid points                  ...    40587
Total number of batches                      ...      336
Average number of points per batch           ...      120
Average number of grid points per atom       ...     1160
UseSFitting                                  ... on

GRIDX 3
-------
General Integration Accuracy     IntAcc      ... 4.338
Radial Grid Type                 RadialGrid  ... OptM3 with GC (2021)
Angular Grid (max. ang.)         AngularGrid ... 3 (Lebedev-194)
Angular grid pruning method      GridPruning ... 4 (adaptive)
Weight generation scheme         WeightScheme... mBecke (2022)
Basis function cutoff            BFCut       ... 1.0000e-10
Integration weight cutoff        WCut        ... 1.0000e-14
Partially contracted basis set               ... on
Rotationally invariant grid construction     ... off
Angular grids for H and He will be reduced by one unit

Total number of grid points                  ...    88279
Total number of batches                      ...      710
Average number of points per batch           ...      124
Average number of grid points per atom       ...     2522
UseSFitting                                  ... on
Grids setup in   1.6 sec
Initializing property integral containers    ... done (  0.0 sec)

SHARK setup successfully completed in   1.8 seconds

Maximum memory used throughout the entire STARTUP-calculation: 40.9 MB


           ************************************************************
           *        Program running with 12 parallel MPI-processes    *
           *              working on a common directory               *
           ************************************************************
Loading Hartree-Fock densities                     ... done
Calculating cut-offs                               ... done
Initializing the effective Hamiltonian             ... done
Setting up the integral package (SHARK)            ... done
Starting the Coulomb interaction                   ... done (   0.1 sec)
Making the grid                                    ... done (   0.2 sec)
Mapping shells                                     ... done
Starting the XC term evaluation                    ... done (   0.1 sec)
  promolecular density results
     # of electrons  =    113.987608072
     EX              =    -89.148577773
     EC              =     -3.805215414
     EX+EC           =    -92.953793188
Transforming the Hamiltonian                       ... done (   0.0 sec)
Diagonalizing the Hamiltonian                      ... done (   0.0 sec)
Back transforming the eigenvectors                 ... done (   0.0 sec)
Now organizing SCF variables                       ... done
             **** ENERGY FILE WAS UPDATED (inp.en.tmp) ****
Finished Guess after   0.5 sec
Maximum memory used throughout the entire GUESS-calculation: 17.6 MB


           ************************************************************
           *        Program running with 12 parallel MPI-processes    *
           *              working on a common directory               *
           ************************************************************
--------------------
CPCM SOLVATION MODEL
--------------------
CPCM parameters:
  Epsilon                                         ...       4.8030
  Refrac                                          ...       1.4459
  Rsolv                                           ...       1.3000
  Surface type                                    ... GAUSSIAN VDW
  Discretization scheme                           ... Constant charge density
    Threshold for H atoms                         ...       5.0000 (charges/Ang^2)
    Threshold for non-H atoms                     ...       5.0000 (charges/Ang^2)
  Epsilon function type                           ...         CPCM
Solvent:                                          ... CHLOROFORM
Radii:
  Scheme                                          ... Element-dependent radii
  Radius for C  used is    3.8550 Bohr (=   2.0400 Ang.)
  Radius for O  used is    3.4469 Bohr (=   1.8240 Ang.)
  Radius for H  used is    2.4944 Bohr (=   1.3200 Ang.)
Calculating surface                               ...        done! (  0.0s)
Cavity surface points                             ...         2594
Cavity Volume                                     ...    1806.2599
Cavity Surface-area                               ...     913.5964
Calculating surface distance matrix               ...        done! (  0.1s)
Performing Cholesky decomposition & store         ...        done! (  0.2s)
Overall time for CPCM initialization              ...                 0.3s

----------------------------------------D-I-I-S--------------------------------------------
Iteration    Energy (Eh)           Delta-E    RMSDP     MaxDP     DIISErr   Damp  Time(sec)
-------------------------------------------------------------------------------------------
               ***  Starting incremental Fock matrix formation  ***
    1    -656.9530361567246928     0.00e+00  8.65e-03  7.35e-02  2.43e-01  0.700   2.1
    2    -657.1407066507372292    -1.88e-01  6.28e-03  4.13e-02  1.06e-01  0.700   1.3
                               ***Turning on AO-DIIS***
    3    -657.2190124383319016    -7.83e-02  2.54e-03  1.60e-02  3.74e-02  0.700   1.3
    4    -657.2647937225879105    -4.58e-02  4.28e-03  2.60e-02  1.82e-02  0.000   1.2
    5    -657.3639717772264248    -9.92e-02  8.37e-04  4.81e-03  4.83e-03  0.000   1.3
                              *** Initializing SOSCF ***
---------------------------------------S-O-S-C-F--------------------------------------
Iteration    Energy (Eh)           Delta-E    RMSDP     MaxDP     MaxGrad    Time(sec)
--------------------------------------------------------------------------------------
    6    -657.3643073884024943    -3.36e-04  2.74e-04  1.77e-03  1.00e-03     1.2
               *** Restarting incremental Fock matrix formation ***
    7    -657.3643900547049270    -8.27e-05  1.75e-04  1.17e-03  3.85e-04     2.1
    8    -657.3643846679228773     5.39e-06  9.55e-05  7.69e-04  7.01e-04     1.5
    9    -657.3643938192558380    -9.15e-06  1.53e-05  1.17e-04  2.99e-05     1.3
                  *** Gradient check signals convergence ***

               *****************************************************
               *                     SUCCESS                       *
               *           SCF CONVERGED AFTER   9 CYCLES          *
               *****************************************************

Recomputing exchange energy using gridx3       ... done (    2.859 sec)
Old exchange energy                            :    -18.195320288 Eh
New exchange energy                            :    -18.195373469 Eh
Exchange energy change after final integration :     -0.000053181 Eh
Total energy after final integration           :   -657.364446903 Eh
             **** ENERGY FILE WAS UPDATED (inp.en.tmp) ****

----------------
TOTAL SCF ENERGY
----------------

Total Energy       :       -657.36444690275709 Eh          -17887.79600 eV

Components:
Nuclear Repulsion  :       1106.07524062066636 Eh           30097.83744 eV
Electronic Energy  :      -1763.42695126337799 Eh          -47985.28687 eV
One Electron Energy:      -3089.19743254077093 Eh          -84061.33574 eV
Two Electron Energy:       1325.77048127739295 Eh           36076.04887 eV
CPCM Dielectric    :         -0.01268307867508 Eh              -0.34512 eV

Virial components:
Potential Energy   :      -1309.67933558607501 Eh          -35638.18653 eV
Kinetic Energy     :        652.31488868331792 Eh           17750.39053 eV
Virial Ratio       :          2.00774098262517

DFT components:
N(Alpha)           :       56.999833589172 electrons
N(Beta)            :       56.999833589172 electrons
N(Total)           :      113.999667178344 electrons
E(X)               :      -72.172275239157 Eh       
E(C)               :       -4.482320228156 Eh       
E(XC)              :      -76.654595467313 Eh       

CPCM Solvation Model Properties:
Surface-charge          :         -0.02166159549660
Corrected charge        :          0.00000000000000
Outlying charge corr.   :          0.00002314045503 Eh               0.00063 eV
Free-energy (cav+disp)  :  This term is not implemented in the current solvation scheme

---------------
SCF CONVERGENCE
---------------

  Last Energy change         ...    9.1513e-06  Tolerance :   1.0000e-06
  Last MAX-Density change    ...    1.1683e-04  Tolerance :   1.0000e-07
  Last RMS-Density change    ...    1.5338e-05  Tolerance :   5.0000e-09
  Last DIIS Error            ...    1.0027e-03  Tolerance :   1.0000e-06
  Last Orbital Gradient      ...    2.9858e-05  Tolerance :   3.3300e-04
  Last Orbital Rotation      ...    9.6042e-05  Tolerance :   3.3300e-04


----------------
ORBITAL ENERGIES
----------------

  NO   OCC          E(Eh)            E(eV) 
   0   2.0000     -19.146212      -520.9949 
   1   2.0000     -19.111194      -520.0420 
   2   2.0000     -10.223759      -278.2026 
   3   2.0000     -10.215978      -277.9909 
   4   2.0000     -10.191188      -277.3163 
   5   2.0000     -10.189134      -277.2604 
   6   2.0000     -10.186735      -277.1951 
   7   2.0000     -10.182435      -277.0782 
   8   2.0000     -10.175061      -276.8775 
   9   2.0000     -10.173716      -276.8409 
  10   2.0000     -10.171605      -276.7834 
  11   2.0000     -10.171245      -276.7736 
  12   2.0000     -10.168675      -276.7037 
  13   2.0000     -10.162882      -276.5461 
  14   2.0000     -10.158973      -276.4397 
  15   2.0000      -1.019218       -27.7343 
  16   2.0000      -0.989974       -26.9386 
  17   2.0000      -0.853298       -23.2194 
  18   2.0000      -0.801115       -21.7994 
  19   2.0000      -0.760022       -20.6812 
  20   2.0000      -0.751131       -20.4393 
  21   2.0000      -0.713492       -19.4151 
  22   2.0000      -0.677602       -18.4385 
  23   2.0000      -0.676241       -18.4014 
  24   2.0000      -0.655193       -17.8287 
  25   2.0000      -0.601334       -16.3631 
  26   2.0000      -0.587047       -15.9744 
  27   2.0000      -0.551266       -15.0007 
  28   2.0000      -0.530507       -14.4358 
  29   2.0000      -0.510417       -13.8891 
  30   2.0000      -0.496564       -13.5122 
  31   2.0000      -0.474001       -12.8982 
  32   2.0000      -0.471861       -12.8400 
  33   2.0000      -0.464947       -12.6519 
  34   2.0000      -0.442130       -12.0310 
  35   2.0000      -0.433995       -11.8096 
  36   2.0000      -0.427288       -11.6271 
  37   2.0000      -0.413008       -11.2385 
  38   2.0000      -0.408192       -11.1075 
  39   2.0000      -0.402276       -10.9465 
  40   2.0000      -0.399178       -10.8622 
  41   2.0000      -0.378124       -10.2893 
  42   2.0000      -0.373947       -10.1756 
  43   2.0000      -0.372042       -10.1238 
  44   2.0000      -0.361473        -9.8362 
  45   2.0000      -0.356584        -9.7032 
  46   2.0000      -0.351427        -9.5628 
  47   2.0000      -0.343911        -9.3583 
  48   2.0000      -0.325957        -8.8697 
  49   2.0000      -0.321277        -8.7424 
  50   2.0000      -0.307577        -8.3696 
  51   2.0000      -0.300360        -8.1732 
  52   2.0000      -0.292403        -7.9567 
  53   2.0000      -0.263608        -7.1731 
  54   2.0000      -0.250837        -6.8256 
  55   2.0000      -0.240037        -6.5317 
  56   2.0000      -0.237406        -6.4601 
  57   0.0000       0.016928         0.4606 
  58   0.0000       0.021588         0.5874 
  59   0.0000       0.079598         2.1660 
  60   0.0000       0.098262         2.6738 
  61   0.0000       0.115937         3.1548 
  62   0.0000       0.127016         3.4563 
  63   0.0000       0.138328         3.7641 
  64   0.0000       0.147291         4.0080 
  65   0.0000       0.150593         4.0979 
  66   0.0000       0.154881         4.2145 
  67   0.0000       0.160632         4.3710 
*Only the first 10 virtual orbitals were printed.
Total SCF time: 0 days 0 hours 0 min 17 sec 
Finished LeanSCF after  18.0 sec

Maximum memory used throughout the entire LEANSCF-calculation: 31.6 MB


-------------------------------------------------------------------------------
                          DFT DISPERSION CORRECTION                            
                                                                               
                              DFTD3 V3.1  Rev 1                                
                          USING Becke-Johnson damping                          
-------------------------------------------------------------------------------
-------------------------   ----------------
Dispersion correction           -0.073891206
-------------------------   ----------------

NOTIFICATION: Different basis set in ORCA and otool_gcp:
ORCA: 265  gCP: 250 
If you are NOT using ECPs, check your basis set inputs!
------------------   -----------------
gCP correction             0.163039895
------------------   -----------------

-------------------------   --------------------
FINAL SINGLE POINT ENERGY      -657.275298214302
-------------------------   --------------------



           ************************************************************
           *        Program running with 12 parallel MPI-processes    *
           *              working on a common directory               *
           ************************************************************
------------------------------------------------------------------------------
                         ORCA SCF GRADIENT CALCULATION
------------------------------------------------------------------------------

Nuc. rep. gradient        (SHARK) ... done (  0.0 sec)
HCore & Overlap gradient  (SHARK) ... done (  0.1 sec)
Split-RIJ-J gradient      (SHARK) ... done (  0.6 sec)
COSX-gradient                     ... done (  6.9 sec)
XC gradient                       ... done (  2.0 sec)
CPCM gradient                     ... done (  0.7 sec)
Dispersion correction             ... done (  0.0 sec)

-------------------
DISPERSION GRADIENT
-------------------

   1   C   :    0.000224435   -0.000534167    0.000225530
   2   C   :   -0.000517809    0.000265426    0.000590066
   3   C   :   -0.000122214    0.001028357    0.000376983
   4   C   :    0.000292280    0.000968021   -0.000355658
   5   C   :    0.000628404    0.000321412   -0.000546327
   6   C   :    0.000608472   -0.000290470   -0.000741874
   7   C   :    0.000588635   -0.000285368    0.000682898
   8   C   :    0.000810429    0.000052895    0.000124569
   9   O   :    0.000353117   -0.000452375   -0.000735787
  10   C   :   -0.000201982   -0.001150899    0.000226744
  11   C   :    0.001195083    0.000205372    0.000401078
  12   C   :   -0.001188627    0.000193644    0.000108565
  13   C   :   -0.001066055    0.000048022    0.000426385
  14   H   :   -0.000215833    0.000091547    0.000479019
  15   O   :   -0.000091045   -0.000774513    0.000025846
  16   C   :   -0.000982078    0.000198677   -0.000657253
  17   H   :   -0.000058976    0.000517936    0.000185917
  18   H   :   -0.000099941    0.000490089    0.000363590
  19   H   :    0.000096975    0.000481743   -0.000353749
  20   H   :    0.000043184    0.000492129   -0.000149801
  21   H   :    0.000270273    0.000134053   -0.000392346
  22   H   :    0.000071528   -0.000137154   -0.000637641
  23   H   :    0.000288655   -0.000293338    0.000340599
  24   H   :    0.000169857   -0.000109071    0.000563480
  25   H   :    0.000136891   -0.000393846   -0.000335365
  26   H   :   -0.000214784   -0.000562110   -0.000039620
  27   H   :   -0.000129368   -0.000478055    0.000236816
  28   H   :    0.000306249    0.000066183    0.000151848
  29   H   :    0.000368370    0.000100116    0.000075485
  30   H   :   -0.000295290   -0.000022058    0.000106609
  31   H   :   -0.000339278    0.000003104    0.000262970
  32   H   :    0.000026388   -0.000450733    0.000111382
  33   H   :   -0.000356899    0.000221603   -0.000391054
  34   H   :   -0.000370404   -0.000003350   -0.000505191
  35   H   :   -0.000228641    0.000057180   -0.000224711

Difference to translation invariance:
           :    0.0000000000    0.0000000000    0.0000000000

Difference to rotation invariance:
           :   -0.0000000000    0.0000000000   -0.0000000000

Norm of the Dispersion gradient    ...    0.0045859472
RMS gradient                       ...    0.0004475426
MAX gradient                       ...    0.0011950829
gCP correction                   ... done

------------------
CARTESIAN GRADIENT
------------------

   1   C   :    0.000003191    0.000030538    0.000041081
   2   C   :    0.000015924   -0.000220185    0.000001248
   3   C   :   -0.000036308   -0.000027484   -0.000069877
   4   C   :    0.000077813    0.000020856   -0.000025924
   5   C   :    0.000000862    0.000026265   -0.000021384
   6   C   :    0.000107682   -0.000083602   -0.000040372
   7   C   :    0.000031474   -0.000051280   -0.000096348
   8   C   :   -0.000009216    0.000044750    0.000081090
   9   O   :   -0.000073531    0.000075718   -0.000019472
  10   C   :    0.000005389   -0.000064899   -0.000038241
  11   C   :   -0.000116867    0.000166654    0.000114422
  12   C   :   -0.000017359    0.000209464    0.000026800
  13   C   :   -0.000070045    0.000512789    0.000121656
  14   H   :    0.000002414    0.000007143    0.000003380
  15   O   :    0.000026099    0.000082992   -0.000064028
  16   C   :   -0.000005571   -0.000091160   -0.000024062
  17   H   :   -0.000003101   -0.000017233   -0.000040923
  18   H   :   -0.000038890   -0.000020649   -0.000002645
  19   H   :    0.000011863   -0.000018185    0.000000188
  20   H   :    0.000002019   -0.000008571   -0.000006702
  21   H   :   -0.000008887   -0.000014016    0.000003347
  22   H   :    0.000034195   -0.000001617   -0.000003828
  23   H   :   -0.000018136   -0.000030586    0.000035329
  24   H   :   -0.000008371    0.000033778    0.000008925
  25   H   :   -0.000013518   -0.000066174    0.000065852
  26   H   :   -0.000021538   -0.000005197    0.000035383
  27   H   :    0.000033324   -0.000006710    0.000021995
  28   H   :   -0.000001457   -0.000056321   -0.000050374
  29   H   :   -0.000000578   -0.000073088   -0.000013246
  30   H   :    0.000052942   -0.000193623   -0.000031940
  31   H   :    0.000022750   -0.000167515   -0.000096742
  32   H   :   -0.000033589   -0.000079507    0.000046623
  33   H   :   -0.000001017    0.000023077    0.000089829
  34   H   :    0.000009830    0.000071615   -0.000043702
  35   H   :    0.000040206   -0.000008036   -0.000007338

Difference to translation invariance:
           :    0.0000000000   -0.0000000000   -0.0000000000

Difference to rotation invariance:
           :   -0.0000751996   -0.0010790527   -0.0009433808

Norm of the Cartesian gradient     ...    0.0008173275
RMS gradient                       ...    0.0000797630
MAX gradient                       ...    0.0005127887

-------
TIMINGS
-------

Total SCF gradient time     ....       10.369 sec

Densities                   ....       0.001 sec  (  0.0%)
One electron gradient       ....       0.120 sec  (  1.2%)
RI-J Coulomb gradient       ....       0.588 sec  (  5.7%)
COSX gradient               ....       6.877 sec  ( 66.3%)
XC gradient                 ....       2.028 sec  ( 19.6%)
CPCM gradient               ....       0.687 sec  (  6.6%)
   A-Matrix (El+Nuc)        ....       0.026 sec  (  0.2%)
   Potential                ....       0.661 sec  (  6.4%)

Maximum memory used throughout the entire SCFGRAD-calculation: 37.8 MB


           ************************************************************
           *        Program running with 12 parallel MPI-processes    *
           *              working on a common directory               *
           ************************************************************

------------------------------------------------------------------------------
                              ORCA PROPERTY CALCULATIONS
------------------------------------------------------------------------------

GBWName                                 ... inp.gbw
Number of atoms                         ...     35
Number of basis functions               ...    265
Max core memory                         ...   2500 MB

Electric properties:
Dipole moment                           ... YES
Quadrupole moment                       ...  NO
Static polarizability (Dipole/Dipole)   ...  NO
Static polarizability (Dipole/Quad.)    ...  NO
Static polarizability (Quad./Quad.)     ...  NO
Static polarizability (Velocity)        ...  NO
Static hyperpolarizability              ...  NO

Atomic electric properties:
Dipole moment                           ...  NO
Quadrupole moment                       ...  NO
Static polarizability                   ...  NO

Choice of electric origin               ... Center of mass
Position of electric origin             ...     0.010441     0.000860    -0.014667

General magnetic properties:
Magnetizability                         ...  NO

EPR properties:
g-Tensor (aka g-matrix)                 ...  NO
Zero-Field splitting spin-orbit         ...  NO
Zero-field splitting spin-spin          ...  NO
Hyperfine couplings                     ...  NO (   0 nuclei)
Quadrupole couplings                    ...  NO (   0 nuclei)
Contact density                         ...  NO (   0 nuclei)

NMR properties:
Chemical shifts                         ...  NO (   0 nuclei)
Spin-rotation constants                 ...  NO (   0 nuclei)
Spin-spin couplings                     ...  NO (   0 nuclei,    0 pairs)

Choice of magnetic origin               ... GIAO
Position of magnetic origin             ...     0.000000     0.000000     0.000000

Properties with geometric perturbations:
SCF Hessian                             ...  NO
IR spectrum                             ...  NO
VCD spectrum                            ...  NO
X-ray spectroscopy properties:
SCF XES/XAS/RIXS spectra                ...  NO

SCF SOC stabilization energy            ...  NO
Diagonal Born-Oppenheimer correction    ...  NO

-------------
DIPOLE MOMENT
-------------

Method             : SCF
Type of density    : Electron Density
Multiplicity       :   1
Irrep              :   0
Energy             :  -657.3644469027570949 Eh
Basis              : AO
                                X                 Y                 Z
Electronic contribution:      4.673911271      -5.421931477      -1.011359922
Nuclear contribution   :     -5.318795272       5.567070674       2.024230004
                        -----------------------------------------
Total Dipole Moment    :     -0.644884000       0.145139198       1.012870081
                        -----------------------------------------
Magnitude (a.u.)       :      1.209481940
Magnitude (Debye)      :      3.074258775



--------------------
Rotational spectrum 
--------------------
 
Rotational constants in cm-1:             0.026750             0.018993             0.014736 
Rotational constants in MHz :           801.946980           569.383088           441.778465 

Dipole components along the rotational axes: 
x,y,z [a.u.] :    -0.653560     0.148740     1.006768 
x,y,z [Debye]:    -1.661217     0.378067     2.559002 

 

Dipole moment calculation done in   0.0 sec 

Maximum memory used throughout the entire PROP-calculation: 16.6 MB

--------------------------------
SUGGESTED CITATIONS FOR THIS RUN
--------------------------------

Below you find a list of papers that are relevant to this ORCA run
We neither can nor want to force you to cite these papers, but we appreciate if you do
You receive ORCA, which is the product of decades of hard work by many enthusiastic individuals, for free
The only thing we kindly ask in return is that you cite our papers,
We deeply appreciate it, if you show your appreciation for ORCA by not just citing the generic ORCA reference.

Please note that relegating all ORCA citations to the supporting information does *not* help us.
SI sections are not indexed - citations you put there will not count into any citation statistics
But we need these citations in order to attract the funding resources that allow us to do what we are doing

Therefore, if you are a happy ORCA user, please consider citing a few of the papers listed below in the main body of your paper

In addition to the list printed below, the program has created the file inp.bibtex that contains the list in bibtex format
You can import this file easily into all common literature databanks and citation aid programs

It goes without saying that in many instances, there are alternative algorithms to achieve similar
results as the ones you have gotten from ORCA. It is, of course, also the case that in some instances
ORCA just re-implements algorithms worked out by others. We are fully aware of that and we are also
fully appreciative of our colleagues work. Hence this citation list should not be read as indicating
that the listed papers, which are focused on our own work, are the only ones worth citing. It simply
meant to make it easier for users to cite ORCA specific papers. It is not a substitute for doing your
own literature research and citing the relevant literature in a scientifically appropriate manner.

List of essential papers. We consider these as the minimum necessary citations

  1. Neese, F.
     Software update: the ORCA program system, version 6.0
     WIRES Comput. Molec. Sci. 2025 15(1), e70019
     doi.org/10.1002/wcms.70019

List of papers to cite with high priority. The work reported in these papers was absolutely
necessary for this run to complete.
Our perspective: the developers of density functionals and basis sets usually get cited in chemistry papers
Good! But without the algorithms to do something with them, the functionals or basis sets would not do anything.
Hence, in our opinion, the algorithm design and method developments papers are equally worthy of getting cited

  1. Neese, F.
     An improvement of the resolution of the identity approximation for the formation of the Coulomb matrix
     J. Comp. Chem. 2003 24(14), 1740-1747
     doi.org/10.1002/jcc.10318
  2. Neese, F.; Wennmohs, F.; Hansen, A.; Becker, U.
     Efficient, approximate and parallel Hartree-Fock and hybrid DFT calculations. A 'chain-of-spheres' algorithm for the Hartree-Fock exchange
     Chem. Phys. 2009 356(1-3), 98-109
     doi.org/10.1016/j.chemphys.2008.10.036
  3. Grimme, S.; Antony, J.; Ehrlich, S.; Krieg, H.
     A consistent and accurate ab initio parametrization of density functional dispersion correction (DFT-D) for the 94 elements H-Pu
     J. Chem. Phys. 2010 132 , 154104
     doi.org/10.1063/1.3382344
  4. Grimme, S.; Ehrlich, S.; Goerigk, L.
     Effect of the damping function in dispersion corrected density functional theory
     J. Comput. Chem. 2011 32(7), 1456-1465
     doi.org/10.1002/jcc.21759
  5. Garcia-Rates, M.; Neese, F.
     Effect of the Solute Cavity on the Solvation Energy and its Derivatives within the Framework of the Gaussian Charge Scheme
     J. Comput. Chem. 2020 41 , 922-939
     doi.org/10.1002/jcc.26139
  6. Helmich-Paris, B.; de Souza, B.; Neese, F.; Izsák, R.
     An improved chain of spheres for exchange algorithm
     J. Chem. Phys. 2021 155(10), 104109
     doi.org/10.1063/5.0058766
  7. Neese, F.
     The SHARK Integral Generation and Digestion System
     J. Comp. Chem. 2022 44(3), 381
     doi.org/10.1002/jcc.26942

List of suggested additional citations. These are papers that are important in the 'surrounding' of 
of this run, or papers that preceded the highly important papers. If you like your results we are grateful for a citation.

  1. Izsak, R.; Neese, F.
     An overlap fitted chain of spheres exchange method
     J. Chem. Phys. 2011 135 , 144105
     doi.org/10.1063/1.3646921
  2. Izsak, R.; Hansen, A.; Neese, F.
     The resolution of identity and chain of spheres approximations for the LPNO-CCSD singles Fock term
     Molec. Phys. 2012 110 , 2413-2417
     doi.org/10.1080/00268976.2012.687466
  3. Neese, F.
     The ORCA program system
     WIRES Comput. Molec. Sci. 2012 2(1), 73-78
     doi.org/10.1002/wcms.81
  4. Izsak, R.; Neese, F.; Klopper, W.
     Robust fitting techniques in the chain of spheres approximation to the Fock exchange: The role of the complementary space
     J. Chem. Phys. 2013 139 , 
     doi.org/10.1063/1.4819264
  5. Neese, F.
     Software update: the ORCA program system, version 4.0
     WIRES Comput. Molec. Sci. 2018 8(1), 1-6
     doi.org/10.1002/wcms.1327
  6. Neese, F.; Wennmohs, F.; Becker, U.; Riplinger, C.
     The ORCA quantum chemistry program package
     J. Chem. Phys. 2020 152(22), 224108
     doi.org/10.1063/5.0004608
  7. Neese, F.
     Software update: The ORCA program system—Version 5.0
     WIRES Comput. Molec. Sci. 2022 12(1), e1606
     doi.org/10.1002/wcms.1606

List of optional additional citations

  1. Neese, F.
     Approximate second-order SCF convergence for spin unrestricted wavefunctions
     Chem. Phys. Lett. 2000 325(1-3), 93-98
     doi.org/10.1016/s0009-2614(00)00662-x

Timings for individual modules:

Sum of individual times          ...       31.986 sec (=   0.533 min)
Startup calculation              ...        2.043 sec (=   0.034 min)   6.4 %
SCF iterations                   ...       18.853 sec (=   0.314 min)  58.9 %
Property calculations            ...        0.360 sec (=   0.006 min)   1.1 %
SCF Gradient evaluation          ...       10.731 sec (=   0.179 min)  33.5 %
                             ****ORCA TERMINATED NORMALLY****
TOTAL RUN TIME: 0 days 0 hours 0 minutes 32 seconds 431 msec
  ------------------------------------------------------------------------
          * successful ORCA run, taking over control again...
av. E:   -657.2752982 ->   -657.2752982
av. G:      0.0012736 ->      0.0012736
 * total energy  :  -657.2752982 Eh     change       -0.3204086E-05 Eh
   gradient norm :     0.0008158 Eh/a0  converged?    E=T G=T D=F
   step length   :     0.0232354 a0

   *** GEOMETRY OPTIMIZATION CONVERGED AFTER 1 CYCLES ***

------------------------------------------------------------------------
 total energy gain   :        -0.0000032 Eh       -0.0020 kcal/mol
 total RMSD          :         0.0039275 a0        0.0021 Å
 total power (kW/mol):        -0.0084123 (step)   -0.0003 (real)
------------------------------------------------------------------------

 L-ANCopt (total)              0 d,  0 h,  0 min, 32.601 sec
 setup                          ...        0 min,  0.001 sec (  0.002%)
 model hessian                  ...        0 min,  0.137 sec (  0.420%)
 ANC generation                 ...        0 min,  0.005 sec (  0.014%)
 coordinate transformation      ...        0 min,  0.000 sec (  0.000%)
 Rational function              ...        0 min,  0.000 sec (  0.000%)
 singlepoint calculation        ...        0 min, 32.458 sec ( 99.562%)
 optimization log               ...        0 min,  0.000 sec (  0.001%)
                                ...        0 min,  0.000 sec (  0.000%)

================
 final structure:
================
$coord
       -0.03745766125401       -1.09902277535828        0.55646742507525      c
       -1.92067415648428        1.07512376020327        1.36666557210034      c
       -0.68362980895646        3.74693206128293        1.08860679082606      c
        1.05781126825105        4.07268409432057       -1.23179737071781      c
        2.77736890041958        1.73135500474716       -1.59977995009330      c
        1.10336633247510       -0.59160001483831       -2.11837657637168      c
        2.38360452503479       -0.89272558259627        2.24186580658103      c
        4.07403857423741        1.01333320610262        0.87560507043663      c
        2.70153937958301       -2.59674430933928       -2.99202314857892      o
       -1.43781965132198       -3.64893594014668        0.82017928934711      c
        6.28542160587345        1.90822355214419        1.70858287755610      c
       -4.58998522461135        0.97352946539985        0.24126002134667      c
       -6.55914194839705        0.45224768981420        1.75999340126918      c
       -2.20215467329838        0.78023899430520        3.41082549487422      h
        0.04442684464858       -5.85167618039955        0.17040057081015      o
       -5.04435698521690        1.57362040377737       -2.52641234110839      c
       -2.17357442643037        5.20081281549105        1.08057835794248      h
        0.44578114406318        4.10280504466743        2.80038762800395      h
       -0.05304084927266        4.36445001530514       -2.97055579130464      h
        2.22757330391878        5.77650381731389       -0.97687752443225      h
        4.12954904303945        2.06905432045371       -3.14517667493401      h
       -0.36070564181746       -0.18575776429874       -3.54567384242211      h
        3.36827240106115       -2.72419495293496        2.36986363911019      h
        1.94048047402375       -0.31726361085302        4.19286915003413      h
        1.97867323034102       -4.19612939249146       -2.37388449713404      h
       -3.06051645965530       -3.70125207080536       -0.47539068002618      h
       -2.18995728645015       -3.83633359357579        2.75934247162796      h
        7.08201946974725        1.33348210918628        3.52571985256212      h
        7.39642477121597        3.24765776092512        0.59654097217143      h
       -8.49829044562517        0.42325107939397        1.05164120546240      h
       -6.30942671925543        0.02234657578653        3.76384080168737      h
        1.23178573351655       -6.19470074473424        1.54721311388585      h
       -4.17735523391032        3.38457213502761       -3.07287431613589      h
       -4.24369783463550        0.11943332653200       -3.78149113566189      h
       -7.07938975722239        1.69493275100641       -2.92891083008830      h
$end
 
 Bond Distances (Angstroems)
 ---------------------------
C1-C2=1.5813         C1-C6=1.5621         C1-C7=1.5649         C1-C10=1.5458        C2-C1=1.5813         C2-C3=1.5650         
C2-C12=1.5339        C2-H14=1.1030        C3-C2=1.5650         C3-C4=1.5449         C3-H17=1.1016        C3-H18=1.1015        
C4-C3=1.5449         C4-C5=1.5495         C4-H19=1.1027        C4-H20=1.1020        C5-C4=1.5495         C5-C6=1.5398         
C5-C8=1.5268         C5-H21=1.1012        C6-C1=1.5621         C6-C5=1.5398         C6-O9=1.4335         C6-H22=1.1031        
C7-C1=1.5649         C7-C8=1.5298         C7-H23=1.1024        C7-H24=1.1016        C8-C5=1.5268         C8-C7=1.5298         
C8-C11=1.3371        O9-C6=1.4335         O9-H25=0.9847        C10-C1=1.5458        C10-O15=1.4464       C10-H26=1.0992       
C10-H27=1.1051       C11-C8=1.3371        C11-H28=1.0931       C11-H29=1.0929       C12-C2=1.5339        C12-C13=1.3446       
C12-C16=1.5178       C13-C12=1.3446       C13-H30=1.0926       C13-H31=1.0925       H14-C2=1.1030        O15-C10=1.4464       
O15-H32=0.9791       C16-C12=1.5178       C16-H33=1.1011       C16-H34=1.1013       C16-H35=1.0996       H17-C3=1.1016        
H18-C3=1.1015        H19-C4=1.1027        H20-C4=1.1020        H21-C5=1.1012        H22-C6=1.1031        H23-C7=1.1024        
H24-C7=1.1016        H25-O9=0.9847        H26-C10=1.0992       H27-C10=1.1051       H28-C11=1.0931       H29-C11=1.0929       
H30-C13=1.0926       H31-C13=1.0925       H32-O15=0.9791       H33-C16=1.1011       H34-C16=1.1013       H35-C16=1.0996       
 C  H  Rav=1.0998 sigma=0.0040  Rmin=1.0925  Rmax=1.1051    18
 C  C  Rav=1.5174 sigma=0.0740  Rmin=1.3371  Rmax=1.5813    14
 O  H  Rav=0.9819 sigma=0.0028  Rmin=0.9791  Rmax=0.9847     2
 O  C  Rav=1.4400 sigma=0.0065  Rmin=1.4335  Rmax=1.4464     2
 
 selected bond angles (degree)
 --------------------
C6-C1-C2=111.36                C7-C1-C2=108.10                C7-C1-C6=100.84                C10-C1-C2=107.97               
C10-C1-C6=114.65               C10-C1-C7=113.70               C3-C2-C1=111.60                C12-C2-C1=116.72               
C12-C2-C3=112.36               H14-C2-C1=104.36               H14-C2-C3=106.05               H14-C2-C12=104.56              
C4-C3-C2=115.15                H17-C3-C2=109.39               H17-C3-C4=110.24               H18-C3-C2=107.70               
H18-C3-C4=108.11               H18-C3-H17=105.79              C5-C4-C3=111.16                H19-C4-C3=111.15               
H19-C4-C5=108.67               H20-C4-C3=109.21               H20-C4-C5=109.86               H20-C4-H19=106.68              
C6-C5-C4=108.84                C8-C5-C4=110.80                C8-C5-C6=102.29                H21-C5-C4=110.19               
H21-C5-C6=111.78               H21-C5-C8=112.67               C5-C6-C1=101.42                O9-C6-C1=113.14                
O9-C6-C5=108.00                H22-C6-C1=112.49               H22-C6-C5=111.76               H22-C6-O9=109.73               
C8-C7-C1=104.80                H23-C7-C1=111.14               H23-C7-C8=109.41               H24-C7-C1=112.28               
H24-C7-C8=112.65               H24-C7-H23=106.62              C7-C8-C5=107.86                C11-C8-C5=126.02               
C11-C8-C7=126.12               H25-O9-C6=107.45               O15-C10-C1=114.96              H26-C10-C1=109.89              
H26-C10-O15=104.78             H27-C10-C1=109.56              H27-C10-O15=110.10             H27-C10-H26=107.19             
 
 selected dihedral angles (degree)
 ---------------------------------
C3-C2-C1-C6=308.26            C3-C2-C1-C7= 58.15            C3-C2-C1-C10=181.56           C12-C2-C1-C6= 79.36           
C12-C2-C1-C7=189.25           C12-C2-C1-C10=312.66          H14-C2-C1-C6=194.16           H14-C2-C1-C7=304.05           
H14-C2-C1-C10= 67.46          C4-C3-C2-C1= 37.60            C4-C3-C2-C12=264.31           C4-C3-C2-H14=150.66           
H17-C3-C2-C1=162.38           H17-C3-C2-C12= 29.09          H17-C3-C2-H14=275.43          H18-C3-C2-C1=276.91           
H18-C3-C2-C12=143.62          H18-C3-C2-H14= 29.96          C5-C4-C3-C2=317.10            C5-C4-C3-H17=192.77           
C5-C4-C3-H18= 77.57           H19-C4-C3-C2= 78.28           H19-C4-C3-H17=313.95          H19-C4-C3-H18=198.76          
H20-C4-C3-C2=195.72           H20-C4-C3-H17= 71.39          H20-C4-C3-H18=316.19          C6-C5-C4-C3= 62.53            
C6-C5-C4-H19=299.90           C6-C5-C4-H20=183.53           C8-C5-C4-C3=310.81            C8-C5-C4-H19=188.18           
C8-C5-C4-H20= 71.81           H21-C5-C4-C3=185.43           H21-C5-C4-H19= 62.80          H21-C5-C4-H20=306.42          
C5-C6-C1-C2= 68.22            C5-C6-C1-C7=313.73            C5-C6-C1-C10=191.17           O9-C6-C1-C2=183.64            
O9-C6-C1-C7= 69.15            O9-C6-C1-C10=306.59           H22-C6-C1-C2=308.69           H22-C6-C1-C7=194.20           
H22-C6-C1-C10= 71.64          C1-C6-C5-C4=286.75            C1-C6-C5-C8= 44.02            C1-C6-C5-H21=164.81           
O9-C6-C5-C4=167.59            O9-C6-C5-C8=284.87            O9-C6-C5-H21= 45.65           H22-C6-C5-C4= 46.80           
H22-C6-C5-C8=164.07           H22-C6-C5-H21=284.86          C8-C7-C1-C2=273.89            C8-C7-C1-C6= 30.81            
C8-C7-C1-C10=154.03           H23-C7-C1-C2=155.82           H23-C7-C1-C6=272.73           H23-C7-C1-C10= 35.95          
H24-C7-C1-C2= 36.49           H24-C7-C1-C6=153.40           H24-C7-C1-C10=276.62          C7-C8-C5-C4= 91.00            
C7-C8-C5-C6=335.14            C7-C8-C5-H21=214.97           C11-C8-C5-C4=271.48           C11-C8-C5-C6=155.61           
C11-C8-C5-H21= 35.45          C5-C8-C7-C1=355.94            C5-C8-C7-H23=115.18           C5-C8-C7-H24=233.58           
C11-C8-C7-C1=175.46           C11-C8-C7-H23=294.70          C11-C8-C7-H24= 53.10          H25-O9-C6-C1= 35.21           
H25-O9-C6-C5=146.64           H25-O9-C6-H22=268.68          O15-C10-C1-C2=180.61          O15-C10-C1-C6= 55.85          
O15-C10-C1-C7=300.55          H26-C10-C1-C2= 62.73          H26-C10-C1-C6=297.97          H26-C10-C1-C7=182.67          
H27-C10-C1-C2=305.21          H27-C10-C1-C6=180.45          H27-C10-C1-C7= 65.14          
           -------------------------------------------------
          |                Final Singlepoint                |
           -------------------------------------------------
                         * ORCA takes the control...
  ------------------------------------------------------------------------

                                 *****************
                                 * O   R   C   A *
                                 *****************

                                            #,                                       
                                            ###                                      
                                            ####                                     
                                            #####                                    
                                            ######                                   
                                           ########,                                 
                                     ,,################,,,,,                         
                               ,,#################################,,                 
                          ,,##########################################,,             
                       ,#########################################, ''#####,          
                    ,#############################################,,   '####,        
                  ,##################################################,,,,####,       
                ,###########''''           ''''###############################       
              ,#####''   ,,,,##########,,,,          '''####'''          '####       
            ,##' ,,,,###########################,,,                        '##       
           ' ,,###''''                  '''############,,,                           
         ,,##''                                '''############,,,,        ,,,,,,###''
      ,#''                                            '''#######################'''  
     '                                                          ''''####''''         
             ,#######,   #######,   ,#######,      ##                                
            ,#'     '#,  ##    ##  ,#'     '#,    #''#        ,####,    ,#,          
            ##       ##  ##   ,#'  ##            #'  '#       #'       ,# #          
            ##       ##  #######   ##           ,######,      #####,      #          
            '#,     ,#'  ##    ##  '#,     ,#' ,#      #,     #,   #      #          
             '#######'   ##     ##  '#######'  #'      '#     '####' #    #          



                #########################################################
                #                        -***-                          #
                #          Department of theory and spectroscopy        #
                #                                                       #
                #                      Frank Neese                      #
                #                                                       #
                #     Directorship, Architecture, Infrastructure        #
                #                    SHARK, DRIVERS                     #
                #        Core code/Algorithms in most modules           #
                #                                                       #
                #        Max Planck Institute fuer Kohlenforschung      #
                #                Kaiser Wilhelm Platz 1                 #
                #                 D-45470 Muelheim/Ruhr                 #
                #                      Germany                          #
                #                                                       #
                #                  All rights reserved                  #
                #                        -***-                          #
                #########################################################


                         Program Version 6.1.1  -  RELEASE   -
                                (GIT: $487d211c$)
                          ($2025-11-21 10:33:24 +0100$)


 With contributions from (in alphabetic order):
[Max-Planck-Institut fuer Kohlenforschung]                               
  Daniel Aravena         : Magnetic Suceptibility                        
  Michael Atanasov       : Ab Initio Ligand Field Theory (pilot matlab implementation)
  Alexander A. Auer      : GIAO ZORA, VPT2 properties, NMR spectrum      
  Ute Becker             : All parallelization in ORCA, NUMFREQ, NUMCALC 
  Giovanni Bistoni       : ED, misc. LED, open-shell LED, HFLD           
  Dmytro Bykov           : pre 5.0 version of the SCF Hessian            
  Marcos Casanova-Páez   : Triplet and SCS-CIS(D). UHF-(DLPNO)-IP/EA/STEOM-CCSD. UHF-CVS-IP/STEOM-CCSD   
  Vijay G. Chilkuri      : MRCI spin determinant printing, contributions to CSF-ICE 
  Pauline Colinet        : FMM embedding                                 
  Dipayan Datta          : RHF DLPNO-CCSD density                        
  Achintya Kumar Dutta   : EOM-CC, STEOM-CC                              
  Nicolas Foglia         : Exact transition moments, OPA infrastructure, MCD improvements    
  Dmitry Ganyushin       : Spin-Orbit,Spin-Spin,Magnetic field MRCI      
  Miquel Garcia-Rates    : C-PCM and meta-GGA Hessian, CCSD/C-PCM, Gaussian charge scheme 
  Tiago L. C. Gouveia    : GS-ROHF, GS-ROCIS                             
  Yang Guo               : DLPNO-NEVPT2, F12-NEVPT2, CIM, IAO-localization        
  Andreas Hansen         : Spin unrestricted coupled pair/coupled cluster methods 
  Ingolf Harden          : AUTO-CI MPn and infrastructure                
  Benjamin Helmich-Paris : MC-RPA, TRAH-(SCF,CASSCF), AVAS, COSX integrals, SCF dyn. polar., MC-PDFT, srDFT 
  Lee Huntington         : MR-EOM, pCC                                   
  Robert Izsak           : Overlap fitted RIJCOSX, COSX-SCS-MP3, EOM     
  Riya Kayal             : Wick's Theorem for AUTO-CI, AUTO-CI UHF-CCSDT 
  Emily Kempfer          : AUTO-CI RHF CISDT and CCSDT, approximate NEVPT4
  Christian Kollmar      : KDIIS, OOCD, Brueckner-CCSD(T), CCSD density, CASPT2, CASPT2-K, improved NEVPT2 
  Axel Koslowski         : Symmetry handling                             
  Simone Kossmann        : meta-GGA functionals, TD-DFT gradient, OOMP2, (MP2 Hessian; deprecated post 5.0) 
  Lucas Lang             : DCDCAS, Hyperfine gauge corrections, ICE-SOC+SSC
  Marvin Lechner         : AUTO-CI (C++ implementation), FIC-MRCC        
  Spencer Leger          : CASSCF response                               
  Dagmar Lenk            : GEPOL surface, SMD, ORCA-2-JSON               
  Dimitrios Liakos       : Extrapolation schemes; Compound Job, Property file
  Dimitrios Manganas     : Further ROCIS development; embedding schemes. LFT, Crystal Embedding 
  Dimitrios Pantazis     : SARC Basis sets                               
  Anastasios Papadopoulos: AUTO-CI, single reference methods and gradients 
  Taras Petrenko         : pre 6.0 DFT Hessian and TD-DFT gradient,  ECA, NRVS 
  Petra Pikulova         : Analytic Raman intensities                    
  Peter Pinski           : DLPNO-MP2, DLPNO-MP2 Gradient                 
  Shashank Vittal Rao    : ES-AILFT, MagRelax                            
  Christoph Reimann      : Effective Core Potentials                     
  Marius Retegan         : Local ZFS, SOC                                
  Christoph Riplinger    : Optimizer, TS searches, QM/MM, DLPNO-CCSD(T), (RO)-DLPNO pert. Triples 
  Michael Roemelt        : Original ROCIS implementation, recursive CI coupling coefficients
  Masaaki Saitow         : Open-shell DLPNO-CCSD energy and density      
  Barbara Sandhoefer     : DKH picture change effects                    
  Yorick L. A. Schmerwitz: GMF and freeze-and-release deltaSCF, NEB S-IDPP initial path                    
  Kantharuban Sivalingam : CASSCF convergence/infrastructure, NEVPT2, NEVPT3, NEVPT4(SD), FIC-MRCI and CEPA variants
  Bernardo de Souza      : ESD, SOC TD-DFT                               
  Georgi L. Stoychev     : AutoAux, RI-MP2 NMR, DLPNO-MP2 response, X2C  
  Van Anh Tran           : RI-MP2 g-tensors                              
  Willem Van den Heuvel  : Paramagnetic NMR                              
  Zikuan Wang            : NOTCH, Electric field optimization            
  Frank Wennmohs         : Technical directorship and infrastructure     
  Hang Xu                : AUTO-CI-Response properties                   
                                                                         
[FACCTs GmbH]                                                            
  Markus Bursch, Nicolas Foglia, Miquel Garcia-Rates, Ingolf Harden, Hagen Neugebauer, Anastasios Papadopoulos, 
  Christoph Riplinger, Bernardo de Souza, Georgi L. Stoychev                                                    
                                                                 
  APM, various basis sets, CI-OPT, improved COSX, DLPNO-Multilevel,           
  DOCKER, DRACO, updates on ESD, Fragmentator, GOAT, IRC, LR-CPCM, L-BFGS, MBIS, meta-GGA TD-DFT gradient, ML-optimized integration grids, 
  MM, NACMEs, nearIR, NEB, NEB-TS, NL-DFT gradient (VV10), 2- and 3-layer-ONIOM, interface openCOSMO-RS, QMMM,   
  Crystal-QMMM, RESP, rigid body optimization, SF, symmetry and pop. for TD-DFT, various functionals, SOLVATOR                                   
                                                                         
[Other institutions]                                                     
  V. Asgeirsson          : NEB                                           
  Christoph Bannwarth    : sTDA-DFT, sTD-DFT, PBEh-3c, B97-3c, D3        
  Giovanni Bistoni       : ETS/NOCV, ADLD/ADEX, COVALED                  
  Martin Brehm           : Molecular dynamics                            
  Ronald Cardenas        : ETS/NOCV                                      
  Martina Colucci        : COVALED                                       
  Sebastian Ehlert       : rSCAN, r2SCAN, r2SCAN-3c, D4, dhf basis sets  
  Marvin Friede          : D4 for Fr, Ra, Ac-Lr                          
  Lars Goerigk           : TD-DFT with DH, B97 family of functionals     
  Stefan Grimme          : VdW corrections, initial TS optimization, DFT functionals, gCP, sTDA/sTD-DF 
  Waldemar Hujo          : DFT-NL                                        
  H. Jonsson             : NEB                                           
  Holger Kruse           : gCP                                           
  Marcel Mueller         : wB97X-3c, vDZP basis set                      
  Hagen Neugebauer       : wr2SCAN, Native XTB                           
  Gianluca Regni         : ADLD/ADEX                                     
  Tobias Risthaus        : pre 6.0 range-separated hybrid DFT and stability analysis
  Lukas Wittmann         : regularized MP2, r2SCAN double-hybrids, wr2SCAN        
                                                                         
We gratefully acknowledge several colleagues who have allowed us to      
interface, adapt or use parts of their codes:                            
  Ed Valeev, F. Pavosevic, A. Kumar             : LibInt (2-el integral package), F12 methods 
  Garnet Chan, S. Sharma, J. Yang, R. Olivares  : DMRG                   
  Ulf Ekstrom                                   : XCFun DFT Library      
  Mihaly Kallay                                 : mrcc  (arbitrary order and MRCC methods)
  Frank Weinhold                                : gennbo (NPA and NBO analysis)           
  Simon Mueller                                 : openCOSMO-RS                            
  Christopher J. Cramer and Donald G. Truhlar   : smd solvation model                     
  S Lehtola, MJT Oliveira, MAL Marques          : LibXC Library                           
  Liviu Ungur et al                             : ANISO software                          


 Your calculation uses the libint2 library for the computation of 2-el integrals
 For citations please refer to: http://libint.valeyev.net

 Your ORCA version has been built with support for libXC version: 7.0.0
 For citations please refer to: https://libxc.gitlab.io

 This ORCA versions uses:
   CBLAS   interface :  Fast vector & matrix operations
   LAPACKE interface :  Fast linear algebra routines
   SCALAPACK package :  Parallel linear algebra routines
   Shared memory     :  Shared parallel matrices
   BLAS/LAPACK       :  OpenBLAS 0.3.29  USE64BITINT DYNAMIC_ARCH NO_AFFINITY Haswell SINGLE_THREADED
        Core in use  :  Haswell
   Copyright (c) 2011-2014, The OpenBLAS Project


  ***********************************
  * Starting time: Sun Aug  9 16:41:05 2026
  * Host name:     localhost.localdomain
  * Process ID:    2932581
  * Working dir.:  /home/dinglab/calculation/templates/NMR_modules/autohnmr/alpha_diol_screening/CONF18/b3lyp-3c
  ***********************************

NOTE: MaxCore=2500 MB was set to SCF,MP2,MDCI,CIPSI,MRCI,RASCI and CIS
      => If you want to overwrite this, your respective input block should be placed after the MaxCore statement


***************************************
The coordinates will be read from file: inp.xyz
***************************************


Your calculation utilizes the geometrical counterpoise correction gCP
Please cite in your paper:
H.Kruse, S. Grimme J.Chem.Phys., 136, (2012), 154101 
   

Your calculation utilizes the atom-pairwise dispersion correction
with the Becke-Johnson damping scheme (D3BJ)


Warning: RI is on but no J-basis has been assigned. Assigning Def2/J (nothing to worry about!)
================================================================================

----- Orbital basis set information -----
Your calculation utilizes the basis: def2-mSVP

----- AuxJ basis set information -----
Your calculation utilizes the auxiliary basis: def2/J
   H-Rn: F. Weigend, Phys. Chem. Chem. Phys. 8, 1057 (2006).
   Fr-Lr: K. Eichkorn, F. Weigend, O. Treutler, R. Ahlrichs; Theor. Chem. Acc. 97, 119 (1997).

================================================================================
                                        WARNINGS
                       Please study these warnings very carefully!
================================================================================

WARNING: Old DensityContainer found on disk!
         Will remove this file - 
         If you want to keep old densities, please start your calculation with a different basename. 


WARNING: Gradients are needed
  ===> : At least TightSCF should be used for SCF convergence

================================================================================
                                       INPUT FILE
================================================================================
NAME = inp
|  1> ! b3lyp
|  2> ! d3bj ABC
|  3> ! def2-mSVP
|  4> ! GCP(DFT/SV(P))
|  5> ! DEFGRID2
|  6> ! scfconv6
|  7> ! miniprint nopop noautostart
|  8> %MaxCore 2500
|  9> ! ENGRAD
| 10> %pal
| 11>     nprocs 12
| 12> end
| 13> ! CPCM(chloroform)
| 14> * xyzfile 0 1 inp.xyz
| 15> 
| 16>                          ****END OF INPUT****
================================================================================

                     *******************************
                     * Energy+Gradient Calculation *
                     *******************************

---------------------------------
CARTESIAN COORDINATES (ANGSTROEM)
---------------------------------
  C     -0.019822   -0.581578    0.294470
  C     -1.016377    0.568931    0.723208
  C     -0.361761    1.982791    0.576066
  C      0.559770    2.155172   -0.651839
  C      1.469720    0.916194   -0.846567
  C      0.583876   -0.313061   -1.120997
  C      1.261349   -0.472410    1.186344
  C      2.155888    0.536233    0.463350
  O      1.429593   -1.374138   -1.583310
  C     -0.760861   -1.930934    0.434020
  C      3.326102    1.009788    0.904143
  C     -2.428916    0.515170    0.127669
  C     -3.470948    0.239319    0.931348
  H     -1.165330    0.412885    1.804931
  O      0.023510   -3.096574    0.090172
  C     -2.669359    0.832724   -1.336920
  H     -1.150206    2.752152    0.571817
  H      0.235897    2.171111    1.481901
  H     -0.028068    2.309567   -1.571950
  H      1.178781    3.056794   -0.516941
  H      2.185263    1.094896   -1.664356
  H     -0.190877   -0.098299   -1.876290
  H      1.782413   -1.441582    1.254078
  H      1.026858   -0.167889    2.218771
  H      1.047069   -2.220496   -1.256206
  H     -1.619556   -1.958618   -0.251566
  H     -1.158875   -2.030100    1.460181
  H      3.747643    0.705648    1.865731
  H      3.914019    1.718586    0.315676
  H     -4.497102    0.223975    0.556505
  H     -3.338805    0.011825    1.991739
  H      0.651833   -3.278094    0.818750
  H     -2.210561    1.791038   -1.626095
  H     -2.245668    0.063201   -2.001079
  H     -3.746252    0.896920   -1.549913

----------------------------
CARTESIAN COORDINATES (A.U.)
----------------------------
  NO LB      ZA    FRAG     MASS         X           Y           Z
   0 C     6.0000    0    12.011   -0.037458   -1.099023    0.556467
   1 C     6.0000    0    12.011   -1.920674    1.075124    1.366666
   2 C     6.0000    0    12.011   -0.683630    3.746932    1.088607
   3 C     6.0000    0    12.011    1.057811    4.072684   -1.231797
   4 C     6.0000    0    12.011    2.777369    1.731355   -1.599780
   5 C     6.0000    0    12.011    1.103366   -0.591600   -2.118377
   6 C     6.0000    0    12.011    2.383605   -0.892726    2.241866
   7 C     6.0000    0    12.011    4.074039    1.013333    0.875605
   8 O     8.0000    0    15.999    2.701539   -2.596744   -2.992023
   9 C     6.0000    0    12.011   -1.437820   -3.648936    0.820179
  10 C     6.0000    0    12.011    6.285422    1.908224    1.708583
  11 C     6.0000    0    12.011   -4.589985    0.973529    0.241260
  12 C     6.0000    0    12.011   -6.559142    0.452248    1.759993
  13 H     1.0000    0     1.008   -2.202155    0.780239    3.410826
  14 O     8.0000    0    15.999    0.044427   -5.851676    0.170401
  15 C     6.0000    0    12.011   -5.044357    1.573620   -2.526412
  16 H     1.0000    0     1.008   -2.173574    5.200813    1.080578
  17 H     1.0000    0     1.008    0.445781    4.102805    2.800388
  18 H     1.0000    0     1.008   -0.053041    4.364450   -2.970556
  19 H     1.0000    0     1.008    2.227573    5.776504   -0.976878
  20 H     1.0000    0     1.008    4.129549    2.069054   -3.145177
  21 H     1.0000    0     1.008   -0.360706   -0.185758   -3.545674
  22 H     1.0000    0     1.008    3.368272   -2.724195    2.369864
  23 H     1.0000    0     1.008    1.940480   -0.317264    4.192869
  24 H     1.0000    0     1.008    1.978673   -4.196129   -2.373885
  25 H     1.0000    0     1.008   -3.060516   -3.701252   -0.475391
  26 H     1.0000    0     1.008   -2.189957   -3.836334    2.759342
  27 H     1.0000    0     1.008    7.082020    1.333482    3.525720
  28 H     1.0000    0     1.008    7.396425    3.247658    0.596541
  29 H     1.0000    0     1.008   -8.498290    0.423251    1.051641
  30 H     1.0000    0     1.008   -6.309427    0.022347    3.763841
  31 H     1.0000    0     1.008    1.231786   -6.194701    1.547213
  32 H     1.0000    0     1.008   -4.177355    3.384572   -3.072874
  33 H     1.0000    0     1.008   -4.243698    0.119433   -3.781491
  34 H     1.0000    0     1.008   -7.079390    1.694933   -2.928911



           ************************************************************
           *        Program running with 12 parallel MPI-processes    *
           *              working on a common directory               *
           ************************************************************
------------------------------------------------------------------------------
                   ___                                                        
                  /   \      - P O W E R E D   B Y -                         
                 /     \                                                     
                 |  |  |   _    _      __       _____    __    __             
                 |  |  |  | |  | |    /  \     |  _  \  |  |  /  |          
                  \  \/   | |  | |   /    \    | | | |  |  | /  /          
                 / \  \   | |__| |  /  /\  \   | |_| |  |  |/  /          
                |  |  |   |  __  | /  /__\  \  |    /   |      \           
                |  |  |   | |  | | |   __   |  |    \   |  |\   \          
                \     /   | |  | | |  |  |  |  | |\  \  |  | \   \       
                 \___/    |_|  |_| |__|  |__|  |_| \__\ |__|  \__/        
                                                                              
                      - O R C A' S   B I G   F R I E N D -                    
                                      &                                       
                       - I N T E G R A L  F E E D E R -                       
                                                                              
 v1 FN, 2020, v2 2021, v3 2022-2024                                           
------------------------------------------------------------------------------


----------------------
SHARK INTEGRAL PACKAGE
----------------------

Number of atoms                             ...     35
Number of basis functions                   ...    265
Number of shells                            ...    145
Maximum angular momentum                    ...      2
Integral batch strategy                     ... SHARK/LIBINT Hybrid
RI-J (if used) integral strategy            ... SPLIT-RIJ (Revised 2003 algorithm where possible)
Printlevel                                  ...      1
Contraction scheme used                     ... SEGMENTED contraction
Prescreening option                         ... SCHWARTZ
   Thresh                                   ... 1.000e-10
   Tcut                                     ... 1.000e-11
   Tpresel                                  ... 1.000e-11 
Coulomb Range Separation                    ... NOT USED
Exchange Range Separation                   ... NOT USED
Multipole approximations                    ... NOT USED
Finite Nucleus Model                        ... NOT USED
CABS basis                                  ... NOT available
Auxiliary Coulomb fitting basis             ... AVAILABLE
   # of basis functions in Aux-J            ...    955
   # of shells in Aux-J                     ...    325
   Maximum angular momentum in Aux-J        ...      4
Auxiliary J/K fitting basis                 ... NOT available
Auxiliary Correlation fitting basis         ... NOT available
Auxiliary 'external' fitting basis          ... NOT available

Checking pre-screening integrals            ... done (  0.0 sec) Dimension = 145
   => SHARK Basis and OBASIS are compatible. Storing Pre-screening
Shell pair information
Shell pair cut-off parameter TPreSel        ...   1.0e-11
Total number of shell pairs                 ...     10585
Shell pairs after pre-screening             ...      8852
Total number of primitive shell pairs       ...     38205
Primitive shell pairs kept                  ...     20840
          la=0 lb=0:   3914 shell pairs
          la=1 lb=0:   2752 shell pairs
          la=1 lb=1:    455 shell pairs
          la=2 lb=0:   1204 shell pairs
          la=2 lb=1:    423 shell pairs
          la=2 lb=2:    104 shell pairs

Checking whether 4 symmetric matrices of dimension 265 fit in memory
:Max Core in MB      =   2500.00
 MB in use           =     14.32
 MB left             =   2485.68
 MB needed           =      1.08
 Data fit in memory  = YES
Calculating RI/J V-Matrix + Cholesky decomp.... done (  0.0 sec)
Calculating Nuclear repulsion               ... done (  0.0 sec) ENN=   1106.075240620666 Eh

Diagonalization of the overlap matrix:
Smallest eigenvalue                        ... 1.952e-03
Time for diagonalization                   ...    0.013 sec
Threshold for overlap eigenvalues          ... 1.000e-07
Number of eigenvalues below threshold      ... 0
Time for construction of square roots      ...    0.004 sec
Total time needed                          ...    0.018 sec

-------------------
DFT GRID GENERATION
-------------------

General Integration Accuracy     IntAcc      ... 4.388
Radial Grid Type                 RadialGrid  ... OptM3 with GC (2021)
Angular Grid (max. ang.)         AngularGrid ... 4 (Lebedev-302)
Angular grid pruning method      GridPruning ... 4 (adaptive)
Weight generation scheme         WeightScheme... mBecke (2022)
Basis function cutoff            BFCut       ... 1.0000e-10
Integration weight cutoff        WCut        ... 1.0000e-14
Partially contracted basis set               ... off
Rotationally invariant grid construction     ... off
Angular grids for H and He will be reduced by one unit

Total number of grid points                  ...   152211
Total number of batches                      ...     2393
Average number of points per batch           ...       63
Average number of grid points per atom       ...     4349

--------------------
COSX GRID GENERATION
--------------------

GRIDX 1
-------
General Integration Accuracy     IntAcc      ... 3.816
Radial Grid Type                 RadialGrid  ... OptM3 with GC (2021)
Angular Grid (max. ang.)         AngularGrid ... 1 (Lebedev-50)
Angular grid pruning method      GridPruning ... 4 (adaptive)
Weight generation scheme         WeightScheme... mBecke (2022)
Basis function cutoff            BFCut       ... 1.0000e-10
Integration weight cutoff        WCut        ... 1.0000e-14
Partially contracted basis set               ... on
Rotationally invariant grid construction     ... off
Angular grids for H and He will be reduced by one unit

Total number of grid points                  ...    19390
Total number of batches                      ...      176
Average number of points per batch           ...      110
Average number of grid points per atom       ...      554
UseSFitting                                  ... on

GRIDX 2
-------
General Integration Accuracy     IntAcc      ... 4.020
Radial Grid Type                 RadialGrid  ... OptM3 with GC (2021)
Angular Grid (max. ang.)         AngularGrid ... 2 (Lebedev-110)
Angular grid pruning method      GridPruning ... 4 (adaptive)
Weight generation scheme         WeightScheme... mBecke (2022)
Basis function cutoff            BFCut       ... 1.0000e-10
Integration weight cutoff        WCut        ... 1.0000e-14
Partially contracted basis set               ... on
Rotationally invariant grid construction     ... off
Angular grids for H and He will be reduced by one unit

Total number of grid points                  ...    40587
Total number of batches                      ...      336
Average number of points per batch           ...      120
Average number of grid points per atom       ...     1160
UseSFitting                                  ... on

GRIDX 3
-------
General Integration Accuracy     IntAcc      ... 4.338
Radial Grid Type                 RadialGrid  ... OptM3 with GC (2021)
Angular Grid (max. ang.)         AngularGrid ... 3 (Lebedev-194)
Angular grid pruning method      GridPruning ... 4 (adaptive)
Weight generation scheme         WeightScheme... mBecke (2022)
Basis function cutoff            BFCut       ... 1.0000e-10
Integration weight cutoff        WCut        ... 1.0000e-14
Partially contracted basis set               ... on
Rotationally invariant grid construction     ... off
Angular grids for H and He will be reduced by one unit

Total number of grid points                  ...    88279
Total number of batches                      ...      710
Average number of points per batch           ...      124
Average number of grid points per atom       ...     2522
UseSFitting                                  ... on
Grids setup in   1.6 sec
Initializing property integral containers    ... done (  0.0 sec)

SHARK setup successfully completed in   1.8 seconds

Maximum memory used throughout the entire STARTUP-calculation: 40.9 MB


           ************************************************************
           *        Program running with 12 parallel MPI-processes    *
           *              working on a common directory               *
           ************************************************************
Loading Hartree-Fock densities                     ... done
Calculating cut-offs                               ... done
Initializing the effective Hamiltonian             ... done
Setting up the integral package (SHARK)            ... done
Starting the Coulomb interaction                   ... done (   0.1 sec)
Making the grid                                    ... done (   0.2 sec)
Mapping shells                                     ... done
Starting the XC term evaluation                    ... done (   0.1 sec)
  promolecular density results
     # of electrons  =    113.987608072
     EX              =    -89.148577773
     EC              =     -3.805215414
     EX+EC           =    -92.953793188
Transforming the Hamiltonian                       ... done (   0.0 sec)
Diagonalizing the Hamiltonian                      ... done (   0.0 sec)
Back transforming the eigenvectors                 ... done (   0.0 sec)
Now organizing SCF variables                       ... done
             **** ENERGY FILE WAS UPDATED (inp.en.tmp) ****
Finished Guess after   0.5 sec
Maximum memory used throughout the entire GUESS-calculation: 17.6 MB


           ************************************************************
           *        Program running with 12 parallel MPI-processes    *
           *              working on a common directory               *
           ************************************************************
--------------------
CPCM SOLVATION MODEL
--------------------
CPCM parameters:
  Epsilon                                         ...       4.8030
  Refrac                                          ...       1.4459
  Rsolv                                           ...       1.3000
  Surface type                                    ... GAUSSIAN VDW
  Discretization scheme                           ... Constant charge density
    Threshold for H atoms                         ...       5.0000 (charges/Ang^2)
    Threshold for non-H atoms                     ...       5.0000 (charges/Ang^2)
  Epsilon function type                           ...         CPCM
Solvent:                                          ... CHLOROFORM
Radii:
  Scheme                                          ... Element-dependent radii
  Radius for C  used is    3.8550 Bohr (=   2.0400 Ang.)
  Radius for O  used is    3.4469 Bohr (=   1.8240 Ang.)
  Radius for H  used is    2.4944 Bohr (=   1.3200 Ang.)
Calculating surface                               ...        done! (  0.0s)
Cavity surface points                             ...         2594
Cavity Volume                                     ...    1806.2599
Cavity Surface-area                               ...     913.5964
Calculating surface distance matrix               ...        done! (  0.1s)
Performing Cholesky decomposition & store         ...        done! (  0.2s)
Overall time for CPCM initialization              ...                 0.3s

----------------------------------------D-I-I-S--------------------------------------------
Iteration    Energy (Eh)           Delta-E    RMSDP     MaxDP     DIISErr   Damp  Time(sec)
-------------------------------------------------------------------------------------------
               ***  Starting incremental Fock matrix formation  ***
    1    -656.9530361567246928     0.00e+00  8.65e-03  7.35e-02  2.43e-01  0.700   2.2
    2    -657.1407066507372292    -1.88e-01  6.28e-03  4.13e-02  1.06e-01  0.700   1.3
                               ***Turning on AO-DIIS***
    3    -657.2190124383319016    -7.83e-02  2.54e-03  1.60e-02  3.74e-02  0.700   1.3
    4    -657.2647937225879105    -4.58e-02  4.28e-03  2.60e-02  1.82e-02  0.000   1.2
    5    -657.3639717772264248    -9.92e-02  8.37e-04  4.81e-03  4.83e-03  0.000   1.3
                              *** Initializing SOSCF ***
---------------------------------------S-O-S-C-F--------------------------------------
Iteration    Energy (Eh)           Delta-E    RMSDP     MaxDP     MaxGrad    Time(sec)
--------------------------------------------------------------------------------------
    6    -657.3643073884024943    -3.36e-04  2.74e-04  1.77e-03  1.00e-03     1.2
               *** Restarting incremental Fock matrix formation ***
    7    -657.3643900547049270    -8.27e-05  1.75e-04  1.17e-03  3.85e-04     2.1
    8    -657.3643846679228773     5.39e-06  9.55e-05  7.69e-04  7.01e-04     1.5
    9    -657.3643938192558380    -9.15e-06  1.53e-05  1.17e-04  2.99e-05     1.4
                  *** Gradient check signals convergence ***

               *****************************************************
               *                     SUCCESS                       *
               *           SCF CONVERGED AFTER   9 CYCLES          *
               *****************************************************

Recomputing exchange energy using gridx3       ... done (    2.841 sec)
Old exchange energy                            :    -18.195320288 Eh
New exchange energy                            :    -18.195373469 Eh
Exchange energy change after final integration :     -0.000053181 Eh
Total energy after final integration           :   -657.364446903 Eh
             **** ENERGY FILE WAS UPDATED (inp.en.tmp) ****

----------------
TOTAL SCF ENERGY
----------------

Total Energy       :       -657.36444690275709 Eh          -17887.79600 eV

Components:
Nuclear Repulsion  :       1106.07524062066636 Eh           30097.83744 eV
Electronic Energy  :      -1763.42695126337799 Eh          -47985.28687 eV
One Electron Energy:      -3089.19743254077093 Eh          -84061.33574 eV
Two Electron Energy:       1325.77048127739295 Eh           36076.04887 eV
CPCM Dielectric    :         -0.01268307867508 Eh              -0.34512 eV

Virial components:
Potential Energy   :      -1309.67933558607501 Eh          -35638.18653 eV
Kinetic Energy     :        652.31488868331792 Eh           17750.39053 eV
Virial Ratio       :          2.00774098262517

DFT components:
N(Alpha)           :       56.999833589172 electrons
N(Beta)            :       56.999833589172 electrons
N(Total)           :      113.999667178344 electrons
E(X)               :      -72.172275239157 Eh       
E(C)               :       -4.482320228156 Eh       
E(XC)              :      -76.654595467313 Eh       

CPCM Solvation Model Properties:
Surface-charge          :         -0.02166159549660
Corrected charge        :          0.00000000000000
Outlying charge corr.   :          0.00002314045503 Eh               0.00063 eV
Free-energy (cav+disp)  :  This term is not implemented in the current solvation scheme

---------------
SCF CONVERGENCE
---------------

  Last Energy change         ...    9.1513e-06  Tolerance :   1.0000e-06
  Last MAX-Density change    ...    1.1683e-04  Tolerance :   1.0000e-07
  Last RMS-Density change    ...    1.5338e-05  Tolerance :   5.0000e-09
  Last DIIS Error            ...    1.0027e-03  Tolerance :   1.0000e-06
  Last Orbital Gradient      ...    2.9858e-05  Tolerance :   3.3300e-04
  Last Orbital Rotation      ...    9.6042e-05  Tolerance :   3.3300e-04


----------------
ORBITAL ENERGIES
----------------

  NO   OCC          E(Eh)            E(eV) 
   0   2.0000     -19.146212      -520.9949 
   1   2.0000     -19.111194      -520.0420 
   2   2.0000     -10.223759      -278.2026 
   3   2.0000     -10.215978      -277.9909 
   4   2.0000     -10.191188      -277.3163 
   5   2.0000     -10.189134      -277.2604 
   6   2.0000     -10.186735      -277.1951 
   7   2.0000     -10.182435      -277.0782 
   8   2.0000     -10.175061      -276.8775 
   9   2.0000     -10.173716      -276.8409 
  10   2.0000     -10.171605      -276.7834 
  11   2.0000     -10.171245      -276.7736 
  12   2.0000     -10.168675      -276.7037 
  13   2.0000     -10.162882      -276.5461 
  14   2.0000     -10.158973      -276.4397 
  15   2.0000      -1.019218       -27.7343 
  16   2.0000      -0.989974       -26.9386 
  17   2.0000      -0.853298       -23.2194 
  18   2.0000      -0.801115       -21.7994 
  19   2.0000      -0.760022       -20.6812 
  20   2.0000      -0.751131       -20.4393 
  21   2.0000      -0.713492       -19.4151 
  22   2.0000      -0.677602       -18.4385 
  23   2.0000      -0.676241       -18.4014 
  24   2.0000      -0.655193       -17.8287 
  25   2.0000      -0.601334       -16.3631 
  26   2.0000      -0.587047       -15.9744 
  27   2.0000      -0.551266       -15.0007 
  28   2.0000      -0.530507       -14.4358 
  29   2.0000      -0.510417       -13.8891 
  30   2.0000      -0.496564       -13.5122 
  31   2.0000      -0.474001       -12.8982 
  32   2.0000      -0.471861       -12.8400 
  33   2.0000      -0.464947       -12.6519 
  34   2.0000      -0.442130       -12.0310 
  35   2.0000      -0.433995       -11.8096 
  36   2.0000      -0.427288       -11.6271 
  37   2.0000      -0.413008       -11.2385 
  38   2.0000      -0.408192       -11.1075 
  39   2.0000      -0.402276       -10.9465 
  40   2.0000      -0.399178       -10.8622 
  41   2.0000      -0.378124       -10.2893 
  42   2.0000      -0.373947       -10.1756 
  43   2.0000      -0.372042       -10.1238 
  44   2.0000      -0.361473        -9.8362 
  45   2.0000      -0.356584        -9.7032 
  46   2.0000      -0.351427        -9.5628 
  47   2.0000      -0.343911        -9.3583 
  48   2.0000      -0.325957        -8.8697 
  49   2.0000      -0.321277        -8.7424 
  50   2.0000      -0.307577        -8.3696 
  51   2.0000      -0.300360        -8.1732 
  52   2.0000      -0.292403        -7.9567 
  53   2.0000      -0.263608        -7.1731 
  54   2.0000      -0.250837        -6.8256 
  55   2.0000      -0.240037        -6.5317 
  56   2.0000      -0.237406        -6.4601 
  57   0.0000       0.016928         0.4606 
  58   0.0000       0.021588         0.5874 
  59   0.0000       0.079598         2.1660 
  60   0.0000       0.098262         2.6738 
  61   0.0000       0.115937         3.1548 
  62   0.0000       0.127016         3.4563 
  63   0.0000       0.138328         3.7641 
  64   0.0000       0.147291         4.0080 
  65   0.0000       0.150593         4.0979 
  66   0.0000       0.154881         4.2145 
  67   0.0000       0.160632         4.3710 
*Only the first 10 virtual orbitals were printed.
Total SCF time: 0 days 0 hours 0 min 17 sec 
Finished LeanSCF after  18.1 sec

Maximum memory used throughout the entire LEANSCF-calculation: 31.6 MB


-------------------------------------------------------------------------------
                          DFT DISPERSION CORRECTION                            
                                                                               
                              DFTD3 V3.1  Rev 1                                
                          USING Becke-Johnson damping                          
-------------------------------------------------------------------------------
-------------------------   ----------------
Dispersion correction           -0.073891206
-------------------------   ----------------

NOTIFICATION: Different basis set in ORCA and otool_gcp:
ORCA: 265  gCP: 250 
If you are NOT using ECPs, check your basis set inputs!
------------------   -----------------
gCP correction             0.163039895
------------------   -----------------

-------------------------   --------------------
FINAL SINGLE POINT ENERGY      -657.275298214302
-------------------------   --------------------



           ************************************************************
           *        Program running with 12 parallel MPI-processes    *
           *              working on a common directory               *
           ************************************************************
------------------------------------------------------------------------------
                         ORCA SCF GRADIENT CALCULATION
------------------------------------------------------------------------------

Nuc. rep. gradient        (SHARK) ... done (  0.0 sec)
HCore & Overlap gradient  (SHARK) ... done (  0.1 sec)
Split-RIJ-J gradient      (SHARK) ... done (  0.6 sec)
COSX-gradient                     ... done (  6.9 sec)
XC gradient                       ... done (  2.0 sec)
CPCM gradient                     ... done (  0.7 sec)
Dispersion correction             ... done (  0.0 sec)

-------------------
DISPERSION GRADIENT
-------------------

   1   C   :    0.000224435   -0.000534167    0.000225530
   2   C   :   -0.000517809    0.000265426    0.000590066
   3   C   :   -0.000122214    0.001028357    0.000376983
   4   C   :    0.000292280    0.000968021   -0.000355658
   5   C   :    0.000628404    0.000321412   -0.000546327
   6   C   :    0.000608472   -0.000290470   -0.000741874
   7   C   :    0.000588635   -0.000285368    0.000682898
   8   C   :    0.000810429    0.000052895    0.000124569
   9   O   :    0.000353117   -0.000452375   -0.000735787
  10   C   :   -0.000201982   -0.001150899    0.000226744
  11   C   :    0.001195083    0.000205372    0.000401078
  12   C   :   -0.001188627    0.000193644    0.000108565
  13   C   :   -0.001066055    0.000048022    0.000426385
  14   H   :   -0.000215833    0.000091547    0.000479019
  15   O   :   -0.000091045   -0.000774513    0.000025846
  16   C   :   -0.000982078    0.000198677   -0.000657253
  17   H   :   -0.000058976    0.000517936    0.000185917
  18   H   :   -0.000099941    0.000490089    0.000363590
  19   H   :    0.000096975    0.000481743   -0.000353749
  20   H   :    0.000043184    0.000492129   -0.000149801
  21   H   :    0.000270273    0.000134053   -0.000392346
  22   H   :    0.000071528   -0.000137154   -0.000637641
  23   H   :    0.000288655   -0.000293338    0.000340599
  24   H   :    0.000169857   -0.000109071    0.000563480
  25   H   :    0.000136891   -0.000393846   -0.000335365
  26   H   :   -0.000214784   -0.000562110   -0.000039620
  27   H   :   -0.000129368   -0.000478055    0.000236816
  28   H   :    0.000306249    0.000066183    0.000151848
  29   H   :    0.000368370    0.000100116    0.000075485
  30   H   :   -0.000295290   -0.000022058    0.000106609
  31   H   :   -0.000339278    0.000003104    0.000262970
  32   H   :    0.000026388   -0.000450733    0.000111382
  33   H   :   -0.000356899    0.000221603   -0.000391054
  34   H   :   -0.000370404   -0.000003350   -0.000505191
  35   H   :   -0.000228641    0.000057180   -0.000224711

Difference to translation invariance:
           :    0.0000000000    0.0000000000    0.0000000000

Difference to rotation invariance:
           :   -0.0000000000    0.0000000000   -0.0000000000

Norm of the Dispersion gradient    ...    0.0045859472
RMS gradient                       ...    0.0004475426
MAX gradient                       ...    0.0011950829
gCP correction                   ... done

------------------
CARTESIAN GRADIENT
------------------

   1   C   :    0.000003191    0.000030538    0.000041081
   2   C   :    0.000015924   -0.000220185    0.000001248
   3   C   :   -0.000036308   -0.000027484   -0.000069877
   4   C   :    0.000077813    0.000020856   -0.000025924
   5   C   :    0.000000862    0.000026265   -0.000021384
   6   C   :    0.000107682   -0.000083602   -0.000040372
   7   C   :    0.000031474   -0.000051280   -0.000096348
   8   C   :   -0.000009216    0.000044750    0.000081090
   9   O   :   -0.000073531    0.000075718   -0.000019472
  10   C   :    0.000005389   -0.000064899   -0.000038241
  11   C   :   -0.000116867    0.000166654    0.000114422
  12   C   :   -0.000017359    0.000209464    0.000026800
  13   C   :   -0.000070045    0.000512789    0.000121656
  14   H   :    0.000002414    0.000007143    0.000003380
  15   O   :    0.000026099    0.000082992   -0.000064028
  16   C   :   -0.000005571   -0.000091160   -0.000024062
  17   H   :   -0.000003101   -0.000017233   -0.000040923
  18   H   :   -0.000038890   -0.000020649   -0.000002645
  19   H   :    0.000011863   -0.000018185    0.000000188
  20   H   :    0.000002019   -0.000008571   -0.000006702
  21   H   :   -0.000008887   -0.000014016    0.000003347
  22   H   :    0.000034195   -0.000001617   -0.000003828
  23   H   :   -0.000018136   -0.000030586    0.000035329
  24   H   :   -0.000008371    0.000033778    0.000008925
  25   H   :   -0.000013518   -0.000066174    0.000065852
  26   H   :   -0.000021538   -0.000005197    0.000035383
  27   H   :    0.000033324   -0.000006710    0.000021995
  28   H   :   -0.000001457   -0.000056321   -0.000050374
  29   H   :   -0.000000578   -0.000073088   -0.000013246
  30   H   :    0.000052942   -0.000193623   -0.000031940
  31   H   :    0.000022750   -0.000167515   -0.000096742
  32   H   :   -0.000033589   -0.000079507    0.000046623
  33   H   :   -0.000001017    0.000023077    0.000089829
  34   H   :    0.000009830    0.000071615   -0.000043702
  35   H   :    0.000040206   -0.000008036   -0.000007338

Difference to translation invariance:
           :    0.0000000000   -0.0000000000   -0.0000000000

Difference to rotation invariance:
           :   -0.0000751996   -0.0010790527   -0.0009433808

Norm of the Cartesian gradient     ...    0.0008173275
RMS gradient                       ...    0.0000797630
MAX gradient                       ...    0.0005127887

-------
TIMINGS
-------

Total SCF gradient time     ....       10.497 sec

Densities                   ....       0.001 sec  (  0.0%)
One electron gradient       ....       0.125 sec  (  1.2%)
RI-J Coulomb gradient       ....       0.583 sec  (  5.6%)
COSX gradient               ....       6.901 sec  ( 65.7%)
XC gradient                 ....       2.035 sec  ( 19.4%)
CPCM gradient               ....       0.726 sec  (  6.9%)
   A-Matrix (El+Nuc)        ....       0.028 sec  (  0.3%)
   Potential                ....       0.698 sec  (  6.6%)

Maximum memory used throughout the entire SCFGRAD-calculation: 37.8 MB


           ************************************************************
           *        Program running with 12 parallel MPI-processes    *
           *              working on a common directory               *
           ************************************************************

------------------------------------------------------------------------------
                              ORCA PROPERTY CALCULATIONS
------------------------------------------------------------------------------

GBWName                                 ... inp.gbw
Number of atoms                         ...     35
Number of basis functions               ...    265
Max core memory                         ...   2500 MB

Electric properties:
Dipole moment                           ... YES
Quadrupole moment                       ...  NO
Static polarizability (Dipole/Dipole)   ...  NO
Static polarizability (Dipole/Quad.)    ...  NO
Static polarizability (Quad./Quad.)     ...  NO
Static polarizability (Velocity)        ...  NO
Static hyperpolarizability              ...  NO

Atomic electric properties:
Dipole moment                           ...  NO
Quadrupole moment                       ...  NO
Static polarizability                   ...  NO

Choice of electric origin               ... Center of mass
Position of electric origin             ...     0.010441     0.000860    -0.014667

General magnetic properties:
Magnetizability                         ...  NO

EPR properties:
g-Tensor (aka g-matrix)                 ...  NO
Zero-Field splitting spin-orbit         ...  NO
Zero-field splitting spin-spin          ...  NO
Hyperfine couplings                     ...  NO (   0 nuclei)
Quadrupole couplings                    ...  NO (   0 nuclei)
Contact density                         ...  NO (   0 nuclei)

NMR properties:
Chemical shifts                         ...  NO (   0 nuclei)
Spin-rotation constants                 ...  NO (   0 nuclei)
Spin-spin couplings                     ...  NO (   0 nuclei,    0 pairs)

Choice of magnetic origin               ... GIAO
Position of magnetic origin             ...     0.000000     0.000000     0.000000

Properties with geometric perturbations:
SCF Hessian                             ...  NO
IR spectrum                             ...  NO
VCD spectrum                            ...  NO
X-ray spectroscopy properties:
SCF XES/XAS/RIXS spectra                ...  NO

SCF SOC stabilization energy            ...  NO
Diagonal Born-Oppenheimer correction    ...  NO

-------------
DIPOLE MOMENT
-------------

Method             : SCF
Type of density    : Electron Density
Multiplicity       :   1
Irrep              :   0
Energy             :  -657.3644469027570949 Eh
Basis              : AO
                                X                 Y                 Z
Electronic contribution:      4.673911271      -5.421931477      -1.011359922
Nuclear contribution   :     -5.318795272       5.567070674       2.024230004
                        -----------------------------------------
Total Dipole Moment    :     -0.644884000       0.145139198       1.012870081
                        -----------------------------------------
Magnitude (a.u.)       :      1.209481940
Magnitude (Debye)      :      3.074258775



--------------------
Rotational spectrum 
--------------------
 
Rotational constants in cm-1:             0.026750             0.018993             0.014736 
Rotational constants in MHz :           801.946980           569.383088           441.778465 

Dipole components along the rotational axes: 
x,y,z [a.u.] :    -0.653560     0.148740     1.006768 
x,y,z [Debye]:    -1.661217     0.378067     2.559002 

 

Dipole moment calculation done in   0.0 sec 

Maximum memory used throughout the entire PROP-calculation: 16.6 MB

--------------------------------
SUGGESTED CITATIONS FOR THIS RUN
--------------------------------

Below you find a list of papers that are relevant to this ORCA run
We neither can nor want to force you to cite these papers, but we appreciate if you do
You receive ORCA, which is the product of decades of hard work by many enthusiastic individuals, for free
The only thing we kindly ask in return is that you cite our papers,
We deeply appreciate it, if you show your appreciation for ORCA by not just citing the generic ORCA reference.

Please note that relegating all ORCA citations to the supporting information does *not* help us.
SI sections are not indexed - citations you put there will not count into any citation statistics
But we need these citations in order to attract the funding resources that allow us to do what we are doing

Therefore, if you are a happy ORCA user, please consider citing a few of the papers listed below in the main body of your paper

In addition to the list printed below, the program has created the file inp.bibtex that contains the list in bibtex format
You can import this file easily into all common literature databanks and citation aid programs

It goes without saying that in many instances, there are alternative algorithms to achieve similar
results as the ones you have gotten from ORCA. It is, of course, also the case that in some instances
ORCA just re-implements algorithms worked out by others. We are fully aware of that and we are also
fully appreciative of our colleagues work. Hence this citation list should not be read as indicating
that the listed papers, which are focused on our own work, are the only ones worth citing. It simply
meant to make it easier for users to cite ORCA specific papers. It is not a substitute for doing your
own literature research and citing the relevant literature in a scientifically appropriate manner.

List of essential papers. We consider these as the minimum necessary citations

  1. Neese, F.
     Software update: the ORCA program system, version 6.0
     WIRES Comput. Molec. Sci. 2025 15(1), e70019
     doi.org/10.1002/wcms.70019

List of papers to cite with high priority. The work reported in these papers was absolutely
necessary for this run to complete.
Our perspective: the developers of density functionals and basis sets usually get cited in chemistry papers
Good! But without the algorithms to do something with them, the functionals or basis sets would not do anything.
Hence, in our opinion, the algorithm design and method developments papers are equally worthy of getting cited

  1. Neese, F.
     An improvement of the resolution of the identity approximation for the formation of the Coulomb matrix
     J. Comp. Chem. 2003 24(14), 1740-1747
     doi.org/10.1002/jcc.10318
  2. Neese, F.; Wennmohs, F.; Hansen, A.; Becker, U.
     Efficient, approximate and parallel Hartree-Fock and hybrid DFT calculations. A 'chain-of-spheres' algorithm for the Hartree-Fock exchange
     Chem. Phys. 2009 356(1-3), 98-109
     doi.org/10.1016/j.chemphys.2008.10.036
  3. Grimme, S.; Antony, J.; Ehrlich, S.; Krieg, H.
     A consistent and accurate ab initio parametrization of density functional dispersion correction (DFT-D) for the 94 elements H-Pu
     J. Chem. Phys. 2010 132 , 154104
     doi.org/10.1063/1.3382344
  4. Grimme, S.; Ehrlich, S.; Goerigk, L.
     Effect of the damping function in dispersion corrected density functional theory
     J. Comput. Chem. 2011 32(7), 1456-1465
     doi.org/10.1002/jcc.21759
  5. Garcia-Rates, M.; Neese, F.
     Effect of the Solute Cavity on the Solvation Energy and its Derivatives within the Framework of the Gaussian Charge Scheme
     J. Comput. Chem. 2020 41 , 922-939
     doi.org/10.1002/jcc.26139
  6. Helmich-Paris, B.; de Souza, B.; Neese, F.; Izsák, R.
     An improved chain of spheres for exchange algorithm
     J. Chem. Phys. 2021 155(10), 104109
     doi.org/10.1063/5.0058766
  7. Neese, F.
     The SHARK Integral Generation and Digestion System
     J. Comp. Chem. 2022 44(3), 381
     doi.org/10.1002/jcc.26942

List of suggested additional citations. These are papers that are important in the 'surrounding' of 
of this run, or papers that preceded the highly important papers. If you like your results we are grateful for a citation.

  1. Izsak, R.; Neese, F.
     An overlap fitted chain of spheres exchange method
     J. Chem. Phys. 2011 135 , 144105
     doi.org/10.1063/1.3646921
  2. Izsak, R.; Hansen, A.; Neese, F.
     The resolution of identity and chain of spheres approximations for the LPNO-CCSD singles Fock term
     Molec. Phys. 2012 110 , 2413-2417
     doi.org/10.1080/00268976.2012.687466
  3. Neese, F.
     The ORCA program system
     WIRES Comput. Molec. Sci. 2012 2(1), 73-78
     doi.org/10.1002/wcms.81
  4. Izsak, R.; Neese, F.; Klopper, W.
     Robust fitting techniques in the chain of spheres approximation to the Fock exchange: The role of the complementary space
     J. Chem. Phys. 2013 139 , 
     doi.org/10.1063/1.4819264
  5. Neese, F.
     Software update: the ORCA program system, version 4.0
     WIRES Comput. Molec. Sci. 2018 8(1), 1-6
     doi.org/10.1002/wcms.1327
  6. Neese, F.; Wennmohs, F.; Becker, U.; Riplinger, C.
     The ORCA quantum chemistry program package
     J. Chem. Phys. 2020 152(22), 224108
     doi.org/10.1063/5.0004608
  7. Neese, F.
     Software update: The ORCA program system—Version 5.0
     WIRES Comput. Molec. Sci. 2022 12(1), e1606
     doi.org/10.1002/wcms.1606

List of optional additional citations

  1. Neese, F.
     Approximate second-order SCF convergence for spin unrestricted wavefunctions
     Chem. Phys. Lett. 2000 325(1-3), 93-98
     doi.org/10.1016/s0009-2614(00)00662-x

Timings for individual modules:

Sum of individual times          ...       32.140 sec (=   0.536 min)
Startup calculation              ...        2.050 sec (=   0.034 min)   6.4 %
SCF iterations                   ...       18.921 sec (=   0.315 min)  58.9 %
Property calculations            ...        0.313 sec (=   0.005 min)   1.0 %
SCF Gradient evaluation          ...       10.856 sec (=   0.181 min)  33.8 %
                             ****ORCA TERMINATED NORMALLY****
TOTAL RUN TIME: 0 days 0 hours 0 minutes 32 seconds 492 msec
  ------------------------------------------------------------------------
          * successful ORCA run, taking over control again...

         :::::::::::::::::::::::::::::::::::::::::::::::::::::
         ::                  ORCA SUMMARY                   ::
         :::::::::::::::::::::::::::::::::::::::::::::::::::::
         :: total energy            -657.275298214302 Eh    ::
         :: gradient norm              0.000817327518 Eh/a0 ::
         :: HOMO-LUMO gap              0.000000000000 eV    ::
         :::::::::::::::::::::::::::::::::::::::::::::::::::::

           -------------------------------------------------
          |                Property Printout                |
           -------------------------------------------------
           -------------------------------------------------
          |                Geometry Summary                 |
           -------------------------------------------------

      molecular mass/u    :      208.2971915
   center of mass at/Å    :        0.0055313       0.0004379      -0.0077673
  moments of inertia/u·Å² :        0.6301830E+03   0.8875692E+03   0.1143944E+04
rotational constants/cm⁻¹ :        0.2675038E-01   0.1899303E-01   0.1473641E-01

 * 24 selected distances

     #   Z          #   Z                                           value/Å
     5   6 c        6   6 c                                       1.5398374 (max)
     6   6 c        9   8 o                                       1.4334765
     8   6 c       11   6 c                                       1.3371437
    12   6 c       13   6 c                                       1.3445543
     2   6 c       14   1 h                                       1.1030240
     3   6 c       17   1 h                                       1.1016256
     3   6 c       18   1 h                                       1.1014527
     4   6 c       19   1 h                                       1.1027222
     4   6 c       20   1 h                                       1.1019510
     5   6 c       21   1 h                                       1.1012334
     6   6 c       22   1 h                                       1.1031020
     7   6 c       23   1 h                                       1.1024471
     7   6 c       24   1 h                                       1.1016461
     9   8 o       25   1 h                                       0.9847054
    10   6 c       26   1 h                                       1.0991591
    10   6 c       27   1 h                                       1.1051044
    11   6 c       28   1 h                                       1.0930915
    11   6 c       29   1 h                                       1.0928566
    13   6 c       30   1 h                                       1.0925813
    13   6 c       31   1 h                                       1.0925399
    15   8 o       32   1 h                                       0.9790637 (min)
    16   6 c       33   1 h                                       1.1011286
    16   6 c       34   1 h                                       1.1012658
    16   6 c       35   1 h                                       1.0996298

 * 4 distinct bonds (by element types)

   Z      Z             #   av. dist./Å        max./Å        min./Å
   1 H    6 C          18     1.0998090     1.1051044     1.0925399
   6 C    6 C           3     1.4071785     1.5398374     1.3371437
   1 H    8 O           2     0.9818846     0.9847054     0.9790637
   6 C    8 O           1     1.4334765     1.4334765     1.4334765


optimized geometry written to: xtbopt.coord


           -------------------------------------------------
          | TOTAL ENERGY             -657.275298214302 Eh   |
          | GRADIENT NORM               0.000817327518 Eh/α |
           -------------------------------------------------

------------------------------------------------------------------------
 * finished run on 2026/08/09 at 16:41:37.725     
------------------------------------------------------------------------
 total:
 * wall-time:     0 d,  0 h,  1 min, 38.606 sec
 *  cpu-time:     0 d,  0 h,  0 min,  4.518 sec
 * ratio c/w:     0.046 speedup
 SCF:
 * wall-time:     0 d,  0 h,  0 min, 33.454 sec
 *  cpu-time:     0 d,  0 h,  0 min,  2.170 sec
 * ratio c/w:     0.065 speedup
 ANC optimizer:
 * wall-time:     0 d,  0 h,  1 min,  5.122 sec
 *  cpu-time:     0 d,  0 h,  0 min,  2.334 sec
 * ratio c/w:     0.036 speedup

normal termination of xtb
