      -----------------------------------------------------------      
     |                   =====================                   |     
     |                           x T B                           |     
     |                   =====================                   |     
     |                         S. Grimme                         |     
     |          Mulliken Center for Theoretical Chemistry        |     
     |                    University of Bonn                     |     
      -----------------------------------------------------------      

   * xtb version 6.7.1 (edcfbbe) compiled by 'albert@albert-system' on 2024-07-22

   xtb is free software: you can redistribute it and/or modify it under
   the terms of the GNU Lesser General Public License as published by
   the Free Software Foundation, either version 3 of the License, or
   (at your option) any later version.
   
   xtb is distributed in the hope that it will be useful,
   but WITHOUT ANY WARRANTY; without even the implied warranty of
   MERCHANTABILITY or FITNESS FOR A PARTICULAR PURPOSE.  See the
   GNU Lesser General Public License for more details.
   
   Cite this work as:
   * C. Bannwarth, E. Caldeweyher, S. Ehlert, A. Hansen, P. Pracht,
     J. Seibert, S. Spicher, S. Grimme, WIREs Comput. Mol. Sci., 2020, 11,
     e01493. DOI: 10.1002/wcms.1493
   
   for GFN2-xTB:
   * C. Bannwarth, S. Ehlert and S. Grimme., J. Chem. Theory Comput., 2019,
     15, 1652-1671. DOI: 10.1021/acs.jctc.8b01176
   for GFN1-xTB:
   * S. Grimme, C. Bannwarth, P. Shushkov, J. Chem. Theory Comput., 2017,
     13, 1989-2009. DOI: 10.1021/acs.jctc.7b00118
   for GFN0-xTB:
   * P. Pracht, E. Caldeweyher, S. Ehlert, S. Grimme, ChemRxiv, 2019, preprint.
     DOI: 10.26434/chemrxiv.8326202.v1
   for GFN-FF:
   * S. Spicher and S. Grimme, Angew. Chem. Int. Ed., 2020, 59, 15665-15673.
     DOI: 10.1002/anie.202004239
   
   for ALPB and GBSA implicit solvation:
   * S. Ehlert, M. Stahn, S. Spicher, S. Grimme, J. Chem. Theory Comput.,
     2021, 17, 4250-4261. DOI: 10.1021/acs.jctc.1c00471
   
   for ddCOSMO and CPCM-X implicit solvation:
   * M. Stahn, S. Ehlert, S. Grimme, J. Phys. Chem. A,
     2023, XX, XXXX-XXXX. DOI: 10.1021/acs.jpca.3c04382
   
   for DFT-D4:
   * E. Caldeweyher, C. Bannwarth and S. Grimme, J. Chem. Phys., 2017,
     147, 034112. DOI: 10.1063/1.4993215
   * E. Caldeweyher, S. Ehlert, A. Hansen, H. Neugebauer, S. Spicher,
     C. Bannwarth and S. Grimme, J. Chem. Phys., 2019, 150, 154122.
     DOI: 10.1063/1.5090222
   * E. Caldeweyher, J.-M. Mewes, S. Ehlert and S. Grimme, Phys. Chem. Chem. Phys.
     2020, 22, 8499-8512. DOI: 10.1039/D0CP00502A
   
   for sTDA-xTB:
   * S. Grimme and C. Bannwarth, J. Chem. Phys., 2016, 145, 054103.
     DOI: 10.1063/1.4959605
   
   in the mass-spec context:
   * V. Asgeirsson, C. Bauer and S. Grimme, Chem. Sci., 2017, 8, 4879.
     DOI: 10.1039/c7sc00601b
   * J. Koopman and S. Grimme, ACS Omega 2019, 4, 12, 15120-15133.
     DOI: 10.1021/acsomega.9b02011
   
   for metadynamics refer to:
   * S. Grimme, J. Chem. Theory Comput., 2019, 155, 2847-2862
     DOI: 10.1021/acs.jctc.9b00143
   
   for SPH calculations refer to:
   * S. Spicher and S. Grimme, J. Chem. Theory Comput., 2021, 17, 1701-1714
     DOI: 10.1021/acs.jctc.0c01306
   
   for ONIOM refer to:
   * C. Plett, A. Katbashev, S. Ehlert, S. Grimme, M. Bursch,
     Phys. Chem. Chem. Phys., 2023, 25, 17860-17868. DOI: 10.1039/D3CP02178E
   
   for DIPRO refer to:
   * J. Kohn, N. Gildemeister, S. Grimme, D. Fazzi, A. Hansen,
     J. Chem. Phys., 2023, just accepted.
   
   for PTB refer to:
   * S. Grimme, M. Mueller, A. Hansen, J. Chem. Phys., 2023, 158, 124111.
     DOI: 10.1063/5.0137838
   
   with help from (in alphabetical order)
   P. Atkinson, C. Bannwarth, F. Bohle, G. Brandenburg, E. Caldeweyher
   M. Checinski, S. Dohm, S. Ehlert, S. Ehrlich, I. Gerasimov, C. Hölzer
   A. Katbashev, J. Kohn, J. Koopman, C. Lavigne, S. Lehtola, F. März, M. Müller,
   F. Musil, H. Neugebauer, J. Pisarek, C. Plett, P. Pracht, F. Pultar,
   J. Seibert, P. Shushkov, S. Spicher, M. Stahn, M. Steiner, T. Strunk,
   J. Stückrath, T. Rose, and J. Unsleber
   
 * started run on 2026/08/09 at 18:20:18.888     
   ID    Z sym.   atoms
    1    6 c      1-8, 10-13, 16
    2    8 o      9, 15
    3    1 h      14, 17-35

           -------------------------------------------------
          |                Calculation Setup                |
           -------------------------------------------------

          program call               : /home/dinglab/software/xtb_6.7.1/xtb_dist/bin/xtb coord --gfn2 --ohess vtight --alpb chcl3 --chrg 0 --enso --norestart -I xcontrol-inp --parallel 12
          hostname                   : localhost
          coordinate file            : coord
          omp threads                :                    12


           -------------------------------------------------
          |                 G F N 2 - x T B                 |
           -------------------------------------------------

        Reference                      10.1021/acs.jctc.8b01176
      * Hamiltonian:
        H0-scaling (s, p, d)           1.850000    2.230000    2.230000
        zeta-weighting                 0.500000
      * Dispersion:
        s8                             2.700000
        a1                             0.520000
        a2                             5.000000
        s9                             5.000000
      * Repulsion:
        kExp                           1.500000    1.000000
        rExp                           1.000000
      * Coulomb:
        alpha                          2.000000
        third order                    shell-resolved
        anisotropic                    true
        a3                             3.000000
        a5                             4.000000
        cn-shift                       1.200000
        cn-exp                         4.000000
        max-rad                        5.000000

      * Solvation model:               ALPB
        Solvent                        chcl3
        Parameter file                 internal GFN2-xTB/ALPB
        Dielectric constant                4.8100E+00
        Reference state                gsolv [1 M gas/solution]
        Free energy shift                  3.8910E-03 Eh       2.4417E+00 kcal/mol
        Temperature                        2.9815E+02 K
        Density                            1.4900E+00 kg/L
        Solvent mass                       1.1938E+02 g/mol
        Interaction kernel             P16
        Born radius scaling (c1)           1.3274E+00
        Born radii integrator          GBOBC
        Born offset                        0.0000E+00 a0       0.0000E+00 AA
        H-bond correction              false
        Ion screening                  false
        Surface tension                    1.0000E-05 Eh       1.5569E+01 dyn/cm
        Grid points                               974 per atom

          ...................................................
          :                      SETUP                      :
          :.................................................:
          :  # basis functions                  80          :
          :  # atomic orbitals                  80          :
          :  # shells                           50          :
          :  # electrons                        84          :
          :  max. iterations                   250          :
          :  Hamiltonian                  GFN2-xTB          :
          :  restarted?                      false          :
          :  GBSA solvation                   true          :
          :  PC potential                    false          :
          :  electronic temp.          300.0000000     K    :
          :  accuracy                    1.0000000          :
          :  -> integral cutoff          0.2500000E+02      :
          :  -> integral neglect         0.1000000E-07      :
          :  -> SCF convergence          0.1000000E-05 Eh   :
          :  -> wf. convergence          0.1000000E-03 e    :
          :  Broyden damping             0.4000000          :
          :  net charge                          0          :
          :  unpaired electrons                  0          :
          ...................................................

 iter      E             dE          RMSdq      gap      omega  full diag
   1    -46.6623878 -0.466624E+02  0.347E+00    4.98       0.0  T
   2    -46.7052428 -0.428550E-01  0.195E+00    4.86       1.0  T
   3    -46.7002035  0.503933E-02  0.800E-01    4.86       1.0  T
   4    -46.7066177 -0.641424E-02  0.376E-01    4.80       1.0  T
   5    -46.7093431 -0.272534E-02  0.784E-02    4.83       1.0  T
   6    -46.7093906 -0.474997E-04  0.433E-02    4.83       1.0  T
   7    -46.7093956 -0.500725E-05  0.147E-02    4.83       1.1  T
   8    -46.7093978 -0.226040E-05  0.601E-03    4.83       2.8  T
   9    -46.7093986 -0.754588E-06  0.210E-03    4.83       8.1  T
  10    -46.7093986 -0.195570E-07  0.822E-04    4.83      20.6  T
  11    -46.7093986 -0.275252E-08  0.349E-04    4.83      48.4  T

   *** convergence criteria satisfied after 11 iterations ***

         #    Occupation            Energy/Eh            Energy/eV
      -------------------------------------------------------------
         1        2.0000           -0.6957246             -18.9316
       ...           ...                  ...                  ...
        36        2.0000           -0.4280194             -11.6470
        37        2.0000           -0.4224439             -11.4953
        38        2.0000           -0.4192975             -11.4097
        39        2.0000           -0.4152041             -11.2983
        40        2.0000           -0.4021466             -10.9430
        41        2.0000           -0.3918308             -10.6623
        42        2.0000           -0.3880607             -10.5597 (HOMO)
        43                         -0.2106082              -5.7309 (LUMO)
        44                         -0.2074502              -5.6450
        45                         -0.0129579              -0.3526
        46                          0.0051599               0.1404
        47                          0.0159233               0.4333
       ...                                ...                  ...
        80                          0.5953992              16.2016
      -------------------------------------------------------------
                  HL-Gap            0.1774525 Eh            4.8287 eV
             Fermi-level           -0.2993345 Eh           -8.1453 eV

 SCC (total)                   0 d,  0 h,  0 min,  0.043 sec
 SCC setup                      ...        0 min,  0.001 sec (  1.742%)
 Dispersion                     ...        0 min,  0.000 sec (  0.832%)
 classical contributions        ...        0 min,  0.000 sec (  0.063%)
 integral evaluation            ...        0 min,  0.001 sec (  3.228%)
 iterations                     ...        0 min,  0.038 sec ( 86.813%)
 molecular gradient             ...        0 min,  0.003 sec (  6.898%)
 printout                       ...        0 min,  0.000 sec (  0.348%)

         :::::::::::::::::::::::::::::::::::::::::::::::::::::
         ::                     SUMMARY                     ::
         :::::::::::::::::::::::::::::::::::::::::::::::::::::
         :: total energy             -46.152897009262 Eh    ::
         :: total w/o Gsasa/hb       -46.140687483109 Eh    ::
         :: gradient norm              0.050050301431 Eh/a0 ::
         :: HOMO-LUMO gap              4.828729133565 eV    ::
         ::.................................................::
         :: SCC energy               -46.708747738792 Eh    ::
         :: -> isotropic ES            0.062570151566 Eh    ::
         :: -> anisotropic ES          0.006532746055 Eh    ::
         :: -> anisotropic XC          0.019625969421 Eh    ::
         :: -> dispersion             -0.035721900334 Eh    ::
         :: -> Gsolv                  -0.020253271418 Eh    ::
         ::    -> Gelec               -0.008043745264 Eh    ::
         ::    -> Gsasa               -0.016100545397 Eh    ::
         ::    -> Ghb                  0.000000000000 Eh    ::
         ::    -> Gshift               0.003891019244 Eh    ::
         :: repulsion energy           0.555850729530 Eh    ::
         :: add. restraining           0.000000000000 Eh    ::
         :: total charge               0.000000000000 e     ::
         :::::::::::::::::::::::::::::::::::::::::::::::::::::

      ----------------------------------------------------------- 
     |                   =====================                   |
     |                        A N C O P T                        |
     |                   =====================                   |
     |               Approximate Normal Coordinate               |
     |                Rational Function Optimizer                |
      ----------------------------------------------------------- 
      ----------------------------------------------------------- 
     |                   =====================                   |
     |                        A N C O P T                        |
     |                   =====================                   |
     |               Approximate Normal Coordinate               |
     |                Rational Function Optimizer                |
      ----------------------------------------------------------- 

          ...................................................
          :                      SETUP                      :
          :.................................................:
          :   optimization level         verytight          :
          :   max. optcycles                   700          :
          :   ANC micro-cycles                  20          :
          :   degrees of freedom                99          :
          :.................................................:
          :   RF solver                   davidson          :
          :   write xtbopt.log                true          :
          :   linear?                        false          :
          :   energy convergence         0.1000000E-06 Eh   :
          :   grad. convergence          0.2000000E-03 Eh/α :
          :   maxmium RF displ.          1.0000000          :
          :   Hlow (freq-cutoff)         0.1000000E-01      :
          :   Hmax (freq-cutoff)         5.0000000          :
          :   S6 in model hess.         20.0000000          :
          ...................................................

generating ANC from exact Hessian ...
Using Lindh-Hessian (1995)
 Shifting diagonal of input Hessian by   9.230988780135259E-003
 Lowest  eigenvalues of input Hessian
    0.000000    0.000000    0.000000    0.000000    0.000000    0.000000
    0.010000    0.010679    0.011173    0.012460    0.012805    0.014008
    0.014869    0.016174    0.016613    0.017757    0.017985    0.018894
 Highest eigenvalues
    1.394947    1.399337    1.411568    1.472217    1.790927    1.861058
 

........................................................................
.............................. CYCLE    1 ..............................
........................................................................

 iter      E             dE          RMSdq      gap      omega  full diag
   1    -46.7093986 -0.467094E+02  0.746E-05    4.83       0.0  T
   2    -46.7093986 -0.328342E-10  0.425E-05    4.83     398.0  T
   3    -46.7093986 -0.218137E-11  0.287E-05    4.83     589.7  T
     SCC iter.                  ...        0 min,  0.005 sec
     gradient                   ...        0 min,  0.003 sec
 * total energy  :   -46.1528970 Eh     change       -0.7397745E-09 Eh
   gradient norm :     0.0500530 Eh/α   predicted     0.0000000E+00 (-100.00%)
   displ. norm   :     0.3201932 α      lambda       -0.9807525E-02
   maximum displ.:     0.0929570 α      in ANC's #43, #4, #63, ...

........................................................................
.............................. CYCLE    2 ..............................
........................................................................

 iter      E             dE          RMSdq      gap      omega  full diag
   1    -46.7602174 -0.467602E+02  0.151E-01    4.99       0.0  T
   2    -46.7602518 -0.343575E-04  0.931E-02    4.98       1.0  T
   3    -46.7602247  0.271255E-04  0.592E-02    4.99       1.0  T
   4    -46.7602838 -0.591101E-04  0.726E-03    4.98       2.3  T
   5    -46.7602843 -0.522518E-06  0.333E-03    4.98       5.1  T
   6    -46.7602843 -0.928867E-08  0.146E-03    4.98      11.6  T
   7    -46.7602843 -0.135559E-07  0.591E-04    4.98      28.6  T
   8    -46.7602843 -0.544863E-08  0.277E-04    4.98      61.0  T
     SCC iter.                  ...        0 min,  0.010 sec
     gradient                   ...        0 min,  0.003 sec
 * total energy  :   -46.1592810 Eh     change       -0.6384019E-02 Eh
   gradient norm :     0.0147510 Eh/α   predicted    -0.5406882E-02 ( -15.31%)
   displ. norm   :     0.2481547 α      lambda       -0.1816830E-02
   maximum displ.:     0.1117858 α      in ANC's #4, #2, #13, ...

........................................................................
.............................. CYCLE    3 ..............................
........................................................................

 iter      E             dE          RMSdq      gap      omega  full diag
   1    -46.7791423 -0.467791E+02  0.859E-02    5.02       0.0  T
   2    -46.7791525 -0.102116E-04  0.530E-02    5.01       1.0  T
   3    -46.7791448  0.771603E-05  0.337E-02    5.02       1.0  T
   4    -46.7791634 -0.186113E-04  0.399E-03    5.01       4.2  T
   5    -46.7791636 -0.129588E-06  0.197E-03    5.01       8.6  T
   6    -46.7791636 -0.858894E-08  0.850E-04    5.01      19.9  T
   7    -46.7791636 -0.304380E-08  0.406E-04    5.01      41.7  T
     SCC iter.                  ...        0 min,  0.009 sec
     gradient                   ...        0 min,  0.003 sec
 * total energy  :   -46.1602929 Eh     change       -0.1011917E-02 Eh
   gradient norm :     0.0055349 Eh/α   predicted    -0.9646856E-03 (  -4.67%)
   displ. norm   :     0.1232817 α      lambda       -0.2479944E-03
   maximum displ.:     0.0592164 α      in ANC's #4, #2, #11, ...

........................................................................
.............................. CYCLE    4 ..............................
........................................................................

 iter      E             dE          RMSdq      gap      omega  full diag
   1    -46.7795018 -0.467795E+02  0.421E-02    5.00       0.0  T
   2    -46.7795027 -0.859591E-06  0.252E-02    5.00       1.0  T
   3    -46.7794992  0.352307E-05  0.141E-02    5.00       1.2  T
   4    -46.7795036 -0.446609E-05  0.135E-03    5.00      12.5  T
   5    -46.7795036 -0.902712E-08  0.771E-04    5.00      21.9  T
   6    -46.7795037 -0.165790E-08  0.270E-04    5.00      62.7  T
     SCC iter.                  ...        0 min,  0.008 sec
     gradient                   ...        0 min,  0.003 sec
 * total energy  :   -46.1604661 Eh     change       -0.1731509E-03 Eh
   gradient norm :     0.0041813 Eh/α   predicted    -0.1258862E-03 ( -27.30%)
   displ. norm   :     0.1932443 α      lambda       -0.2449340E-03
   maximum displ.:     0.0918802 α      in ANC's #4, #1, #2, ...

........................................................................
.............................. CYCLE    5 ..............................
........................................................................

 iter      E             dE          RMSdq      gap      omega  full diag
   1    -46.7775678 -0.467776E+02  0.583E-02    4.99       0.0  T
   2    -46.7775692 -0.138252E-05  0.347E-02    4.99       1.0  T
   3    -46.7775654  0.382033E-05  0.136E-02    4.99       1.2  T
   4    -46.7775700 -0.459120E-05  0.197E-03    4.99       8.6  T
   5    -46.7775700 -0.331204E-07  0.103E-03    4.99      16.3  T
   6    -46.7775700 -0.357474E-08  0.372E-04    4.99      45.5  T
   7    -46.7775700 -0.479723E-09  0.144E-04    4.99     117.4  T
     SCC iter.                  ...        0 min,  0.009 sec
     gradient                   ...        0 min,  0.003 sec
 * total energy  :   -46.1606126 Eh     change       -0.1464959E-03 Eh
   gradient norm :     0.0060866 Eh/α   predicted    -0.1270533E-03 ( -13.27%)
   displ. norm   :     0.1222045 α      lambda       -0.1190067E-03
   maximum displ.:     0.0734977 α      in ANC's #1, #9, #4, ...

........................................................................
.............................. CYCLE    6 ..............................
........................................................................

 iter      E             dE          RMSdq      gap      omega  full diag
   1    -46.7765411 -0.467765E+02  0.323E-02    4.99       0.0  T
   2    -46.7765414 -0.341074E-06  0.194E-02    4.99       1.0  T
   3    -46.7765413  0.707000E-07  0.269E-03    4.99       6.3  T
   4    -46.7765415 -0.156267E-06  0.116E-03    4.99      14.5  T
   5    -46.7765415 -0.168478E-07  0.588E-04    4.99      28.7  T
   6    -46.7765415 -0.238497E-08  0.215E-04    4.99      78.8  T
     SCC iter.                  ...        0 min,  0.008 sec
     gradient                   ...        0 min,  0.003 sec
 * total energy  :   -46.1606917 Eh     change       -0.7910172E-04 Eh
   gradient norm :     0.0045335 Eh/α   predicted    -0.6039227E-04 ( -23.65%)
   displ. norm   :     0.1187353 α      lambda       -0.8984536E-04
   maximum displ.:     0.0749010 α      in ANC's #1, #9, #4, ...

........................................................................
.............................. CYCLE    7 ..............................
........................................................................

 iter      E             dE          RMSdq      gap      omega  full diag
   1    -46.7768621 -0.467769E+02  0.303E-02    5.00       0.0  T
   2    -46.7768624 -0.319360E-06  0.181E-02    5.00       1.0  T
   3    -46.7768618  0.585197E-06  0.540E-03    5.00       3.1  T
   4    -46.7768626 -0.757508E-06  0.114E-03    5.00      14.8  T
   5    -46.7768626 -0.784094E-08  0.562E-04    5.00      30.1  T
   6    -46.7768626 -0.897003E-09  0.190E-04    5.00      89.2  T
     SCC iter.                  ...        0 min,  0.008 sec
     gradient                   ...        0 min,  0.003 sec
 * total energy  :   -46.1607513 Eh     change       -0.5963121E-04 Eh
   gradient norm :     0.0023051 Eh/α   predicted    -0.4555902E-04 ( -23.60%)
   displ. norm   :     0.1032364 α      lambda       -0.4491696E-04
   maximum displ.:     0.0584834 α      in ANC's #1, #9, #10, ...

........................................................................
.............................. CYCLE    8 ..............................
........................................................................

 iter      E             dE          RMSdq      gap      omega  full diag
   1    -46.7776914 -0.467777E+02  0.289E-02    5.01       0.0  T
   2    -46.7776916 -0.171390E-06  0.172E-02    5.01       1.0  T
   3    -46.7776916  0.177299E-07  0.190E-03    5.01       8.9  T
   4    -46.7776916 -0.684340E-07  0.839E-04    5.01      20.1  T
   5    -46.7776917 -0.780707E-08  0.417E-04    5.01      40.5  T
     SCC iter.                  ...        0 min,  0.007 sec
     gradient                   ...        0 min,  0.003 sec
 * total energy  :   -46.1607787 Eh     change       -0.2737368E-04 Eh
   gradient norm :     0.0014108 Eh/α   predicted    -0.2269942E-04 ( -17.08%)
   displ. norm   :     0.0886440 α      lambda       -0.1810462E-04
   maximum displ.:     0.0433771 α      in ANC's #5, #1, #9, ...

........................................................................
.............................. CYCLE    9 ..............................
........................................................................

 iter      E             dE          RMSdq      gap      omega  full diag
   1    -46.7788069 -0.467788E+02  0.254E-02    5.01       0.0  T
   2    -46.7788071 -0.186122E-06  0.151E-02    5.01       1.1  T
   3    -46.7788069  0.170041E-06  0.294E-03    5.01       5.7  T
   4    -46.7788071 -0.228365E-06  0.785E-04    5.01      21.5  T
   5    -46.7788071 -0.773651E-08  0.405E-04    5.01      41.8  T
     SCC iter.                  ...        0 min,  0.007 sec
     gradient                   ...        0 min,  0.003 sec
 * total energy  :   -46.1607910 Eh     change       -0.1231271E-04 Eh
   gradient norm :     0.0021569 Eh/α   predicted    -0.9085068E-05 ( -26.21%)
   displ. norm   :     0.0408127 α      lambda       -0.1217460E-04
   maximum displ.:     0.0280706 α      in ANC's #5, #9, #4, ...

........................................................................
.............................. CYCLE   10 ..............................
........................................................................

 iter      E             dE          RMSdq      gap      omega  full diag
   1    -46.7786243 -0.467786E+02  0.129E-02    5.01       0.0  T
   2    -46.7786243 -0.261975E-07  0.770E-03    5.01       2.2  T
   3    -46.7786243  0.660280E-07  0.175E-03    5.01       9.7  T
   4    -46.7786244 -0.821973E-07  0.316E-04    5.01      53.6  T
   5    -46.7786244 -0.472198E-09  0.182E-04    5.01      92.9  T
     SCC iter.                  ...        0 min,  0.007 sec
     gradient                   ...        0 min,  0.003 sec
 * total energy  :   -46.1607996 Eh     change       -0.8561382E-05 Eh
   gradient norm :     0.0015949 Eh/α   predicted    -0.6104040E-05 ( -28.70%)
   displ. norm   :     0.0543741 α      lambda       -0.1124584E-04
   maximum displ.:     0.0424840 α      in ANC's #5, #3, #4, ...

........................................................................
.............................. CYCLE   11 ..............................
........................................................................

 iter      E             dE          RMSdq      gap      omega  full diag
   1    -46.7780705 -0.467781E+02  0.165E-02    5.00       0.0  T
   2    -46.7780705 -0.764161E-07  0.987E-03    5.00       1.7  T
   3    -46.7780704  0.945248E-07  0.230E-03    5.00       7.3  T
   4    -46.7780706 -0.135280E-06  0.582E-04    5.00      29.0  T
   5    -46.7780706 -0.244189E-08  0.312E-04    5.00      54.2  T
     SCC iter.                  ...        0 min,  0.007 sec
     gradient                   ...        0 min,  0.003 sec
 * total energy  :   -46.1608089 Eh     change       -0.9350434E-05 Eh
   gradient norm :     0.0008599 Eh/α   predicted    -0.5631159E-05 ( -39.78%)
   displ. norm   :     0.0417527 α      lambda       -0.5123241E-05
   maximum displ.:     0.0286546 α      in ANC's #5, #3, #7, ...

........................................................................
.............................. CYCLE   12 ..............................
........................................................................

 iter      E             dE          RMSdq      gap      omega  full diag
   1    -46.7780811 -0.467781E+02  0.125E-02    5.00       0.0  T
   2    -46.7780812 -0.429785E-07  0.747E-03    5.00       2.3  T
   3    -46.7780812  0.858883E-08  0.106E-03    5.00      15.9  T
   4    -46.7780812 -0.223318E-07  0.439E-04    5.00      38.5  T
   5    -46.7780812 -0.232110E-08  0.222E-04    5.00      76.2  T
     SCC iter.                  ...        0 min,  0.007 sec
     gradient                   ...        0 min,  0.003 sec
 * total energy  :   -46.1608127 Eh     change       -0.3752064E-05 Eh
   gradient norm :     0.0010946 Eh/α   predicted    -0.2568039E-05 ( -31.56%)
   displ. norm   :     0.0446290 α      lambda       -0.3811216E-05
   maximum displ.:     0.0232182 α      in ANC's #9, #5, #1, ...

........................................................................
.............................. CYCLE   13 ..............................
........................................................................

 iter      E             dE          RMSdq      gap      omega  full diag
   1    -46.7779430 -0.467779E+02  0.116E-02    5.00       0.0  T
   2    -46.7779430 -0.170051E-07  0.691E-03    5.00       2.4  T
   3    -46.7779430  0.112856E-07  0.847E-04    5.00      19.9  T
   4    -46.7779430 -0.178213E-07  0.259E-04    5.00      65.2  T
     SCC iter.                  ...        0 min,  0.005 sec
     gradient                   ...        0 min,  0.003 sec
 * total energy  :   -46.1608153 Eh     change       -0.2588176E-05 Eh
   gradient norm :     0.0007744 Eh/α   predicted    -0.1907888E-05 ( -26.28%)
   displ. norm   :     0.0098111 α      lambda       -0.1635973E-05
   maximum displ.:     0.0043759 α      in ANC's #9, #6, #11, ...

........................................................................
.............................. CYCLE   14 ..............................
........................................................................

 iter      E             dE          RMSdq      gap      omega  full diag
   1    -46.7783662 -0.467784E+02  0.374E-03    5.00       0.0  T
   2    -46.7783663 -0.233202E-07  0.217E-03    5.00       7.8  T
   3    -46.7783663  0.180993E-08  0.609E-04    5.00      27.7  T
   4    -46.7783663 -0.322468E-08  0.247E-04    5.00      68.5  T
     SCC iter.                  ...        0 min,  0.005 sec
     gradient                   ...        0 min,  0.003 sec
 * total energy  :   -46.1608165 Eh     change       -0.1268506E-05 Eh
   gradient norm :     0.0003366 Eh/α   predicted    -0.8203965E-06 ( -35.33%)
   displ. norm   :     0.0177486 α      lambda       -0.1119671E-05
   maximum displ.:     0.0132241 α      in ANC's #9, #4, #3, ...

........................................................................
.............................. CYCLE   15 ..............................
........................................................................

 iter      E             dE          RMSdq      gap      omega  full diag
   1    -46.7783473 -0.467783E+02  0.395E-03    5.00       0.0  T
   2    -46.7783473 -0.413958E-08  0.238E-03    5.00       7.1  T
   3    -46.7783473  0.800083E-08  0.613E-04    5.00      27.6  T
   4    -46.7783473 -0.101102E-07  0.126E-04    5.00     133.9  T
     SCC iter.                  ...        0 min,  0.005 sec
     gradient                   ...        0 min,  0.003 sec
 * total energy  :   -46.1608176 Eh     change       -0.1079654E-05 Eh
   gradient norm :     0.0003875 Eh/α   predicted    -0.5637942E-06 ( -47.78%)
   displ. norm   :     0.0188493 α      lambda        0.1858904E-06
   maximum displ.:     0.0140918 α      in ANC's #9, #4, #3, ...

........................................................................
.............................. CYCLE   16 ..............................
........................................................................

 iter      E             dE          RMSdq      gap      omega  full diag
   1    -46.7783140 -0.467783E+02  0.415E-03    5.00       0.0  T
   2    -46.7783140 -0.446013E-08  0.250E-03    5.00       6.8  T
   3    -46.7783140  0.104010E-07  0.693E-04    5.00      24.4  T
   4    -46.7783140 -0.129485E-07  0.131E-04    5.00     128.8  T
     SCC iter.                  ...        0 min,  0.005 sec
     gradient                   ...        0 min,  0.003 sec
 * total energy  :   -46.1608175 Eh     change        0.1503255E-06 Eh
   gradient norm :     0.0007065 Eh/α   predicted     0.9179547E-07 ( -38.94%)
   displ. norm   :     0.0088202 α      lambda       -0.9185025E-06
   maximum displ.:     0.0046629 α      in ANC's #1, #4, #2, ...

........................................................................
.............................. CYCLE   17 ..............................
........................................................................

 iter      E             dE          RMSdq      gap      omega  full diag
   1    -46.7782279 -0.467782E+02  0.320E-03    5.00       0.0  T
   2    -46.7782279 -0.313149E-08  0.191E-03    5.00       8.8  T
   3    -46.7782279  0.133481E-07  0.781E-04    5.00      21.6  T
   4    -46.7782280 -0.159036E-07  0.921E-05    5.00     183.6  T
     SCC iter.                  ...        0 min,  0.005 sec
     gradient                   ...        0 min,  0.003 sec
 * total energy  :   -46.1608183 Eh     change       -0.8257707E-06 Eh
   gradient norm :     0.0002301 Eh/α   predicted    -0.4620179E-06 ( -44.05%)
   displ. norm   :     0.0077506 α      lambda       -0.3476783E-06
   maximum displ.:     0.0050818 α      in ANC's #1, #4, #7, ...

........................................................................
.............................. CYCLE   18 ..............................
........................................................................

 iter      E             dE          RMSdq      gap      omega  full diag
   1    -46.7781757 -0.467782E+02  0.248E-03    5.00       0.0  T
   2    -46.7781757 -0.209071E-08  0.148E-03    5.00      11.4  T
   3    -46.7781757  0.171498E-08  0.295E-04    5.00      57.3  T
   4    -46.7781757 -0.218109E-08  0.870E-05    5.00     194.2  T
     SCC iter.                  ...        0 min,  0.005 sec
     gradient                   ...        0 min,  0.003 sec
 * total energy  :   -46.1608186 Eh     change       -0.3276763E-06 Eh
   gradient norm :     0.0001459 Eh/α   predicted    -0.1765431E-06 ( -46.12%)
   displ. norm   :     0.0114116 α      lambda       -0.2831349E-06
   maximum displ.:     0.0061914 α      in ANC's #1, #9, #3, ...

........................................................................
.............................. CYCLE   19 ..............................
........................................................................

 iter      E             dE          RMSdq      gap      omega  full diag
   1    -46.7781703 -0.467782E+02  0.315E-03    5.00       0.0  T
   2    -46.7781703 -0.162368E-08  0.187E-03    5.00       9.0  T
   3    -46.7781703 -0.199016E-09  0.152E-04    5.00     111.0  T
   4    -46.7781703 -0.345999E-09  0.803E-05    5.00     210.6  T
     SCC iter.                  ...        0 min,  0.005 sec
     gradient                   ...        0 min,  0.003 sec
 * total energy  :   -46.1608189 Eh     change       -0.2967348E-06 Eh
   gradient norm :     0.0002137 Eh/α   predicted    -0.1459248E-06 ( -50.82%)
   displ. norm   :     0.0114116 α      lambda        0.0000000E+00
   maximum displ.:     0.0061914 α      in ANC's #1, #9, #3, ...

........................................................................
.............................. CYCLE   20 ..............................
........................................................................

 iter      E             dE          RMSdq      gap      omega  full diag
   1    -46.7781613 -0.467782E+02  0.315E-03    5.00       0.0  T
   2    -46.7781613 -0.157527E-08  0.187E-03    5.00       9.0  T
   3    -46.7781613  0.211571E-09  0.195E-04    5.00      86.5  T
   4    -46.7781613 -0.775572E-09  0.875E-05    5.00     193.1  T
     SCC iter.                  ...        0 min,  0.005 sec
     gradient                   ...        0 min,  0.003 sec
 * total energy  :   -46.1608189 Eh     change       -0.1131330E-07 Eh
   gradient norm :     0.0003798 Eh/α   predicted     0.1718623E-08 (-115.19%)
   displ. norm   :     0.0056803 α      lambda       -0.2050804E-06
   maximum displ.:     0.0026281 α      in ANC's #9, #5, #6, ...
 * RMSD in coord.:     0.1801058 α      energy gain  -0.7921914E-02 Eh

generating ANC from exact Hessian ...
Using Lindh-Hessian (1995)
 Shifting diagonal of input Hessian by   9.209261553582560E-003
 Lowest  eigenvalues of input Hessian
    0.000000    0.000000    0.000000    0.000000    0.000000    0.000000
    0.010000    0.010430    0.010978    0.012823    0.013495    0.014595
    0.016061    0.017301    0.018029    0.019007    0.019373    0.020173
 Highest eigenvalues
    1.483339    1.502005    1.506423    1.555126    1.907870    1.967979
 

........................................................................
.............................. CYCLE   21 ..............................
........................................................................

 iter      E             dE          RMSdq      gap      omega  full diag
   1    -46.7781399 -0.467781E+02  0.174E-03    5.00       0.0  T
   2    -46.7781399 -0.882487E-09  0.103E-03    5.00      16.4  T
   3    -46.7781399  0.114887E-08  0.243E-04    5.00      69.5  T
   4    -46.7781399 -0.146166E-08  0.541E-05    5.00     312.7  T
     SCC iter.                  ...        0 min,  0.005 sec
     gradient                   ...        0 min,  0.003 sec
 * total energy  :   -46.1608191 Eh     change       -0.2060359E-06 Eh
   gradient norm :     0.0001937 Eh/α   predicted     0.0000000E+00 (-100.00%)
   displ. norm   :     0.0028963 α      lambda       -0.3263606E-07
   maximum displ.:     0.0016186 α      in ANC's #3, #2, #5, ...

........................................................................
.............................. CYCLE   22 ..............................
........................................................................

 iter      E             dE          RMSdq      gap      omega  full diag
   1    -46.7781952 -0.467782E+02  0.870E-04    5.00       0.0  T
   2    -46.7781952 -0.409464E-09  0.516E-04    5.00      32.7  T
   3    -46.7781952  0.343817E-09  0.135E-04    5.00     124.8  T
     SCC iter.                  ...        0 min,  0.004 sec
     gradient                   ...        0 min,  0.003 sec
 * total energy  :   -46.1608192 Eh     change       -0.1004508E-06 Eh
   gradient norm :     0.0000527 Eh/α   predicted    -0.5146542E-07 ( -48.77%)
   displ. norm   :     0.0053269 α      lambda       -0.5358277E-07
   maximum displ.:     0.0028746 α      in ANC's #3, #2, #5, ...

........................................................................
.............................. CYCLE   23 ..............................
........................................................................

 iter      E             dE          RMSdq      gap      omega  full diag
   1    -46.7782293 -0.467782E+02  0.149E-03    5.00       0.0  T
   2    -46.7782293 -0.504940E-09  0.890E-04    5.00      19.0  T
   3    -46.7782293 -0.374740E-10  0.819E-05    5.00     206.4  T
     SCC iter.                  ...        0 min,  0.004 sec
     gradient                   ...        0 min,  0.003 sec
 * total energy  :   -46.1608193 Eh     change       -0.8889994E-07 Eh
   gradient norm :     0.0001134 Eh/α   predicted    -0.4493621E-07 ( -49.45%)
   displ. norm   :     0.0047754 α      lambda        0.1079736E-07
   maximum displ.:     0.0025835 α      in ANC's #3, #2, #5, ...

   *** GEOMETRY OPTIMIZATION CONVERGED AFTER 23 ITERATIONS ***

------------------------------------------------------------------------
 total energy gain   :        -0.0079223 Eh       -4.9713 kcal/mol
 total RMSD          :         0.1801136 a0        0.0953 Å
 total power (kW/mol):        -0.9043487 (step)  -52.2758 (real)
------------------------------------------------------------------------

 ANCopt (total)                0 d,  0 h,  0 min,  0.398 sec
 optimizer setup                ...        0 min,  0.000 sec (  0.039%)
 model hessian                  ...        0 min,  0.134 sec ( 33.712%)
 ANC generation                 ...        0 min,  0.004 sec (  1.014%)
 coordinate transformation      ...        0 min,  0.000 sec (  0.083%)
 single point calculation       ...        0 min,  0.253 sec ( 63.637%)
 optimization log               ...        0 min,  0.003 sec (  0.734%)
 hessian update                 ...        0 min,  0.000 sec (  0.084%)
 rational function              ...        0 min,  0.002 sec (  0.412%)

================
 final structure:
================
$coord
        0.01745643638380       -1.43066931521728       -0.08136564230385      c
        1.18268032993846        0.89862379469056       -1.44924741369353      c
       -0.79784851851210        3.02575250215016       -1.69390520716486      c
       -2.46230099017965        3.42407890040187        0.63608899600981      c
       -3.42094204087899        0.88977410572845        1.65233782962059      c
       -1.15905115191805       -0.73463003144186        2.49376700105110      c
       -2.36607531973433       -2.27419658043685       -1.53359334641160      c
       -4.47575589323516       -0.66939531157360       -0.47955326610782      c
        0.45990729570310        0.30639383243580        4.30957664503458      o
        1.90273375545785       -3.60697006886321        0.24149286422918      c
       -6.83411014337246       -0.63907472930866       -1.29453937642079      c
        3.70393465803555        1.82496911085629       -0.43928124609666      c
        3.99790239175773        3.73032785066151        1.16676385214593      c
        1.60231549166340        0.24382984609597       -3.37218300667819      h
        2.91066770954902       -4.52027766796415       -2.05652796060857      o
        5.99163356316919        0.62665968627338       -1.62120385600912      c
        0.17009948755315        4.78472101351641       -2.16755624854020      h
       -2.04238731696689        2.57129015316710       -3.27542125967116      h
       -1.45551576947436        4.40083861081739        2.14645386708909      h
       -4.07317239178158        4.60146247841657        0.10837471480757      h
       -4.77618393744595        1.19901880529641        3.17626786939641      h
       -1.88551243027013       -2.46380529273909        3.38444790165595      h
       -2.18442416406483       -2.05234668127227       -3.57436424555974      h
       -2.76789027321016       -4.26420845428542       -1.14229543096570      h
        1.50142135745283        1.57167782570956        3.48948182356256      h
        0.96302667278975       -5.15303222014883        1.26308627344738      h
        3.51148901063671       -2.99294471900208        1.37814169849388      h
       -7.44615199408455       -1.79233255289880       -2.85695245287175      h
       -8.24891159366192        0.54072343930194       -0.43075233358451      h
        5.86017861015218        4.33415913325821        1.72961652678783      h
        2.47130196303158        4.82884308924740        1.93996860302404      h
        1.52672893702061       -5.11368949478006       -3.08754650243580      h
        5.72645446550325       -1.37814842510913       -1.96179394837823      h
        6.33489836430990        1.51952003944270       -3.44876360752538      h
        7.65928952771923        0.90381324338890       -0.45378004869131      h
$end
 
 Bond Distances (Angstroems)
 ---------------------------
C1-C2=1.5568         C1-C6=1.5428         C1-C7=1.5430         C1-C10=1.5332        C2-C1=1.5568         C2-C3=1.5434         
C2-C12=1.5186        C2-H14=1.0976        C3-C2=1.5434         C3-C4=1.5299         C3-H17=1.0916        C3-H18=1.0918        
C4-C3=1.5299         C4-C5=1.5314         C4-H19=1.0908        C4-H20=1.0922        C5-C4=1.5314         C5-C6=1.5394         
C5-C8=1.5050         C5-H21=1.0915        C6-C1=1.5428         C6-C5=1.5394         C6-O9=1.4003         C6-H22=1.0987        
C7-C1=1.5430         C7-C8=1.5095         C7-H23=1.0905        C7-H24=1.0941        C8-C5=1.5050         C8-C7=1.5095         
C8-C11=1.3205        O9-C6=1.4003         O9-H25=0.9697        C10-C1=1.5332        C10-O15=1.4131       C10-H26=1.0995       
C10-H27=1.0918       C11-C8=1.3205        C11-H28=1.0775       C11-H29=1.0767       C12-C2=1.5186        C12-C13=1.3278       
C12-C16=1.5029       C13-C12=1.3278       C13-H30=1.0779       C13-H31=1.0761       H14-C2=1.0976        O15-C10=1.4131       
O15-H32=0.9657       C16-C12=1.5029       C16-H33=1.0852       C16-H34=1.0916       C16-H35=1.0872       H17-C3=1.0916        
H18-C3=1.0918        H19-C4=1.0908        H20-C4=1.0922        H21-C5=1.0915        H22-C6=1.0987        H23-C7=1.0905        
H24-C7=1.0941        H25-O9=0.9697        H26-C10=1.0995       H27-C10=1.0918       H28-C11=1.0775       H29-C11=1.0767       
H30-C13=1.0779       H31-C13=1.0761       H32-O15=0.9657       H33-C16=1.0852       H34-C16=1.0916       H35-C16=1.0872       
 C  H  Rav=1.0890 sigma=0.0073  Rmin=1.0761  Rmax=1.0995    18
 C  C  Rav=1.5003 sigma=0.0735  Rmin=1.3205  Rmax=1.5568    14
 O  H  Rav=0.9677 sigma=0.0020  Rmin=0.9657  Rmax=0.9697     2
 O  C  Rav=1.4067 sigma=0.0064  Rmin=1.4003  Rmax=1.4131     2
 
 selected bond angles (degree)
 --------------------
C6-C1-C2=112.43                C7-C1-C2=108.74                C7-C1-C6=100.32                C10-C1-C2=112.88               
C10-C1-C6=110.09               C10-C1-C7=111.72               C3-C2-C1=110.33                C12-C2-C1=116.10               
C12-C2-C3=113.00               H14-C2-C1=105.14               H14-C2-C3=106.85               H14-C2-C12=104.50              
C4-C3-C2=115.08                H17-C3-C2=108.81               H17-C3-C4=109.74               H18-C3-C2=108.26               
H18-C3-C4=107.51               H18-C3-H17=107.15              C5-C4-C3=110.68                H19-C4-C3=112.00               
H19-C4-C5=108.63               H20-C4-C3=108.78               H20-C4-C5=109.32               H20-C4-H19=107.35              
C6-C5-C4=109.45                C8-C5-C4=109.86                C8-C5-C6=101.48                H21-C5-C4=110.23               
H21-C5-C6=112.39               H21-C5-C8=113.10               C5-C6-C1=101.05                O9-C6-C1=116.95                
O9-C6-C5=117.03                H22-C6-C1=108.74               H22-C6-C5=108.49               H22-C6-O9=104.32               
C8-C7-C1=104.94                H23-C7-C1=112.96               H23-C7-C8=111.75               H24-C7-C1=110.06               
H24-C7-C8=109.14               H24-C7-H23=107.95              C7-C8-C5=108.13                C11-C8-C5=126.06               
C11-C8-C7=125.81               H25-O9-C6=108.20               O15-C10-C1=113.99              H26-C10-C1=108.63              
H26-C10-O15=109.84             H27-C10-C1=110.19              H27-C10-O15=106.35             H27-C10-H26=107.65             
 
 selected dihedral angles (degree)
 ---------------------------------
C3-C2-C1-C6=305.77            C3-C2-C1-C7= 55.93            C3-C2-C1-C10=180.49           C12-C2-C1-C6= 75.97           
C12-C2-C1-C7=186.13           C12-C2-C1-C10=310.70          H14-C2-C1-C6=190.90           H14-C2-C1-C7=301.06           
H14-C2-C1-C10= 65.63          C4-C3-C2-C1= 41.00            C4-C3-C2-C12=269.17           C4-C3-C2-H14=154.79           
H17-C3-C2-C1=164.60           H17-C3-C2-C12= 32.76          H17-C3-C2-H14=278.38          H18-C3-C2-C1=280.73           
H18-C3-C2-C12=148.89          H18-C3-C2-H14= 34.51          C5-C4-C3-C2=314.39            C5-C4-C3-H17=191.29           
C5-C4-C3-H18= 75.08           H19-C4-C3-C2= 75.78           H19-C4-C3-H17=312.67          H19-C4-C3-H18=196.46          
H20-C4-C3-C2=194.28           H20-C4-C3-H17= 71.17          H20-C4-C3-H18=314.96          C6-C5-C4-C3= 62.38            
C6-C5-C4-H19=299.02           C6-C5-C4-H20=182.17           C8-C5-C4-C3=311.76            C8-C5-C4-H19=188.41           
C8-C5-C4-H20= 71.56           H21-C5-C4-C3=186.48           H21-C5-C4-H19= 63.12          H21-C5-C4-H20=306.27          
C5-C6-C1-C2= 67.87            C5-C6-C1-C7=312.51            C5-C6-C1-C10=194.66           O9-C6-C1-C2=299.65            
O9-C6-C1-C7=184.28            O9-C6-C1-C10= 66.43           H22-C6-C1-C2=181.91           H22-C6-C1-C7= 66.55           
H22-C6-C1-C10=308.70          C1-C6-C5-C4=288.82            C1-C6-C5-C8= 44.89            C1-C6-C5-H21=165.99           
O9-C6-C5-C4= 56.99            O9-C6-C5-C8=173.05            O9-C6-C5-H21=294.16           H22-C6-C5-C4=174.59           
H22-C6-C5-C8=290.66           H22-C6-C5-H21= 51.77          C8-C7-C1-C2=273.98            C8-C7-C1-C6= 32.09            
C8-C7-C1-C10=148.73           H23-C7-C1-C2= 35.95           H23-C7-C1-C6=154.07           H23-C7-C1-C10=270.70          
H24-C7-C1-C2=156.68           H24-C7-C1-C6=274.79           H24-C7-C1-C10= 31.43          C7-C8-C5-C4= 90.78            
C7-C8-C5-C6=335.02            C7-C8-C5-H21=214.41           C11-C8-C5-C4=270.92           C11-C8-C5-C6=155.16           
C11-C8-C5-H21= 34.55          C5-C8-C7-C1=355.42            C5-C8-C7-H23=232.67           C5-C8-C7-H24=113.35           
C11-C8-C7-C1=175.28           C11-C8-C7-H23= 52.53          C11-C8-C7-H24=293.21          H25-O9-C6-C1= 44.76           
H25-O9-C6-C5=284.72           H25-O9-C6-H22=164.88          O15-C10-C1-C2=301.27          O15-C10-C1-C6=174.74          
O15-C10-C1-C7= 64.19          H26-C10-C1-C2=178.45          H26-C10-C1-C6= 51.92          H26-C10-C1-C7=301.37          
H27-C10-C1-C2= 60.75          H27-C10-C1-C6=294.22          H27-C10-C1-C7=183.67          
           -------------------------------------------------
          |                Final Singlepoint                |
           -------------------------------------------------

          ...................................................
          :                      SETUP                      :
          :.................................................:
          :  # basis functions                  80          :
          :  # atomic orbitals                  80          :
          :  # shells                           50          :
          :  # electrons                        84          :
          :  max. iterations                   250          :
          :  Hamiltonian                  GFN2-xTB          :
          :  restarted?                      false          :
          :  GBSA solvation                   true          :
          :  PC potential                    false          :
          :  electronic temp.          300.0000000     K    :
          :  accuracy                    1.0000000          :
          :  -> integral cutoff          0.2500000E+02      :
          :  -> integral neglect         0.1000000E-07      :
          :  -> SCF convergence          0.1000000E-05 Eh   :
          :  -> wf. convergence          0.1000000E-03 e    :
          :  Broyden damping             0.4000000          :
          :  net charge                          0          :
          :  unpaired electrons                  0          :
          ...................................................

 iter      E             dE          RMSdq      gap      omega  full diag
   1    -46.7782293 -0.467782E+02  0.425E-05    5.00       0.0  T
   2    -46.7782293 -0.710543E-11  0.299E-05    5.00     566.2  T
   3    -46.7782293 -0.126406E-10  0.170E-05    5.00     993.1  T

   *** convergence criteria satisfied after 3 iterations ***

         #    Occupation            Energy/Eh            Energy/eV
      -------------------------------------------------------------
         1        2.0000           -0.6990389             -19.0218
       ...           ...                  ...                  ...
        36        2.0000           -0.4287652             -11.6673
        37        2.0000           -0.4225154             -11.4972
        38        2.0000           -0.4179813             -11.3739
        39        2.0000           -0.4144866             -11.2788
        40        2.0000           -0.3999465             -10.8831
        41        2.0000           -0.3925516             -10.6819
        42        2.0000           -0.3889824             -10.5848 (HOMO)
        43                         -0.2052089              -5.5840 (LUMO)
        44                         -0.2024424              -5.5087
        45                          0.0098745               0.2687
        46                          0.0275215               0.7489
        47                          0.0427689               1.1638
       ...                                ...                  ...
        80                          0.6457491              17.5717
      -------------------------------------------------------------
                  HL-Gap            0.1837736 Eh            5.0007 eV
             Fermi-level           -0.2970956 Eh           -8.0844 eV

 SCC (total)                   0 d,  0 h,  0 min,  0.009 sec
 SCC setup                      ...        0 min,  0.000 sec (  5.598%)
 Dispersion                     ...        0 min,  0.000 sec (  1.870%)
 classical contributions        ...        0 min,  0.000 sec (  0.249%)
 integral evaluation            ...        0 min,  0.001 sec ( 11.672%)
 iterations                     ...        0 min,  0.004 sec ( 45.273%)
 molecular gradient             ...        0 min,  0.003 sec ( 33.817%)
 printout                       ...        0 min,  0.000 sec (  1.167%)

         :::::::::::::::::::::::::::::::::::::::::::::::::::::
         ::                     SUMMARY                     ::
         :::::::::::::::::::::::::::::::::::::::::::::::::::::
         :: total energy             -46.160819318878 Eh    ::
         :: total w/o Gsasa/hb       -46.148936474067 Eh    ::
         :: gradient norm              0.000113380061 Eh/a0 ::
         :: HOMO-LUMO gap              5.000733347958 eV    ::
         ::.................................................::
         :: SCC energy               -46.777584591731 Eh    ::
         :: -> isotropic ES            0.062546971932 Eh    ::
         :: -> anisotropic ES          0.004177938539 Eh    ::
         :: -> anisotropic XC          0.017460679246 Eh    ::
         :: -> dispersion             -0.036484192169 Eh    ::
         :: -> Gsolv                  -0.019716169713 Eh    ::
         ::    -> Gelec               -0.007833324902 Eh    ::
         ::    -> Gsasa               -0.015773864055 Eh    ::
         ::    -> Ghb                  0.000000000000 Eh    ::
         ::    -> Gshift               0.003891019244 Eh    ::
         :: repulsion energy           0.616765272853 Eh    ::
         :: add. restraining           0.000000000000 Eh    ::
         :: total charge              -0.000000000000 e     ::
         :::::::::::::::::::::::::::::::::::::::::::::::::::::

           ------------------------------------------------- 
          |                Numerical Hessian                |
           ------------------------------------------------- 
step length          :   0.00500
SCC accuracy         :   0.30000
Hessian scale factor :   1.00000
frozen atoms in %    :   0.00000    0
RMS gradient         :   0.00011
estimated CPU  time      1.58 min
estimated wall time      0.13 min

writing file <hessian>.

 projected vibrational frequencies (cm⁻¹)
eigval :       -0.00    -0.00     0.00     0.00     0.00     0.00
eigval :       65.37    98.29   120.96   138.81   151.61   162.13
eigval :      199.08   230.94   263.66   275.72   283.54   303.88
eigval :      313.90   336.96   342.62   372.31   401.67   406.92
eigval :      465.58   505.63   511.10   530.69   573.33   602.75
eigval :      612.36   692.44   705.87   724.95   792.46   835.27
eigval :      879.79   890.55   897.79   905.44   917.72   930.94
eigval :      942.27   954.35   957.24   980.42  1031.76  1038.68
eigval :     1045.92  1051.19  1068.93  1085.77  1094.23  1119.48
eigval :     1134.60  1144.72  1151.00  1180.41  1186.84  1200.01
eigval :     1224.30  1236.37  1252.77  1256.20  1264.26  1276.40
eigval :     1290.38  1306.46  1321.10  1333.42  1345.08  1348.22
eigval :     1360.45  1370.06  1406.27  1411.56  1424.81  1460.42
eigval :     1476.69  1477.37  1485.60  1495.64  1497.10  1705.82
eigval :     1739.02  2876.26  2895.67  2906.39  2938.92  2963.47
eigval :     2967.40  2972.79  2980.83  2984.23  2988.80  2992.33
eigval :     2992.59  3038.94  3077.99  3098.55  3101.53  3121.16
eigval :     3122.57  3413.88  3517.18
           -------------------------------------------------
          |                Property Printout                |
           -------------------------------------------------

    * Orbital Energies and Occupations

         #    Occupation            Energy/Eh            Energy/eV
      -------------------------------------------------------------
         1        2.0000           -0.6990389             -19.0218
       ...           ...                  ...                  ...
        30        2.0000           -0.4707355             -12.8094
        31        2.0000           -0.4557753             -12.4023
        32        2.0000           -0.4552453             -12.3879
        33        2.0000           -0.4486125             -12.2074
        34        2.0000           -0.4406681             -11.9912
        35        2.0000           -0.4375410             -11.9061
        36        2.0000           -0.4287652             -11.6673
        37        2.0000           -0.4225154             -11.4972
        38        2.0000           -0.4179814             -11.3739
        39        2.0000           -0.4144867             -11.2788
        40        2.0000           -0.3999465             -10.8831
        41        2.0000           -0.3925516             -10.6819
        42        2.0000           -0.3889824             -10.5848 (HOMO)
        43                         -0.2052089              -5.5840 (LUMO)
        44                         -0.2024424              -5.5087
        45                          0.0098745               0.2687
        46                          0.0275215               0.7489
        47                          0.0427689               1.1638
        48                          0.0447018               1.2164
        49                          0.0698846               1.9017
        50                          0.0753412               2.0501
        51                          0.0846156               2.3025
        52                          0.0908545               2.4723
        53                          0.0951003               2.5878
       ...                                ...                  ...
        80                          0.6457491              17.5717
      -------------------------------------------------------------
                  HL-Gap            0.1837735 Eh            5.0007 eV
             Fermi-level           -0.2970957 Eh           -8.0844 eV

     #   Z          covCN         q      C6AA      α(0)
     1   6 c        3.930    -0.009    20.678     6.462
     2   6 c        3.854    -0.030    21.064     6.527
     3   6 c        3.803    -0.063    21.707     6.633
     4   6 c        3.807    -0.055    21.565     6.611
     5   6 c        3.886    -0.038    21.194     6.545
     6   6 c        3.782     0.113    18.748     6.168
     7   6 c        3.840    -0.073    21.860     6.651
     8   6 c        2.980     0.009    27.803     8.649
     9   8 o        1.655    -0.495    22.779     6.443
    10   6 c        3.677     0.080    19.461     6.320
    11   6 c        2.838    -0.112    30.838     9.101
    12   6 c        2.935     0.016    27.659     8.625
    13   6 c        2.844    -0.120    31.044     9.131
    14   1 h        0.924     0.052     2.289     2.366
    15   8 o        1.655    -0.477    22.405     6.390
    16   6 c        3.761    -0.120    22.842     6.813
    17   1 h        0.924     0.040     2.450     2.448
    18   1 h        0.924     0.040     2.454     2.450
    19   1 h        0.924     0.040     2.451     2.448
    20   1 h        0.924     0.037     2.492     2.469
    21   1 h        0.924     0.038     2.480     2.463
    22   1 h        0.923     0.026     2.647     2.544
    23   1 h        0.924     0.053     2.286     2.364
    24   1 h        0.924     0.046     2.371     2.408
    25   1 h        0.804     0.322     0.659     1.275
    26   1 h        0.923     0.020     2.726     2.582
    27   1 h        0.924     0.053     2.280     2.361
    28   1 h        0.926     0.036     2.499     2.472
    29   1 h        0.926     0.037     2.490     2.468
    30   1 h        0.926     0.032     2.552     2.498
    31   1 h        0.926     0.037     2.485     2.465
    32   1 h        0.805     0.310     0.693     1.308
    33   1 h        0.925     0.066     2.131     2.283
    34   1 h        0.924     0.048     2.342     2.393
    35   1 h        0.925     0.041     2.439     2.442

 Mol. C6AA /au·bohr⁶  :      10386.151450
 Mol. C8AA /au·bohr⁸  :     233613.875108
 Mol. α(0) /au        :        153.577085


Wiberg/Mayer (AO) data.
largest (>0.10) Wiberg bond orders for each atom

 ---------------------------------------------------------------------------
     #   Z sym  total        # sym  WBO       # sym  WBO       # sym  WBO
 ---------------------------------------------------------------------------
     1   6 c    3.989 --     7 c    0.981    10 c    0.980     6 c    0.959
                             2 c    0.959
     2   6 c    3.992 --    12 c    0.997     3 c    0.988     1 c    0.959
                            14 h    0.957
     3   6 c    3.996 --     4 c    1.009     2 c    0.988    18 h    0.976
                            17 h    0.975
     4   6 c    3.997 --     3 c    1.009     5 c    0.980    20 h    0.976
                            19 h    0.967
     5   6 c    3.995 --     8 c    0.996     4 c    0.980    21 h    0.965
                             6 c    0.963
     6   6 c    3.953 --     9 o    1.001     5 c    0.963    22 h    0.961
                             1 c    0.959
     7   6 c    3.996 --     8 c    1.003     1 c    0.981    23 h    0.964
                            24 h    0.959
     8   6 c    3.986 --    11 c    1.938     7 c    1.003     5 c    0.996
     9   8 o    1.947 --     6 c    1.001    25 h    0.847
    10   6 c    3.948 --    15 o    0.991     1 c    0.980    27 h    0.968
                            26 h    0.967
    11   6 c    3.988 --     8 c    1.938    28 h    0.975    29 h    0.975
    12   6 c    3.985 --    13 c    1.910    16 c    1.025     2 c    0.997
    13   6 c    3.987 --    12 c    1.910    30 h    0.974    31 h    0.962
    14   1 h    0.997 --     2 c    0.957
    15   8 o    1.945 --    10 c    0.991    32 h    0.887
    16   6 c    3.994 --    12 c    1.025    35 h    0.983    33 h    0.970
                            34 h    0.963
    17   1 h    0.998 --     3 c    0.975
    18   1 h    0.998 --     3 c    0.976
    19   1 h    0.998 --     4 c    0.967
    20   1 h    0.998 --     4 c    0.976
    21   1 h    0.998 --     5 c    0.965
    22   1 h    0.999 --     6 c    0.961
    23   1 h    0.997 --     7 c    0.964
    24   1 h    0.997 --     7 c    0.959
    25   1 h    0.896 --     9 o    0.847
    26   1 h    0.999 --    10 c    0.967
    27   1 h    0.997 --    10 c    0.968
    28   1 h    0.998 --    11 c    0.975
    29   1 h    0.998 --    11 c    0.975
    30   1 h    0.998 --    13 c    0.974
    31   1 h    0.999 --    13 c    0.962
    32   1 h    0.904 --    15 o    0.887
    33   1 h    0.996 --    16 c    0.970
    34   1 h    0.998 --    16 c    0.963
    35   1 h    0.998 --    16 c    0.983
 ---------------------------------------------------------------------------

Topologies differ in total number of bonds
Writing topology from bond orders to xtbtopo.mol

molecular dipole:
                 x           y           z       tot (Debye)
 q only:       -0.360       0.224      -0.873
   full:       -0.500       0.227      -1.008       2.918
molecular quadrupole (traceless):
                xx          xy          yy          xz          yz          zz
 q only:       -0.611       3.823       3.473       1.230       1.774      -2.862
  q+dip:       -0.467       6.017       5.103       2.273       3.183      -4.636
   full:       -0.973       6.022       5.072       1.911       2.425      -4.099

           -------------------------------------------------
          |                Geometry Summary                 |
           -------------------------------------------------

      molecular mass/u    :      208.2971915
   center of mass at/Å    :       -0.0007467      -0.0006171      -0.0000447
  moments of inertia/u·Å² :        0.5723492E+03   0.8841677E+03   0.1076904E+04
rotational constants/cm⁻¹ :        0.2945340E-01   0.1906610E-01   0.1565379E-01

 * 30 selected distances

     #   Z          #   Z                                           value/Å
     3   6 c        4   6 c                                       1.5298568
     4   6 c        5   6 c                                       1.5313676
     1   6 c        6   6 c                                       1.5427989
     5   6 c        6   6 c                                       1.5394277
     1   6 c        7   6 c                                       1.5429603 (max)
     6   6 c        9   8 o                                       1.4002636
     1   6 c       10   6 c                                       1.5332260
     8   6 c       11   6 c                                       1.3205021
    12   6 c       13   6 c                                       1.3278227
     2   6 c       14   1 h                                       1.0976481
    10   6 c       15   8 o                                       1.4131075
     3   6 c       17   1 h                                       1.0915990
     3   6 c       18   1 h                                       1.0917744
     4   6 c       19   1 h                                       1.0907829
     4   6 c       20   1 h                                       1.0921610
     5   6 c       21   1 h                                       1.0915268
     6   6 c       22   1 h                                       1.0987414
     7   6 c       23   1 h                                       1.0905367
     7   6 c       24   1 h                                       1.0940945
     9   8 o       25   1 h                                       0.9697454
    10   6 c       26   1 h                                       1.0994937
    10   6 c       27   1 h                                       1.0918366
    11   6 c       28   1 h                                       1.0774617
    11   6 c       29   1 h                                       1.0766794
    13   6 c       30   1 h                                       1.0779495
    13   6 c       31   1 h                                       1.0760778
    15   8 o       32   1 h                                       0.9657193 (min)
    16   6 c       33   1 h                                       1.0852105
    16   6 c       34   1 h                                       1.0915690
    16   6 c       35   1 h                                       1.0871687

 * 4 distinct bonds (by element types)

   Z      Z             #   av. dist./Å        max./Å        min./Å
   1 H    6 C          18     1.0890173     1.0994937     1.0760778
   6 C    6 C           8     1.4834953     1.5429603     1.3205021
   1 H    8 O           2     0.9677323     0.9697454     0.9657193
   6 C    8 O           2     1.4066856     1.4131075     1.4002636

           -------------------------------------------------
          |               Frequency Printout                |
           -------------------------------------------------
 projected vibrational frequencies (cm⁻¹)
eigval :       -0.00    -0.00     0.00     0.00     0.00     0.00
eigval :       65.37    98.29   120.96   138.81   151.61   162.13
eigval :      199.08   230.94   263.66   275.72   283.54   303.88
eigval :      313.90   336.96   342.62   372.31   401.67   406.92
eigval :      465.58   505.63   511.10   530.69   573.33   602.75
eigval :      612.36   692.44   705.87   724.95   792.46   835.27
eigval :      879.79   890.55   897.79   905.44   917.72   930.94
eigval :      942.27   954.35   957.24   980.42  1031.76  1038.68
eigval :     1045.92  1051.19  1068.93  1085.77  1094.23  1119.48
eigval :     1134.60  1144.72  1151.00  1180.41  1186.84  1200.01
eigval :     1224.30  1236.37  1252.77  1256.20  1264.26  1276.40
eigval :     1290.38  1306.46  1321.10  1333.42  1345.08  1348.22
eigval :     1360.45  1370.06  1406.27  1411.56  1424.81  1460.42
eigval :     1476.69  1477.37  1485.60  1495.64  1497.10  1705.82
eigval :     1739.02  2876.26  2895.67  2906.39  2938.92  2963.47
eigval :     2967.40  2972.79  2980.83  2984.23  2988.80  2992.33
eigval :     2992.59  3038.94  3077.99  3098.55  3101.53  3121.16
eigval :     3122.57  3413.88  3517.18
 reduced masses (amu)
   1: 11.03   2: 11.40   3: 11.51   4: 11.16   5: 11.75   6: 11.01   7:  9.19   8:  9.33
   9:  9.38  10: 10.32  11:  9.53  12: 10.06  13: 11.84  14:  8.73  15:  8.31  16:  9.46
  17: 10.20  18:  8.65  19:  8.04  20:  8.62  21:  4.85  22:  3.37  23:  7.96  24:  9.42
  25:  7.66  26: 10.89  27: 10.40  28:  8.46  29:  9.88  30:  9.75  31: 10.06  32:  6.92
  33:  2.59  34:  4.20  35:  7.82  36:  8.63  37:  8.07  38:  4.42  39:  7.10  40:  4.65
  41:  6.52  42:  6.32  43:  6.98  44:  5.33  45:  7.15  46:  6.83  47:  4.98  48:  5.84
  49:  7.93  50:  7.82  51:  7.79  52:  7.25  53:  6.27  54:  7.36  55:  6.53  56:  8.01
  57:  2.82  58:  5.19  59:  4.45  60:  6.48  61:  7.47  62:  7.16  63:  6.45  64:  6.47
  65:  6.44  66:  4.89  67:  5.25  68:  4.53  69:  4.34  70:  4.63  71:  3.75  72:  4.81
  73:  4.44  74:  3.41  75:  2.77  76:  2.36  77:  2.54  78:  1.90  79:  1.64  80:  1.74
  81:  1.84  82:  1.68  83:  1.93  84: 11.16  85: 11.58  86:  1.74  87:  1.73  88:  1.75
  89:  1.84  90:  1.91  91:  1.79  92:  1.95  93:  1.64  94:  1.77  95:  1.56  96:  1.53
  97:  1.67  98:  1.67  99:  1.70 100:  1.54 101:  1.62 102:  2.07 103:  1.97 104:  1.87
 105:  1.87
 IR intensities (km·mol⁻¹)
   1:  0.11   2:  0.00   3:  0.03   4:  0.08   5:  0.44   6:  0.31   7:  0.19   8:  1.07
   9:  1.88  10:  1.79  11:  3.20  12:  1.32  13:  5.61  14:  4.38  15:  5.72  16: 23.58
  17:  5.49  18: 16.06  19:  9.05  20: 16.87  21: 90.16  22:150.73  23: 51.68  24:  4.21
  25:  0.43  26:  9.61  27:  3.40  28:  7.21  29:  5.75  30:  4.38  31:  2.85  32:  2.53
  33:  1.10  34:  7.52  35: 14.17  36:  2.65  37:  1.49  38: 22.21  39: 25.58  40: 15.65
  41:  5.84  42:  4.91  43:  6.71  44:  0.22  45: 10.89  46:  2.42  47:  2.78  48: 28.04
  49: 45.77  50: 60.59  51: 28.71  52:  9.31  53: 35.45  54: 98.54  55: 48.21  56: 10.55
  57: 19.20  58:  9.09  59: 11.05  60: 11.84  61: 37.38  62: 13.08  63: 11.88  64:  7.49
  65: 19.06  66: 10.36  67:  3.14  68: 23.99  69: 32.06  70:  9.89  71: 38.54  72:  5.19
  73:  1.00  74: 80.74  75:  8.60  76:  6.13  77: 12.35  78:  1.28  79:  2.50  80:  0.72
  81:  1.27  82:  7.47  83:  0.30  84: 33.27  85: 30.40  86: 69.06  87:125.02  88: 47.35
  89: 57.96  90: 23.34  91: 59.67  92: 83.22  93: 38.65  94: 32.42  95:100.38  96: 85.93
  97: 40.07  98: 48.03  99:  4.72 100: 43.23 101: 48.78 102: 57.87 103: 52.11 104:319.44
 105: 31.10
 Raman intensities (Ä⁴*amu⁻¹)
   1:  0.00   2:  0.00   3:  0.00   4:  0.00   5:  0.00   6:  0.00   7:  0.00   8:  0.00
   9:  0.00  10:  0.00  11:  0.00  12:  0.00  13:  0.00  14:  0.00  15:  0.00  16:  0.00
  17:  0.00  18:  0.00  19:  0.00  20:  0.00  21:  0.00  22:  0.00  23:  0.00  24:  0.00
  25:  0.00  26:  0.00  27:  0.00  28:  0.00  29:  0.00  30:  0.00  31:  0.00  32:  0.00
  33:  0.00  34:  0.00  35:  0.00  36:  0.00  37:  0.00  38:  0.00  39:  0.00  40:  0.00
  41:  0.00  42:  0.00  43:  0.00  44:  0.00  45:  0.00  46:  0.00  47:  0.00  48:  0.00
  49:  0.00  50:  0.00  51:  0.00  52:  0.00  53:  0.00  54:  0.00  55:  0.00  56:  0.00
  57:  0.00  58:  0.00  59:  0.00  60:  0.00  61:  0.00  62:  0.00  63:  0.00  64:  0.00
  65:  0.00  66:  0.00  67:  0.00  68:  0.00  69:  0.00  70:  0.00  71:  0.00  72:  0.00
  73:  0.00  74:  0.00  75:  0.00  76:  0.00  77:  0.00  78:  0.00  79:  0.00  80:  0.00
  81:  0.00  82:  0.00  83:  0.00  84:  0.00  85:  0.00  86:  0.00  87:  0.00  88:  0.00
  89:  0.00  90:  0.00  91:  0.00  92:  0.00  93:  0.00  94:  0.00  95:  0.00  96:  0.00
  97:  0.00  98:  0.00  99:  0.00 100:  0.00 101:  0.00 102:  0.00 103:  0.00 104:  0.00
 105:  0.00
 output can be read by thermo (or use thermo option).
 writing <g98.out> molden fake output.
 recommended (thermochemical) frequency scaling factor: 1.0
           -------------------------------------------------
          |             Thermodynamic Functions             |
           -------------------------------------------------

Molecule has no symmetry elements
It seems to be the C1 point group
c1  symmetry found (for desy threshold:  0.10E+00) used in thermo

          ...................................................
          :                      SETUP                      :
          :.................................................:
          :  # frequencies                          99      :
          :  # imaginary freq.                       0      :
          :  linear?                             false      :
          :  only rotor calc.                    false      :
          :  symmetry                               c1      :
          :  rotational number                       1      :
          :  scaling factor                  1.0000000      :
          :  rotor cutoff                   50.0000000 cm⁻¹ :
          :  imag. cutoff                  -50.0000000 cm⁻¹ :
          :.................................................:

    mode    ω/cm⁻¹     T·S(HO)/kcal·mol⁻¹    T·S(FR)/kcal·mol⁻¹   T·S(vib)
   ------------------------------------------------------------------------
       1     65.37    -1.27849 ( 74.50%)    -0.97704 ( 25.50%)    -1.20163
       2     98.29    -1.03996 ( 93.72%)    -0.85627 (  6.28%)    -1.02843
       3    120.96    -0.91981 ( 97.16%)    -0.79480 (  2.84%)    -0.91626
       4    138.81    -0.84084 ( 98.34%)    -0.75402 (  1.66%)    -0.83941
       5    151.61    -0.79066 ( 98.83%)    -0.72789 (  1.17%)    -0.78992
       6    162.13    -0.75275 ( 99.10%)    -0.70801 (  0.90%)    -0.75235
       7    199.08    -0.63852 ( 99.60%)    -0.64721 (  0.40%)    -0.63856
       8    230.94    -0.55802 ( 99.78%)    -0.60323 (  0.22%)    -0.55812
       9    263.66    -0.48819 ( 99.87%)    -0.56399 (  0.13%)    -0.48829
      10    275.72    -0.46514 ( 99.89%)    -0.55074 (  0.11%)    -0.46523
      11    283.54    -0.45087 ( 99.90%)    -0.54246 (  0.10%)    -0.45096
   ------------------------------------------------------------------------

   temp. (K)  partition function   enthalpy   heat capacity  entropy
                                   cal/mol     cal/K/mol   cal/K/mol   J/K/mol
 298.15  VIB  0.102E+05             7542.080     54.208     43.323
         ROT  0.178E+07              888.752      2.981     31.585
         INT  0.182E+11             8430.832     57.189     74.909
         TR   0.291E+28             1481.254      4.968     41.886
         TOT                        9912.0858    62.1572   116.7950   488.6703

       T/K    H(0)-H(T)+PV         H(T)/Eh          T*S/Eh         G(T)/Eh
   ------------------------------------------------------------------------
    298.15    0.157959E-01    0.317717E+00    0.554931E-01    0.262224E+00
   ------------------------------------------------------------------------

         :::::::::::::::::::::::::::::::::::::::::::::::::::::
         ::                  THERMODYNAMIC                  ::
         :::::::::::::::::::::::::::::::::::::::::::::::::::::
         :: total free energy         -45.898595208430 Eh   ::
         ::.................................................::
         :: total energy              -46.160819318850 Eh   ::
         :: zero point energy           0.301921270015 Eh   ::
         :: G(RRHO) w/o ZPVE           -0.039697159595 Eh   ::
         :: G(RRHO) contrib.            0.262224110420 Eh   ::
         :::::::::::::::::::::::::::::::::::::::::::::::::::::

optimized geometry written to: xtbopt.coord


           -------------------------------------------------
          | TOTAL ENERGY              -46.160819318850 Eh   |
          | TOTAL ENTHALPY            -45.843102134669 Eh   |
          | TOTAL FREE ENERGY         -45.898595208430 Eh   |
          | GRADIENT NORM               0.000113280933 Eh/α |
          | HOMO-LUMO GAP               5.000732727623 eV   |
           -------------------------------------------------

------------------------------------------------------------------------
 * finished run on 2026/08/09 at 18:20:20.082     
------------------------------------------------------------------------
 total:
 * wall-time:     0 d,  0 h,  0 min,  1.194 sec
 *  cpu-time:     0 d,  0 h,  0 min, 14.152 sec
 * ratio c/w:    11.856 speedup
 SCF:
 * wall-time:     0 d,  0 h,  0 min,  0.044 sec
 *  cpu-time:     0 d,  0 h,  0 min,  0.494 sec
 * ratio c/w:    11.290 speedup
 ANC optimizer:
 * wall-time:     0 d,  0 h,  0 min,  0.408 sec
 *  cpu-time:     0 d,  0 h,  0 min,  4.883 sec
 * ratio c/w:    11.970 speedup
 analytical hessian:
 * wall-time:     0 d,  0 h,  0 min,  0.713 sec
 *  cpu-time:     0 d,  0 h,  0 min,  8.514 sec
 * ratio c/w:    11.937 speedup

normal termination of xtb
