
                                 *****************
                                 * O   R   C   A *
                                 *****************

                                            #,                                       
                                            ###                                      
                                            ####                                     
                                            #####                                    
                                            ######                                   
                                           ########,                                 
                                     ,,################,,,,,                         
                               ,,#################################,,                 
                          ,,##########################################,,             
                       ,#########################################, ''#####,          
                    ,#############################################,,   '####,        
                  ,##################################################,,,,####,       
                ,###########''''           ''''###############################       
              ,#####''   ,,,,##########,,,,          '''####'''          '####       
            ,##' ,,,,###########################,,,                        '##       
           ' ,,###''''                  '''############,,,                           
         ,,##''                                '''############,,,,        ,,,,,,###''
      ,#''                                            '''#######################'''  
     '                                                          ''''####''''         
             ,#######,   #######,   ,#######,      ##                                
            ,#'     '#,  ##    ##  ,#'     '#,    #''#        ,####,    ,#,          
            ##       ##  ##   ,#'  ##            #'  '#       #'       ,# #          
            ##       ##  #######   ##           ,######,      #####,      #          
            '#,     ,#'  ##    ##  '#,     ,#' ,#      #,     #,   #      #          
             '#######'   ##     ##  '#######'  #'      '#     '####' #    #          



                #########################################################
                #                        -***-                          #
                #          Department of theory and spectroscopy        #
                #                                                       #
                #                      Frank Neese                      #
                #                                                       #
                #     Directorship, Architecture, Infrastructure        #
                #                    SHARK, DRIVERS                     #
                #        Core code/Algorithms in most modules           #
                #                                                       #
                #        Max Planck Institute fuer Kohlenforschung      #
                #                Kaiser Wilhelm Platz 1                 #
                #                 D-45470 Muelheim/Ruhr                 #
                #                      Germany                          #
                #                                                       #
                #                  All rights reserved                  #
                #                        -***-                          #
                #########################################################


                         Program Version 6.1.1  -  RELEASE   -
                                (GIT: $487d211c$)
                          ($2025-11-21 10:33:24 +0100$)


 With contributions from (in alphabetic order):
[Max-Planck-Institut fuer Kohlenforschung]                               
  Daniel Aravena         : Magnetic Suceptibility                        
  Michael Atanasov       : Ab Initio Ligand Field Theory (pilot matlab implementation)
  Alexander A. Auer      : GIAO ZORA, VPT2 properties, NMR spectrum      
  Ute Becker             : All parallelization in ORCA, NUMFREQ, NUMCALC 
  Giovanni Bistoni       : ED, misc. LED, open-shell LED, HFLD           
  Dmytro Bykov           : pre 5.0 version of the SCF Hessian            
  Marcos Casanova-Páez   : Triplet and SCS-CIS(D). UHF-(DLPNO)-IP/EA/STEOM-CCSD. UHF-CVS-IP/STEOM-CCSD   
  Vijay G. Chilkuri      : MRCI spin determinant printing, contributions to CSF-ICE 
  Pauline Colinet        : FMM embedding                                 
  Dipayan Datta          : RHF DLPNO-CCSD density                        
  Achintya Kumar Dutta   : EOM-CC, STEOM-CC                              
  Nicolas Foglia         : Exact transition moments, OPA infrastructure, MCD improvements    
  Dmitry Ganyushin       : Spin-Orbit,Spin-Spin,Magnetic field MRCI      
  Miquel Garcia-Rates    : C-PCM and meta-GGA Hessian, CCSD/C-PCM, Gaussian charge scheme 
  Tiago L. C. Gouveia    : GS-ROHF, GS-ROCIS                             
  Yang Guo               : DLPNO-NEVPT2, F12-NEVPT2, CIM, IAO-localization        
  Andreas Hansen         : Spin unrestricted coupled pair/coupled cluster methods 
  Ingolf Harden          : AUTO-CI MPn and infrastructure                
  Benjamin Helmich-Paris : MC-RPA, TRAH-(SCF,CASSCF), AVAS, COSX integrals, SCF dyn. polar., MC-PDFT, srDFT 
  Lee Huntington         : MR-EOM, pCC                                   
  Robert Izsak           : Overlap fitted RIJCOSX, COSX-SCS-MP3, EOM     
  Riya Kayal             : Wick's Theorem for AUTO-CI, AUTO-CI UHF-CCSDT 
  Emily Kempfer          : AUTO-CI RHF CISDT and CCSDT, approximate NEVPT4
  Christian Kollmar      : KDIIS, OOCD, Brueckner-CCSD(T), CCSD density, CASPT2, CASPT2-K, improved NEVPT2 
  Axel Koslowski         : Symmetry handling                             
  Simone Kossmann        : meta-GGA functionals, TD-DFT gradient, OOMP2, (MP2 Hessian; deprecated post 5.0) 
  Lucas Lang             : DCDCAS, Hyperfine gauge corrections, ICE-SOC+SSC
  Marvin Lechner         : AUTO-CI (C++ implementation), FIC-MRCC        
  Spencer Leger          : CASSCF response                               
  Dagmar Lenk            : GEPOL surface, SMD, ORCA-2-JSON               
  Dimitrios Liakos       : Extrapolation schemes; Compound Job, Property file
  Dimitrios Manganas     : Further ROCIS development; embedding schemes. LFT, Crystal Embedding 
  Dimitrios Pantazis     : SARC Basis sets                               
  Anastasios Papadopoulos: AUTO-CI, single reference methods and gradients 
  Taras Petrenko         : pre 6.0 DFT Hessian and TD-DFT gradient,  ECA, NRVS 
  Petra Pikulova         : Analytic Raman intensities                    
  Peter Pinski           : DLPNO-MP2, DLPNO-MP2 Gradient                 
  Shashank Vittal Rao    : ES-AILFT, MagRelax                            
  Christoph Reimann      : Effective Core Potentials                     
  Marius Retegan         : Local ZFS, SOC                                
  Christoph Riplinger    : Optimizer, TS searches, QM/MM, DLPNO-CCSD(T), (RO)-DLPNO pert. Triples 
  Michael Roemelt        : Original ROCIS implementation, recursive CI coupling coefficients
  Masaaki Saitow         : Open-shell DLPNO-CCSD energy and density      
  Barbara Sandhoefer     : DKH picture change effects                    
  Yorick L. A. Schmerwitz: GMF and freeze-and-release deltaSCF, NEB S-IDPP initial path                    
  Kantharuban Sivalingam : CASSCF convergence/infrastructure, NEVPT2, NEVPT3, NEVPT4(SD), FIC-MRCI and CEPA variants
  Bernardo de Souza      : ESD, SOC TD-DFT                               
  Georgi L. Stoychev     : AutoAux, RI-MP2 NMR, DLPNO-MP2 response, X2C  
  Van Anh Tran           : RI-MP2 g-tensors                              
  Willem Van den Heuvel  : Paramagnetic NMR                              
  Zikuan Wang            : NOTCH, Electric field optimization            
  Frank Wennmohs         : Technical directorship and infrastructure     
  Hang Xu                : AUTO-CI-Response properties                   
                                                                         
[FACCTs GmbH]                                                            
  Markus Bursch, Nicolas Foglia, Miquel Garcia-Rates, Ingolf Harden, Hagen Neugebauer, Anastasios Papadopoulos, 
  Christoph Riplinger, Bernardo de Souza, Georgi L. Stoychev                                                    
                                                                 
  APM, various basis sets, CI-OPT, improved COSX, DLPNO-Multilevel,           
  DOCKER, DRACO, updates on ESD, Fragmentator, GOAT, IRC, LR-CPCM, L-BFGS, MBIS, meta-GGA TD-DFT gradient, ML-optimized integration grids, 
  MM, NACMEs, nearIR, NEB, NEB-TS, NL-DFT gradient (VV10), 2- and 3-layer-ONIOM, interface openCOSMO-RS, QMMM,   
  Crystal-QMMM, RESP, rigid body optimization, SF, symmetry and pop. for TD-DFT, various functionals, SOLVATOR                                   
                                                                         
[Other institutions]                                                     
  V. Asgeirsson          : NEB                                           
  Christoph Bannwarth    : sTDA-DFT, sTD-DFT, PBEh-3c, B97-3c, D3        
  Giovanni Bistoni       : ETS/NOCV, ADLD/ADEX, COVALED                  
  Martin Brehm           : Molecular dynamics                            
  Ronald Cardenas        : ETS/NOCV                                      
  Martina Colucci        : COVALED                                       
  Sebastian Ehlert       : rSCAN, r2SCAN, r2SCAN-3c, D4, dhf basis sets  
  Marvin Friede          : D4 for Fr, Ra, Ac-Lr                          
  Lars Goerigk           : TD-DFT with DH, B97 family of functionals     
  Stefan Grimme          : VdW corrections, initial TS optimization, DFT functionals, gCP, sTDA/sTD-DF 
  Waldemar Hujo          : DFT-NL                                        
  H. Jonsson             : NEB                                           
  Holger Kruse           : gCP                                           
  Marcel Mueller         : wB97X-3c, vDZP basis set                      
  Hagen Neugebauer       : wr2SCAN, Native XTB                           
  Gianluca Regni         : ADLD/ADEX                                     
  Tobias Risthaus        : pre 6.0 range-separated hybrid DFT and stability analysis
  Lukas Wittmann         : regularized MP2, r2SCAN double-hybrids, wr2SCAN        
                                                                         
We gratefully acknowledge several colleagues who have allowed us to      
interface, adapt or use parts of their codes:                            
  Ed Valeev, F. Pavosevic, A. Kumar             : LibInt (2-el integral package), F12 methods 
  Garnet Chan, S. Sharma, J. Yang, R. Olivares  : DMRG                   
  Ulf Ekstrom                                   : XCFun DFT Library      
  Mihaly Kallay                                 : mrcc  (arbitrary order and MRCC methods)
  Frank Weinhold                                : gennbo (NPA and NBO analysis)           
  Simon Mueller                                 : openCOSMO-RS                            
  Christopher J. Cramer and Donald G. Truhlar   : smd solvation model                     
  S Lehtola, MJT Oliveira, MAL Marques          : LibXC Library                           
  Liviu Ungur et al                             : ANISO software                          


 Your calculation uses the libint2 library for the computation of 2-el integrals
 For citations please refer to: http://libint.valeyev.net

 Your ORCA version has been built with support for libXC version: 7.0.0
 For citations please refer to: https://libxc.gitlab.io

 This ORCA versions uses:
   CBLAS   interface :  Fast vector & matrix operations
   LAPACKE interface :  Fast linear algebra routines
   SCALAPACK package :  Parallel linear algebra routines
   Shared memory     :  Shared parallel matrices
   BLAS/LAPACK       :  OpenBLAS 0.3.29  USE64BITINT DYNAMIC_ARCH NO_AFFINITY Haswell SINGLE_THREADED
        Core in use  :  Haswell
   Copyright (c) 2011-2014, The OpenBLAS Project


  ***********************************
  * Starting time: Sun Aug  9 18:41:07 2026
  * Host name:     localhost.localdomain
  * Process ID:    3059030
  * Working dir.:  /home/dinglab/calculation/templates/NMR_modules/autohnmr/beta_diol_screening/CONF16/b3lyp-3c
  ***********************************

NOTE: MaxCore=2500 MB was set to SCF,MP2,MDCI,CIPSI,MRCI,RASCI and CIS
      => If you want to overwrite this, your respective input block should be placed after the MaxCore statement
Your calculation utilizes the geometrical counterpoise correction gCP
Please cite in your paper:
H.Kruse, S. Grimme J.Chem.Phys., 136, (2012), 154101 
   

Your calculation utilizes the atom-pairwise dispersion correction
with the Becke-Johnson damping scheme (D3BJ)


Warning: RI is on but no J-basis has been assigned. Assigning Def2/J (nothing to worry about!)
================================================================================

----- Orbital basis set information -----
Your calculation utilizes the basis: def2-mSVP

----- AuxJ basis set information -----
Your calculation utilizes the auxiliary basis: def2/J
   H-Rn: F. Weigend, Phys. Chem. Chem. Phys. 8, 1057 (2006).
   Fr-Lr: K. Eichkorn, F. Weigend, O. Treutler, R. Ahlrichs; Theor. Chem. Acc. 97, 119 (1997).

================================================================================
                                        WARNINGS
                       Please study these warnings very carefully!
================================================================================

WARNING: Old DensityContainer found on disk!
         Will remove this file - 
         If you want to keep old densities, please start your calculation with a different basename. 


================================================================================
                                       INPUT FILE
================================================================================
NAME = inp
|  1> ! b3lyp
|  2> ! d3bj ABC
|  3> ! def2-mSVP
|  4> ! GCP(DFT/SV(P))
|  5> ! DEFGRID2
|  6> ! scfconv6
|  7> ! miniprint nopop noautostart
|  8> %MaxCore 2500
|  9> %pal
| 10>     nprocs 12
| 11> end
| 12> ! CPCM(chloroform)
| 13> *xyz 0 1
| 14> C   -0.0587305933  -0.7787418796  -0.3188050563
| 15> C    0.5661996983   0.5566339853  -0.8903021603
| 16> C   -0.4551238567   1.7354300203  -0.7562054150
| 17> C   -1.2779078677   1.7567521554   0.5516244887
| 18> C   -1.8065797862   0.3436294570   0.9081186381
| 19> C   -0.6150540790  -0.6121291566   1.1306884121
| 20> C   -1.3963200689  -1.0583662138  -1.0838526081
| 21> C   -2.4727719814  -0.2980938171  -0.3019113928
| 22> O    0.2813515282  -0.1286739205   2.1189304361
| 23> C    0.8726871181  -1.9941627966  -0.4275831809
| 24> C   -3.7687759709  -0.2224468620  -0.6231798483
| 25> C    1.9915518858   0.9288970545  -0.4461544816
| 26> C    2.2815113945   1.7239642507   0.5954549673
| 27> H    0.6589823072   0.3628444391  -1.9747286934
| 28> O    1.9361643120  -1.8747537962   0.5366876652
| 29> C    3.1016139289   0.4481460260  -1.3651922553
| 30> H    0.0756037754   2.6907690389  -0.8840496474
| 31> H   -1.1627998682   1.6673412799  -1.5983212660
| 32> H   -0.6818706071   2.1359919608   1.3947663019
| 33> H   -2.1313532849   2.4436054406   0.4278300228
| 34> H   -2.4788429212   0.3962273346   1.7788255548
| 35> H   -1.0166429556  -1.6033724740   1.4377621875
| 36> H   -1.3473922541  -0.7556522674  -2.1416266778
| 37> H   -1.6236829772  -2.1383624628  -1.0759640718
| 38> H    1.1305480815  -0.5969743095   1.9694821490
| 39> H    1.2762602001  -2.0820566386  -1.4546408838
| 40> H    0.2832246812  -2.9081738898  -0.2244745311
| 41> H   -4.1693342930  -0.7016270484  -1.5204120410
| 42> H   -4.4819291178   0.3236456653  -0.0006978948
| 43> H    3.3143917358   2.0054500478   0.8159396772
| 44> H    1.5217233754   2.1163233060   1.2691000783
| 45> H    2.4344364805  -2.7166198408   0.5540165111
| 46> H    3.1092370326  -0.6481589489  -1.4597033336
| 47> H    2.9669057704   0.8564216786  -2.3825082956
| 48> H    4.0913354940   0.7620818160  -1.0015555155
| 49> *
| 50> 
| 51>                          ****END OF INPUT****
================================================================================

                       ****************************
                       * Single Point Calculation *
                       ****************************

---------------------------------
CARTESIAN COORDINATES (ANGSTROEM)
---------------------------------
  C     -0.058731   -0.778742   -0.318805
  C      0.566200    0.556634   -0.890302
  C     -0.455124    1.735430   -0.756205
  C     -1.277908    1.756752    0.551624
  C     -1.806580    0.343629    0.908119
  C     -0.615054   -0.612129    1.130688
  C     -1.396320   -1.058366   -1.083853
  C     -2.472772   -0.298094   -0.301911
  O      0.281352   -0.128674    2.118930
  C      0.872687   -1.994163   -0.427583
  C     -3.768776   -0.222447   -0.623180
  C      1.991552    0.928897   -0.446154
  C      2.281511    1.723964    0.595455
  H      0.658982    0.362844   -1.974729
  O      1.936164   -1.874754    0.536688
  C      3.101614    0.448146   -1.365192
  H      0.075604    2.690769   -0.884050
  H     -1.162800    1.667341   -1.598321
  H     -0.681871    2.135992    1.394766
  H     -2.131353    2.443605    0.427830
  H     -2.478843    0.396227    1.778826
  H     -1.016643   -1.603372    1.437762
  H     -1.347392   -0.755652   -2.141627
  H     -1.623683   -2.138362   -1.075964
  H      1.130548   -0.596974    1.969482
  H      1.276260   -2.082057   -1.454641
  H      0.283225   -2.908174   -0.224475
  H     -4.169334   -0.701627   -1.520412
  H     -4.481929    0.323646   -0.000698
  H      3.314392    2.005450    0.815940
  H      1.521723    2.116323    1.269100
  H      2.434436   -2.716620    0.554017
  H      3.109237   -0.648159   -1.459703
  H      2.966906    0.856422   -2.382508
  H      4.091335    0.762082   -1.001556

----------------------------
CARTESIAN COORDINATES (A.U.)
----------------------------
  NO LB      ZA    FRAG     MASS         X           Y           Z
   0 C     6.0000    0    12.011   -0.110985   -1.471609   -0.602454
   1 C     6.0000    0    12.011    1.069962    1.051886   -1.682427
   2 C     6.0000    0    12.011   -0.860059    3.279487   -1.429021
   3 C     6.0000    0    12.011   -2.414896    3.319780    1.042419
   4 C     6.0000    0    12.011   -3.413941    0.649366    1.716096
   5 C     6.0000    0    12.011   -1.162284   -1.156756    2.136691
   6 C     6.0000    0    12.011   -2.638663   -2.000022   -2.048185
   7 C     6.0000    0    12.011   -4.672862   -0.563316   -0.570530
   8 O     8.0000    0    15.999    0.531677   -0.243158    4.004198
   9 C     6.0000    0    12.011    1.649140   -3.768422   -0.808015
  10 C     6.0000    0    12.011   -7.121954   -0.420364   -1.177639
  11 C     6.0000    0    12.011    3.763488    1.755361   -0.843110
  12 C     6.0000    0    12.011    4.311432    3.257820    1.125247
  13 H     1.0000    0     1.008    1.245296    0.685677   -3.731696
  14 O     8.0000    0    15.999    3.658820   -3.542771    1.014193
  15 C     6.0000    0    12.011    5.861201    0.846873   -2.579839
  16 H     1.0000    0     1.008    0.142870    5.084817   -1.670612
  17 H     1.0000    0     1.008   -2.197373    3.150818   -3.020389
  18 H     1.0000    0     1.008   -1.288549    4.036440    2.635726
  19 H     1.0000    0     1.008   -4.027674    4.617745    0.808482
  20 H     1.0000    0     1.008   -4.684334    0.748761    3.361493
  21 H     1.0000    0     1.008   -1.921177   -3.029935    2.716977
  22 H     1.0000    0     1.008   -2.546202   -1.427976   -4.047088
  23 H     1.0000    0     1.008   -3.068316   -4.040919   -2.033277
  24 H     1.0000    0     1.008    2.136426   -1.128118    3.721782
  25 H     1.0000    0     1.008    2.411782   -3.934517   -2.748873
  26 H     1.0000    0     1.008    0.535217   -5.495652   -0.424195
  27 H     1.0000    0     1.008   -7.878900   -1.325883   -2.873162
  28 H     1.0000    0     1.008   -8.469619    0.611602   -0.001319
  29 H     1.0000    0     1.008    6.263293    3.789751    1.541903
  30 H     1.0000    0     1.008    2.875640    3.999271    2.398252
  31 H     1.0000    0     1.008    4.600418   -5.133668    1.046939
  32 H     1.0000    0     1.008    5.875606   -1.224843   -2.758440
  33 H     1.0000    0     1.008    5.606639    1.618402   -4.502288
  34 H     1.0000    0     1.008    7.731504    1.440126   -1.892666



           ************************************************************
           *        Program running with 12 parallel MPI-processes    *
           *              working on a common directory               *
           ************************************************************
------------------------------------------------------------------------------
                   ___                                                        
                  /   \      - P O W E R E D   B Y -                         
                 /     \                                                     
                 |  |  |   _    _      __       _____    __    __             
                 |  |  |  | |  | |    /  \     |  _  \  |  |  /  |          
                  \  \/   | |  | |   /    \    | | | |  |  | /  /          
                 / \  \   | |__| |  /  /\  \   | |_| |  |  |/  /          
                |  |  |   |  __  | /  /__\  \  |    /   |      \           
                |  |  |   | |  | | |   __   |  |    \   |  |\   \          
                \     /   | |  | | |  |  |  |  | |\  \  |  | \   \       
                 \___/    |_|  |_| |__|  |__|  |_| \__\ |__|  \__/        
                                                                              
                      - O R C A' S   B I G   F R I E N D -                    
                                      &                                       
                       - I N T E G R A L  F E E D E R -                       
                                                                              
 v1 FN, 2020, v2 2021, v3 2022-2024                                           
------------------------------------------------------------------------------


----------------------
SHARK INTEGRAL PACKAGE
----------------------

Number of atoms                             ...     35
Number of basis functions                   ...    265
Number of shells                            ...    145
Maximum angular momentum                    ...      2
Integral batch strategy                     ... SHARK/LIBINT Hybrid
RI-J (if used) integral strategy            ... SPLIT-RIJ (Revised 2003 algorithm where possible)
Printlevel                                  ...      1
Contraction scheme used                     ... SEGMENTED contraction
Prescreening option                         ... SCHWARTZ
   Thresh                                   ... 1.000e-10
   Tcut                                     ... 1.000e-11
   Tpresel                                  ... 1.000e-11 
Coulomb Range Separation                    ... NOT USED
Exchange Range Separation                   ... NOT USED
Multipole approximations                    ... NOT USED
Finite Nucleus Model                        ... NOT USED
CABS basis                                  ... NOT available
Auxiliary Coulomb fitting basis             ... AVAILABLE
   # of basis functions in Aux-J            ...    955
   # of shells in Aux-J                     ...    325
   Maximum angular momentum in Aux-J        ...      4
Auxiliary J/K fitting basis                 ... NOT available
Auxiliary Correlation fitting basis         ... NOT available
Auxiliary 'external' fitting basis          ... NOT available

Checking pre-screening integrals            ... done (  0.0 sec) Dimension = 145
   => SHARK Basis and OBASIS are compatible. Storing Pre-screening
Shell pair information
Shell pair cut-off parameter TPreSel        ...   1.0e-11
Total number of shell pairs                 ...     10585
Shell pairs after pre-screening             ...      8876
Total number of primitive shell pairs       ...     38205
Primitive shell pairs kept                  ...     20898
          la=0 lb=0:   3903 shell pairs
          la=1 lb=0:   2763 shell pairs
          la=1 lb=1:    456 shell pairs
          la=2 lb=0:   1218 shell pairs
          la=2 lb=1:    430 shell pairs
          la=2 lb=2:    106 shell pairs

Checking whether 4 symmetric matrices of dimension 265 fit in memory
:Max Core in MB      =   2500.00
 MB in use           =     14.35
 MB left             =   2485.65
 MB needed           =      1.08
 Data fit in memory  = YES
Calculating RI/J V-Matrix + Cholesky decomp.... done (  0.0 sec)
Calculating Nuclear repulsion               ... done (  0.0 sec) ENN=   1116.954132584621 Eh

Diagonalization of the overlap matrix:
Smallest eigenvalue                        ... 1.946e-03
Time for diagonalization                   ...    0.013 sec
Threshold for overlap eigenvalues          ... 1.000e-07
Number of eigenvalues below threshold      ... 0
Time for construction of square roots      ...    0.004 sec
Total time needed                          ...    0.018 sec

-------------------
DFT GRID GENERATION
-------------------

General Integration Accuracy     IntAcc      ... 4.388
Radial Grid Type                 RadialGrid  ... OptM3 with GC (2021)
Angular Grid (max. ang.)         AngularGrid ... 4 (Lebedev-302)
Angular grid pruning method      GridPruning ... 4 (adaptive)
Weight generation scheme         WeightScheme... mBecke (2022)
Basis function cutoff            BFCut       ... 1.0000e-10
Integration weight cutoff        WCut        ... 1.0000e-14
Partially contracted basis set               ... off
Rotationally invariant grid construction     ... off
Angular grids for H and He will be reduced by one unit

Total number of grid points                  ...   152250
Total number of batches                      ...     2399
Average number of points per batch           ...       63
Average number of grid points per atom       ...     4350

--------------------
COSX GRID GENERATION
--------------------

GRIDX 1
-------
General Integration Accuracy     IntAcc      ... 3.816
Radial Grid Type                 RadialGrid  ... OptM3 with GC (2021)
Angular Grid (max. ang.)         AngularGrid ... 1 (Lebedev-50)
Angular grid pruning method      GridPruning ... 4 (adaptive)
Weight generation scheme         WeightScheme... mBecke (2022)
Basis function cutoff            BFCut       ... 1.0000e-10
Integration weight cutoff        WCut        ... 1.0000e-14
Partially contracted basis set               ... on
Rotationally invariant grid construction     ... off
Angular grids for H and He will be reduced by one unit

Total number of grid points                  ...    19389
Total number of batches                      ...      174
Average number of points per batch           ...      111
Average number of grid points per atom       ...      554
UseSFitting                                  ... on

GRIDX 2
-------
General Integration Accuracy     IntAcc      ... 4.020
Radial Grid Type                 RadialGrid  ... OptM3 with GC (2021)
Angular Grid (max. ang.)         AngularGrid ... 2 (Lebedev-110)
Angular grid pruning method      GridPruning ... 4 (adaptive)
Weight generation scheme         WeightScheme... mBecke (2022)
Basis function cutoff            BFCut       ... 1.0000e-10
Integration weight cutoff        WCut        ... 1.0000e-14
Partially contracted basis set               ... on
Rotationally invariant grid construction     ... off
Angular grids for H and He will be reduced by one unit

Total number of grid points                  ...    40640
Total number of batches                      ...      335
Average number of points per batch           ...      121
Average number of grid points per atom       ...     1161
UseSFitting                                  ... on

GRIDX 3
-------
General Integration Accuracy     IntAcc      ... 4.338
Radial Grid Type                 RadialGrid  ... OptM3 with GC (2021)
Angular Grid (max. ang.)         AngularGrid ... 3 (Lebedev-194)
Angular grid pruning method      GridPruning ... 4 (adaptive)
Weight generation scheme         WeightScheme... mBecke (2022)
Basis function cutoff            BFCut       ... 1.0000e-10
Integration weight cutoff        WCut        ... 1.0000e-14
Partially contracted basis set               ... on
Rotationally invariant grid construction     ... off
Angular grids for H and He will be reduced by one unit

Total number of grid points                  ...    88331
Total number of batches                      ...      704
Average number of points per batch           ...      125
Average number of grid points per atom       ...     2524
UseSFitting                                  ... on
Grids setup in   1.5 sec
Initializing property integral containers    ... done (  0.0 sec)

SHARK setup successfully completed in   1.8 seconds

Maximum memory used throughout the entire STARTUP-calculation: 40.7 MB


           ************************************************************
           *        Program running with 12 parallel MPI-processes    *
           *              working on a common directory               *
           ************************************************************
Loading Hartree-Fock densities                     ... done
Calculating cut-offs                               ... done
Initializing the effective Hamiltonian             ... done
Setting up the integral package (SHARK)            ... done
Starting the Coulomb interaction                   ... done (   0.1 sec)
Making the grid                                    ... done (   0.2 sec)
Mapping shells                                     ... done
Starting the XC term evaluation                    ... done (   0.1 sec)
  promolecular density results
     # of electrons  =    113.978404700
     EX              =    -89.146254676
     EC              =     -3.805008291
     EX+EC           =    -92.951262967
Transforming the Hamiltonian                       ... done (   0.0 sec)
Diagonalizing the Hamiltonian                      ... done (   0.0 sec)
Back transforming the eigenvectors                 ... done (   0.0 sec)
Now organizing SCF variables                       ... done
             **** ENERGY FILE WAS UPDATED (inp.en.tmp) ****
Finished Guess after   0.6 sec
Maximum memory used throughout the entire GUESS-calculation: 17.7 MB


           ************************************************************
           *        Program running with 12 parallel MPI-processes    *
           *              working on a common directory               *
           ************************************************************
--------------------
CPCM SOLVATION MODEL
--------------------
CPCM parameters:
  Epsilon                                         ...       4.8030
  Refrac                                          ...       1.4459
  Rsolv                                           ...       1.3000
  Surface type                                    ... GAUSSIAN VDW
  Discretization scheme                           ... Constant charge density
    Threshold for H atoms                         ...       5.0000 (charges/Ang^2)
    Threshold for non-H atoms                     ...       5.0000 (charges/Ang^2)
  Epsilon function type                           ...         CPCM
Solvent:                                          ... CHLOROFORM
Radii:
  Scheme                                          ... Element-dependent radii
  Radius for C  used is    3.8550 Bohr (=   2.0400 Ang.)
  Radius for O  used is    3.4469 Bohr (=   1.8240 Ang.)
  Radius for H  used is    2.4944 Bohr (=   1.3200 Ang.)
Calculating surface                               ...        done! (  0.0s)
Cavity surface points                             ...         2566
Cavity Volume                                     ...    1801.7861
Cavity Surface-area                               ...     897.5876
Calculating surface distance matrix               ...        done! (  0.1s)
Performing Cholesky decomposition & store         ...        done! (  0.2s)
Overall time for CPCM initialization              ...                 0.3s

----------------------------------------D-I-I-S--------------------------------------------
Iteration    Energy (Eh)           Delta-E    RMSDP     MaxDP     DIISErr   Damp  Time(sec)
-------------------------------------------------------------------------------------------
               ***  Starting incremental Fock matrix formation  ***
    1    -656.9371312046628191     0.00e+00  9.08e-03  7.22e-02  2.39e-01  0.700   2.2
    2    -657.1304094203724162    -1.93e-01  6.55e-03  4.09e-02  1.03e-01  0.700   1.3
                               ***Turning on AO-DIIS***
    3    -657.2099104935618925    -7.95e-02  2.59e-03  1.69e-02  3.80e-02  0.700   1.3
    4    -657.2565390166603265    -4.66e-02  4.31e-03  2.51e-02  1.87e-02  0.000   1.3
    5    -657.3579111424751318    -1.01e-01  8.54e-04  5.03e-03  5.27e-03  0.000   1.3
                              *** Initializing SOSCF ***
---------------------------------------S-O-S-C-F--------------------------------------
Iteration    Energy (Eh)           Delta-E    RMSDP     MaxDP     MaxGrad    Time(sec)
--------------------------------------------------------------------------------------
    6    -657.3582810749967393    -3.70e-04  2.83e-04  1.78e-03  1.07e-03     1.2
               *** Restarting incremental Fock matrix formation ***
    7    -657.3583797164317275    -9.86e-05  1.79e-04  1.16e-03  3.80e-04     2.2
    8    -657.3583747812015190     4.94e-06  9.57e-05  8.27e-04  7.04e-04     1.5
    9    -657.3583836836928640    -8.90e-06  1.79e-05  1.81e-04  5.06e-05     1.5
                  *** Gradient check signals convergence ***

               *****************************************************
               *                     SUCCESS                       *
               *           SCF CONVERGED AFTER   9 CYCLES          *
               *****************************************************

Recomputing exchange energy using gridx3       ... done (    2.897 sec)
Old exchange energy                            :    -18.195328065 Eh
New exchange energy                            :    -18.195400319 Eh
Exchange energy change after final integration :     -0.000072255 Eh
Total energy after final integration           :   -657.358455829 Eh
             **** ENERGY FILE WAS UPDATED (inp.en.tmp) ****

----------------
TOTAL SCF ENERGY
----------------

Total Energy       :       -657.35845582853938 Eh          -17887.63297 eV

Components:
Nuclear Repulsion  :       1116.95413258462122 Eh           30393.86714 eV
Electronic Energy  :      -1774.30143412977941 Eh          -48281.19659 eV
One Electron Energy:      -3111.71297553306704 Eh          -84674.01481 eV
Two Electron Energy:       1337.41154140328763 Eh           36392.81822 eV
CPCM Dielectric    :         -0.01108202885472 Eh              -0.30156 eV

Virial components:
Potential Energy   :      -1309.66839823345595 Eh          -35637.88891 eV
Kinetic Energy     :        652.30994240491657 Eh           17750.25594 eV
Virial Ratio       :          2.00773943963664

DFT components:
N(Alpha)           :       57.000076403484 electrons
N(Beta)            :       57.000076403484 electrons
N(Total)           :      114.000152806967 electrons
E(X)               :      -72.170381286513 Eh       
E(C)               :       -4.482685828086 Eh       
E(XC)              :      -76.653067114598 Eh       

CPCM Solvation Model Properties:
Surface-charge          :         -0.02287524381186
Corrected charge        :         -0.00000000000000
Outlying charge corr.   :          0.00002596181797 Eh               0.00071 eV
Free-energy (cav+disp)  :  This term is not implemented in the current solvation scheme

---------------
SCF CONVERGENCE
---------------

  Last Energy change         ...    8.9025e-06  Tolerance :   1.0000e-06
  Last MAX-Density change    ...    1.8081e-04  Tolerance :   1.0000e-05
  Last RMS-Density change    ...    1.7897e-05  Tolerance :   1.0000e-06
  Last DIIS Error            ...    1.0740e-03  Tolerance :   1.0000e-06
  Last Orbital Gradient      ...    5.0556e-05  Tolerance :   3.3300e-04
  Last Orbital Rotation      ...    1.6548e-04  Tolerance :   3.3300e-04


----------------
ORBITAL ENERGIES
----------------

  NO   OCC          E(Eh)            E(eV) 
   0   2.0000     -19.137820      -520.7665 
   1   2.0000     -19.115701      -520.1647 
   2   2.0000     -10.221851      -278.1507 
   3   2.0000     -10.217321      -278.0274 
   4   2.0000     -10.189605      -277.2733 
   5   2.0000     -10.183976      -277.1201 
   6   2.0000     -10.181155      -277.0433 
   7   2.0000     -10.179384      -276.9951 
   8   2.0000     -10.176426      -276.9146 
   9   2.0000     -10.174048      -276.8499 
  10   2.0000     -10.165274      -276.6112 
  11   2.0000     -10.164953      -276.6024 
  12   2.0000     -10.161472      -276.5077 
  13   2.0000     -10.160533      -276.4822 
  14   2.0000     -10.150986      -276.2224 
  15   2.0000      -1.013388       -27.5757 
  16   2.0000      -0.995527       -27.0897 
  17   2.0000      -0.853266       -23.2185 
  18   2.0000      -0.794575       -21.6215 
  19   2.0000      -0.760981       -20.7074 
  20   2.0000      -0.746813       -20.3218 
  21   2.0000      -0.710542       -19.3348 
  22   2.0000      -0.669619       -18.2213 
  23   2.0000      -0.665283       -18.1033 
  24   2.0000      -0.655231       -17.8297 
  25   2.0000      -0.602207       -16.3869 
  26   2.0000      -0.578897       -15.7526 
  27   2.0000      -0.550814       -14.9884 
  28   2.0000      -0.526901       -14.3377 
  29   2.0000      -0.505903       -13.7663 
  30   2.0000      -0.493665       -13.4333 
  31   2.0000      -0.477769       -13.0008 
  32   2.0000      -0.469851       -12.7853 
  33   2.0000      -0.452539       -12.3142 
  34   2.0000      -0.444188       -12.0870 
  35   2.0000      -0.424283       -11.5453 
  36   2.0000      -0.420369       -11.4388 
  37   2.0000      -0.415593       -11.3089 
  38   2.0000      -0.403908       -10.9909 
  39   2.0000      -0.395453       -10.7608 
  40   2.0000      -0.390267       -10.6197 
  41   2.0000      -0.386910       -10.5284 
  42   2.0000      -0.374389       -10.1877 
  43   2.0000      -0.373375       -10.1601 
  44   2.0000      -0.360091        -9.7986 
  45   2.0000      -0.350085        -9.5263 
  46   2.0000      -0.343184        -9.3385 
  47   2.0000      -0.336156        -9.1473 
  48   2.0000      -0.333660        -9.0793 
  49   2.0000      -0.309424        -8.4199 
  50   2.0000      -0.298066        -8.1108 
  51   2.0000      -0.294025        -8.0008 
  52   2.0000      -0.282905        -7.6982 
  53   2.0000      -0.266558        -7.2534 
  54   2.0000      -0.254038        -6.9127 
  55   2.0000      -0.238470        -6.4891 
  56   2.0000      -0.224902        -6.1199 
  57   0.0000       0.015658         0.4261 
  58   0.0000       0.029190         0.7943 
  59   0.0000       0.081350         2.2136 
  60   0.0000       0.101130         2.7519 
  61   0.0000       0.128659         3.5010 
  62   0.0000       0.135093         3.6761 
  63   0.0000       0.141261         3.8439 
  64   0.0000       0.147499         4.0137 
  65   0.0000       0.154871         4.2143 
  66   0.0000       0.159214         4.3324 
  67   0.0000       0.161854         4.4043 
*Only the first 10 virtual orbitals were printed.
Total SCF time: 0 days 0 hours 0 min 18 sec 
Finished LeanSCF after  18.4 sec

Maximum memory used throughout the entire LEANSCF-calculation: 31.7 MB


-------------------------------------------------------------------------------
                          DFT DISPERSION CORRECTION                            
                                                                               
                              DFTD3 V3.1  Rev 1                                
                          USING Becke-Johnson damping                          
-------------------------------------------------------------------------------
-------------------------   ----------------
Dispersion correction           -0.074121122
-------------------------   ----------------

NOTIFICATION: Different basis set in ORCA and otool_gcp:
ORCA: 265  gCP: 250 
If you are NOT using ECPs, check your basis set inputs!
------------------   -----------------
gCP correction             0.163102932
------------------   -----------------

-------------------------   --------------------
FINAL SINGLE POINT ENERGY      -657.269474018313
-------------------------   --------------------



           ************************************************************
           *        Program running with 12 parallel MPI-processes    *
           *              working on a common directory               *
           ************************************************************

------------------------------------------------------------------------------
                              ORCA PROPERTY CALCULATIONS
------------------------------------------------------------------------------

GBWName                                 ... inp.gbw
Number of atoms                         ...     35
Number of basis functions               ...    265
Max core memory                         ...   2500 MB

Electric properties:
Dipole moment                           ... YES
Quadrupole moment                       ...  NO
Static polarizability (Dipole/Dipole)   ...  NO
Static polarizability (Dipole/Quad.)    ...  NO
Static polarizability (Quad./Quad.)     ...  NO
Static polarizability (Velocity)        ...  NO
Static hyperpolarizability              ...  NO

Atomic electric properties:
Dipole moment                           ...  NO
Quadrupole moment                       ...  NO
Static polarizability                   ...  NO

Choice of electric origin               ... Center of mass
Position of electric origin             ...     0.007032    -0.000438     0.000062

General magnetic properties:
Magnetizability                         ...  NO

EPR properties:
g-Tensor (aka g-matrix)                 ...  NO
Zero-Field splitting spin-orbit         ...  NO
Zero-field splitting spin-spin          ...  NO
Hyperfine couplings                     ...  NO (   0 nuclei)
Quadrupole couplings                    ...  NO (   0 nuclei)
Contact density                         ...  NO (   0 nuclei)

NMR properties:
Chemical shifts                         ...  NO (   0 nuclei)
Spin-rotation constants                 ...  NO (   0 nuclei)
Spin-spin couplings                     ...  NO (   0 nuclei,    0 pairs)

Choice of magnetic origin               ... GIAO
Position of magnetic origin             ...     0.000000     0.000000     0.000000

Properties with geometric perturbations:
SCF Hessian                             ...  NO
IR spectrum                             ...  NO
VCD spectrum                            ...  NO
X-ray spectroscopy properties:
SCF XES/XAS/RIXS spectra                ...  NO

SCF SOC stabilization energy            ...  NO
Diagonal Born-Oppenheimer correction    ...  NO

-------------
DIPOLE MOMENT
-------------

Method             : SCF
Type of density    : Electron Density
Multiplicity       :   1
Irrep              :   0
Energy             :  -657.3584558285393769 Eh
Basis              : AO
                                X                 Y                 Z
Electronic contribution:     -1.234298995      -2.817042562       4.640835720
Nuclear contribution   :      1.622306002       1.484913654      -5.656971244
                        -----------------------------------------
Total Dipole Moment    :      0.388007007      -1.332128907      -1.016135525
                        -----------------------------------------
Magnitude (a.u.)       :      1.719781459
Magnitude (Debye)      :      4.371337074



--------------------
Rotational spectrum 
--------------------
 
Rotational constants in cm-1:             0.031663             0.017520             0.015811 
Rotational constants in MHz :           949.233165           525.228711           473.995174 

Dipole components along the rotational axes: 
x,y,z [a.u.] :     0.381675     1.341031    -1.006781 
x,y,z [Debye]:     0.970141     3.408631    -2.559033 

 

Dipole moment calculation done in   0.0 sec 

Maximum memory used throughout the entire PROP-calculation: 16.6 MB

--------------------------------
SUGGESTED CITATIONS FOR THIS RUN
--------------------------------

Below you find a list of papers that are relevant to this ORCA run
We neither can nor want to force you to cite these papers, but we appreciate if you do
You receive ORCA, which is the product of decades of hard work by many enthusiastic individuals, for free
The only thing we kindly ask in return is that you cite our papers,
We deeply appreciate it, if you show your appreciation for ORCA by not just citing the generic ORCA reference.

Please note that relegating all ORCA citations to the supporting information does *not* help us.
SI sections are not indexed - citations you put there will not count into any citation statistics
But we need these citations in order to attract the funding resources that allow us to do what we are doing

Therefore, if you are a happy ORCA user, please consider citing a few of the papers listed below in the main body of your paper

In addition to the list printed below, the program has created the file inp.bibtex that contains the list in bibtex format
You can import this file easily into all common literature databanks and citation aid programs

It goes without saying that in many instances, there are alternative algorithms to achieve similar
results as the ones you have gotten from ORCA. It is, of course, also the case that in some instances
ORCA just re-implements algorithms worked out by others. We are fully aware of that and we are also
fully appreciative of our colleagues work. Hence this citation list should not be read as indicating
that the listed papers, which are focused on our own work, are the only ones worth citing. It simply
meant to make it easier for users to cite ORCA specific papers. It is not a substitute for doing your
own literature research and citing the relevant literature in a scientifically appropriate manner.

List of essential papers. We consider these as the minimum necessary citations

  1. Neese, F.
     Software update: the ORCA program system, version 6.0
     WIRES Comput. Molec. Sci. 2025 15(1), e70019
     doi.org/10.1002/wcms.70019

List of papers to cite with high priority. The work reported in these papers was absolutely
necessary for this run to complete.
Our perspective: the developers of density functionals and basis sets usually get cited in chemistry papers
Good! But without the algorithms to do something with them, the functionals or basis sets would not do anything.
Hence, in our opinion, the algorithm design and method developments papers are equally worthy of getting cited

  1. Neese, F.
     An improvement of the resolution of the identity approximation for the formation of the Coulomb matrix
     J. Comp. Chem. 2003 24(14), 1740-1747
     doi.org/10.1002/jcc.10318
  2. Neese, F.; Wennmohs, F.; Hansen, A.; Becker, U.
     Efficient, approximate and parallel Hartree-Fock and hybrid DFT calculations. A 'chain-of-spheres' algorithm for the Hartree-Fock exchange
     Chem. Phys. 2009 356(1-3), 98-109
     doi.org/10.1016/j.chemphys.2008.10.036
  3. Grimme, S.; Antony, J.; Ehrlich, S.; Krieg, H.
     A consistent and accurate ab initio parametrization of density functional dispersion correction (DFT-D) for the 94 elements H-Pu
     J. Chem. Phys. 2010 132 , 154104
     doi.org/10.1063/1.3382344
  4. Grimme, S.; Ehrlich, S.; Goerigk, L.
     Effect of the damping function in dispersion corrected density functional theory
     J. Comput. Chem. 2011 32(7), 1456-1465
     doi.org/10.1002/jcc.21759
  5. Garcia-Rates, M.; Neese, F.
     Effect of the Solute Cavity on the Solvation Energy and its Derivatives within the Framework of the Gaussian Charge Scheme
     J. Comput. Chem. 2020 41 , 922-939
     doi.org/10.1002/jcc.26139
  6. Helmich-Paris, B.; de Souza, B.; Neese, F.; Izsák, R.
     An improved chain of spheres for exchange algorithm
     J. Chem. Phys. 2021 155(10), 104109
     doi.org/10.1063/5.0058766
  7. Neese, F.
     The SHARK Integral Generation and Digestion System
     J. Comp. Chem. 2022 44(3), 381
     doi.org/10.1002/jcc.26942

List of suggested additional citations. These are papers that are important in the 'surrounding' of 
of this run, or papers that preceded the highly important papers. If you like your results we are grateful for a citation.

  1. Izsak, R.; Neese, F.
     An overlap fitted chain of spheres exchange method
     J. Chem. Phys. 2011 135 , 144105
     doi.org/10.1063/1.3646921
  2. Izsak, R.; Hansen, A.; Neese, F.
     The resolution of identity and chain of spheres approximations for the LPNO-CCSD singles Fock term
     Molec. Phys. 2012 110 , 2413-2417
     doi.org/10.1080/00268976.2012.687466
  3. Neese, F.
     The ORCA program system
     WIRES Comput. Molec. Sci. 2012 2(1), 73-78
     doi.org/10.1002/wcms.81
  4. Izsak, R.; Neese, F.; Klopper, W.
     Robust fitting techniques in the chain of spheres approximation to the Fock exchange: The role of the complementary space
     J. Chem. Phys. 2013 139 , 
     doi.org/10.1063/1.4819264
  5. Neese, F.
     Software update: the ORCA program system, version 4.0
     WIRES Comput. Molec. Sci. 2018 8(1), 1-6
     doi.org/10.1002/wcms.1327
  6. Neese, F.; Wennmohs, F.; Becker, U.; Riplinger, C.
     The ORCA quantum chemistry program package
     J. Chem. Phys. 2020 152(22), 224108
     doi.org/10.1063/5.0004608
  7. Neese, F.
     Software update: The ORCA program system—Version 5.0
     WIRES Comput. Molec. Sci. 2022 12(1), e1606
     doi.org/10.1002/wcms.1606

List of optional additional citations

  1. Neese, F.
     Approximate second-order SCF convergence for spin unrestricted wavefunctions
     Chem. Phys. Lett. 2000 325(1-3), 93-98
     doi.org/10.1016/s0009-2614(00)00662-x

Timings for individual modules:

Sum of individual times          ...       21.629 sec (=   0.360 min)
Startup calculation              ...        1.982 sec (=   0.033 min)   9.2 %
SCF iterations                   ...       19.348 sec (=   0.322 min)  89.5 %
Property calculations            ...        0.299 sec (=   0.005 min)   1.4 %
                             ****ORCA TERMINATED NORMALLY****
TOTAL RUN TIME: 0 days 0 hours 0 minutes 21 seconds 974 msec
