      -----------------------------------------------------------      
     |                   =====================                   |     
     |                           x T B                           |     
     |                   =====================                   |     
     |                         S. Grimme                         |     
     |          Mulliken Center for Theoretical Chemistry        |     
     |                    University of Bonn                     |     
      -----------------------------------------------------------      

   * xtb version 6.7.1 (edcfbbe) compiled by 'albert@albert-system' on 2024-07-22

   xtb is free software: you can redistribute it and/or modify it under
   the terms of the GNU Lesser General Public License as published by
   the Free Software Foundation, either version 3 of the License, or
   (at your option) any later version.
   
   xtb is distributed in the hope that it will be useful,
   but WITHOUT ANY WARRANTY; without even the implied warranty of
   MERCHANTABILITY or FITNESS FOR A PARTICULAR PURPOSE.  See the
   GNU Lesser General Public License for more details.
   
   Cite this work as:
   * C. Bannwarth, E. Caldeweyher, S. Ehlert, A. Hansen, P. Pracht,
     J. Seibert, S. Spicher, S. Grimme, WIREs Comput. Mol. Sci., 2020, 11,
     e01493. DOI: 10.1002/wcms.1493
   
   for GFN2-xTB:
   * C. Bannwarth, S. Ehlert and S. Grimme., J. Chem. Theory Comput., 2019,
     15, 1652-1671. DOI: 10.1021/acs.jctc.8b01176
   for GFN1-xTB:
   * S. Grimme, C. Bannwarth, P. Shushkov, J. Chem. Theory Comput., 2017,
     13, 1989-2009. DOI: 10.1021/acs.jctc.7b00118
   for GFN0-xTB:
   * P. Pracht, E. Caldeweyher, S. Ehlert, S. Grimme, ChemRxiv, 2019, preprint.
     DOI: 10.26434/chemrxiv.8326202.v1
   for GFN-FF:
   * S. Spicher and S. Grimme, Angew. Chem. Int. Ed., 2020, 59, 15665-15673.
     DOI: 10.1002/anie.202004239
   
   for ALPB and GBSA implicit solvation:
   * S. Ehlert, M. Stahn, S. Spicher, S. Grimme, J. Chem. Theory Comput.,
     2021, 17, 4250-4261. DOI: 10.1021/acs.jctc.1c00471
   
   for ddCOSMO and CPCM-X implicit solvation:
   * M. Stahn, S. Ehlert, S. Grimme, J. Phys. Chem. A,
     2023, XX, XXXX-XXXX. DOI: 10.1021/acs.jpca.3c04382
   
   for DFT-D4:
   * E. Caldeweyher, C. Bannwarth and S. Grimme, J. Chem. Phys., 2017,
     147, 034112. DOI: 10.1063/1.4993215
   * E. Caldeweyher, S. Ehlert, A. Hansen, H. Neugebauer, S. Spicher,
     C. Bannwarth and S. Grimme, J. Chem. Phys., 2019, 150, 154122.
     DOI: 10.1063/1.5090222
   * E. Caldeweyher, J.-M. Mewes, S. Ehlert and S. Grimme, Phys. Chem. Chem. Phys.
     2020, 22, 8499-8512. DOI: 10.1039/D0CP00502A
   
   for sTDA-xTB:
   * S. Grimme and C. Bannwarth, J. Chem. Phys., 2016, 145, 054103.
     DOI: 10.1063/1.4959605
   
   in the mass-spec context:
   * V. Asgeirsson, C. Bauer and S. Grimme, Chem. Sci., 2017, 8, 4879.
     DOI: 10.1039/c7sc00601b
   * J. Koopman and S. Grimme, ACS Omega 2019, 4, 12, 15120-15133.
     DOI: 10.1021/acsomega.9b02011
   
   for metadynamics refer to:
   * S. Grimme, J. Chem. Theory Comput., 2019, 155, 2847-2862
     DOI: 10.1021/acs.jctc.9b00143
   
   for SPH calculations refer to:
   * S. Spicher and S. Grimme, J. Chem. Theory Comput., 2021, 17, 1701-1714
     DOI: 10.1021/acs.jctc.0c01306
   
   for ONIOM refer to:
   * C. Plett, A. Katbashev, S. Ehlert, S. Grimme, M. Bursch,
     Phys. Chem. Chem. Phys., 2023, 25, 17860-17868. DOI: 10.1039/D3CP02178E
   
   for DIPRO refer to:
   * J. Kohn, N. Gildemeister, S. Grimme, D. Fazzi, A. Hansen,
     J. Chem. Phys., 2023, just accepted.
   
   for PTB refer to:
   * S. Grimme, M. Mueller, A. Hansen, J. Chem. Phys., 2023, 158, 124111.
     DOI: 10.1063/5.0137838
   
   with help from (in alphabetical order)
   P. Atkinson, C. Bannwarth, F. Bohle, G. Brandenburg, E. Caldeweyher
   M. Checinski, S. Dohm, S. Ehlert, S. Ehrlich, I. Gerasimov, C. Hölzer
   A. Katbashev, J. Kohn, J. Koopman, C. Lavigne, S. Lehtola, F. März, M. Müller,
   F. Musil, H. Neugebauer, J. Pisarek, C. Plett, P. Pracht, F. Pultar,
   J. Seibert, P. Shushkov, S. Spicher, M. Stahn, M. Steiner, T. Strunk,
   J. Stückrath, T. Rose, and J. Unsleber
   
 * started run on 2026/08/09 at 15:28:27.061     
   ID    Z sym.   atoms
    1    6 c      1-8, 10-13, 16
    2    8 o      9, 15
    3    1 h      14, 17-35

           -------------------------------------------------
          |                Calculation Setup                |
           -------------------------------------------------

          program call               : /home/dinglab/software/xtb_6.7.1/xtb_dist/bin/xtb coord --gfn2 --sp --chrg 0 --norestart --parallel 12 --alpb chcl3 reference -I xcontrol-inp
          hostname                   : localhost
          coordinate file            : coord
          omp threads                :                    12


           -------------------------------------------------
          |                 G F N 2 - x T B                 |
           -------------------------------------------------

        Reference                      10.1021/acs.jctc.8b01176
      * Hamiltonian:
        H0-scaling (s, p, d)           1.850000    2.230000    2.230000
        zeta-weighting                 0.500000
      * Dispersion:
        s8                             2.700000
        a1                             0.520000
        a2                             5.000000
        s9                             5.000000
      * Repulsion:
        kExp                           1.500000    1.000000
        rExp                           1.000000
      * Coulomb:
        alpha                          2.000000
        third order                    shell-resolved
        anisotropic                    true
        a3                             3.000000
        a5                             4.000000
        cn-shift                       1.200000
        cn-exp                         4.000000
        max-rad                        5.000000

      * Solvation model:               ALPB
        Solvent                        chcl3
        Parameter file                 internal GFN2-xTB/ALPB
        Dielectric constant                4.8100E+00
        Reference state                gsolv=reference [X=1]
        Free energy shift                  2.5086E-03 Eh       1.5742E+00 kcal/mol
        Temperature                        2.9815E+02 K
        Density                            1.4900E+00 kg/L
        Solvent mass                       1.1938E+02 g/mol
        Interaction kernel             P16
        Born radius scaling (c1)           1.3274E+00
        Born radii integrator          GBOBC
        Born offset                        0.0000E+00 a0       0.0000E+00 AA
        H-bond correction              false
        Ion screening                  false
        Surface tension                    1.0000E-05 Eh       1.5569E+01 dyn/cm
        Grid points                               974 per atom

          ...................................................
          :                      SETUP                      :
          :.................................................:
          :  # basis functions                  80          :
          :  # atomic orbitals                  80          :
          :  # shells                           50          :
          :  # electrons                        84          :
          :  max. iterations                   250          :
          :  Hamiltonian                  GFN2-xTB          :
          :  restarted?                      false          :
          :  GBSA solvation                   true          :
          :  PC potential                    false          :
          :  electronic temp.          300.0000000     K    :
          :  accuracy                    1.0000000          :
          :  -> integral cutoff          0.2500000E+02      :
          :  -> integral neglect         0.1000000E-07      :
          :  -> SCF convergence          0.1000000E-05 Eh   :
          :  -> wf. convergence          0.1000000E-03 e    :
          :  Broyden damping             0.4000000          :
          :  net charge                          0          :
          :  unpaired electrons                  0          :
          ...................................................

 iter      E             dE          RMSdq      gap      omega  full diag
   1    -46.7348112 -0.467348E+02  0.351E+00    5.18       0.0  T
   2    -46.7785455 -0.437342E-01  0.201E+00    5.16       1.0  T
   3    -46.7728056  0.573991E-02  0.853E-01    5.13       1.0  T
   4    -46.7812268 -0.842121E-02  0.351E-01    5.08       1.0  T
   5    -46.7832510 -0.202423E-02  0.734E-02    5.10       1.0  T
   6    -46.7832717 -0.207558E-04  0.397E-02    5.11       1.0  T
   7    -46.7832764 -0.466138E-05  0.113E-02    5.11       1.5  T
   8    -46.7832774 -0.956515E-06  0.337E-03    5.10       5.0  T
   9    -46.7832774 -0.324901E-07  0.149E-03    5.10      11.4  T
  10    -46.7832774 -0.105447E-07  0.767E-04    5.10      22.0  T
  11    -46.7832774 -0.457714E-08  0.336E-04    5.10      50.3  T

   *** convergence criteria satisfied after 11 iterations ***

         #    Occupation            Energy/Eh            Energy/eV
      -------------------------------------------------------------
         1        2.0000           -0.7075929             -19.2546
       ...           ...                  ...                  ...
        36        2.0000           -0.4291228             -11.6770
        37        2.0000           -0.4207127             -11.4482
        38        2.0000           -0.4174002             -11.3580
        39        2.0000           -0.4076551             -11.0929
        40        2.0000           -0.4012269             -10.9179
        41        2.0000           -0.3907320             -10.6324
        42        2.0000           -0.3893082             -10.5936 (HOMO)
        43                         -0.2017163              -5.4890 (LUMO)
        44                         -0.1973733              -5.3708
        45                          0.0053258               0.1449
        46                          0.0272733               0.7421
        47                          0.0335632               0.9133
       ...                                ...                  ...
        80                          0.6529051              17.7665
      -------------------------------------------------------------
                  HL-Gap            0.1875920 Eh            5.1046 eV
             Fermi-level           -0.2955122 Eh           -8.0413 eV

 SCC (total)                   0 d,  0 h,  0 min,  0.042 sec
 SCC setup                      ...        0 min,  0.001 sec (  1.954%)
 Dispersion                     ...        0 min,  0.000 sec (  1.154%)
 classical contributions        ...        0 min,  0.000 sec (  0.072%)
 integral evaluation            ...        0 min,  0.002 sec (  4.040%)
 iterations                     ...        0 min,  0.036 sec ( 84.877%)
 molecular gradient             ...        0 min,  0.003 sec (  7.422%)
 printout                       ...        0 min,  0.000 sec (  0.375%)

         :::::::::::::::::::::::::::::::::::::::::::::::::::::
         ::                     SUMMARY                     ::
         :::::::::::::::::::::::::::::::::::::::::::::::::::::
         :: total energy             -46.162599717520 Eh    ::
         :: total w/o Gsasa/hb       -46.149127895929 Eh    ::
         :: gradient norm              0.009207090797 Eh/a0 ::
         :: HOMO-LUMO gap              5.104637461317 eV    ::
         ::.................................................::
         :: SCC energy               -46.782629197616 Eh    ::
         :: -> isotropic ES            0.062101648355 Eh    ::
         :: -> anisotropic ES          0.006087311994 Eh    ::
         :: -> anisotropic XC          0.017036732599 Eh    ::
         :: -> dispersion             -0.036121282564 Eh    ::
         :: -> Gsolv                  -0.021196079229 Eh    ::
         ::    -> Gelec               -0.007724257638 Eh    ::
         ::    -> Gsasa               -0.015980469593 Eh    ::
         ::    -> Ghb                  0.000000000000 Eh    ::
         ::    -> Gshift               0.002508648001 Eh    ::
         :: repulsion energy           0.620029480095 Eh    ::
         :: add. restraining           0.000000000000 Eh    ::
         :: total charge               0.000000000000 e     ::
         :::::::::::::::::::::::::::::::::::::::::::::::::::::

           -------------------------------------------------
          |                Property Printout                |
           -------------------------------------------------

    * Orbital Energies and Occupations

         #    Occupation            Energy/Eh            Energy/eV
      -------------------------------------------------------------
         1        2.0000           -0.7075929             -19.2546
       ...           ...                  ...                  ...
        30        2.0000           -0.4674961             -12.7212
        31        2.0000           -0.4635136             -12.6128
        32        2.0000           -0.4583140             -12.4714
        33        2.0000           -0.4482145             -12.1965
        34        2.0000           -0.4393873             -11.9563
        35        2.0000           -0.4372457             -11.8981
        36        2.0000           -0.4291228             -11.6770
        37        2.0000           -0.4207127             -11.4482
        38        2.0000           -0.4174002             -11.3580
        39        2.0000           -0.4076551             -11.0929
        40        2.0000           -0.4012269             -10.9179
        41        2.0000           -0.3907320             -10.6324
        42        2.0000           -0.3893082             -10.5936 (HOMO)
        43                         -0.2017163              -5.4890 (LUMO)
        44                         -0.1973733              -5.3708
        45                          0.0053258               0.1449
        46                          0.0272733               0.7421
        47                          0.0335632               0.9133
        48                          0.0561395               1.5276
        49                          0.0624118               1.6983
        50                          0.0775948               2.1115
        51                          0.0832565               2.2655
        52                          0.0913213               2.4850
        53                          0.1019228               2.7735
       ...                                ...                  ...
        80                          0.6529051              17.7665
      -------------------------------------------------------------
                  HL-Gap            0.1875920 Eh            5.1046 eV
             Fermi-level           -0.2955122 Eh           -8.0413 eV

     #   Z          covCN         q      C6AA      α(0)
     1   6 c        3.936    -0.010    20.684     6.463
     2   6 c        3.858    -0.037    21.191     6.547
     3   6 c        3.804    -0.062    21.682     6.629
     4   6 c        3.809    -0.060    21.639     6.622
     5   6 c        3.892    -0.029    21.045     6.522
     6   6 c        3.773     0.118    18.683     6.159
     7   6 c        3.835    -0.066    21.735     6.633
     8   6 c        2.977     0.017    27.618     8.620
     9   8 o        1.655    -0.499    22.869     6.456
    10   6 c        3.677     0.079    19.474     6.322
    11   6 c        2.838    -0.113    30.846     9.102
    12   6 c        2.936     0.008    27.844     8.654
    13   6 c        2.844    -0.110    30.785     9.093
    14   1 h        0.924     0.046     2.376     2.411
    15   8 o        1.655    -0.475    22.365     6.384
    16   6 c        3.761    -0.117    22.792     6.806
    17   1 h        0.924     0.042     2.423     2.434
    18   1 h        0.924     0.043     2.413     2.429
    19   1 h        0.925     0.038     2.472     2.459
    20   1 h        0.924     0.042     2.423     2.434
    21   1 h        0.924     0.045     2.387     2.416
    22   1 h        0.924     0.016     2.798     2.616
    23   1 h        0.924     0.048     2.343     2.394
    24   1 h        0.924     0.047     2.354     2.399
    25   1 h        0.804     0.320     0.664     1.280
    26   1 h        0.924     0.050     2.315     2.379
    27   1 h        0.923     0.027     2.625     2.534
    28   1 h        0.926     0.034     2.535     2.490
    29   1 h        0.926     0.034     2.530     2.487
    30   1 h        0.926     0.033     2.546     2.495
    31   1 h        0.926     0.034     2.524     2.484
    32   1 h        0.805     0.313     0.683     1.298
    33   1 h        0.924     0.051     2.305     2.374
    34   1 h        0.925     0.046     2.373     2.409
    35   1 h        0.925     0.046     2.367     2.406

 Mol. C6AA /au·bohr⁶  :      10394.222474
 Mol. C8AA /au·bohr⁸  :     233671.781197
 Mol. α(0) /au        :        153.640802


Wiberg/Mayer (AO) data.
largest (>0.10) Wiberg bond orders for each atom

 ---------------------------------------------------------------------------
     #   Z sym  total        # sym  WBO       # sym  WBO       # sym  WBO
 ---------------------------------------------------------------------------
     1   6 c    3.989 --     7 c    0.983    10 c    0.977     6 c    0.964
                             2 c    0.958
     2   6 c    3.993 --    12 c    0.996     3 c    0.985    14 h    0.964
                             1 c    0.958
     3   6 c    3.996 --     4 c    1.009     2 c    0.985    18 h    0.976
                            17 h    0.976
     4   6 c    3.996 --     3 c    1.009     5 c    0.980    20 h    0.975
                            19 h    0.970
     5   6 c    3.995 --     8 c    0.994     4 c    0.980     6 c    0.977
                            21 h    0.963
     6   6 c    3.953 --     9 o    0.987     5 c    0.977     1 c    0.964
                            22 h    0.954
     7   6 c    3.997 --     8 c    1.005     1 c    0.983    24 h    0.966
                            23 h    0.953
     8   6 c    3.986 --    11 c    1.938     7 c    1.005     5 c    0.994
     9   8 o    1.927 --     6 c    0.987    25 h    0.856
    10   6 c    3.946 --    15 o    0.988     1 c    0.977    26 h    0.968
                            27 h    0.968
    11   6 c    3.988 --     8 c    1.938    28 h    0.975    29 h    0.975
    12   6 c    3.986 --    13 c    1.930    16 c    1.024     2 c    0.996
    13   6 c    3.988 --    12 c    1.930    30 h    0.974    31 h    0.966
    14   1 h    0.998 --     2 c    0.964
    15   8 o    1.970 --    10 c    0.988    32 h    0.880
    16   6 c    3.996 --    12 c    1.024    34 h    0.984    35 h    0.972
                            33 h    0.969
    17   1 h    0.998 --     3 c    0.976
    18   1 h    0.998 --     3 c    0.976
    19   1 h    0.999 --     4 c    0.970
    20   1 h    0.997 --     4 c    0.975
    21   1 h    0.998 --     5 c    0.963
    22   1 h    0.999 --     6 c    0.954
    23   1 h    0.997 --     7 c    0.953
    24   1 h    0.998 --     7 c    0.966
    25   1 h    0.897 --     9 o    0.856
    26   1 h    0.997 --    10 c    0.968
    27   1 h    0.999 --    10 c    0.968
    28   1 h    0.998 --    11 c    0.975
    29   1 h    0.998 --    11 c    0.975
    30   1 h    0.998 --    13 c    0.974
    31   1 h    0.999 --    13 c    0.966
    32   1 h    0.902 --    15 o    0.880
    33   1 h    0.997 --    16 c    0.969
    34   1 h    0.998 --    16 c    0.984
    35   1 h    0.998 --    16 c    0.972
 ---------------------------------------------------------------------------

Topologies differ in total number of bonds
Writing topology from bond orders to xtbtopo.mol

molecular dipole:
                 x           y           z       tot (Debye)
 q only:       -0.570       0.373       1.063
   full:       -0.663       0.294       1.261       3.697
molecular quadrupole (traceless):
                xx          xy          yy          xz          yz          zz
 q only:       -0.674      -0.468       0.309       1.758      -4.402       0.366
  q+dip:       -0.603       0.784      -2.595       4.472      -7.555       3.197
   full:       -0.900      -0.276      -0.795       3.508      -6.508       1.696


           -------------------------------------------------
          | TOTAL ENERGY              -46.162599717520 Eh   |
          | GRADIENT NORM               0.009207090797 Eh/α |
          | HOMO-LUMO GAP               5.104637461317 eV   |
           -------------------------------------------------

------------------------------------------------------------------------
 * finished run on 2026/08/09 at 15:28:27.126     
------------------------------------------------------------------------
 total:
 * wall-time:     0 d,  0 h,  0 min,  0.064 sec
 *  cpu-time:     0 d,  0 h,  0 min,  0.672 sec
 * ratio c/w:    10.466 speedup
 SCF:
 * wall-time:     0 d,  0 h,  0 min,  0.042 sec
 *  cpu-time:     0 d,  0 h,  0 min,  0.467 sec
 * ratio c/w:    11.050 speedup

normal termination of xtb
