35
 xtb: 6.7.1 (edcfbbe)
c            0.08202793293892       -0.63325709025045        0.10464766626923
c           -0.97138392333019        0.41530848492864        0.65005796569493
c           -0.33524966927754        1.83825043563718        0.76240868146648
c            0.58133683065462        2.23813814820813       -0.41537800623382
c            1.50647246886376        1.06423299508553       -0.82677150602710
c            0.63258771795160       -0.13358454385784       -1.26123659422897
c            1.36765692564888       -0.59032410846576        0.99728954074601
c            2.23916898261885        0.50813350572888        0.38938288049376
o            1.42200597967285       -1.18336691481510       -1.84376952157412
c           -0.50097836699596       -2.05866085729118        0.01946332084999
c            3.43197662671957        0.91465352049493        0.83717076570872
c           -2.33038590868397        0.40456769088492       -0.06766895493709
c           -2.60010607609715        1.05827185986024       -1.21014640606228
h           -1.18232493785203        0.10968341052048        1.69044557659962
o           -0.75559080461683       -2.65766743895881        1.30098040510578
c           -3.44094461436162       -0.35164118092582        0.64262342301937
h           -1.13447993359180        2.58371716079871        0.89170497434941
h            0.26326357206599        1.86961851112016        1.68677883389434
h           -0.00814527578470        2.55481250672130       -1.29151182987725
h            1.19392080585175        3.10574324845856       -0.12149120390805
h            2.19288462272642        1.39356720723388       -1.62503159491848
h           -0.17014512697254        0.16380974667555       -1.95661229548953
h            1.89065937454628       -1.55874100736229        0.95101650371874
h            1.13880731465122       -0.40523456561505        2.05811664425374
h            1.90523993552598       -0.80212253513775       -2.60499260120142
h            0.23459699228400       -2.71670719800041       -0.46046703477310
h           -1.40798674974426       -2.06454463355599       -0.61394554479056
h            3.89168201626077        0.48335586550799        1.73014884386247
h            3.99814442729662        1.69840828139428        0.32741556492987
h           -3.59988060172511        1.02910263959286       -1.64984652148598
h           -1.86368781856313        1.65136448623043       -1.75071890107901
h           -1.41521462326169       -2.11672607466045        1.77799408131508
h           -3.59977865785572        0.05597250431358        1.65598206668713
h           -4.39223589775413       -0.28534221497325        0.09541487293024
h           -3.20680095283353       -1.42210054109994        0.76653636617568
