
                                 *****************
                                 * O   R   C   A *
                                 *****************

                                            #,                                       
                                            ###                                      
                                            ####                                     
                                            #####                                    
                                            ######                                   
                                           ########,                                 
                                     ,,################,,,,,                         
                               ,,#################################,,                 
                          ,,##########################################,,             
                       ,#########################################, ''#####,          
                    ,#############################################,,   '####,        
                  ,##################################################,,,,####,       
                ,###########''''           ''''###############################       
              ,#####''   ,,,,##########,,,,          '''####'''          '####       
            ,##' ,,,,###########################,,,                        '##       
           ' ,,###''''                  '''############,,,                           
         ,,##''                                '''############,,,,        ,,,,,,###''
      ,#''                                            '''#######################'''  
     '                                                          ''''####''''         
             ,#######,   #######,   ,#######,      ##                                
            ,#'     '#,  ##    ##  ,#'     '#,    #''#        ,####,    ,#,          
            ##       ##  ##   ,#'  ##            #'  '#       #'       ,# #          
            ##       ##  #######   ##           ,######,      #####,      #          
            '#,     ,#'  ##    ##  '#,     ,#' ,#      #,     #,   #      #          
             '#######'   ##     ##  '#######'  #'      '#     '####' #    #          



                #########################################################
                #                        -***-                          #
                #          Department of theory and spectroscopy        #
                #                                                       #
                #                      Frank Neese                      #
                #                                                       #
                #     Directorship, Architecture, Infrastructure        #
                #                    SHARK, DRIVERS                     #
                #        Core code/Algorithms in most modules           #
                #                                                       #
                #        Max Planck Institute fuer Kohlenforschung      #
                #                Kaiser Wilhelm Platz 1                 #
                #                 D-45470 Muelheim/Ruhr                 #
                #                      Germany                          #
                #                                                       #
                #                  All rights reserved                  #
                #                        -***-                          #
                #########################################################


                         Program Version 6.1.1  -  RELEASE   -
                                (GIT: $487d211c$)
                          ($2025-11-21 10:33:24 +0100$)


 With contributions from (in alphabetic order):
[Max-Planck-Institut fuer Kohlenforschung]                               
  Daniel Aravena         : Magnetic Suceptibility                        
  Michael Atanasov       : Ab Initio Ligand Field Theory (pilot matlab implementation)
  Alexander A. Auer      : GIAO ZORA, VPT2 properties, NMR spectrum      
  Ute Becker             : All parallelization in ORCA, NUMFREQ, NUMCALC 
  Giovanni Bistoni       : ED, misc. LED, open-shell LED, HFLD           
  Dmytro Bykov           : pre 5.0 version of the SCF Hessian            
  Marcos Casanova-Páez   : Triplet and SCS-CIS(D). UHF-(DLPNO)-IP/EA/STEOM-CCSD. UHF-CVS-IP/STEOM-CCSD   
  Vijay G. Chilkuri      : MRCI spin determinant printing, contributions to CSF-ICE 
  Pauline Colinet        : FMM embedding                                 
  Dipayan Datta          : RHF DLPNO-CCSD density                        
  Achintya Kumar Dutta   : EOM-CC, STEOM-CC                              
  Nicolas Foglia         : Exact transition moments, OPA infrastructure, MCD improvements    
  Dmitry Ganyushin       : Spin-Orbit,Spin-Spin,Magnetic field MRCI      
  Miquel Garcia-Rates    : C-PCM and meta-GGA Hessian, CCSD/C-PCM, Gaussian charge scheme 
  Tiago L. C. Gouveia    : GS-ROHF, GS-ROCIS                             
  Yang Guo               : DLPNO-NEVPT2, F12-NEVPT2, CIM, IAO-localization        
  Andreas Hansen         : Spin unrestricted coupled pair/coupled cluster methods 
  Ingolf Harden          : AUTO-CI MPn and infrastructure                
  Benjamin Helmich-Paris : MC-RPA, TRAH-(SCF,CASSCF), AVAS, COSX integrals, SCF dyn. polar., MC-PDFT, srDFT 
  Lee Huntington         : MR-EOM, pCC                                   
  Robert Izsak           : Overlap fitted RIJCOSX, COSX-SCS-MP3, EOM     
  Riya Kayal             : Wick's Theorem for AUTO-CI, AUTO-CI UHF-CCSDT 
  Emily Kempfer          : AUTO-CI RHF CISDT and CCSDT, approximate NEVPT4
  Christian Kollmar      : KDIIS, OOCD, Brueckner-CCSD(T), CCSD density, CASPT2, CASPT2-K, improved NEVPT2 
  Axel Koslowski         : Symmetry handling                             
  Simone Kossmann        : meta-GGA functionals, TD-DFT gradient, OOMP2, (MP2 Hessian; deprecated post 5.0) 
  Lucas Lang             : DCDCAS, Hyperfine gauge corrections, ICE-SOC+SSC
  Marvin Lechner         : AUTO-CI (C++ implementation), FIC-MRCC        
  Spencer Leger          : CASSCF response                               
  Dagmar Lenk            : GEPOL surface, SMD, ORCA-2-JSON               
  Dimitrios Liakos       : Extrapolation schemes; Compound Job, Property file
  Dimitrios Manganas     : Further ROCIS development; embedding schemes. LFT, Crystal Embedding 
  Dimitrios Pantazis     : SARC Basis sets                               
  Anastasios Papadopoulos: AUTO-CI, single reference methods and gradients 
  Taras Petrenko         : pre 6.0 DFT Hessian and TD-DFT gradient,  ECA, NRVS 
  Petra Pikulova         : Analytic Raman intensities                    
  Peter Pinski           : DLPNO-MP2, DLPNO-MP2 Gradient                 
  Shashank Vittal Rao    : ES-AILFT, MagRelax                            
  Christoph Reimann      : Effective Core Potentials                     
  Marius Retegan         : Local ZFS, SOC                                
  Christoph Riplinger    : Optimizer, TS searches, QM/MM, DLPNO-CCSD(T), (RO)-DLPNO pert. Triples 
  Michael Roemelt        : Original ROCIS implementation, recursive CI coupling coefficients
  Masaaki Saitow         : Open-shell DLPNO-CCSD energy and density      
  Barbara Sandhoefer     : DKH picture change effects                    
  Yorick L. A. Schmerwitz: GMF and freeze-and-release deltaSCF, NEB S-IDPP initial path                    
  Kantharuban Sivalingam : CASSCF convergence/infrastructure, NEVPT2, NEVPT3, NEVPT4(SD), FIC-MRCI and CEPA variants
  Bernardo de Souza      : ESD, SOC TD-DFT                               
  Georgi L. Stoychev     : AutoAux, RI-MP2 NMR, DLPNO-MP2 response, X2C  
  Van Anh Tran           : RI-MP2 g-tensors                              
  Willem Van den Heuvel  : Paramagnetic NMR                              
  Zikuan Wang            : NOTCH, Electric field optimization            
  Frank Wennmohs         : Technical directorship and infrastructure     
  Hang Xu                : AUTO-CI-Response properties                   
                                                                         
[FACCTs GmbH]                                                            
  Markus Bursch, Nicolas Foglia, Miquel Garcia-Rates, Ingolf Harden, Hagen Neugebauer, Anastasios Papadopoulos, 
  Christoph Riplinger, Bernardo de Souza, Georgi L. Stoychev                                                    
                                                                 
  APM, various basis sets, CI-OPT, improved COSX, DLPNO-Multilevel,           
  DOCKER, DRACO, updates on ESD, Fragmentator, GOAT, IRC, LR-CPCM, L-BFGS, MBIS, meta-GGA TD-DFT gradient, ML-optimized integration grids, 
  MM, NACMEs, nearIR, NEB, NEB-TS, NL-DFT gradient (VV10), 2- and 3-layer-ONIOM, interface openCOSMO-RS, QMMM,   
  Crystal-QMMM, RESP, rigid body optimization, SF, symmetry and pop. for TD-DFT, various functionals, SOLVATOR                                   
                                                                         
[Other institutions]                                                     
  V. Asgeirsson          : NEB                                           
  Christoph Bannwarth    : sTDA-DFT, sTD-DFT, PBEh-3c, B97-3c, D3        
  Giovanni Bistoni       : ETS/NOCV, ADLD/ADEX, COVALED                  
  Martin Brehm           : Molecular dynamics                            
  Ronald Cardenas        : ETS/NOCV                                      
  Martina Colucci        : COVALED                                       
  Sebastian Ehlert       : rSCAN, r2SCAN, r2SCAN-3c, D4, dhf basis sets  
  Marvin Friede          : D4 for Fr, Ra, Ac-Lr                          
  Lars Goerigk           : TD-DFT with DH, B97 family of functionals     
  Stefan Grimme          : VdW corrections, initial TS optimization, DFT functionals, gCP, sTDA/sTD-DF 
  Waldemar Hujo          : DFT-NL                                        
  H. Jonsson             : NEB                                           
  Holger Kruse           : gCP                                           
  Marcel Mueller         : wB97X-3c, vDZP basis set                      
  Hagen Neugebauer       : wr2SCAN, Native XTB                           
  Gianluca Regni         : ADLD/ADEX                                     
  Tobias Risthaus        : pre 6.0 range-separated hybrid DFT and stability analysis
  Lukas Wittmann         : regularized MP2, r2SCAN double-hybrids, wr2SCAN        
                                                                         
We gratefully acknowledge several colleagues who have allowed us to      
interface, adapt or use parts of their codes:                            
  Ed Valeev, F. Pavosevic, A. Kumar             : LibInt (2-el integral package), F12 methods 
  Garnet Chan, S. Sharma, J. Yang, R. Olivares  : DMRG                   
  Ulf Ekstrom                                   : XCFun DFT Library      
  Mihaly Kallay                                 : mrcc  (arbitrary order and MRCC methods)
  Frank Weinhold                                : gennbo (NPA and NBO analysis)           
  Simon Mueller                                 : openCOSMO-RS                            
  Christopher J. Cramer and Donald G. Truhlar   : smd solvation model                     
  S Lehtola, MJT Oliveira, MAL Marques          : LibXC Library                           
  Liviu Ungur et al                             : ANISO software                          


 Your calculation uses the libint2 library for the computation of 2-el integrals
 For citations please refer to: http://libint.valeyev.net

 Your ORCA version has been built with support for libXC version: 7.0.0
 For citations please refer to: https://libxc.gitlab.io

 This ORCA versions uses:
   CBLAS   interface :  Fast vector & matrix operations
   LAPACKE interface :  Fast linear algebra routines
   SCALAPACK package :  Parallel linear algebra routines
   Shared memory     :  Shared parallel matrices
   BLAS/LAPACK       :  OpenBLAS 0.3.29  USE64BITINT DYNAMIC_ARCH NO_AFFINITY Haswell SINGLE_THREADED
        Core in use  :  Haswell
   Copyright (c) 2011-2014, The OpenBLAS Project


  ***********************************
  * Starting time: Sun Aug  9 17:04:25 2026
  * Host name:     localhost.localdomain
  * Process ID:    2963636
  * Working dir.:  /home/dinglab/calculation/templates/NMR_modules/autohnmr/alpha_diol_screening/CONF29/b3lyp-3c
  ***********************************

NOTE: MaxCore=2500 MB was set to SCF,MP2,MDCI,CIPSI,MRCI,RASCI and CIS
      => If you want to overwrite this, your respective input block should be placed after the MaxCore statement
Your calculation utilizes the geometrical counterpoise correction gCP
Please cite in your paper:
H.Kruse, S. Grimme J.Chem.Phys., 136, (2012), 154101 
   

Your calculation utilizes the atom-pairwise dispersion correction
with the Becke-Johnson damping scheme (D3BJ)


Warning: RI is on but no J-basis has been assigned. Assigning Def2/J (nothing to worry about!)
================================================================================

----- Orbital basis set information -----
Your calculation utilizes the basis: def2-mSVP

----- AuxJ basis set information -----
Your calculation utilizes the auxiliary basis: def2/J
   H-Rn: F. Weigend, Phys. Chem. Chem. Phys. 8, 1057 (2006).
   Fr-Lr: K. Eichkorn, F. Weigend, O. Treutler, R. Ahlrichs; Theor. Chem. Acc. 97, 119 (1997).

================================================================================
                                        WARNINGS
                       Please study these warnings very carefully!
================================================================================

WARNING: Old DensityContainer found on disk!
         Will remove this file - 
         If you want to keep old densities, please start your calculation with a different basename. 


================================================================================
                                       INPUT FILE
================================================================================
NAME = inp
|  1> ! b3lyp
|  2> ! d3bj ABC
|  3> ! def2-mSVP
|  4> ! GCP(DFT/SV(P))
|  5> ! DEFGRID2
|  6> ! scfconv6
|  7> ! miniprint nopop noautostart
|  8> %MaxCore 2500
|  9> %pal
| 10>     nprocs 12
| 11> end
| 12> ! CPCM(chloroform)
| 13> *xyz 0 1
| 14> C    0.0820279329  -0.6332570903   0.1046476663
| 15> C   -0.9713839233   0.4153084849   0.6500579657
| 16> C   -0.3352496693   1.8382504356   0.7624086815
| 17> C    0.5813368307   2.2381381482  -0.4153780062
| 18> C    1.5064724689   1.0642329951  -0.8267715060
| 19> C    0.6325877180  -0.1335845439  -1.2612365942
| 20> C    1.3676569256  -0.5903241085   0.9972895407
| 21> C    2.2391689826   0.5081335057   0.3893828805
| 22> O    1.4220059797  -1.1833669148  -1.8437695216
| 23> C   -0.5009783670  -2.0586608573   0.0194633208
| 24> C    3.4319766267   0.9146535205   0.8371707657
| 25> C   -2.3303859087   0.4045676909  -0.0676689549
| 26> C   -2.6001060761   1.0582718599  -1.2101464061
| 27> H   -1.1823249379   0.1096834105   1.6904455766
| 28> O   -0.7555908046  -2.6576674390   1.3009804051
| 29> C   -3.4409446144  -0.3516411809   0.6426234230
| 30> H   -1.1344799336   2.5837171608   0.8917049743
| 31> H    0.2632635721   1.8696185111   1.6867788339
| 32> H   -0.0081452758   2.5548125067  -1.2915118299
| 33> H    1.1939208059   3.1057432485  -0.1214912039
| 34> H    2.1928846227   1.3935672072  -1.6250315949
| 35> H   -0.1701451270   0.1638097467  -1.9566122955
| 36> H    1.8906593745  -1.5587410074   0.9510165037
| 37> H    1.1388073147  -0.4052345656   2.0581166443
| 38> H    1.9052399355  -0.8021225351  -2.6049926012
| 39> H    0.2345969923  -2.7167071980  -0.4604670348
| 40> H   -1.4079867497  -2.0645446336  -0.6139455448
| 41> H    3.8916820163   0.4833558655   1.7301488439
| 42> H    3.9981444273   1.6984082814   0.3274155649
| 43> H   -3.5998806017   1.0291026396  -1.6498465215
| 44> H   -1.8636878186   1.6513644862  -1.7507189011
| 45> H   -1.4152146233  -2.1167260747   1.7779940813
| 46> H   -3.5997786579   0.0559725043   1.6559820667
| 47> H   -4.3922358978  -0.2853422150   0.0954148729
| 48> H   -3.2068009528  -1.4221005411   0.7665363662
| 49> *
| 50> 
| 51>                          ****END OF INPUT****
================================================================================

                       ****************************
                       * Single Point Calculation *
                       ****************************

---------------------------------
CARTESIAN COORDINATES (ANGSTROEM)
---------------------------------
  C      0.082028   -0.633257    0.104648
  C     -0.971384    0.415308    0.650058
  C     -0.335250    1.838250    0.762409
  C      0.581337    2.238138   -0.415378
  C      1.506472    1.064233   -0.826772
  C      0.632588   -0.133585   -1.261237
  C      1.367657   -0.590324    0.997290
  C      2.239169    0.508134    0.389383
  O      1.422006   -1.183367   -1.843770
  C     -0.500978   -2.058661    0.019463
  C      3.431977    0.914654    0.837171
  C     -2.330386    0.404568   -0.067669
  C     -2.600106    1.058272   -1.210146
  H     -1.182325    0.109683    1.690446
  O     -0.755591   -2.657667    1.300980
  C     -3.440945   -0.351641    0.642623
  H     -1.134480    2.583717    0.891705
  H      0.263264    1.869619    1.686779
  H     -0.008145    2.554813   -1.291512
  H      1.193921    3.105743   -0.121491
  H      2.192885    1.393567   -1.625032
  H     -0.170145    0.163810   -1.956612
  H      1.890659   -1.558741    0.951017
  H      1.138807   -0.405235    2.058117
  H      1.905240   -0.802123   -2.604993
  H      0.234597   -2.716707   -0.460467
  H     -1.407987   -2.064545   -0.613946
  H      3.891682    0.483356    1.730149
  H      3.998144    1.698408    0.327416
  H     -3.599881    1.029103   -1.649847
  H     -1.863688    1.651364   -1.750719
  H     -1.415215   -2.116726    1.777994
  H     -3.599779    0.055973    1.655982
  H     -4.392236   -0.285342    0.095415
  H     -3.206801   -1.422101    0.766536

----------------------------
CARTESIAN COORDINATES (A.U.)
----------------------------
  NO LB      ZA    FRAG     MASS         X           Y           Z
   0 C     6.0000    0    12.011    0.155010   -1.196682    0.197755
   1 C     6.0000    0    12.011   -1.835650    0.784819    1.228432
   2 C     6.0000    0    12.011   -0.633530    3.473790    1.440744
   3 C     6.0000    0    12.011    1.098567    4.229468   -0.784951
   4 C     6.0000    0    12.011    2.846820    2.011109   -1.562372
   5 C     6.0000    0    12.011    1.195418   -0.252438   -2.383392
   6 C     6.0000    0    12.011    2.584497   -1.115551    1.884604
   7 C     6.0000    0    12.011    4.231416    0.960233    0.735827
   8 O     8.0000    0    15.999    2.687202   -2.236239   -3.484219
   9 C     6.0000    0    12.011   -0.946712   -3.890305    0.036780
  10 C     6.0000    0    12.011    6.485496    1.728445    1.582023
  11 C     6.0000    0    12.011   -4.403791    0.764522   -0.127876
  12 C     6.0000    0    12.011   -4.913488    1.999844   -2.286845
  13 H     1.0000    0     1.008   -2.234270    0.207272    3.194479
  14 O     8.0000    0    15.999   -1.427860   -5.022264    2.458497
  15 C     6.0000    0    12.011   -6.502443   -0.664506    1.214382
  16 H     1.0000    0     1.008   -2.143856    4.882518    1.685078
  17 H     1.0000    0     1.008    0.497496    3.533067    3.187550
  18 H     1.0000    0     1.008   -0.015392    4.827896   -2.440604
  19 H     1.0000    0     1.008    2.256183    5.869004   -0.229585
  20 H     1.0000    0     1.008    4.143951    2.633460   -3.070865
  21 H     1.0000    0     1.008   -0.321528    0.309556   -3.697461
  22 H     1.0000    0     1.008    3.572828   -2.945594    1.797161
  23 H     1.0000    0     1.008    2.152034   -0.765782    3.889277
  24 H     1.0000    0     1.008    3.600382   -1.515792   -4.922723
  25 H     1.0000    0     1.008    0.443324   -5.133833   -0.870157
  26 H     1.0000    0     1.008   -2.660709   -3.901424   -1.160189
  27 H     1.0000    0     1.008    7.354213    0.913410    3.269507
  28 H     1.0000    0     1.008    7.555398    3.209527    0.618726
  29 H     1.0000    0     1.008   -6.802788    1.944722   -3.117758
  30 H     1.0000    0     1.008   -3.521860    3.120627   -3.308379
  31 H     1.0000    0     1.008   -2.674368   -4.000033    3.359922
  32 H     1.0000    0     1.008   -6.802596    0.105773    3.129353
  33 H     1.0000    0     1.008   -8.300123   -0.539219    0.180308
  34 H     1.0000    0     1.008   -6.059976   -2.687381    1.448544



           ************************************************************
           *        Program running with 12 parallel MPI-processes    *
           *              working on a common directory               *
           ************************************************************
------------------------------------------------------------------------------
                   ___                                                        
                  /   \      - P O W E R E D   B Y -                         
                 /     \                                                     
                 |  |  |   _    _      __       _____    __    __             
                 |  |  |  | |  | |    /  \     |  _  \  |  |  /  |          
                  \  \/   | |  | |   /    \    | | | |  |  | /  /          
                 / \  \   | |__| |  /  /\  \   | |_| |  |  |/  /          
                |  |  |   |  __  | /  /__\  \  |    /   |      \           
                |  |  |   | |  | | |   __   |  |    \   |  |\   \          
                \     /   | |  | | |  |  |  |  | |\  \  |  | \   \       
                 \___/    |_|  |_| |__|  |__|  |_| \__\ |__|  \__/        
                                                                              
                      - O R C A' S   B I G   F R I E N D -                    
                                      &                                       
                       - I N T E G R A L  F E E D E R -                       
                                                                              
 v1 FN, 2020, v2 2021, v3 2022-2024                                           
------------------------------------------------------------------------------


----------------------
SHARK INTEGRAL PACKAGE
----------------------

Number of atoms                             ...     35
Number of basis functions                   ...    265
Number of shells                            ...    145
Maximum angular momentum                    ...      2
Integral batch strategy                     ... SHARK/LIBINT Hybrid
RI-J (if used) integral strategy            ... SPLIT-RIJ (Revised 2003 algorithm where possible)
Printlevel                                  ...      1
Contraction scheme used                     ... SEGMENTED contraction
Prescreening option                         ... SCHWARTZ
   Thresh                                   ... 1.000e-10
   Tcut                                     ... 1.000e-11
   Tpresel                                  ... 1.000e-11 
Coulomb Range Separation                    ... NOT USED
Exchange Range Separation                   ... NOT USED
Multipole approximations                    ... NOT USED
Finite Nucleus Model                        ... NOT USED
CABS basis                                  ... NOT available
Auxiliary Coulomb fitting basis             ... AVAILABLE
   # of basis functions in Aux-J            ...    955
   # of shells in Aux-J                     ...    325
   Maximum angular momentum in Aux-J        ...      4
Auxiliary J/K fitting basis                 ... NOT available
Auxiliary Correlation fitting basis         ... NOT available
Auxiliary 'external' fitting basis          ... NOT available

Checking pre-screening integrals            ... done (  0.0 sec) Dimension = 145
   => SHARK Basis and OBASIS are compatible. Storing Pre-screening
Shell pair information
Shell pair cut-off parameter TPreSel        ...   1.0e-11
Total number of shell pairs                 ...     10585
Shell pairs after pre-screening             ...      8849
Total number of primitive shell pairs       ...     38205
Primitive shell pairs kept                  ...     20808
          la=0 lb=0:   3913 shell pairs
          la=1 lb=0:   2746 shell pairs
          la=1 lb=1:    455 shell pairs
          la=2 lb=0:   1205 shell pairs
          la=2 lb=1:    425 shell pairs
          la=2 lb=2:    105 shell pairs

Checking whether 4 symmetric matrices of dimension 265 fit in memory
:Max Core in MB      =   2500.00
 MB in use           =     14.31
 MB left             =   2485.69
 MB needed           =      1.08
 Data fit in memory  = YES
Calculating RI/J V-Matrix + Cholesky decomp.... done (  0.0 sec)
Calculating Nuclear repulsion               ... done (  0.0 sec) ENN=   1105.332170643306 Eh

Diagonalization of the overlap matrix:
Smallest eigenvalue                        ... 1.915e-03
Time for diagonalization                   ...    0.013 sec
Threshold for overlap eigenvalues          ... 1.000e-07
Number of eigenvalues below threshold      ... 0
Time for construction of square roots      ...    0.004 sec
Total time needed                          ...    0.018 sec

-------------------
DFT GRID GENERATION
-------------------

General Integration Accuracy     IntAcc      ... 4.388
Radial Grid Type                 RadialGrid  ... OptM3 with GC (2021)
Angular Grid (max. ang.)         AngularGrid ... 4 (Lebedev-302)
Angular grid pruning method      GridPruning ... 4 (adaptive)
Weight generation scheme         WeightScheme... mBecke (2022)
Basis function cutoff            BFCut       ... 1.0000e-10
Integration weight cutoff        WCut        ... 1.0000e-14
Partially contracted basis set               ... off
Rotationally invariant grid construction     ... off
Angular grids for H and He will be reduced by one unit

Total number of grid points                  ...   152297
Total number of batches                      ...     2398
Average number of points per batch           ...       63
Average number of grid points per atom       ...     4351

--------------------
COSX GRID GENERATION
--------------------

GRIDX 1
-------
General Integration Accuracy     IntAcc      ... 3.816
Radial Grid Type                 RadialGrid  ... OptM3 with GC (2021)
Angular Grid (max. ang.)         AngularGrid ... 1 (Lebedev-50)
Angular grid pruning method      GridPruning ... 4 (adaptive)
Weight generation scheme         WeightScheme... mBecke (2022)
Basis function cutoff            BFCut       ... 1.0000e-10
Integration weight cutoff        WCut        ... 1.0000e-14
Partially contracted basis set               ... on
Rotationally invariant grid construction     ... off
Angular grids for H and He will be reduced by one unit

Total number of grid points                  ...    19405
Total number of batches                      ...      174
Average number of points per batch           ...      111
Average number of grid points per atom       ...      554
UseSFitting                                  ... on

GRIDX 2
-------
General Integration Accuracy     IntAcc      ... 4.020
Radial Grid Type                 RadialGrid  ... OptM3 with GC (2021)
Angular Grid (max. ang.)         AngularGrid ... 2 (Lebedev-110)
Angular grid pruning method      GridPruning ... 4 (adaptive)
Weight generation scheme         WeightScheme... mBecke (2022)
Basis function cutoff            BFCut       ... 1.0000e-10
Integration weight cutoff        WCut        ... 1.0000e-14
Partially contracted basis set               ... on
Rotationally invariant grid construction     ... off
Angular grids for H and He will be reduced by one unit

Total number of grid points                  ...    40647
Total number of batches                      ...      335
Average number of points per batch           ...      121
Average number of grid points per atom       ...     1161
UseSFitting                                  ... on

GRIDX 3
-------
General Integration Accuracy     IntAcc      ... 4.338
Radial Grid Type                 RadialGrid  ... OptM3 with GC (2021)
Angular Grid (max. ang.)         AngularGrid ... 3 (Lebedev-194)
Angular grid pruning method      GridPruning ... 4 (adaptive)
Weight generation scheme         WeightScheme... mBecke (2022)
Basis function cutoff            BFCut       ... 1.0000e-10
Integration weight cutoff        WCut        ... 1.0000e-14
Partially contracted basis set               ... on
Rotationally invariant grid construction     ... off
Angular grids for H and He will be reduced by one unit

Total number of grid points                  ...    88370
Total number of batches                      ...      709
Average number of points per batch           ...      124
Average number of grid points per atom       ...     2525
UseSFitting                                  ... on
Grids setup in   1.6 sec
Initializing property integral containers    ... done (  0.0 sec)

SHARK setup successfully completed in   1.8 seconds

Maximum memory used throughout the entire STARTUP-calculation: 40.7 MB


           ************************************************************
           *        Program running with 12 parallel MPI-processes    *
           *              working on a common directory               *
           ************************************************************
Loading Hartree-Fock densities                     ... done
Calculating cut-offs                               ... done
Initializing the effective Hamiltonian             ... done
Setting up the integral package (SHARK)            ... done
Starting the Coulomb interaction                   ... done (   0.1 sec)
Making the grid                                    ... done (   0.2 sec)
Mapping shells                                     ... done
Starting the XC term evaluation                    ... done (   0.1 sec)
  promolecular density results
     # of electrons  =    113.996801690
     EX              =    -89.147415962
     EC              =     -3.804131556
     EX+EC           =    -92.951547518
Transforming the Hamiltonian                       ... done (   0.0 sec)
Diagonalizing the Hamiltonian                      ... done (   0.0 sec)
Back transforming the eigenvectors                 ... done (   0.0 sec)
Now organizing SCF variables                       ... done
             **** ENERGY FILE WAS UPDATED (inp.en.tmp) ****
Finished Guess after   0.6 sec
Maximum memory used throughout the entire GUESS-calculation: 17.6 MB


           ************************************************************
           *        Program running with 12 parallel MPI-processes    *
           *              working on a common directory               *
           ************************************************************
--------------------
CPCM SOLVATION MODEL
--------------------
CPCM parameters:
  Epsilon                                         ...       4.8030
  Refrac                                          ...       1.4459
  Rsolv                                           ...       1.3000
  Surface type                                    ... GAUSSIAN VDW
  Discretization scheme                           ... Constant charge density
    Threshold for H atoms                         ...       5.0000 (charges/Ang^2)
    Threshold for non-H atoms                     ...       5.0000 (charges/Ang^2)
  Epsilon function type                           ...         CPCM
Solvent:                                          ... CHLOROFORM
Radii:
  Scheme                                          ... Element-dependent radii
  Radius for C  used is    3.8550 Bohr (=   2.0400 Ang.)
  Radius for O  used is    3.4469 Bohr (=   1.8240 Ang.)
  Radius for H  used is    2.4944 Bohr (=   1.3200 Ang.)
Calculating surface                               ...        done! (  0.0s)
Cavity surface points                             ...         2590
Cavity Volume                                     ...    1817.8525
Cavity Surface-area                               ...     916.9858
Calculating surface distance matrix               ...        done! (  0.1s)
Performing Cholesky decomposition & store         ...        done! (  0.2s)
Overall time for CPCM initialization              ...                 0.2s

----------------------------------------D-I-I-S--------------------------------------------
Iteration    Energy (Eh)           Delta-E    RMSDP     MaxDP     DIISErr   Damp  Time(sec)
-------------------------------------------------------------------------------------------
               ***  Starting incremental Fock matrix formation  ***
    1    -656.9404082075029692     0.00e+00  8.92e-03  7.36e-02  2.44e-01  0.700   2.2
    2    -657.1323302201772094    -1.92e-01  6.43e-03  4.19e-02  1.05e-01  0.700   1.3
                               ***Turning on AO-DIIS***
    3    -657.2116507187579373    -7.93e-02  2.55e-03  1.60e-02  3.69e-02  0.700   1.3
    4    -657.2581185136587010    -4.65e-02  4.28e-03  2.42e-02  1.81e-02  0.000   1.2
    5    -657.3590663066945581    -1.01e-01  8.33e-04  4.89e-03  4.95e-03  0.000   1.3
                              *** Initializing SOSCF ***
---------------------------------------S-O-S-C-F--------------------------------------
Iteration    Energy (Eh)           Delta-E    RMSDP     MaxDP     MaxGrad    Time(sec)
--------------------------------------------------------------------------------------
    6    -657.3594119364072412    -3.46e-04  2.76e-04  1.74e-03  9.71e-04     1.2
               *** Restarting incremental Fock matrix formation ***
    7    -657.3593428532071812     6.91e-05  1.72e-04  1.28e-03  3.80e-04     2.1
    8    -657.3593376923363394     5.16e-06  9.37e-05  7.60e-04  7.09e-04     1.5
    9    -657.3593466513632393    -8.96e-06  1.46e-05  1.17e-04  3.22e-05     1.5
                  *** Gradient check signals convergence ***

               *****************************************************
               *                     SUCCESS                       *
               *           SCF CONVERGED AFTER   9 CYCLES          *
               *****************************************************

Recomputing exchange energy using gridx3       ... done (    2.988 sec)
Old exchange energy                            :    -18.196097501 Eh
New exchange energy                            :    -18.196165856 Eh
Exchange energy change after final integration :     -0.000068355 Eh
Total energy after final integration           :   -657.359414929 Eh
             **** ENERGY FILE WAS UPDATED (inp.en.tmp) ****

----------------
TOTAL SCF ENERGY
----------------

Total Energy       :       -657.35941492889663 Eh          -17887.65907 eV

Components:
Nuclear Repulsion  :       1105.33217064330574 Eh           30077.61748 eV
Electronic Energy  :      -1762.67827998315238 Eh          -47964.91449 eV
One Electron Energy:      -3087.92539116381613 Eh          -84026.72173 eV
Two Electron Energy:       1325.24711118066375 Eh           36061.80724 eV
CPCM Dielectric    :         -0.01323723394151 Eh              -0.36020 eV

Virial components:
Potential Energy   :      -1309.68077659371329 Eh          -35638.22574 eV
Kinetic Energy     :        652.32136166481655 Eh           17750.56667 eV
Virial Ratio       :          2.00772326886739

DFT components:
N(Alpha)           :       57.000106454182 electrons
N(Beta)            :       57.000106454182 electrons
N(Total)           :      114.000212908364 electrons
E(X)               :      -72.173069869957 Eh       
E(C)               :       -4.481281201476 Eh       
E(XC)              :      -76.654351071433 Eh       

CPCM Solvation Model Properties:
Surface-charge          :         -0.02157802445573
Corrected charge        :         -0.00000000000000
Outlying charge corr.   :          0.00002296425280 Eh               0.00062 eV
Free-energy (cav+disp)  :  This term is not implemented in the current solvation scheme

---------------
SCF CONVERGENCE
---------------

  Last Energy change         ...    8.9590e-06  Tolerance :   1.0000e-06
  Last MAX-Density change    ...    1.1650e-04  Tolerance :   1.0000e-05
  Last RMS-Density change    ...    1.4578e-05  Tolerance :   1.0000e-06
  Last DIIS Error            ...    9.7138e-04  Tolerance :   1.0000e-06
  Last Orbital Gradient      ...    3.2201e-05  Tolerance :   3.3300e-04
  Last Orbital Rotation      ...    1.0435e-04  Tolerance :   3.3300e-04


----------------
ORBITAL ENERGIES
----------------

  NO   OCC          E(Eh)            E(eV) 
   0   2.0000     -19.127590      -520.4882 
   1   2.0000     -19.127035      -520.4731 
   2   2.0000     -10.220318      -278.1090 
   3   2.0000     -10.211365      -277.8654 
   4   2.0000     -10.189832      -277.2794 
   5   2.0000     -10.188559      -277.2448 
   6   2.0000     -10.187114      -277.2055 
   7   2.0000     -10.181760      -277.0598 
   8   2.0000     -10.177601      -276.9466 
   9   2.0000     -10.173170      -276.8260 
  10   2.0000     -10.171646      -276.7846 
  11   2.0000     -10.171227      -276.7732 
  12   2.0000     -10.169465      -276.7252 
  13   2.0000     -10.163557      -276.5644 
  14   2.0000     -10.158998      -276.4404 
  15   2.0000      -1.006632       -27.3918 
  16   2.0000      -0.999873       -27.2079 
  17   2.0000      -0.853537       -23.2259 
  18   2.0000      -0.800665       -21.7872 
  19   2.0000      -0.758695       -20.6451 
  20   2.0000      -0.751361       -20.4456 
  21   2.0000      -0.713457       -19.4141 
  22   2.0000      -0.676676       -18.4133 
  23   2.0000      -0.667386       -18.1605 
  24   2.0000      -0.659319       -17.9410 
  25   2.0000      -0.610338       -16.6081 
  26   2.0000      -0.585377       -15.9289 
  27   2.0000      -0.546021       -14.8580 
  28   2.0000      -0.525504       -14.2997 
  29   2.0000      -0.503694       -13.7062 
  30   2.0000      -0.498091       -13.5538 
  31   2.0000      -0.489332       -13.3154 
  32   2.0000      -0.468312       -12.7434 
  33   2.0000      -0.456900       -12.4329 
  34   2.0000      -0.439809       -11.9678 
  35   2.0000      -0.431380       -11.7384 
  36   2.0000      -0.427428       -11.6309 
  37   2.0000      -0.411820       -11.2062 
  38   2.0000      -0.405892       -11.0449 
  39   2.0000      -0.402976       -10.9655 
  40   2.0000      -0.391444       -10.6517 
  41   2.0000      -0.389350       -10.5947 
  42   2.0000      -0.380008       -10.3405 
  43   2.0000      -0.375534       -10.2188 
  44   2.0000      -0.362253        -9.8574 
  45   2.0000      -0.355834        -9.6827 
  46   2.0000      -0.345200        -9.3934 
  47   2.0000      -0.334282        -9.0963 
  48   2.0000      -0.331947        -9.0327 
  49   2.0000      -0.314476        -8.5573 
  50   2.0000      -0.298759        -8.1296 
  51   2.0000      -0.297448        -8.0940 
  52   2.0000      -0.289583        -7.8799 
  53   2.0000      -0.264688        -7.2025 
  54   2.0000      -0.257936        -7.0188 
  55   2.0000      -0.239508        -6.5173 
  56   2.0000      -0.237059        -6.4507 
  57   0.0000       0.016046         0.4366 
  58   0.0000       0.019580         0.5328 
  59   0.0000       0.075972         2.0673 
  60   0.0000       0.100208         2.7268 
  61   0.0000       0.115197         3.1347 
  62   0.0000       0.125162         3.4058 
  63   0.0000       0.136669         3.7190 
  64   0.0000       0.144969         3.9448 
  65   0.0000       0.148062         4.0290 
  66   0.0000       0.155298         4.2259 
  67   0.0000       0.161181         4.3860 
*Only the first 10 virtual orbitals were printed.
Total SCF time: 0 days 0 hours 0 min 18 sec 
Finished LeanSCF after  18.5 sec

Maximum memory used throughout the entire LEANSCF-calculation: 31.5 MB


-------------------------------------------------------------------------------
                          DFT DISPERSION CORRECTION                            
                                                                               
                              DFTD3 V3.1  Rev 1                                
                          USING Becke-Johnson damping                          
-------------------------------------------------------------------------------
-------------------------   ----------------
Dispersion correction           -0.073953567
-------------------------   ----------------

NOTIFICATION: Different basis set in ORCA and otool_gcp:
ORCA: 265  gCP: 250 
If you are NOT using ECPs, check your basis set inputs!
------------------   -----------------
gCP correction             0.161649741
------------------   -----------------

-------------------------   --------------------
FINAL SINGLE POINT ENERGY      -657.271718755279
-------------------------   --------------------



           ************************************************************
           *        Program running with 12 parallel MPI-processes    *
           *              working on a common directory               *
           ************************************************************

------------------------------------------------------------------------------
                              ORCA PROPERTY CALCULATIONS
------------------------------------------------------------------------------

GBWName                                 ... inp.gbw
Number of atoms                         ...     35
Number of basis functions               ...    265
Max core memory                         ...   2500 MB

Electric properties:
Dipole moment                           ... YES
Quadrupole moment                       ...  NO
Static polarizability (Dipole/Dipole)   ...  NO
Static polarizability (Dipole/Quad.)    ...  NO
Static polarizability (Quad./Quad.)     ...  NO
Static polarizability (Velocity)        ...  NO
Static hyperpolarizability              ...  NO

Atomic electric properties:
Dipole moment                           ...  NO
Quadrupole moment                       ...  NO
Static polarizability                   ...  NO

Choice of electric origin               ... Center of mass
Position of electric origin             ...     0.011710     0.000526     0.003214

General magnetic properties:
Magnetizability                         ...  NO

EPR properties:
g-Tensor (aka g-matrix)                 ...  NO
Zero-Field splitting spin-orbit         ...  NO
Zero-field splitting spin-spin          ...  NO
Hyperfine couplings                     ...  NO (   0 nuclei)
Quadrupole couplings                    ...  NO (   0 nuclei)
Contact density                         ...  NO (   0 nuclei)

NMR properties:
Chemical shifts                         ...  NO (   0 nuclei)
Spin-rotation constants                 ...  NO (   0 nuclei)
Spin-spin couplings                     ...  NO (   0 nuclei,    0 pairs)

Choice of magnetic origin               ... GIAO
Position of magnetic origin             ...     0.000000     0.000000     0.000000

Properties with geometric perturbations:
SCF Hessian                             ...  NO
IR spectrum                             ...  NO
VCD spectrum                            ...  NO
X-ray spectroscopy properties:
SCF XES/XAS/RIXS spectra                ...  NO

SCF SOC stabilization energy            ...  NO
Diagonal Born-Oppenheimer correction    ...  NO

-------------
DIPOLE MOMENT
-------------

Method             : SCF
Type of density    : Electron Density
Multiplicity       :   1
Irrep              :   0
Energy             :  -657.3594149288966264 Eh
Basis              : AO
                                X                 Y                 Z
Electronic contribution:      4.576637651      -3.740670530      -1.751723403
Nuclear contribution   :     -5.052176841       4.936221427       1.420692003
                        -----------------------------------------
Total Dipole Moment    :     -0.475539190       1.195550897      -0.331031400
                        -----------------------------------------
Magnitude (a.u.)       :      1.328556079
Magnitude (Debye)      :      3.376921185



--------------------
Rotational spectrum 
--------------------
 
Rotational constants in cm-1:             0.028261             0.018050             0.014961 
Rotational constants in MHz :           847.229239           541.128652           448.509167 

Dipole components along the rotational axes: 
x,y,z [a.u.] :    -0.219480     1.307126    -0.091170 
x,y,z [Debye]:    -0.557873     3.322450    -0.231737 

 

Dipole moment calculation done in   0.0 sec 

Maximum memory used throughout the entire PROP-calculation: 16.6 MB

--------------------------------
SUGGESTED CITATIONS FOR THIS RUN
--------------------------------

Below you find a list of papers that are relevant to this ORCA run
We neither can nor want to force you to cite these papers, but we appreciate if you do
You receive ORCA, which is the product of decades of hard work by many enthusiastic individuals, for free
The only thing we kindly ask in return is that you cite our papers,
We deeply appreciate it, if you show your appreciation for ORCA by not just citing the generic ORCA reference.

Please note that relegating all ORCA citations to the supporting information does *not* help us.
SI sections are not indexed - citations you put there will not count into any citation statistics
But we need these citations in order to attract the funding resources that allow us to do what we are doing

Therefore, if you are a happy ORCA user, please consider citing a few of the papers listed below in the main body of your paper

In addition to the list printed below, the program has created the file inp.bibtex that contains the list in bibtex format
You can import this file easily into all common literature databanks and citation aid programs

It goes without saying that in many instances, there are alternative algorithms to achieve similar
results as the ones you have gotten from ORCA. It is, of course, also the case that in some instances
ORCA just re-implements algorithms worked out by others. We are fully aware of that and we are also
fully appreciative of our colleagues work. Hence this citation list should not be read as indicating
that the listed papers, which are focused on our own work, are the only ones worth citing. It simply
meant to make it easier for users to cite ORCA specific papers. It is not a substitute for doing your
own literature research and citing the relevant literature in a scientifically appropriate manner.

List of essential papers. We consider these as the minimum necessary citations

  1. Neese, F.
     Software update: the ORCA program system, version 6.0
     WIRES Comput. Molec. Sci. 2025 15(1), e70019
     doi.org/10.1002/wcms.70019

List of papers to cite with high priority. The work reported in these papers was absolutely
necessary for this run to complete.
Our perspective: the developers of density functionals and basis sets usually get cited in chemistry papers
Good! But without the algorithms to do something with them, the functionals or basis sets would not do anything.
Hence, in our opinion, the algorithm design and method developments papers are equally worthy of getting cited

  1. Neese, F.
     An improvement of the resolution of the identity approximation for the formation of the Coulomb matrix
     J. Comp. Chem. 2003 24(14), 1740-1747
     doi.org/10.1002/jcc.10318
  2. Neese, F.; Wennmohs, F.; Hansen, A.; Becker, U.
     Efficient, approximate and parallel Hartree-Fock and hybrid DFT calculations. A 'chain-of-spheres' algorithm for the Hartree-Fock exchange
     Chem. Phys. 2009 356(1-3), 98-109
     doi.org/10.1016/j.chemphys.2008.10.036
  3. Grimme, S.; Antony, J.; Ehrlich, S.; Krieg, H.
     A consistent and accurate ab initio parametrization of density functional dispersion correction (DFT-D) for the 94 elements H-Pu
     J. Chem. Phys. 2010 132 , 154104
     doi.org/10.1063/1.3382344
  4. Grimme, S.; Ehrlich, S.; Goerigk, L.
     Effect of the damping function in dispersion corrected density functional theory
     J. Comput. Chem. 2011 32(7), 1456-1465
     doi.org/10.1002/jcc.21759
  5. Garcia-Rates, M.; Neese, F.
     Effect of the Solute Cavity on the Solvation Energy and its Derivatives within the Framework of the Gaussian Charge Scheme
     J. Comput. Chem. 2020 41 , 922-939
     doi.org/10.1002/jcc.26139
  6. Helmich-Paris, B.; de Souza, B.; Neese, F.; Izsák, R.
     An improved chain of spheres for exchange algorithm
     J. Chem. Phys. 2021 155(10), 104109
     doi.org/10.1063/5.0058766
  7. Neese, F.
     The SHARK Integral Generation and Digestion System
     J. Comp. Chem. 2022 44(3), 381
     doi.org/10.1002/jcc.26942

List of suggested additional citations. These are papers that are important in the 'surrounding' of 
of this run, or papers that preceded the highly important papers. If you like your results we are grateful for a citation.

  1. Izsak, R.; Neese, F.
     An overlap fitted chain of spheres exchange method
     J. Chem. Phys. 2011 135 , 144105
     doi.org/10.1063/1.3646921
  2. Izsak, R.; Hansen, A.; Neese, F.
     The resolution of identity and chain of spheres approximations for the LPNO-CCSD singles Fock term
     Molec. Phys. 2012 110 , 2413-2417
     doi.org/10.1080/00268976.2012.687466
  3. Neese, F.
     The ORCA program system
     WIRES Comput. Molec. Sci. 2012 2(1), 73-78
     doi.org/10.1002/wcms.81
  4. Izsak, R.; Neese, F.; Klopper, W.
     Robust fitting techniques in the chain of spheres approximation to the Fock exchange: The role of the complementary space
     J. Chem. Phys. 2013 139 , 
     doi.org/10.1063/1.4819264
  5. Neese, F.
     Software update: the ORCA program system, version 4.0
     WIRES Comput. Molec. Sci. 2018 8(1), 1-6
     doi.org/10.1002/wcms.1327
  6. Neese, F.; Wennmohs, F.; Becker, U.; Riplinger, C.
     The ORCA quantum chemistry program package
     J. Chem. Phys. 2020 152(22), 224108
     doi.org/10.1063/5.0004608
  7. Neese, F.
     Software update: The ORCA program system—Version 5.0
     WIRES Comput. Molec. Sci. 2022 12(1), e1606
     doi.org/10.1002/wcms.1606

List of optional additional citations

  1. Neese, F.
     Approximate second-order SCF convergence for spin unrestricted wavefunctions
     Chem. Phys. Lett. 2000 325(1-3), 93-98
     doi.org/10.1016/s0009-2614(00)00662-x

Timings for individual modules:

Sum of individual times          ...       21.731 sec (=   0.362 min)
Startup calculation              ...        2.002 sec (=   0.033 min)   9.2 %
SCF iterations                   ...       19.410 sec (=   0.324 min)  89.3 %
Property calculations            ...        0.319 sec (=   0.005 min)   1.5 %
                             ****ORCA TERMINATED NORMALLY****
TOTAL RUN TIME: 0 days 0 hours 0 minutes 22 seconds 63 msec
