      -----------------------------------------------------------      
     |                   =====================                   |     
     |                           x T B                           |     
     |                   =====================                   |     
     |                         S. Grimme                         |     
     |          Mulliken Center for Theoretical Chemistry        |     
     |                    University of Bonn                     |     
      -----------------------------------------------------------      

   * xtb version 6.7.1 (edcfbbe) compiled by 'albert@albert-system' on 2024-07-22

   xtb is free software: you can redistribute it and/or modify it under
   the terms of the GNU Lesser General Public License as published by
   the Free Software Foundation, either version 3 of the License, or
   (at your option) any later version.
   
   xtb is distributed in the hope that it will be useful,
   but WITHOUT ANY WARRANTY; without even the implied warranty of
   MERCHANTABILITY or FITNESS FOR A PARTICULAR PURPOSE.  See the
   GNU Lesser General Public License for more details.
   
   Cite this work as:
   * C. Bannwarth, E. Caldeweyher, S. Ehlert, A. Hansen, P. Pracht,
     J. Seibert, S. Spicher, S. Grimme, WIREs Comput. Mol. Sci., 2020, 11,
     e01493. DOI: 10.1002/wcms.1493
   
   for GFN2-xTB:
   * C. Bannwarth, S. Ehlert and S. Grimme., J. Chem. Theory Comput., 2019,
     15, 1652-1671. DOI: 10.1021/acs.jctc.8b01176
   for GFN1-xTB:
   * S. Grimme, C. Bannwarth, P. Shushkov, J. Chem. Theory Comput., 2017,
     13, 1989-2009. DOI: 10.1021/acs.jctc.7b00118
   for GFN0-xTB:
   * P. Pracht, E. Caldeweyher, S. Ehlert, S. Grimme, ChemRxiv, 2019, preprint.
     DOI: 10.26434/chemrxiv.8326202.v1
   for GFN-FF:
   * S. Spicher and S. Grimme, Angew. Chem. Int. Ed., 2020, 59, 15665-15673.
     DOI: 10.1002/anie.202004239
   
   for ALPB and GBSA implicit solvation:
   * S. Ehlert, M. Stahn, S. Spicher, S. Grimme, J. Chem. Theory Comput.,
     2021, 17, 4250-4261. DOI: 10.1021/acs.jctc.1c00471
   
   for ddCOSMO and CPCM-X implicit solvation:
   * M. Stahn, S. Ehlert, S. Grimme, J. Phys. Chem. A,
     2023, XX, XXXX-XXXX. DOI: 10.1021/acs.jpca.3c04382
   
   for DFT-D4:
   * E. Caldeweyher, C. Bannwarth and S. Grimme, J. Chem. Phys., 2017,
     147, 034112. DOI: 10.1063/1.4993215
   * E. Caldeweyher, S. Ehlert, A. Hansen, H. Neugebauer, S. Spicher,
     C. Bannwarth and S. Grimme, J. Chem. Phys., 2019, 150, 154122.
     DOI: 10.1063/1.5090222
   * E. Caldeweyher, J.-M. Mewes, S. Ehlert and S. Grimme, Phys. Chem. Chem. Phys.
     2020, 22, 8499-8512. DOI: 10.1039/D0CP00502A
   
   for sTDA-xTB:
   * S. Grimme and C. Bannwarth, J. Chem. Phys., 2016, 145, 054103.
     DOI: 10.1063/1.4959605
   
   in the mass-spec context:
   * V. Asgeirsson, C. Bauer and S. Grimme, Chem. Sci., 2017, 8, 4879.
     DOI: 10.1039/c7sc00601b
   * J. Koopman and S. Grimme, ACS Omega 2019, 4, 12, 15120-15133.
     DOI: 10.1021/acsomega.9b02011
   
   for metadynamics refer to:
   * S. Grimme, J. Chem. Theory Comput., 2019, 155, 2847-2862
     DOI: 10.1021/acs.jctc.9b00143
   
   for SPH calculations refer to:
   * S. Spicher and S. Grimme, J. Chem. Theory Comput., 2021, 17, 1701-1714
     DOI: 10.1021/acs.jctc.0c01306
   
   for ONIOM refer to:
   * C. Plett, A. Katbashev, S. Ehlert, S. Grimme, M. Bursch,
     Phys. Chem. Chem. Phys., 2023, 25, 17860-17868. DOI: 10.1039/D3CP02178E
   
   for DIPRO refer to:
   * J. Kohn, N. Gildemeister, S. Grimme, D. Fazzi, A. Hansen,
     J. Chem. Phys., 2023, just accepted.
   
   for PTB refer to:
   * S. Grimme, M. Mueller, A. Hansen, J. Chem. Phys., 2023, 158, 124111.
     DOI: 10.1063/5.0137838
   
   with help from (in alphabetical order)
   P. Atkinson, C. Bannwarth, F. Bohle, G. Brandenburg, E. Caldeweyher
   M. Checinski, S. Dohm, S. Ehlert, S. Ehrlich, I. Gerasimov, C. Hölzer
   A. Katbashev, J. Kohn, J. Koopman, C. Lavigne, S. Lehtola, F. März, M. Müller,
   F. Musil, H. Neugebauer, J. Pisarek, C. Plett, P. Pracht, F. Pultar,
   J. Seibert, P. Shushkov, S. Spicher, M. Stahn, M. Steiner, T. Strunk,
   J. Stückrath, T. Rose, and J. Unsleber
   
 * started run on 2026/08/09 at 20:55:39.982     
   ID    Z sym.   atoms
    1    6 c      1-8, 10-18, 20, 21, 24, 27
    2    7 n      9, 19
    3    8 o      22, 25, 26
    4    1 h      23, 28-50

           -------------------------------------------------
          |                Calculation Setup                |
           -------------------------------------------------

          program call               : /home/dinglab/software/xtb_6.7.1/xtb_dist/bin/xtb coord --gfn2 --ohess vtight --alpb chcl3 --chrg 0 --enso --norestart -I xcontrol-inp --parallel 12
          hostname                   : localhost
          coordinate file            : coord
          omp threads                :                    12


           -------------------------------------------------
          |                 G F N 2 - x T B                 |
           -------------------------------------------------

        Reference                      10.1021/acs.jctc.8b01176
      * Hamiltonian:
        H0-scaling (s, p, d)           1.850000    2.230000    2.230000
        zeta-weighting                 0.500000
      * Dispersion:
        s8                             2.700000
        a1                             0.520000
        a2                             5.000000
        s9                             5.000000
      * Repulsion:
        kExp                           1.500000    1.000000
        rExp                           1.000000
      * Coulomb:
        alpha                          2.000000
        third order                    shell-resolved
        anisotropic                    true
        a3                             3.000000
        a5                             4.000000
        cn-shift                       1.200000
        cn-exp                         4.000000
        max-rad                        5.000000

      * Solvation model:               ALPB
        Solvent                        chcl3
        Parameter file                 internal GFN2-xTB/ALPB
        Dielectric constant                4.8100E+00
        Reference state                gsolv [1 M gas/solution]
        Free energy shift                  3.8910E-03 Eh       2.4417E+00 kcal/mol
        Temperature                        2.9815E+02 K
        Density                            1.4900E+00 kg/L
        Solvent mass                       1.1938E+02 g/mol
        Interaction kernel             P16
        Born radius scaling (c1)           1.3274E+00
        Born radii integrator          GBOBC
        Born offset                        0.0000E+00 a0       0.0000E+00 AA
        H-bond correction              false
        Ion screening                  false
        Surface tension                    1.0000E-05 Eh       1.5569E+01 dyn/cm
        Grid points                               974 per atom

          ...................................................
          :                      SETUP                      :
          :.................................................:
          :  # basis functions                 128          :
          :  # atomic orbitals                 128          :
          :  # shells                           76          :
          :  # electrons                       136          :
          :  max. iterations                   250          :
          :  Hamiltonian                  GFN2-xTB          :
          :  restarted?                      false          :
          :  GBSA solvation                   true          :
          :  PC potential                    false          :
          :  electronic temp.          300.0000000     K    :
          :  accuracy                    1.0000000          :
          :  -> integral cutoff          0.2500000E+02      :
          :  -> integral neglect         0.1000000E-07      :
          :  -> SCF convergence          0.1000000E-05 Eh   :
          :  -> wf. convergence          0.1000000E-03 e    :
          :  Broyden damping             0.4000000          :
          :  net charge                          0          :
          :  unpaired electrons                  0          :
          ...................................................

 iter      E             dE          RMSdq      gap      omega  full diag
   1    -76.0487706 -0.760488E+02  0.401E+00    3.36       0.0  T
   2    -76.2167145 -0.167944E+00  0.221E+00    2.70       1.0  T
   3    -76.2211817 -0.446720E-02  0.109E+00    3.03       1.0  T
   4    -76.2244909 -0.330919E-02  0.318E-01    2.46       1.0  T
   5    -76.2273735 -0.288261E-02  0.111E-01    2.60       1.0  T
   6    -76.2275784 -0.204921E-03  0.539E-02    2.69       1.0  T
   7    -76.2276113 -0.328670E-04  0.201E-02    2.71       1.0  T
   8    -76.2276159 -0.464530E-05  0.989E-03    2.71       1.4  T
   9    -76.2276176 -0.168132E-05  0.318E-03    2.71       4.4  T
  10    -76.2276177 -0.112368E-06  0.142E-03    2.71      10.0  T
  11    -76.2276178 -0.251977E-07  0.716E-04    2.70      19.8  T
  12    -76.2276178 -0.330867E-08  0.250E-04    2.70      56.6  T

   *** convergence criteria satisfied after 12 iterations ***

         #    Occupation            Energy/Eh            Energy/eV
      -------------------------------------------------------------
         1        2.0000           -0.7581199             -20.6295
       ...           ...                  ...                  ...
        62        2.0000           -0.4172015             -11.3526
        63        2.0000           -0.4079927             -11.1020
        64        2.0000           -0.4062324             -11.0541
        65        2.0000           -0.3903801             -10.6228
        66        2.0000           -0.3567421              -9.7074
        67        2.0000           -0.3547836              -9.6542
        68        2.0000           -0.3530780              -9.6077 (HOMO)
        69                         -0.2536931              -6.9033 (LUMO)
        70                         -0.2233821              -6.0785
        71                         -0.2184941              -5.9455
        72                         -0.2089205              -5.6850
        73                         -0.0951318              -2.5887
       ...                                ...                  ...
       128                          0.6433316              17.5059
      -------------------------------------------------------------
                  HL-Gap            0.0993848 Eh            2.7044 eV
             Fermi-level           -0.3033855 Eh           -8.2555 eV

 SCC (total)                   0 d,  0 h,  0 min,  0.084 sec
 SCC setup                      ...        0 min,  0.001 sec (  1.230%)
 Dispersion                     ...        0 min,  0.001 sec (  0.941%)
 classical contributions        ...        0 min,  0.000 sec (  0.050%)
 integral evaluation            ...        0 min,  0.003 sec (  3.662%)
 iterations                     ...        0 min,  0.070 sec ( 83.566%)
 molecular gradient             ...        0 min,  0.009 sec ( 10.230%)
 printout                       ...        0 min,  0.000 sec (  0.275%)

         :::::::::::::::::::::::::::::::::::::::::::::::::::::
         ::                     SUMMARY                     ::
         :::::::::::::::::::::::::::::::::::::::::::::::::::::
         :: total energy             -75.284442897308 Eh    ::
         :: total w/o Gsasa/hb       -75.265667740859 Eh    ::
         :: gradient norm              0.044773002843 Eh/a0 ::
         :: HOMO-LUMO gap              2.704398586826 eV    ::
         ::.................................................::
         :: SCC energy               -76.225466327235 Eh    ::
         :: -> isotropic ES            0.150950098260 Eh    ::
         :: -> anisotropic ES          0.004119930381 Eh    ::
         :: -> anisotropic XC          0.025351346753 Eh    ::
         :: -> dispersion             -0.066835809841 Eh    ::
         :: -> Gsolv                  -0.045397042641 Eh    ::
         ::    -> Gelec               -0.026621886192 Eh    ::
         ::    -> Gsasa               -0.022666175693 Eh    ::
         ::    -> Ghb                  0.000000000000 Eh    ::
         ::    -> Gshift               0.003891019244 Eh    ::
         :: repulsion energy           0.941023429927 Eh    ::
         :: add. restraining           0.000000000000 Eh    ::
         :: total charge               0.000000000000 e     ::
         :::::::::::::::::::::::::::::::::::::::::::::::::::::

      ----------------------------------------------------------- 
     |                   =====================                   |
     |                        A N C O P T                        |
     |                   =====================                   |
     |               Approximate Normal Coordinate               |
     |                Rational Function Optimizer                |
      ----------------------------------------------------------- 
      ----------------------------------------------------------- 
     |                   =====================                   |
     |                        A N C O P T                        |
     |                   =====================                   |
     |               Approximate Normal Coordinate               |
     |                Rational Function Optimizer                |
      ----------------------------------------------------------- 

          ...................................................
          :                      SETUP                      :
          :.................................................:
          :   optimization level         verytight          :
          :   max. optcycles                  1000          :
          :   ANC micro-cycles                  20          :
          :   degrees of freedom               144          :
          :.................................................:
          :   RF solver                   davidson          :
          :   write xtbopt.log                true          :
          :   linear?                        false          :
          :   energy convergence         0.1000000E-06 Eh   :
          :   grad. convergence          0.2000000E-03 Eh/α :
          :   maxmium RF displ.          1.0000000          :
          :   Hlow (freq-cutoff)         0.1000000E-01      :
          :   Hmax (freq-cutoff)         5.0000000          :
          :   S6 in model hess.         20.0000000          :
          ...................................................

generating ANC from exact Hessian ...
Using Lindh-Hessian (1995)
 Shifting diagonal of input Hessian by   9.277929161781856E-003
 Lowest  eigenvalues of input Hessian
    0.000000    0.000000    0.000000    0.000000    0.000000    0.000000
    0.010000    0.010193    0.011252    0.011425    0.012518    0.013122
    0.014233    0.015248    0.016699    0.019067    0.019413    0.020568
 Highest eigenvalues
    1.743978    1.845956    1.905344    1.951759    2.009708    2.283164
 

........................................................................
.............................. CYCLE    1 ..............................
........................................................................

 iter      E             dE          RMSdq      gap      omega  full diag
   1    -76.2276178 -0.762276E+02  0.899E-05    2.70       0.0  T
   2    -76.2276178 -0.572840E-10  0.551E-05    2.70     256.8  T
   3    -76.2276178 -0.650857E-11  0.324E-05    2.70     437.1  T
     SCC iter.                  ...        0 min,  0.014 sec
     gradient                   ...        0 min,  0.008 sec
 * total energy  :   -75.2844429 Eh     change       -0.6978809E-09 Eh
   gradient norm :     0.0447740 Eh/α   predicted     0.0000000E+00 (-100.00%)
   displ. norm   :     0.2531588 α      lambda       -0.5938849E-02
   maximum displ.:     0.0781268 α      in ANC's #26, #5, #19, ...

........................................................................
.............................. CYCLE    2 ..............................
........................................................................

 iter      E             dE          RMSdq      gap      omega  full diag
   1    -76.2644237 -0.762644E+02  0.115E-01    2.76       0.0  T
   2    -76.2645056 -0.818412E-04  0.663E-02    2.74       1.0  T
   3    -76.2645057 -0.150416E-06  0.265E-02    2.75       1.0  T
   4    -76.2645080 -0.223990E-05  0.648E-03    2.75       2.2  T
   5    -76.2645095 -0.151989E-05  0.210E-03    2.75       6.7  T
   6    -76.2645095 -0.183415E-07  0.118E-03    2.75      12.0  T
   7    -76.2645095 -0.123981E-07  0.296E-04    2.75      47.8  T
   8    -76.2645095 -0.140538E-08  0.144E-04    2.75      98.5  T
     SCC iter.                  ...        0 min,  0.032 sec
     gradient                   ...        0 min,  0.009 sec
 * total energy  :   -75.2884644 Eh     change       -0.4021496E-02 Eh
   gradient norm :     0.0183202 Eh/α   predicted    -0.3159941E-02 ( -21.42%)
   displ. norm   :     0.2372110 α      lambda       -0.1722069E-02
   maximum displ.:     0.1102128 α      in ANC's #5, #4, #8, ...

........................................................................
.............................. CYCLE    3 ..............................
........................................................................

 iter      E             dE          RMSdq      gap      omega  full diag
   1    -76.2819439 -0.762819E+02  0.794E-02    2.76       0.0  T
   2    -76.2819896 -0.457520E-04  0.460E-02    2.76       1.0  T
   3    -76.2819894  0.229134E-06  0.204E-02    2.77       1.0  T
   4    -76.2819913 -0.186589E-05  0.622E-03    2.77       2.3  T
   5    -76.2819925 -0.124419E-05  0.143E-03    2.77       9.9  T
   6    -76.2819925 -0.144930E-07  0.832E-04    2.77      17.0  T
   7    -76.2819925 -0.509839E-08  0.261E-04    2.77      54.3  T
     SCC iter.                  ...        0 min,  0.029 sec
     gradient                   ...        0 min,  0.008 sec
 * total energy  :   -75.2894736 Eh     change       -0.1009245E-02 Eh
   gradient norm :     0.0055406 Eh/α   predicted    -0.9097990E-03 (  -9.85%)
   displ. norm   :     0.1566881 α      lambda       -0.3156451E-03
   maximum displ.:     0.0797139 α      in ANC's #5, #4, #3, ...

........................................................................
.............................. CYCLE    4 ..............................
........................................................................

 iter      E             dE          RMSdq      gap      omega  full diag
   1    -76.2824833 -0.762825E+02  0.480E-02    2.76       0.0  T
   2    -76.2824880 -0.472827E-05  0.282E-02    2.76       1.0  T
   3    -76.2824865  0.148428E-05  0.919E-03    2.77       1.5  T
   4    -76.2824887 -0.219417E-05  0.187E-03    2.77       7.6  T
   5    -76.2824888 -0.780350E-07  0.728E-04    2.77      19.4  T
   6    -76.2824888 -0.403212E-08  0.409E-04    2.77      34.6  T
     SCC iter.                  ...        0 min,  0.025 sec
     gradient                   ...        0 min,  0.008 sec
 * total energy  :   -75.2897241 Eh     change       -0.2504367E-03 Eh
   gradient norm :     0.0048219 Eh/α   predicted    -0.1617002E-03 ( -35.43%)
   displ. norm   :     0.3005157 α      lambda       -0.4531883E-03
   maximum displ.:     0.1641841 α      in ANC's #4, #5, #3, ...

........................................................................
.............................. CYCLE    5 ..............................
........................................................................

 iter      E             dE          RMSdq      gap      omega  full diag
   1    -76.2797674 -0.762798E+02  0.941E-02    2.74       0.0  T
   2    -76.2797797 -0.123169E-04  0.552E-02    2.75       1.0  T
   3    -76.2797723  0.735530E-05  0.188E-02    2.75       1.0  T
   4    -76.2797828 -0.104725E-04  0.288E-03    2.75       4.9  T
   5    -76.2797829 -0.103343E-06  0.147E-03    2.75       9.6  T
   6    -76.2797829 -0.122105E-07  0.762E-04    2.75      18.6  T
   7    -76.2797829 -0.617450E-08  0.221E-04    2.75      64.1  T
     SCC iter.                  ...        0 min,  0.029 sec
     gradient                   ...        0 min,  0.009 sec
 * total energy  :   -75.2900250 Eh     change       -0.3009629E-03 Eh
   gradient norm :     0.0071877 Eh/α   predicted    -0.2470622E-03 ( -17.91%)
   displ. norm   :     0.1800282 α      lambda       -0.1808865E-03
   maximum displ.:     0.1033640 α      in ANC's #4, #1, #5, ...

........................................................................
.............................. CYCLE    6 ..............................
........................................................................

 iter      E             dE          RMSdq      gap      omega  full diag
   1    -76.2787525 -0.762788E+02  0.583E-02    2.75       0.0  T
   2    -76.2787581 -0.566549E-05  0.341E-02    2.75       1.0  T
   3    -76.2787551  0.299260E-05  0.130E-02    2.75       1.1  T
   4    -76.2787596 -0.445947E-05  0.194E-03    2.75       7.3  T
   5    -76.2787596 -0.472132E-07  0.973E-04    2.75      14.5  T
   6    -76.2787596 -0.460376E-08  0.519E-04    2.75      27.3  T
     SCC iter.                  ...        0 min,  0.025 sec
     gradient                   ...        0 min,  0.009 sec
 * total energy  :   -75.2901572 Eh     change       -0.1321302E-03 Eh
   gradient norm :     0.0066272 Eh/α   predicted    -0.9338939E-04 ( -29.32%)
   displ. norm   :     0.1597144 α      lambda       -0.1580671E-03
   maximum displ.:     0.0873092 α      in ANC's #4, #1, #6, ...

........................................................................
.............................. CYCLE    7 ..............................
........................................................................

 iter      E             dE          RMSdq      gap      omega  full diag
   1    -76.2795296 -0.762795E+02  0.541E-02    2.76       0.0  T
   2    -76.2795359 -0.627036E-05  0.316E-02    2.76       1.0  T
   3    -76.2795334  0.254780E-05  0.133E-02    2.76       1.1  T
   4    -76.2795375 -0.411023E-05  0.203E-03    2.76       7.0  T
   5    -76.2795375 -0.559086E-07  0.970E-04    2.76      14.6  T
   6    -76.2795375 -0.476830E-08  0.531E-04    2.76      26.6  T
     SCC iter.                  ...        0 min,  0.025 sec
     gradient                   ...        0 min,  0.007 sec
 * total energy  :   -75.2902680 Eh     change       -0.1108457E-03 Eh
   gradient norm :     0.0042676 Eh/α   predicted    -0.8105158E-04 ( -26.88%)
   displ. norm   :     0.1242998 α      lambda       -0.9810449E-04
   maximum displ.:     0.0600319 α      in ANC's #1, #4, #6, ...

........................................................................
.............................. CYCLE    8 ..............................
........................................................................

 iter      E             dE          RMSdq      gap      omega  full diag
   1    -76.2810127 -0.762810E+02  0.411E-02    2.76       0.0  T
   2    -76.2810163 -0.359596E-05  0.239E-02    2.76       1.0  T
   3    -76.2810147  0.152695E-05  0.106E-02    2.76       1.3  T
   4    -76.2810173 -0.259164E-05  0.154E-03    2.76       9.2  T
   5    -76.2810174 -0.236315E-07  0.813E-04    2.76      17.4  T
   6    -76.2810174 -0.314705E-08  0.427E-04    2.76      33.1  T
     SCC iter.                  ...        0 min,  0.025 sec
     gradient                   ...        0 min,  0.007 sec
 * total energy  :   -75.2903416 Eh     change       -0.7360856E-04 Eh
   gradient norm :     0.0032127 Eh/α   predicted    -0.4981053E-04 ( -32.33%)
   displ. norm   :     0.1626822 α      lambda       -0.1033558E-03
   maximum displ.:     0.0773652 α      in ANC's #1, #6, #15, ...

........................................................................
.............................. CYCLE    9 ..............................
........................................................................

 iter      E             dE          RMSdq      gap      omega  full diag
   1    -76.2821408 -0.762821E+02  0.519E-02    2.75       0.0  T
   2    -76.2821456 -0.489284E-05  0.301E-02    2.75       1.0  T
   3    -76.2821432  0.246236E-05  0.130E-02    2.75       1.1  T
   4    -76.2821473 -0.411238E-05  0.190E-03    2.75       7.4  T
   5    -76.2821473 -0.274139E-07  0.108E-03    2.75      13.1  T
   6    -76.2821473 -0.448466E-08  0.498E-04    2.75      28.4  T
   7    -76.2821473 -0.349031E-08  0.120E-04    2.75     118.3  T
     SCC iter.                  ...        0 min,  0.029 sec
     gradient                   ...        0 min,  0.009 sec
 * total energy  :   -75.2904194 Eh     change       -0.7779156E-04 Eh
   gradient norm :     0.0037836 Eh/α   predicted    -0.5304692E-04 ( -31.81%)
   displ. norm   :     0.2003791 α      lambda       -0.1176953E-03
   maximum displ.:     0.0908363 α      in ANC's #1, #3, #6, ...

........................................................................
.............................. CYCLE   10 ..............................
........................................................................

 iter      E             dE          RMSdq      gap      omega  full diag
   1    -76.2831322 -0.762831E+02  0.577E-02    2.75       0.0  T
   2    -76.2831375 -0.525600E-05  0.334E-02    2.75       1.0  T
   3    -76.2831346  0.289990E-05  0.136E-02    2.75       1.0  T
   4    -76.2831393 -0.470541E-05  0.212E-03    2.75       6.7  T
   5    -76.2831393 -0.294030E-07  0.122E-03    2.75      11.6  T
   6    -76.2831393 -0.522242E-08  0.533E-04    2.75      26.5  T
   7    -76.2831393 -0.435575E-08  0.136E-04    2.75     103.9  T
     SCC iter.                  ...        0 min,  0.029 sec
     gradient                   ...        0 min,  0.007 sec
 * total energy  :   -75.2905019 Eh     change       -0.8247665E-04 Eh
   gradient norm :     0.0037641 Eh/α   predicted    -0.6123579E-04 ( -25.75%)
   displ. norm   :     0.1878842 α      lambda       -0.8310257E-04
   maximum displ.:     0.0834740 α      in ANC's #6, #1, #3, ...

........................................................................
.............................. CYCLE   11 ..............................
........................................................................

 iter      E             dE          RMSdq      gap      omega  full diag
   1    -76.2819628 -0.762820E+02  0.592E-02    2.71       0.0  T
   2    -76.2819693 -0.646021E-05  0.340E-02    2.72       1.0  T
   3    -76.2819671  0.218401E-05  0.124E-02    2.73       1.1  T
   4    -76.2819708 -0.372860E-05  0.246E-03    2.73       5.7  T
   5    -76.2819709 -0.646071E-07  0.125E-03    2.73      11.3  T
   6    -76.2819709 -0.750008E-08  0.619E-04    2.73      22.8  T
   7    -76.2819709 -0.417589E-08  0.185E-04    2.73      76.4  T
     SCC iter.                  ...        0 min,  0.029 sec
     gradient                   ...        0 min,  0.009 sec
 * total energy  :   -75.2905473 Eh     change       -0.4544476E-04 Eh
   gradient norm :     0.0055775 Eh/α   predicted    -0.4302766E-04 (  -5.32%)
   displ. norm   :     0.1256626 α      lambda       -0.9067843E-04
   maximum displ.:     0.0583964 α      in ANC's #4, #3, #7, ...

........................................................................
.............................. CYCLE   12 ..............................
........................................................................

 iter      E             dE          RMSdq      gap      omega  full diag
   1    -76.2831656 -0.762832E+02  0.339E-02    2.78       0.0  T
   2    -76.2831681 -0.250199E-05  0.202E-02    2.77       1.0  T
   3    -76.2831676  0.498456E-06  0.665E-03    2.77       2.1  T
   4    -76.2831686 -0.100906E-05  0.131E-03    2.77      10.8  T
   5    -76.2831686 -0.136523E-07  0.821E-04    2.77      17.2  T
   6    -76.2831686 -0.817295E-08  0.314E-04    2.77      45.1  T
     SCC iter.                  ...        0 min,  0.025 sec
     gradient                   ...        0 min,  0.009 sec
 * total energy  :   -75.2905664 Eh     change       -0.1909313E-04 Eh
   gradient norm :     0.0045565 Eh/α   predicted    -0.4607762E-04 ( 141.33%)
   displ. norm   :     0.0619126 α      lambda       -0.4491740E-04
   maximum displ.:     0.0287402 α      in ANC's #6, #1, #21, ...

........................................................................
.............................. CYCLE   13 ..............................
........................................................................

 iter      E             dE          RMSdq      gap      omega  full diag
   1    -76.2821363 -0.762821E+02  0.211E-02    2.73       0.0  T
   2    -76.2821377 -0.136403E-05  0.122E-02    2.74       1.2  T
   3    -76.2821375  0.183743E-06  0.503E-03    2.74       2.8  T
   4    -76.2821380 -0.483449E-06  0.979E-04    2.74      14.4  T
   5    -76.2821380 -0.107656E-07  0.545E-04    2.74      26.0  T
     SCC iter.                  ...        0 min,  0.021 sec
     gradient                   ...        0 min,  0.009 sec
 * total energy  :   -75.2905908 Eh     change       -0.2440712E-04 Eh
   gradient norm :     0.0025362 Eh/α   predicted    -0.2254516E-04 (  -7.63%)
   displ. norm   :     0.0393134 α      lambda       -0.1853270E-04
   maximum displ.:     0.0225760 α      in ANC's #3, #2, #5, ...

........................................................................
.............................. CYCLE   14 ..............................
........................................................................

 iter      E             dE          RMSdq      gap      omega  full diag
   1    -76.2823520 -0.762824E+02  0.911E-03    2.73       0.0  T
   2    -76.2823524 -0.380111E-06  0.517E-03    2.73       2.7  T
   3    -76.2823524  0.507286E-08  0.179E-03    2.74       7.9  T
   4    -76.2823524 -0.180551E-07  0.561E-04    2.74      25.2  T
   5    -76.2823524 -0.904528E-08  0.153E-04    2.74      92.2  T
     SCC iter.                  ...        0 min,  0.021 sec
     gradient                   ...        0 min,  0.009 sec
 * total energy  :   -75.2906018 Eh     change       -0.1099796E-04 Eh
   gradient norm :     0.0022119 Eh/α   predicted    -0.9282453E-05 ( -15.60%)
   displ. norm   :     0.0485613 α      lambda       -0.1598269E-04
   maximum displ.:     0.0270986 α      in ANC's #2, #6, #4, ...

........................................................................
.............................. CYCLE   15 ..............................
........................................................................

 iter      E             dE          RMSdq      gap      omega  full diag
   1    -76.2825077 -0.762825E+02  0.135E-02    2.74       0.0  T
   2    -76.2825080 -0.281647E-06  0.775E-03    2.74       1.8  T
   3    -76.2825079  0.784965E-07  0.256E-03    2.74       5.5  T
   4    -76.2825081 -0.156917E-06  0.633E-04    2.74      22.4  T
   5    -76.2825081 -0.274353E-08  0.339E-04    2.74      41.7  T
     SCC iter.                  ...        0 min,  0.021 sec
     gradient                   ...        0 min,  0.009 sec
 * total energy  :   -75.2906150 Eh     change       -0.1315511E-04 Eh
   gradient norm :     0.0022188 Eh/α   predicted    -0.8012659E-05 ( -39.09%)
   displ. norm   :     0.1318322 α      lambda       -0.3427039E-04
   maximum displ.:     0.0666792 α      in ANC's #2, #6, #4, ...

........................................................................
.............................. CYCLE   16 ..............................
........................................................................

 iter      E             dE          RMSdq      gap      omega  full diag
   1    -76.2825678 -0.762826E+02  0.389E-02    2.73       0.0  T
   2    -76.2825697 -0.195866E-05  0.225E-02    2.73       1.0  T
   3    -76.2825690  0.730627E-06  0.729E-03    2.73       1.9  T
   4    -76.2825704 -0.138173E-05  0.175E-03    2.73       8.1  T
   5    -76.2825704 -0.127084E-07  0.924E-04    2.73      15.3  T
   6    -76.2825704 -0.362762E-08  0.297E-04    2.73      47.7  T
     SCC iter.                  ...        0 min,  0.026 sec
     gradient                   ...        0 min,  0.007 sec
 * total energy  :   -75.2906417 Eh     change       -0.2666740E-04 Eh
   gradient norm :     0.0027776 Eh/α   predicted    -0.1743528E-04 ( -34.62%)
   displ. norm   :     0.2105296 α      lambda       -0.4610622E-04
   maximum displ.:     0.1064893 α      in ANC's #2, #4, #6, ...

........................................................................
.............................. CYCLE   17 ..............................
........................................................................

 iter      E             dE          RMSdq      gap      omega  full diag
   1    -76.2822675 -0.762823E+02  0.627E-02    2.72       0.0  T
   2    -76.2822719 -0.442944E-05  0.362E-02    2.72       1.0  T
   3    -76.2822703  0.159506E-05  0.109E-02    2.72       1.3  T
   4    -76.2822734 -0.314246E-05  0.277E-03    2.72       5.1  T
   5    -76.2822735 -0.262651E-07  0.143E-03    2.72       9.9  T
   6    -76.2822735 -0.110444E-07  0.430E-04    2.72      32.9  T
   7    -76.2822735 -0.367072E-08  0.194E-04    2.72      73.0  T
     SCC iter.                  ...        0 min,  0.031 sec
     gradient                   ...        0 min,  0.007 sec
 * total energy  :   -75.2906742 Eh     change       -0.3255677E-04 Eh
   gradient norm :     0.0054926 Eh/α   predicted    -0.2407819E-04 ( -26.04%)
   displ. norm   :     0.2445693 α      lambda       -0.6592399E-04
   maximum displ.:     0.1391865 α      in ANC's #2, #4, #6, ...

........................................................................
.............................. CYCLE   18 ..............................
........................................................................

 iter      E             dE          RMSdq      gap      omega  full diag
   1    -76.2825103 -0.762825E+02  0.687E-02    2.73       0.0  T
   2    -76.2825137 -0.332420E-05  0.401E-02    2.73       1.0  T
   3    -76.2825133  0.376240E-06  0.783E-03    2.73       1.8  T
   4    -76.2825148 -0.156314E-05  0.279E-03    2.73       5.1  T
   5    -76.2825149 -0.285561E-07  0.133E-03    2.73      10.6  T
   6    -76.2825149 -0.137292E-07  0.475E-04    2.73      29.8  T
   7    -76.2825149 -0.401008E-08  0.222E-04    2.73      63.6  T
     SCC iter.                  ...        0 min,  0.028 sec
     gradient                   ...        0 min,  0.007 sec
 * total energy  :   -75.2907210 Eh     change       -0.4677224E-04 Eh
   gradient norm :     0.0059227 Eh/α   predicted    -0.3493452E-04 ( -25.31%)
   displ. norm   :     0.3288014 α      lambda       -0.8609994E-04
   maximum displ.:     0.1657708 α      in ANC's #2, #4, #5, ...

........................................................................
.............................. CYCLE   19 ..............................
........................................................................

 iter      E             dE          RMSdq      gap      omega  full diag
   1    -76.2802157 -0.762802E+02  0.100E-01    2.68       0.0  T
   2    -76.2802235 -0.782436E-05  0.581E-02    2.69       1.0  T
   3    -76.2802239 -0.344627E-06  0.984E-03    2.70       1.4  T
   4    -76.2802261 -0.222095E-05  0.403E-03    2.70       3.5  T
   5    -76.2802261 -0.591899E-07  0.194E-03    2.70       7.3  T
   6    -76.2802262 -0.376421E-07  0.569E-04    2.70      24.9  T
   7    -76.2802262 -0.429118E-08  0.294E-04    2.70      48.0  T
     SCC iter.                  ...        0 min,  0.028 sec
     gradient                   ...        0 min,  0.009 sec
 * total energy  :   -75.2907577 Eh     change       -0.3676407E-04 Eh
   gradient norm :     0.0110583 Eh/α   predicted    -0.4770553E-04 (  29.76%)
   displ. norm   :     0.2537702 α      lambda       -0.2514333E-03
   maximum displ.:     0.1428437 α      in ANC's #5, #2, #4, ...

........................................................................
.............................. CYCLE   20 ..............................
........................................................................

 iter      E             dE          RMSdq      gap      omega  full diag
   1    -76.2829191 -0.762829E+02  0.812E-02    2.74       0.0  T
   2    -76.2829254 -0.635669E-05  0.473E-02    2.73       1.0  T
   3    -76.2829244  0.104918E-05  0.888E-03    2.74       1.6  T
   4    -76.2829267 -0.233993E-05  0.289E-03    2.74       4.9  T
   5    -76.2829268 -0.872026E-07  0.153E-03    2.74       9.2  T
   6    -76.2829268 -0.122700E-07  0.707E-04    2.74      20.0  T
   7    -76.2829268 -0.867611E-08  0.240E-04    2.74      59.0  T
     SCC iter.                  ...        0 min,  0.029 sec
     gradient                   ...        0 min,  0.008 sec
 * total energy  :   -75.2908624 Eh     change       -0.1046738E-03 Eh
   gradient norm :     0.0053675 Eh/α   predicted    -0.1338158E-03 (  27.84%)
   displ. norm   :     0.3361003 α      lambda       -0.1851523E-03
   maximum displ.:     0.1802539 α      in ANC's #2, #5, #4, ...
 * RMSD in coord.:     0.3258264 α      energy gain  -0.6419526E-02 Eh

generating ANC from exact Hessian ...
Using Lindh-Hessian (1995)
 Shifting diagonal of input Hessian by   9.271781255719662E-003
 Lowest  eigenvalues of input Hessian
    0.000000    0.000000    0.000000    0.000000    0.000000    0.000000
    0.010000    0.010233    0.011313    0.011763    0.012788    0.013435
    0.014359    0.016071    0.017421    0.019510    0.020079    0.021825
 Highest eigenvalues
    1.823674    1.906418    1.951260    2.023440    2.109137    2.327711
 

........................................................................
.............................. CYCLE   21 ..............................
........................................................................

 iter      E             dE          RMSdq      gap      omega  full diag
   1    -76.2802464 -0.762802E+02  0.103E-01    2.76       0.0  T
   2    -76.2802556 -0.918903E-05  0.597E-02    2.76       1.0  T
   3    -76.2802561 -0.434685E-06  0.987E-03    2.77       1.4  T
   4    -76.2802586 -0.255901E-05  0.445E-03    2.77       3.2  T
   5    -76.2802587 -0.818555E-07  0.207E-03    2.77       6.8  T
   6    -76.2802588 -0.566295E-07  0.664E-04    2.77      21.3  T
   7    -76.2802588 -0.772204E-08  0.335E-04    2.77      42.2  T
     SCC iter.                  ...        0 min,  0.032 sec
     gradient                   ...        0 min,  0.007 sec
 * total energy  :   -75.2909195 Eh     change       -0.5707920E-04 Eh
   gradient norm :     0.0150292 Eh/α   predicted     0.0000000E+00 (-100.00%)
   displ. norm   :     0.0726301 α      lambda       -0.3486624E-03
   maximum displ.:     0.0230777 α      in ANC's #22, #4, #9, ...

........................................................................
.............................. CYCLE   22 ..............................
........................................................................

 iter      E             dE          RMSdq      gap      omega  full diag
   1    -76.2824631 -0.762825E+02  0.286E-02    2.77       0.0  T
   2    -76.2824645 -0.136974E-05  0.164E-02    2.77       1.0  T
   3    -76.2824641  0.367569E-06  0.528E-03    2.77       2.7  T
   4    -76.2824648 -0.666278E-06  0.125E-03    2.77      11.3  T
   5    -76.2824648 -0.187921E-07  0.616E-04    2.77      22.9  T
   6    -76.2824648 -0.149296E-08  0.299E-04    2.77      47.2  T
     SCC iter.                  ...        0 min,  0.025 sec
     gradient                   ...        0 min,  0.007 sec
 * total energy  :   -75.2911867 Eh     change       -0.2672219E-03 Eh
   gradient norm :     0.0061056 Eh/α   predicted    -0.1752514E-03 ( -34.42%)
   displ. norm   :     0.1613349 α      lambda       -0.3883834E-03
   maximum displ.:     0.0540713 α      in ANC's #4, #1, #21, ...

........................................................................
.............................. CYCLE   23 ..............................
........................................................................

 iter      E             dE          RMSdq      gap      omega  full diag
   1    -76.2839082 -0.762839E+02  0.593E-02    2.78       0.0  T
   2    -76.2839140 -0.577107E-05  0.341E-02    2.78       1.0  T
   3    -76.2839123  0.169926E-05  0.116E-02    2.78       1.2  T
   4    -76.2839155 -0.324703E-05  0.270E-03    2.78       5.2  T
   5    -76.2839156 -0.630515E-07  0.135E-03    2.78      10.5  T
   6    -76.2839156 -0.553197E-08  0.557E-04    2.78      25.4  T
   7    -76.2839156 -0.557662E-08  0.189E-04    2.78      74.7  T
     SCC iter.                  ...        0 min,  0.030 sec
     gradient                   ...        0 min,  0.009 sec
 * total energy  :   -75.2914854 Eh     change       -0.2986588E-03 Eh
   gradient norm :     0.0062992 Eh/α   predicted    -0.1992492E-03 ( -33.29%)
   displ. norm   :     0.3191640 α      lambda       -0.5574379E-03
   maximum displ.:     0.1169782 α      in ANC's #1, #21, #4, ...

........................................................................
.............................. CYCLE   24 ..............................
........................................................................

 iter      E             dE          RMSdq      gap      omega  full diag
   1    -76.2819072 -0.762819E+02  0.118E-01    2.79       0.0  T
   2    -76.2819331 -0.259712E-04  0.684E-02    2.80       1.0  T
   3    -76.2819241  0.905788E-05  0.270E-02    2.80       1.0  T
   4    -76.2819413 -0.172100E-04  0.553E-03    2.80       2.6  T
   5    -76.2819415 -0.195280E-06  0.282E-03    2.80       5.0  T
   6    -76.2819415 -0.358102E-07  0.105E-03    2.80      13.5  T
   7    -76.2819415 -0.167134E-07  0.353E-04    2.80      40.1  T
   8    -76.2819415 -0.120995E-08  0.208E-04    2.80      68.2  T
     SCC iter.                  ...        0 min,  0.035 sec
     gradient                   ...        0 min,  0.008 sec
 * total energy  :   -75.2918826 Eh     change       -0.3972468E-03 Eh
   gradient norm :     0.0104016 Eh/α   predicted    -0.3075373E-03 ( -22.58%)
   displ. norm   :     0.1902368 α      lambda       -0.2440857E-03
   maximum displ.:     0.0950325 α      in ANC's #1, #21, #4, ...

........................................................................
.............................. CYCLE   25 ..............................
........................................................................

 iter      E             dE          RMSdq      gap      omega  full diag
   1    -76.2802367 -0.762802E+02  0.688E-02    2.84       0.0  T
   2    -76.2802501 -0.133295E-04  0.396E-02    2.83       1.0  T
   3    -76.2802469  0.310724E-05  0.189E-02    2.84       1.0  T
   4    -76.2802540 -0.709086E-05  0.338E-03    2.84       4.2  T
   5    -76.2802541 -0.949847E-07  0.171E-03    2.84       8.3  T
   6    -76.2802541 -0.154641E-07  0.751E-04    2.84      18.8  T
   7    -76.2802542 -0.623076E-08  0.198E-04    2.84      71.6  T
     SCC iter.                  ...        0 min,  0.029 sec
     gradient                   ...        0 min,  0.008 sec
 * total energy  :   -75.2920065 Eh     change       -0.1238435E-03 Eh
   gradient norm :     0.0118000 Eh/α   predicted    -0.1264844E-03 (   2.13%)
   displ. norm   :     0.0759645 α      lambda       -0.2324111E-03
   maximum displ.:     0.0447585 α      in ANC's #1, #21, #5, ...

........................................................................
.............................. CYCLE   26 ..............................
........................................................................

 iter      E             dE          RMSdq      gap      omega  full diag
   1    -76.2819397 -0.762819E+02  0.259E-02    2.88       0.0  T
   2    -76.2819428 -0.307347E-05  0.150E-02    2.88       1.0  T
   3    -76.2819427  0.109801E-06  0.631E-03    2.88       2.2  T
   4    -76.2819432 -0.529686E-06  0.124E-03    2.88      11.4  T
   5    -76.2819432 -0.216105E-07  0.589E-04    2.88      24.0  T
   6    -76.2819432 -0.390342E-08  0.335E-04    2.88      42.2  T
     SCC iter.                  ...        0 min,  0.026 sec
     gradient                   ...        0 min,  0.009 sec
 * total energy  :   -75.2921318 Eh     change       -0.1253348E-03 Eh
   gradient norm :     0.0043667 Eh/α   predicted    -0.1168828E-03 (  -6.74%)
   displ. norm   :     0.1050422 α      lambda       -0.8640686E-04
   maximum displ.:     0.0642021 α      in ANC's #1, #21, #6, ...

........................................................................
.............................. CYCLE   27 ..............................
........................................................................

 iter      E             dE          RMSdq      gap      omega  full diag
   1    -76.2815645 -0.762816E+02  0.353E-02    2.86       0.0  T
   2    -76.2815665 -0.198642E-05  0.207E-02    2.87       1.0  T
   3    -76.2815658  0.671464E-06  0.657E-03    2.87       2.2  T
   4    -76.2815669 -0.107162E-05  0.145E-03    2.87       9.8  T
   5    -76.2815669 -0.323526E-07  0.689E-04    2.87      20.5  T
   6    -76.2815669 -0.152092E-08  0.357E-04    2.87      39.6  T
     SCC iter.                  ...        0 min,  0.026 sec
     gradient                   ...        0 min,  0.008 sec
 * total energy  :   -75.2921969 Eh     change       -0.6513986E-04 Eh
   gradient norm :     0.0030641 Eh/α   predicted    -0.4392353E-04 ( -32.57%)
   displ. norm   :     0.1657075 α      lambda       -0.9937722E-04
   maximum displ.:     0.1065394 α      in ANC's #1, #6, #21, ...

........................................................................
.............................. CYCLE   28 ..............................
........................................................................

 iter      E             dE          RMSdq      gap      omega  full diag
   1    -76.2815805 -0.762816E+02  0.506E-02    2.86       0.0  T
   2    -76.2815826 -0.205510E-05  0.296E-02    2.86       1.0  T
   3    -76.2815816  0.947594E-06  0.705E-03    2.86       2.0  T
   4    -76.2815832 -0.154138E-05  0.166E-03    2.87       8.5  T
   5    -76.2815832 -0.258941E-07  0.926E-04    2.87      15.3  T
   6    -76.2815832 -0.156579E-08  0.430E-04    2.87      32.9  T
     SCC iter.                  ...        0 min,  0.027 sec
     gradient                   ...        0 min,  0.008 sec
 * total energy  :   -75.2922614 Eh     change       -0.6449832E-04 Eh
   gradient norm :     0.0050963 Eh/α   predicted    -0.5105797E-04 ( -20.84%)
   displ. norm   :     0.0999462 α      lambda       -0.4814854E-04
   maximum displ.:     0.0694988 α      in ANC's #1, #2, #21, ...

........................................................................
.............................. CYCLE   29 ..............................
........................................................................

 iter      E             dE          RMSdq      gap      omega  full diag
   1    -76.2820699 -0.762821E+02  0.276E-02    2.87       0.0  T
   2    -76.2820703 -0.349631E-06  0.162E-02    2.87       1.0  T
   3    -76.2820702  0.891042E-07  0.249E-03    2.87       5.7  T
   4    -76.2820704 -0.207697E-06  0.798E-04    2.87      17.7  T
   5    -76.2820704 -0.528530E-08  0.492E-04    2.87      28.7  T
     SCC iter.                  ...        0 min,  0.021 sec
     gradient                   ...        0 min,  0.009 sec
 * total energy  :   -75.2923010 Eh     change       -0.3953604E-04 Eh
   gradient norm :     0.0049752 Eh/α   predicted    -0.2431635E-04 ( -38.50%)
   displ. norm   :     0.1703114 α      lambda       -0.8161901E-04
   maximum displ.:     0.1199015 α      in ANC's #1, #2, #21, ...

........................................................................
.............................. CYCLE   30 ..............................
........................................................................

 iter      E             dE          RMSdq      gap      omega  full diag
   1    -76.2824415 -0.762824E+02  0.460E-02    2.88       0.0  T
   2    -76.2824424 -0.852760E-06  0.268E-02    2.88       1.0  T
   3    -76.2824424 -0.933754E-08  0.312E-03    2.88       4.5  T
   4    -76.2824427 -0.275111E-06  0.125E-03    2.88      11.3  T
   5    -76.2824427 -0.124681E-07  0.747E-04    2.88      18.9  T
   6    -76.2824427 -0.359795E-08  0.322E-04    2.88      43.9  T
     SCC iter.                  ...        0 min,  0.026 sec
     gradient                   ...        0 min,  0.008 sec
 * total energy  :   -75.2923645 Eh     change       -0.6354422E-04 Eh
   gradient norm :     0.0042593 Eh/α   predicted    -0.4200681E-04 ( -33.89%)
   displ. norm   :     0.2094808 α      lambda       -0.7602637E-04
   maximum displ.:     0.1496838 α      in ANC's #1, #2, #21, ...

........................................................................
.............................. CYCLE   31 ..............................
........................................................................

 iter      E             dE          RMSdq      gap      omega  full diag
   1    -76.2822163 -0.762822E+02  0.557E-02    2.88       0.0  T
   2    -76.2822174 -0.117632E-05  0.323E-02    2.88       1.0  T
   3    -76.2822175 -0.920587E-07  0.352E-03    2.88       4.0  T
   4    -76.2822178 -0.309515E-06  0.156E-03    2.88       9.1  T
   5    -76.2822179 -0.257367E-07  0.861E-04    2.88      16.4  T
   6    -76.2822179 -0.239596E-08  0.370E-04    2.88      38.2  T
     SCC iter.                  ...        0 min,  0.026 sec
     gradient                   ...        0 min,  0.008 sec
 * total energy  :   -75.2924190 Eh     change       -0.5442720E-04 Eh
   gradient norm :     0.0041144 Eh/α   predicted    -0.3968412E-04 ( -27.09%)
   displ. norm   :     0.1560501 α      lambda       -0.5343423E-04
   maximum displ.:     0.1158417 α      in ANC's #1, #2, #3, ...

........................................................................
.............................. CYCLE   32 ..............................
........................................................................

 iter      E             dE          RMSdq      gap      omega  full diag
   1    -76.2830076 -0.762830E+02  0.378E-02    2.90       0.0  T
   2    -76.2830090 -0.140334E-05  0.218E-02    2.90       1.0  T
   3    -76.2830089  0.710492E-07  0.354E-03    2.90       4.0  T
   4    -76.2830092 -0.295702E-06  0.100E-03    2.89      14.1  T
   5    -76.2830092 -0.102552E-07  0.567E-04    2.89      24.9  T
   6    -76.2830092 -0.156393E-08  0.330E-04    2.89      42.8  T
     SCC iter.                  ...        0 min,  0.027 sec
     gradient                   ...        0 min,  0.008 sec
 * total energy  :   -75.2924481 Eh     change       -0.2916996E-04 Eh
   gradient norm :     0.0029174 Eh/α   predicted    -0.2737232E-04 (  -6.16%)
   displ. norm   :     0.1841832 α      lambda       -0.3568039E-04
   maximum displ.:     0.1305272 α      in ANC's #1, #21, #2, ...

........................................................................
.............................. CYCLE   33 ..............................
........................................................................

 iter      E             dE          RMSdq      gap      omega  full diag
   1    -76.2814502 -0.762815E+02  0.519E-02    2.85       0.0  T
   2    -76.2814523 -0.201541E-05  0.305E-02    2.86       1.0  T
   3    -76.2814516  0.644138E-06  0.628E-03    2.85       2.3  T
   4    -76.2814529 -0.129562E-05  0.163E-03    2.86       8.7  T
   5    -76.2814529 -0.116055E-07  0.101E-03    2.86      14.0  T
   6    -76.2814529 -0.799032E-08  0.247E-04    2.86      57.2  T
   7    -76.2814529 -0.587235E-09  0.839E-05    2.86     168.7  T
     SCC iter.                  ...        0 min,  0.030 sec
     gradient                   ...        0 min,  0.008 sec
 * total energy  :   -75.2924485 Eh     change       -0.4206804E-06 Eh
   gradient norm :     0.0053832 Eh/α   predicted    -0.1844604E-04 (4284.81%)
   displ. norm   :     0.0983356 α      lambda       -0.3751325E-04
   maximum displ.:     0.0680066 α      in ANC's #1, #2, #21, ...

........................................................................
.............................. CYCLE   34 ..............................
........................................................................

 iter      E             dE          RMSdq      gap      omega  full diag
   1    -76.2825516 -0.762826E+02  0.276E-02    2.89       0.0  T
   2    -76.2825524 -0.860574E-06  0.163E-02    2.88       1.0  T
   3    -76.2825522  0.274744E-06  0.407E-03    2.89       3.5  T
   4    -76.2825527 -0.500383E-06  0.886E-04    2.88      16.0  T
   5    -76.2825527 -0.490344E-08  0.557E-04    2.88      25.4  T
     SCC iter.                  ...        0 min,  0.022 sec
     gradient                   ...        0 min,  0.009 sec
 * total energy  :   -75.2924676 Eh     change       -0.1904231E-04 Eh
   gradient norm :     0.0010722 Eh/α   predicted    -0.1894193E-04 (  -0.53%)
   displ. norm   :     0.0320103 α      lambda       -0.6833817E-05
   maximum displ.:     0.0183837 α      in ANC's #5, #6, #1, ...

........................................................................
.............................. CYCLE   35 ..............................
........................................................................

 iter      E             dE          RMSdq      gap      omega  full diag
   1    -76.2826310 -0.762826E+02  0.106E-02    2.89       0.0  T
   2    -76.2826311 -0.104797E-06  0.617E-03    2.89       2.3  T
   3    -76.2826310  0.158721E-07  0.113E-03    2.89      12.5  T
   4    -76.2826311 -0.328350E-07  0.382E-04    2.89      37.0  T
   5    -76.2826311 -0.271135E-08  0.175E-04    2.89      80.7  T
     SCC iter.                  ...        0 min,  0.022 sec
     gradient                   ...        0 min,  0.008 sec
 * total energy  :   -75.2924754 Eh     change       -0.7774110E-05 Eh
   gradient norm :     0.0007314 Eh/α   predicted    -0.3421201E-05 ( -55.99%)
   displ. norm   :     0.0651179 α      lambda       -0.9733214E-05
   maximum displ.:     0.0367655 α      in ANC's #5, #6, #2, ...

........................................................................
.............................. CYCLE   36 ..............................
........................................................................

 iter      E             dE          RMSdq      gap      omega  full diag
   1    -76.2823558 -0.762824E+02  0.232E-02    2.88       0.0  T
   2    -76.2823561 -0.300951E-06  0.137E-02    2.88       1.0  T
   3    -76.2823560  0.138771E-06  0.250E-03    2.88       5.6  T
   4    -76.2823562 -0.229639E-06  0.685E-04    2.88      20.6  T
   5    -76.2823562 -0.384094E-08  0.391E-04    2.88      36.2  T
     SCC iter.                  ...        0 min,  0.023 sec
     gradient                   ...        0 min,  0.008 sec
 * total energy  :   -75.2924849 Eh     change       -0.9539867E-05 Eh
   gradient norm :     0.0013200 Eh/α   predicted    -0.4876711E-05 ( -48.88%)
   displ. norm   :     0.0540955 α      lambda       -0.5557814E-05
   maximum displ.:     0.0262250 α      in ANC's #5, #2, #6, ...

........................................................................
.............................. CYCLE   37 ..............................
........................................................................

 iter      E             dE          RMSdq      gap      omega  full diag
   1    -76.2822333 -0.762822E+02  0.191E-02    2.88       0.0  T
   2    -76.2822335 -0.200525E-06  0.112E-02    2.88       1.3  T
   3    -76.2822335  0.134705E-07  0.141E-03    2.88      10.0  T
   4    -76.2822335 -0.508733E-07  0.629E-04    2.88      22.5  T
   5    -76.2822335 -0.755334E-08  0.295E-04    2.88      48.0  T
     SCC iter.                  ...        0 min,  0.021 sec
     gradient                   ...        0 min,  0.008 sec
 * total energy  :   -75.2924904 Eh     change       -0.5495638E-05 Eh
   gradient norm :     0.0013651 Eh/α   predicted    -0.2784025E-05 ( -49.34%)
   displ. norm   :     0.0567290 α      lambda       -0.5580785E-05
   maximum displ.:     0.0305315 α      in ANC's #2, #6, #5, ...

........................................................................
.............................. CYCLE   38 ..............................
........................................................................

 iter      E             dE          RMSdq      gap      omega  full diag
   1    -76.2823314 -0.762823E+02  0.201E-02    2.88       0.0  T
   2    -76.2823317 -0.234511E-06  0.119E-02    2.88       1.2  T
   3    -76.2823316  0.398976E-07  0.164E-03    2.88       8.6  T
   4    -76.2823317 -0.887793E-07  0.573E-04    2.88      24.7  T
   5    -76.2823317 -0.454845E-08  0.315E-04    2.88      44.9  T
     SCC iter.                  ...        0 min,  0.021 sec
     gradient                   ...        0 min,  0.009 sec
 * total energy  :   -75.2924961 Eh     change       -0.5706629E-05 Eh
   gradient norm :     0.0011791 Eh/α   predicted    -0.2797936E-05 ( -50.97%)
   displ. norm   :     0.0463828 α      lambda       -0.4230951E-05
   maximum displ.:     0.0261834 α      in ANC's #6, #2, #21, ...

........................................................................
.............................. CYCLE   39 ..............................
........................................................................

 iter      E             dE          RMSdq      gap      omega  full diag
   1    -76.2824493 -0.762824E+02  0.157E-02    2.88       0.0  T
   2    -76.2824494 -0.959364E-07  0.924E-03    2.88       1.5  T
   3    -76.2824494  0.167128E-07  0.136E-03    2.88      10.4  T
   4    -76.2824494 -0.549508E-07  0.469E-04    2.88      30.1  T
   5    -76.2824494 -0.101541E-08  0.246E-04    2.88      57.4  T
     SCC iter.                  ...        0 min,  0.021 sec
     gradient                   ...        0 min,  0.008 sec
 * total energy  :   -75.2925007 Eh     change       -0.4554085E-05 Eh
   gradient norm :     0.0009343 Eh/α   predicted    -0.2120797E-05 ( -53.43%)
   displ. norm   :     0.0374490 α      lambda       -0.2908945E-05
   maximum displ.:     0.0224904 α      in ANC's #6, #2, #21, ...

........................................................................
.............................. CYCLE   40 ..............................
........................................................................

 iter      E             dE          RMSdq      gap      omega  full diag
   1    -76.2826209 -0.762826E+02  0.127E-02    2.89       0.0  T
   2    -76.2826210 -0.789178E-07  0.750E-03    2.89       1.9  T
   3    -76.2826209  0.229860E-07  0.129E-03    2.89      11.0  T
   4    -76.2826210 -0.527676E-07  0.398E-04    2.89      35.6  T
   5    -76.2826210 -0.706692E-09  0.227E-04    2.89      62.3  T
     SCC iter.                  ...        0 min,  0.023 sec
     gradient                   ...        0 min,  0.008 sec
 * total energy  :   -75.2925038 Eh     change       -0.3100743E-05 Eh
   gradient norm :     0.0006471 Eh/α   predicted    -0.1458303E-05 ( -52.97%)
   displ. norm   :     0.0447804 α      lambda       -0.2262495E-05
   maximum displ.:     0.0276252 α      in ANC's #6, #21, #2, ...

........................................................................
.............................. CYCLE   41 ..............................
........................................................................

 iter      E             dE          RMSdq      gap      omega  full diag
   1    -76.2825814 -0.762826E+02  0.162E-02    2.89       0.0  T
   2    -76.2825815 -0.118018E-06  0.951E-03    2.89       1.5  T
   3    -76.2825815  0.208932E-07  0.147E-03    2.89       9.6  T
   4    -76.2825815 -0.670240E-07  0.522E-04    2.89      27.1  T
   5    -76.2825815 -0.162197E-08  0.287E-04    2.89      49.3  T
     SCC iter.                  ...        0 min,  0.019 sec
     gradient                   ...        0 min,  0.006 sec
 * total energy  :   -75.2925062 Eh     change       -0.2432371E-05 Eh
   gradient norm :     0.0006504 Eh/α   predicted    -0.1136175E-05 ( -53.29%)
   displ. norm   :     0.0375237 α      lambda       -0.1914907E-05
   maximum displ.:     0.0197143 α      in ANC's #6, #3, #4, ...

........................................................................
.............................. CYCLE   42 ..............................
........................................................................

 iter      E             dE          RMSdq      gap      omega  full diag
   1    -76.2827090 -0.762827E+02  0.126E-02    2.89       0.0  T
   2    -76.2827091 -0.645085E-07  0.739E-03    2.89       1.9  T
   3    -76.2827091 -0.135768E-08  0.838E-04    2.89      16.9  T
   4    -76.2827091 -0.202661E-07  0.361E-04    2.89      39.1  T
     SCC iter.                  ...        0 min,  0.013 sec
     gradient                   ...        0 min,  0.007 sec
 * total energy  :   -75.2925082 Eh     change       -0.1973153E-05 Eh
   gradient norm :     0.0003734 Eh/α   predicted    -0.9599945E-06 ( -51.35%)
   displ. norm   :     0.0387464 α      lambda       -0.1257665E-05
   maximum displ.:     0.0218569 α      in ANC's #6, #3, #21, ...
 * RMSD in coord.:     0.2375711 α      energy gain  -0.1645740E-02 Eh

generating ANC from exact Hessian ...
Using Lindh-Hessian (1995)
 Shifting diagonal of input Hessian by   9.217921900690103E-003
 Lowest  eigenvalues of input Hessian
    0.000000    0.000000    0.000000    0.000000    0.000000    0.000000
    0.010000    0.010229    0.011339    0.011552    0.012819    0.013354
    0.014444    0.015900    0.017344    0.019530    0.020157    0.021827
 Highest eigenvalues
    1.821559    1.903426    1.955426    2.020446    2.084141    2.332610
 

........................................................................
.............................. CYCLE   43 ..............................
........................................................................

 iter      E             dE          RMSdq      gap      omega  full diag
   1    -76.2825675 -0.762826E+02  0.130E-02    2.89       0.0  T
   2    -76.2825675 -0.493740E-07  0.769E-03    2.89       1.8  T
   3    -76.2825676 -0.929619E-08  0.824E-04    2.89      17.2  T
   4    -76.2825676 -0.172696E-07  0.420E-04    2.89      33.6  T
     SCC iter.                  ...        0 min,  0.014 sec
     gradient                   ...        0 min,  0.007 sec
 * total energy  :   -75.2925094 Eh     change       -0.1249615E-05 Eh
   gradient norm :     0.0004000 Eh/α   predicted     0.0000000E+00 (-100.00%)
   displ. norm   :     0.0066744 α      lambda       -0.1367316E-06
   maximum displ.:     0.0027404 α      in ANC's #3, #4, #9, ...

........................................................................
.............................. CYCLE   44 ..............................
........................................................................

 iter      E             dE          RMSdq      gap      omega  full diag
   1    -76.2826429 -0.762826E+02  0.171E-03    2.89       0.0  T
   2    -76.2826429 -0.693524E-08  0.102E-03    2.89      13.8  T
   3    -76.2826429  0.152487E-08  0.359E-04    2.89      39.4  T
   4    -76.2826429 -0.268462E-08  0.664E-05    2.89     213.1  T
     SCC iter.                  ...        0 min,  0.013 sec
     gradient                   ...        0 min,  0.007 sec
 * total energy  :   -75.2925100 Eh     change       -0.5397214E-06 Eh
   gradient norm :     0.0001764 Eh/α   predicted    -0.2665418E-06 ( -50.61%)
   displ. norm   :     0.0164244 α      lambda       -0.4721758E-06
   maximum displ.:     0.0068349 α      in ANC's #9, #3, #4, ...

........................................................................
.............................. CYCLE   45 ..............................
........................................................................

 iter      E             dE          RMSdq      gap      omega  full diag
   1    -76.2827046 -0.762827E+02  0.356E-03    2.89       0.0  T
   2    -76.2827046 -0.100017E-07  0.211E-03    2.89       6.7  T
   3    -76.2827046  0.541982E-08  0.470E-04    2.89      30.1  T
   4    -76.2827046 -0.730633E-08  0.100E-04    2.89     141.0  T
     SCC iter.                  ...        0 min,  0.013 sec
     gradient                   ...        0 min,  0.007 sec
 * total energy  :   -75.2925106 Eh     change       -0.6332742E-06 Eh
   gradient norm :     0.0003286 Eh/α   predicted    -0.3489053E-06 ( -44.90%)
   displ. norm   :     0.0159777 α      lambda       -0.4383861E-06
   maximum displ.:     0.0079949 α      in ANC's #4, #6, #3, ...

........................................................................
.............................. CYCLE   46 ..............................
........................................................................

 iter      E             dE          RMSdq      gap      omega  full diag
   1    -76.2826547 -0.762827E+02  0.345E-03    2.89       0.0  T
   2    -76.2826547 -0.512608E-08  0.203E-03    2.89       7.0  T
   3    -76.2826547  0.550625E-08  0.427E-04    2.89      33.1  T
   4    -76.2826547 -0.676498E-08  0.838E-05    2.89     168.7  T
     SCC iter.                  ...        0 min,  0.013 sec
     gradient                   ...        0 min,  0.007 sec
 * total energy  :   -75.2925110 Eh     change       -0.3986261E-06 Eh
   gradient norm :     0.0002764 Eh/α   predicted    -0.2210074E-06 ( -44.56%)
   displ. norm   :     0.0120594 α      lambda       -0.2278566E-06
   maximum displ.:     0.0067344 α      in ANC's #4, #6, #3, ...

........................................................................
.............................. CYCLE   47 ..............................
........................................................................

 iter      E             dE          RMSdq      gap      omega  full diag
   1    -76.2826232 -0.762826E+02  0.275E-03    2.89       0.0  T
   2    -76.2826232 -0.311856E-08  0.163E-03    2.89       8.7  T
   3    -76.2826232  0.284871E-08  0.307E-04    2.89      46.1  T
   4    -76.2826232 -0.348442E-08  0.665E-05    2.89     212.7  T
     SCC iter.                  ...        0 min,  0.013 sec
     gradient                   ...        0 min,  0.007 sec
 * total energy  :   -75.2925113 Eh     change       -0.2921370E-06 Eh
   gradient norm :     0.0001543 Eh/α   predicted    -0.1309363E-06 ( -55.18%)
   displ. norm   :     0.0156433 α      lambda       -0.3012933E-06
   maximum displ.:     0.0105505 α      in ANC's #6, #4, #3, ...

........................................................................
.............................. CYCLE   48 ..............................
........................................................................

 iter      E             dE          RMSdq      gap      omega  full diag
   1    -76.2825955 -0.762826E+02  0.370E-03    2.89       0.0  T
   2    -76.2825955 -0.569540E-08  0.218E-03    2.89       6.5  T
   3    -76.2825955  0.290100E-08  0.317E-04    2.89      44.6  T
   4    -76.2825955 -0.368503E-08  0.884E-05    2.89     159.9  T
     SCC iter.                  ...        0 min,  0.013 sec
     gradient                   ...        0 min,  0.007 sec
 * total energy  :   -75.2925116 Eh     change       -0.3209595E-06 Eh
   gradient norm :     0.0001363 Eh/α   predicted    -0.1532834E-06 ( -52.24%)
   displ. norm   :     0.0156433 α      lambda        0.0000000E+00
   maximum displ.:     0.0105505 α      in ANC's #6, #4, #3, ...

........................................................................
.............................. CYCLE   49 ..............................
........................................................................

 iter      E             dE          RMSdq      gap      omega  full diag
   1    -76.2825618 -0.762826E+02  0.370E-03    2.89       0.0  T
   2    -76.2825618 -0.568699E-08  0.219E-03    2.89       6.5  T
   3    -76.2825618  0.315370E-08  0.329E-04    2.89      43.0  T
   4    -76.2825618 -0.395207E-08  0.911E-05    2.89     155.2  T
     SCC iter.                  ...        0 min,  0.013 sec
     gradient                   ...        0 min,  0.007 sec
 * total energy  :   -75.2925116 Eh     change       -0.5094282E-07 Eh
   gradient norm :     0.0003400 Eh/α   predicted     0.3784844E-08 (-107.43%)
   displ. norm   :     0.0040848 α      lambda       -0.1852286E-06
   maximum displ.:     0.0025698 α      in ANC's #6, #4, #7, ...

........................................................................
.............................. CYCLE   50 ..............................
........................................................................

 iter      E             dE          RMSdq      gap      omega  full diag
   1    -76.2825751 -0.762826E+02  0.114E-03    2.89       0.0  T
   2    -76.2825751 -0.104191E-08  0.672E-04    2.89      21.0  T
   3    -76.2825751  0.309910E-09  0.125E-04    2.89     113.5  T
     SCC iter.                  ...        0 min,  0.010 sec
     gradient                   ...        0 min,  0.007 sec
 * total energy  :   -75.2925119 Eh     change       -0.2251244E-06 Eh
   gradient norm :     0.0002516 Eh/α   predicted    -0.9633410E-07 ( -57.21%)
   displ. norm   :     0.0098464 α      lambda       -0.3189200E-06
   maximum displ.:     0.0059667 α      in ANC's #6, #7, #2, ...

........................................................................
.............................. CYCLE   51 ..............................
........................................................................

 iter      E             dE          RMSdq      gap      omega  full diag
   1    -76.2826312 -0.762826E+02  0.192E-03    2.89       0.0  T
   2    -76.2826312 -0.686073E-08  0.114E-03    2.89      12.4  T
   3    -76.2826312  0.163598E-08  0.345E-04    2.89      41.0  T
   4    -76.2826312 -0.245960E-08  0.730E-05    2.89     193.7  T
     SCC iter.                  ...        0 min,  0.013 sec
     gradient                   ...        0 min,  0.007 sec
 * total energy  :   -75.2925122 Eh     change       -0.3116934E-06 Eh
   gradient norm :     0.0000848 Eh/α   predicted    -0.1625245E-06 ( -47.86%)
   displ. norm   :     0.0084052 α      lambda        0.5908521E-07
   maximum displ.:     0.0049817 α      in ANC's #6, #7, #2, ...

........................................................................
.............................. CYCLE   52 ..............................
........................................................................

 iter      E             dE          RMSdq      gap      omega  full diag
   1    -76.2826807 -0.762827E+02  0.170E-03    2.89       0.0  T
   2    -76.2826807 -0.570273E-08  0.101E-03    2.89      14.1  T
   3    -76.2826807  0.169234E-08  0.346E-04    2.89      40.9  T
   4    -76.2826807 -0.245824E-08  0.742E-05    2.89     190.7  T
     SCC iter.                  ...        0 min,  0.013 sec
     gradient                   ...        0 min,  0.007 sec
 * total energy  :   -75.2925122 Eh     change        0.3012144E-07 Eh
   gradient norm :     0.0003205 Eh/α   predicted     0.2779210E-07 (  -7.73%)
   displ. norm   :     0.0051528 α      lambda       -0.1969681E-06
   maximum displ.:     0.0040574 α      in ANC's #6, #4, #22, ...

........................................................................
.............................. CYCLE   53 ..............................
........................................................................

 iter      E             dE          RMSdq      gap      omega  full diag
   1    -76.2826519 -0.762827E+02  0.134E-03    2.89       0.0  T
   2    -76.2826519 -0.325265E-08  0.787E-04    2.89      18.0  T
   3    -76.2826519  0.451379E-09  0.196E-04    2.89      72.1  T
     SCC iter.                  ...        0 min,  0.010 sec
     gradient                   ...        0 min,  0.007 sec
 * total energy  :   -75.2925124 Eh     change       -0.2304236E-06 Eh
   gradient norm :     0.0001388 Eh/α   predicted    -0.1020601E-06 ( -55.71%)
   displ. norm   :     0.0086691 α      lambda       -0.1978042E-06
   maximum displ.:     0.0070555 α      in ANC's #6, #5, #7, ...

........................................................................
.............................. CYCLE   54 ..............................
........................................................................

 iter      E             dE          RMSdq      gap      omega  full diag
   1    -76.2826187 -0.762826E+02  0.159E-03    2.89       0.0  T
   2    -76.2826187 -0.244458E-08  0.947E-04    2.89      14.9  T
   3    -76.2826187  0.359549E-09  0.159E-04    2.89      88.7  T
     SCC iter.                  ...        0 min,  0.010 sec
     gradient                   ...        0 min,  0.007 sec
 * total energy  :   -75.2925126 Eh     change       -0.2333644E-06 Eh
   gradient norm :     0.0000850 Eh/α   predicted    -0.1016119E-06 ( -56.46%)
   displ. norm   :     0.0144165 α      lambda       -0.2275337E-06
   maximum displ.:     0.0112603 α      in ANC's #6, #5, #7, ...

........................................................................
.............................. CYCLE   55 ..............................
........................................................................

 iter      E             dE          RMSdq      gap      omega  full diag
   1    -76.2825977 -0.762826E+02  0.223E-03    2.89       0.0  T
   2    -76.2825977 -0.840728E-09  0.134E-03    2.89      10.6  T
   3    -76.2825977 -0.751470E-10  0.708E-05    2.89     199.8  T
   4    -76.2825977 -0.127429E-09  0.333E-05    2.89     424.5  T
     SCC iter.                  ...        0 min,  0.013 sec
     gradient                   ...        0 min,  0.007 sec
 * total energy  :   -75.2925129 Eh     change       -0.2996136E-06 Eh
   gradient norm :     0.0001779 Eh/α   predicted    -0.1183953E-06 ( -60.48%)
   displ. norm   :     0.0215057 α      lambda       -0.3133604E-06
   maximum displ.:     0.0165033 α      in ANC's #6, #7, #5, ...

........................................................................
.............................. CYCLE   56 ..............................
........................................................................

 iter      E             dE          RMSdq      gap      omega  full diag
   1    -76.2825849 -0.762826E+02  0.326E-03    2.89       0.0  T
   2    -76.2825849 -0.117078E-08  0.196E-03    2.89       7.2  T
   3    -76.2825849  0.230258E-09  0.132E-04    2.89     107.2  T
   4    -76.2825849 -0.691372E-09  0.485E-05    2.89     291.4  T
     SCC iter.                  ...        0 min,  0.013 sec
     gradient                   ...        0 min,  0.007 sec
 * total energy  :   -75.2925133 Eh     change       -0.4269944E-06 Eh
   gradient norm :     0.0002249 Eh/α   predicted    -0.1611711E-06 ( -62.25%)
   displ. norm   :     0.0273820 α      lambda       -0.3906901E-06
   maximum displ.:     0.0211765 α      in ANC's #6, #7, #5, ...

........................................................................
.............................. CYCLE   57 ..............................
........................................................................

 iter      E             dE          RMSdq      gap      omega  full diag
   1    -76.2825902 -0.762826E+02  0.407E-03    2.89       0.0  T
   2    -76.2825902 -0.214420E-08  0.244E-03    2.89       5.8  T
   3    -76.2825902  0.103432E-08  0.217E-04    2.89      65.3  T
   4    -76.2825902 -0.186499E-08  0.652E-05    2.89     217.0  T
     SCC iter.                  ...        0 min,  0.013 sec
     gradient                   ...        0 min,  0.007 sec
 * total energy  :   -75.2925139 Eh     change       -0.5250060E-06 Eh
   gradient norm :     0.0001944 Eh/α   predicted    -0.1985675E-06 ( -62.18%)
   displ. norm   :     0.0249570 α      lambda       -0.3532913E-06
   maximum displ.:     0.0200999 α      in ANC's #6, #7, #5, ...

........................................................................
.............................. CYCLE   58 ..............................
........................................................................

 iter      E             dE          RMSdq      gap      omega  full diag
   1    -76.2826097 -0.762826E+02  0.355E-03    2.89       0.0  T
   2    -76.2826097 -0.177356E-08  0.213E-03    2.89       6.6  T
   3    -76.2826097  0.873982E-09  0.202E-04    2.89      69.9  T
   4    -76.2826097 -0.153697E-08  0.584E-05    2.89     242.3  T
     SCC iter.                  ...        0 min,  0.013 sec
     gradient                   ...        0 min,  0.007 sec
 * total energy  :   -75.2925143 Eh     change       -0.4591486E-06 Eh
   gradient norm :     0.0001181 Eh/α   predicted    -0.1805072E-06 ( -60.69%)
   displ. norm   :     0.0187323 α      lambda       -0.2613680E-06
   maximum displ.:     0.0157883 α      in ANC's #6, #7, #22, ...

........................................................................
.............................. CYCLE   59 ..............................
........................................................................

 iter      E             dE          RMSdq      gap      omega  full diag
   1    -76.2826346 -0.762826E+02  0.255E-03    2.89       0.0  T
   2    -76.2826346 -0.829317E-09  0.154E-03    2.89       9.2  T
   3    -76.2826346 -0.147224E-10  0.964E-05    2.89     146.7  T
   4    -76.2826346 -0.284700E-09  0.411E-05    2.89     343.9  T
     SCC iter.                  ...        0 min,  0.013 sec
     gradient                   ...        0 min,  0.007 sec
 * total energy  :   -75.2925147 Eh     change       -0.3534317E-06 Eh
   gradient norm :     0.0000562 Eh/α   predicted    -0.1311646E-06 ( -62.89%)
   displ. norm   :     0.0155287 α      lambda       -0.2097345E-06
   maximum displ.:     0.0133556 α      in ANC's #6, #7, #22, ...

........................................................................
.............................. CYCLE   60 ..............................
........................................................................

 iter      E             dE          RMSdq      gap      omega  full diag
   1    -76.2826443 -0.762826E+02  0.211E-03    2.89       0.0  T
   2    -76.2826443 -0.491468E-09  0.127E-03    2.89      11.1  T
   3    -76.2826443 -0.101153E-09  0.631E-05    2.89     224.1  T
   4    -76.2826443 -0.865299E-10  0.326E-05    2.89     434.0  T
     SCC iter.                  ...        0 min,  0.013 sec
     gradient                   ...        0 min,  0.007 sec
 * total energy  :   -75.2925150 Eh     change       -0.2997119E-06 Eh
   gradient norm :     0.0000564 Eh/α   predicted    -0.1096739E-06 ( -63.41%)
   displ. norm   :     0.0155885 α      lambda       -0.2055898E-06
   maximum displ.:     0.0132631 α      in ANC's #6, #7, #22, ...

........................................................................
.............................. CYCLE   61 ..............................
........................................................................

 iter      E             dE          RMSdq      gap      omega  full diag
   1    -76.2826502 -0.762827E+02  0.220E-03    2.89       0.0  T
   2    -76.2826502 -0.471232E-09  0.132E-03    2.89      10.7  T
   3    -76.2826502 -0.667768E-10  0.760E-05    2.89     186.2  T
   4    -76.2826502 -0.146386E-09  0.326E-05    2.89     434.1  T
     SCC iter.                  ...        0 min,  0.013 sec
     gradient                   ...        0 min,  0.007 sec
 * total energy  :   -75.2925153 Eh     change       -0.2999449E-06 Eh
   gradient norm :     0.0000671 Eh/α   predicted    -0.1076737E-06 ( -64.10%)
   displ. norm   :     0.0191442 α      lambda       -0.2464411E-06
   maximum displ.:     0.0159731 α      in ANC's #6, #7, #2, ...

........................................................................
.............................. CYCLE   62 ..............................
........................................................................

 iter      E             dE          RMSdq      gap      omega  full diag
   1    -76.2826432 -0.762826E+02  0.275E-03    2.89       0.0  T
   2    -76.2826432 -0.723261E-09  0.166E-03    2.89       8.5  T
   3    -76.2826432  0.958948E-10  0.119E-04    2.89     118.7  T
   4    -76.2826432 -0.441176E-09  0.412E-05    2.89     343.4  T
     SCC iter.                  ...        0 min,  0.013 sec
     gradient                   ...        0 min,  0.007 sec
 * total energy  :   -75.2925156 Eh     change       -0.3452566E-06 Eh
   gradient norm :     0.0000623 Eh/α   predicted    -0.1278008E-06 ( -62.98%)
   displ. norm   :     0.0238722 α      lambda       -0.2816727E-06
   maximum displ.:     0.0196448 α      in ANC's #6, #7, #2, ...

........................................................................
.............................. CYCLE   63 ..............................
........................................................................

 iter      E             dE          RMSdq      gap      omega  full diag
   1    -76.2826311 -0.762826E+02  0.348E-03    2.89       0.0  T
   2    -76.2826311 -0.124913E-08  0.209E-03    2.89       6.8  T
   3    -76.2826311  0.345551E-09  0.170E-04    2.89      83.3  T
   4    -76.2826311 -0.927926E-09  0.537E-05    2.89     263.5  T
     SCC iter.                  ...        0 min,  0.013 sec
     gradient                   ...        0 min,  0.007 sec
 * total energy  :   -75.2925160 Eh     change       -0.3779519E-06 Eh
   gradient norm :     0.0000578 Eh/α   predicted    -0.1448768E-06 ( -61.67%)
   displ. norm   :     0.0340913 α      lambda       -0.3426812E-06
   maximum displ.:     0.0278773 α      in ANC's #6, #7, #2, ...

........................................................................
.............................. CYCLE   64 ..............................
........................................................................

 iter      E             dE          RMSdq      gap      omega  full diag
   1    -76.2826059 -0.762826E+02  0.492E-03    2.89       0.0  T
   2    -76.2826059 -0.249143E-08  0.296E-03    2.89       4.8  T
   3    -76.2826059  0.853618E-09  0.252E-04    2.89      56.0  T
   4    -76.2826059 -0.203704E-08  0.755E-05    2.89     187.3  T
     SCC iter.                  ...        0 min,  0.013 sec
     gradient                   ...        0 min,  0.006 sec
 * total energy  :   -75.2925164 Eh     change       -0.4430073E-06 Eh
   gradient norm :     0.0000934 Eh/α   predicted    -0.1721604E-06 ( -61.14%)
   displ. norm   :     0.0526398 α      lambda       -0.4137435E-06
   maximum displ.:     0.0432040 α      in ANC's #6, #7, #2, ...

........................................................................
.............................. CYCLE   65 ..............................
........................................................................

 iter      E             dE          RMSdq      gap      omega  full diag
   1    -76.2825427 -0.762825E+02  0.753E-03    2.89       0.0  T
   2    -76.2825427 -0.558022E-08  0.452E-03    2.89       3.1  T
   3    -76.2825427  0.673808E-09  0.331E-04    2.89      42.8  T
   4    -76.2825427 -0.331262E-08  0.114E-04    2.89     123.9  T
     SCC iter.                  ...        0 min,  0.013 sec
     gradient                   ...        0 min,  0.007 sec
 * total energy  :   -75.2925169 Eh     change       -0.4407481E-06 Eh
   gradient norm :     0.0002509 Eh/α   predicted    -0.2076437E-06 ( -52.89%)
   displ. norm   :     0.0425405 α      lambda       -0.2493915E-06
   maximum displ.:     0.0352962 α      in ANC's #6, #7, #2, ...

........................................................................
.............................. CYCLE   66 ..............................
........................................................................

 iter      E             dE          RMSdq      gap      omega  full diag
   1    -76.2825292 -0.762825E+02  0.603E-03    2.89       0.0  T
   2    -76.2825292 -0.345415E-08  0.363E-03    2.89       3.9  T
   3    -76.2825292  0.730267E-09  0.284E-04    2.89      49.9  T
   4    -76.2825292 -0.244816E-08  0.907E-05    2.89     156.0  T
     SCC iter.                  ...        0 min,  0.013 sec
     gradient                   ...        0 min,  0.007 sec
 * total energy  :   -75.2925171 Eh     change       -0.2276428E-06 Eh
   gradient norm :     0.0002979 Eh/α   predicted    -0.1260692E-06 ( -44.62%)
   displ. norm   :     0.0153415 α      lambda       -0.1897624E-06
   maximum displ.:     0.0129838 α      in ANC's #6, #7, #5, ...
 * RMSD in coord.:     0.0553543 α      energy gain  -0.8954218E-05 Eh

generating ANC from exact Hessian ...
Using Lindh-Hessian (1995)
 Shifting diagonal of input Hessian by   9.218678573229824E-003
 Lowest  eigenvalues of input Hessian
    0.000000    0.000000    0.000000    0.000000    0.000000    0.000000
    0.010000    0.010230    0.011340    0.011552    0.012829    0.013360
    0.014452    0.015902    0.017347    0.019543    0.020159    0.021829
 Highest eigenvalues
    1.822016    1.903397    1.955282    2.020395    2.083903    2.333201
 

........................................................................
.............................. CYCLE   67 ..............................
........................................................................

 iter      E             dE          RMSdq      gap      omega  full diag
   1    -76.2826080 -0.762826E+02  0.220E-03    2.89       0.0  T
   2    -76.2826080 -0.185180E-08  0.132E-03    2.89      10.7  T
   3    -76.2826080 -0.108258E-09  0.101E-04    2.89     139.6  T
   4    -76.2826080 -0.146585E-09  0.473E-05    2.89     299.0  T
     SCC iter.                  ...        0 min,  0.013 sec
     gradient                   ...        0 min,  0.007 sec
 * total energy  :   -75.2925173 Eh     change       -0.1931958E-06 Eh
   gradient norm :     0.0001558 Eh/α   predicted     0.0000000E+00 (-100.00%)
   displ. norm   :     0.0033290 α      lambda       -0.2612303E-07
   maximum displ.:     0.0025645 α      in ANC's #2, #6, #5, ...

........................................................................
.............................. CYCLE   68 ..............................
........................................................................

 iter      E             dE          RMSdq      gap      omega  full diag
   1    -76.2826299 -0.762826E+02  0.111E-03    2.89       0.0  T
   2    -76.2826299 -0.151034E-08  0.663E-04    2.89      21.3  T
   3    -76.2826299  0.379785E-09  0.146E-04    2.89      96.7  T
     SCC iter.                  ...        0 min,  0.010 sec
     gradient                   ...        0 min,  0.007 sec
 * total energy  :   -75.2925174 Eh     change       -0.9623523E-07 Eh
   gradient norm :     0.0000818 Eh/α   predicted    -0.5532300E-07 ( -42.51%)
   displ. norm   :     0.0042098 α      lambda       -0.6559462E-07
   maximum displ.:     0.0031793 α      in ANC's #2, #6, #1, ...

   *** GEOMETRY OPTIMIZATION CONVERGED AFTER 68 ITERATIONS ***

------------------------------------------------------------------------
 total energy gain   :        -0.0080745 Eh       -5.0668 kcal/mol
 total RMSD          :         0.2577499 a0        0.1364 Å
 total power (kW/mol):        -0.3117592 (step)   -8.1018 (real)
------------------------------------------------------------------------

 ANCopt (total)                0 d,  0 h,  0 min,  2.617 sec
 optimizer setup                ...        0 min,  0.000 sec (  0.009%)
 model hessian                  ...        0 min,  0.397 sec ( 15.175%)
 ANC generation                 ...        0 min,  0.012 sec (  0.455%)
 coordinate transformation      ...        0 min,  0.002 sec (  0.090%)
 single point calculation       ...        0 min,  2.172 sec ( 83.018%)
 optimization log               ...        0 min,  0.017 sec (  0.650%)
 hessian update                 ...        0 min,  0.002 sec (  0.077%)
 rational function              ...        0 min,  0.009 sec (  0.350%)

================
 final structure:
================
$coord
        0.04027966857035        0.99573162246819        4.85358852986858      c
        2.87531424597935        1.46623977168756        4.56012507313021      c
       -4.24103184200717       -6.04230072095369       -0.50721866815944      c
       -6.23340328851211       -5.18628090182851        0.95892421258864      c
       -6.13857990948770       -2.79914739449744        2.00102608351551      c
       -4.08801834584477       -1.20281379947557        1.55160157256246      c
       -2.12891190863378       -2.01520954748224       -0.04020481232431      c
       -2.21915687339865       -4.45823053062268       -0.99461512432689      c
       -4.05431234600738        1.17214675449043        2.64466461622276      n
       -1.62689329082215        2.38238856600682        2.90151824720739      c
       -0.40507676660896        2.42958729504534        0.25210918964555      c
        0.06352447724652       -0.29088712342855       -0.68974610349325      c
        2.22970679768018        3.55765279217123        0.46470614274153      c
        3.66413939599981        1.39399797556013        1.76209636888050      c
        2.60943348968790       -1.05683414337078        0.57010203232098      c
        6.45381038610961        1.72921707532658        1.49329637073903      c
        7.89950250496812        0.12045787913850        0.24839547561994      c
        6.89971754183320       -2.24666138464380       -0.90099846401502      c
        4.15912290772861       -2.22488165804913       -1.48107889983967      n
        3.55469451260314       -0.68826312459420       -3.73505086521438      c
        0.70609804353110       -0.28790922071093       -3.55070272408342      c
        3.43981949789889       -4.64534242608071       -1.86094221596936      o
        2.39129090029102       -2.55888955895898        1.96451522522752      h
       -2.11400210345596        3.99018490736988       -1.43896453437760      c
       -1.73490745538709        6.20196332830490       -1.90967439842261      o
       -4.08545622361039        2.71483105822493       -2.29798289654593      o
       -5.86791369530982        4.05945996332991       -3.80853221074576      c
       -0.55670825345869        1.55816215795855        6.74732496834027      h
       -0.34393129505769       -1.02274656972168        4.66584723072494      h
        3.37408408088131        3.31166863977823        5.33396599000667      h
        3.91165167142848        0.03427117326830        5.62511014605913      h
       -4.25472757329013       -7.93472400420614       -1.26936879498022      h
       -7.83720690105000       -6.39453838606407        1.32915719475799      h
       -7.65557615296272       -2.13675626482594        3.19902363975639      h
       -0.62259704718064       -5.15578551011161       -2.06073400241158      h
       -5.24501192808930        1.38194031264410        4.12061378571693      h
       -1.93814028781173        4.34167087308438        3.50103080878720      h
        2.24380816876403        5.28365078161158        1.58383370291940      h
        2.98395634046669        4.01209908369830       -1.39480493208164      h
        7.22619637909714        3.41963808840413        2.33568036866707      h
        9.91171024986612        0.40520247497465        0.06720217059210      h
        7.86846322846196       -2.71629344907846       -2.66171133762923      h
        7.17450452532629       -3.84702669962902        0.38490655888738      h
        4.61663949915743        1.07433237919377       -3.65341013508713      h
        4.09171603636453       -1.76704856295181       -5.40511515775346      h
       -0.28290044825038       -1.82934962941095       -4.48597969691525      h
        0.15950166638897        1.47542287428168       -4.45767161191683      h
       -4.93868315758168        4.86489019893881       -5.46459940797170      h
       -7.28200667121295        2.67754161091445       -4.35956011650957      h
       -6.71779550575264        5.58453665950386       -2.71144805568703      h
$end
 
 Bond Distances (Angstroems)
 ---------------------------
C1-C2=1.5287         C1-C10=1.5440        C1-H28=1.0921        C1-H29=1.0918        C2-C1=1.5287         C2-C14=1.5388        
C2-H30=1.0913        C2-H31=1.0920        C3-C4=1.3852         C3-C8=1.3835         C3-H32=1.0796        C4-C3=1.3852         
C4-C5=1.3793         C4-H33=1.0805        C5-C4=1.3793         C5-C6=1.3956         C5-H34=1.0813        C6-C5=1.3956         
C6-C7=1.4033         C6-N9=1.3836         C7-C6=1.4033         C7-C8=1.3888         C7-C12=1.5155        C8-C3=1.3835         
C8-C7=1.3888         C8-H35=1.0809        N9-C6=1.3836         N9-C10=1.4418        N9-H36=1.0096        C10-C1=1.5440        
C10-N9=1.4418        C10-C11=1.5441       C10-H37=1.0967       C11-C10=1.5441       C11-C12=1.5435       C11-C13=1.5208       
C11-C24=1.5168       C12-C7=1.5155        C12-C11=1.5435       C12-C15=1.5569       C12-C21=1.5517       C13-C11=1.5208       
C13-C14=1.5357       C13-H38=1.0886       C13-H39=1.0888       C14-C2=1.5388        C14-C13=1.5357       C14-C15=1.5464       
C14-C16=1.4936       C15-C12=1.5569       C15-C14=1.5464       C15-N19=1.4942       C15-H23=1.0907       C16-C14=1.4936       
C16-C17=1.3206       C16-H40=1.0798       C17-C16=1.3206       C17-C18=1.4896       C17-H41=1.0797       C18-C17=1.4896       
C18-N19=1.4824       C18-H42=1.0921       C18-H43=1.0961       N19-C15=1.4942       N19-C18=1.4824       N19-C20=1.4786       
N19-O22=1.3513       C20-N19=1.4786       C20-C21=1.5254       C20-H44=1.0898       C20-H45=1.0898       C21-C12=1.5517       
C21-C20=1.5254       C21-H46=1.0882       C21-H47=1.0884       O22-N19=1.3513       H23-C15=1.0907       C24-C11=1.5168       
C24-O25=1.2133       C24-O26=1.3231       O25-C24=1.2133       O26-C24=1.3231       O26-C27=1.4265       C27-O26=1.4265       
C27-H48=1.0915       C27-H49=1.0862       C27-H50=1.0912       H28-C1=1.0921        H29-C1=1.0918        H30-C2=1.0913        
H31-C2=1.0920        H32-C3=1.0796        H33-C4=1.0805        H34-C5=1.0813        H35-C8=1.0809        H36-N9=1.0096        
H37-C10=1.0967       H38-C13=1.0886       H39-C13=1.0888       H40-C16=1.0798       H41-C17=1.0797       H42-C18=1.0921       
H43-C18=1.0961       H44-C20=1.0898       H45-C20=1.0898       H46-C21=1.0882       H47-C21=1.0884       H48-C27=1.0915       
H49-C27=1.0862       H50-C27=1.0912       
 C  H  Rav=1.0881 sigma=0.0052  Rmin=1.0796  Rmax=1.0967    23
 C  C  Rav=1.4822 sigma=0.0733  Rmin=1.3206  Rmax=1.5569    22
 N  H  Rav=1.0096 sigma=0.0000  Rmin=1.0096  Rmax=1.0096     1
 N  C  Rav=1.4561 sigma=0.0403  Rmin=1.3836  Rmax=1.4942     5
 O  C  Rav=1.3210 sigma=0.0870  Rmin=1.2133  Rmax=1.4265     3
 O  N  Rav=1.3513 sigma=0.0000  Rmin=1.3513  Rmax=1.3513     1
 
 selected bond angles (degree)
 --------------------
C10-C1-C2=114.54               H28-C1-C2=109.43               H28-C1-C10=108.61              H29-C1-C2=109.44               
H29-C1-C10=107.32              H29-C1-H28=107.23              C14-C2-C1=111.10               H30-C2-C1=110.18               
H30-C2-C14=108.52              H31-C2-C1=109.11               H31-C2-C14=110.07              H31-C2-H30=107.81              
C8-C3-C4=119.66                H32-C3-C4=120.50               H32-C3-C8=119.84               C5-C4-C3=119.72                
H33-C4-C3=120.39               H33-C4-C5=119.87               C6-C5-C4=120.97                H34-C5-C4=120.29               
H34-C5-C6=118.75               C7-C6-C5=119.43                N9-C6-C5=119.25                N9-C6-C7=121.31                
C8-C7-C6=118.56                C12-C7-C6=121.15               C12-C7-C8=120.29               C7-C8-C3=121.52                
H35-C8-C3=119.66               H35-C8-C7=118.74               C10-N9-C6=117.03               H36-N9-C6=114.53               
H36-N9-C10=115.74              N9-C10-C1=111.17               C11-C10-C1=112.08              C11-C10-N9=107.14              
H37-C10-C1=109.97              H37-C10-N9=108.26              H37-C10-C11=108.07             
 
 selected dihedral angles (degree)
 ---------------------------------
C14-C2-C1-C10=317.57          C14-C2-C1-H28=195.36          C14-C2-C1-H29= 78.12          H30-C2-C1-C10= 77.87          
H30-C2-C1-H28=315.66          H30-C2-C1-H29=198.42          H31-C2-C1-C10=196.05          H31-C2-C1-H28= 73.83          
H31-C2-C1-H29=316.59          C5-C4-C3-C8=357.47            C5-C4-C3-H32=177.41           H33-C4-C3-C8=179.04           
H33-C4-C3-H32=358.98          C6-C5-C4-C3=  1.55            C6-C5-C4-H33=179.99           H34-C5-C4-C3=182.04           
H34-C5-C4-H33=  0.48          C7-C6-C5-C4=  1.77            C7-C6-C5-H34=181.29           N9-C6-C5-C4=180.43            
N9-C6-C5-H34=359.95           C8-C7-C6-C5=355.97            C8-C7-C6-N9=177.34            C12-C7-C6-C5=176.73           
C12-C7-C6-N9=358.09           C7-C8-C3-C4=  0.18            C7-C8-C3-H32=180.23           H35-C8-C3-C4=176.99           
H35-C8-C3-H32=357.04          C3-C8-C7-C6=  3.10            C3-C8-C7-C12=182.35           H35-C8-C7-C6=186.26           
H35-C8-C7-C12=  5.51          C10-N9-C6-C5=158.58           C10-N9-C6-C7=337.22           H36-N9-C6-C5= 18.34           
H36-N9-C6-C7=196.98           N9-C10-C1-C2=158.12           N9-C10-C1-H28=280.79          N9-C10-C1-H29= 36.41          
C11-C10-C1-C2= 38.25          C11-C10-C1-H28=160.92         C11-C10-C1-H29=276.54         H37-C10-C1-C2=278.01          
H37-C10-C1-H28= 40.67         H37-C10-C1-H29=156.29         C1-C10-N9-C6=291.81           C1-C10-N9-H36= 71.58          
C11-C10-N9-C6= 54.58          C11-C10-N9-H36=194.34         H37-C10-N9-C6=170.92          H37-C10-N9-H36=310.68         
           -------------------------------------------------
          |                Final Singlepoint                |
           -------------------------------------------------

          ...................................................
          :                      SETUP                      :
          :.................................................:
          :  # basis functions                 128          :
          :  # atomic orbitals                 128          :
          :  # shells                           76          :
          :  # electrons                       136          :
          :  max. iterations                   250          :
          :  Hamiltonian                  GFN2-xTB          :
          :  restarted?                      false          :
          :  GBSA solvation                   true          :
          :  PC potential                    false          :
          :  electronic temp.          300.0000000     K    :
          :  accuracy                    1.0000000          :
          :  -> integral cutoff          0.2500000E+02      :
          :  -> integral neglect         0.1000000E-07      :
          :  -> SCF convergence          0.1000000E-05 Eh   :
          :  -> wf. convergence          0.1000000E-03 e    :
          :  Broyden damping             0.4000000          :
          :  net charge                          0          :
          :  unpaired electrons                  0          :
          ...................................................

 iter      E             dE          RMSdq      gap      omega  full diag
   1    -76.2826299 -0.762826E+02  0.242E-05    2.89       0.0  T
   2    -76.2826299 -0.503064E-11  0.164E-05    2.89     860.7  T
   3    -76.2826299 -0.511591E-11  0.905E-06    2.89    1562.4  T

   *** convergence criteria satisfied after 3 iterations ***

         #    Occupation            Energy/Eh            Energy/eV
      -------------------------------------------------------------
         1        2.0000           -0.7557606             -20.5653
       ...           ...                  ...                  ...
        62        2.0000           -0.4139177             -11.2633
        63        2.0000           -0.4115600             -11.1991
        64        2.0000           -0.4078091             -11.0971
        65        2.0000           -0.3900796             -10.6146
        66        2.0000           -0.3554317              -9.6718
        67        2.0000           -0.3538349              -9.6283
        68        2.0000           -0.3518917              -9.5755 (HOMO)
        69                         -0.2457506              -6.6872 (LUMO)
        70                         -0.2204446              -5.9986
        71                         -0.2148792              -5.8472
        72                         -0.2026853              -5.5153
        73                         -0.0874925              -2.3808
       ...                                ...                  ...
       128                          0.6695178              18.2185
      -------------------------------------------------------------
                  HL-Gap            0.1061410 Eh            2.8882 eV
             Fermi-level           -0.2988211 Eh           -8.1313 eV

 SCC (total)                   0 d,  0 h,  0 min,  0.020 sec
 SCC setup                      ...        0 min,  0.001 sec (  4.070%)
 Dispersion                     ...        0 min,  0.000 sec (  1.946%)
 classical contributions        ...        0 min,  0.000 sec (  0.168%)
 integral evaluation            ...        0 min,  0.002 sec ( 11.066%)
 iterations                     ...        0 min,  0.010 sec ( 49.369%)
 molecular gradient             ...        0 min,  0.007 sec ( 32.383%)
 printout                       ...        0 min,  0.000 sec (  0.826%)

         :::::::::::::::::::::::::::::::::::::::::::::::::::::
         ::                     SUMMARY                     ::
         :::::::::::::::::::::::::::::::::::::::::::::::::::::
         :: total energy             -75.292517407976 Eh    ::
         :: total w/o Gsasa/hb       -75.274007493551 Eh    ::
         :: gradient norm              0.000080482634 Eh/a0 ::
         :: HOMO-LUMO gap              2.888244629947 eV    ::
         ::.................................................::
         :: SCC energy               -76.280441632788 Eh    ::
         :: -> isotropic ES            0.150271038139 Eh    ::
         :: -> anisotropic ES          0.004020417110 Eh    ::
         :: -> anisotropic XC          0.022668455914 Eh    ::
         :: -> dispersion             -0.067766555222 Eh    ::
         :: -> Gsolv                  -0.044637234880 Eh    ::
         ::    -> Gelec               -0.026127320454 Eh    ::
         ::    -> Gsasa               -0.022400933669 Eh    ::
         ::    -> Ghb                  0.000000000000 Eh    ::
         ::    -> Gshift               0.003891019244 Eh    ::
         :: repulsion energy           0.987924224812 Eh    ::
         :: add. restraining           0.000000000000 Eh    ::
         :: total charge              -0.000000000000 e     ::
         :::::::::::::::::::::::::::::::::::::::::::::::::::::

           ------------------------------------------------- 
          |                Numerical Hessian                |
           ------------------------------------------------- 
step length          :   0.00500
SCC accuracy         :   0.30000
Hessian scale factor :   1.00000
frozen atoms in %    :   0.00000    0
RMS gradient         :   0.00008
estimated CPU  time      4.97 min
estimated wall time      0.42 min

writing file <hessian>.

 projected vibrational frequencies (cm⁻¹)
eigval :       -0.00    -0.00     0.00     0.00     0.00     0.00
eigval :       33.11    42.21    56.27    77.09    84.26    99.99
eigval :      147.29   151.35   164.21   192.60   225.45   233.65
eigval :      250.49   263.76   274.05   289.69   304.66   312.21
eigval :      332.80   353.54   361.78   370.44   407.20   419.33
eigval :      434.70   456.08   462.14   497.20   503.66   511.83
eigval :      524.11   533.35   550.76   566.14   578.44   603.42
eigval :      631.44   681.61   692.31   704.54   725.03   748.26
eigval :      764.20   777.16   782.63   813.53   833.22   845.12
eigval :      862.83   864.92   888.84   899.40   909.09   916.43
eigval :      920.84   932.64   935.42   963.67   972.83   988.30
eigval :      991.91  1010.26  1016.55  1027.07  1048.42  1053.35
eigval :     1076.92  1086.13  1091.60  1096.77  1100.10  1110.71
eigval :     1113.18  1119.12  1127.03  1136.18  1145.33  1149.75
eigval :     1157.90  1172.79  1174.04  1182.25  1186.73  1193.52
eigval :     1204.92  1210.89  1218.69  1230.49  1241.32  1246.84
eigval :     1251.71  1263.26  1278.21  1285.65  1291.02  1297.79
eigval :     1301.59  1309.89  1313.24  1326.82  1333.48  1335.68
eigval :     1347.73  1353.63  1373.38  1377.39  1430.08  1439.32
eigval :     1449.71  1450.16  1451.04  1469.43  1481.26  1487.97
eigval :     1494.55  1503.13  1577.30  1599.75  1698.13  1733.52
eigval :     2913.89  2934.07  2966.41  2972.78  2979.25  2979.86
eigval :     2980.05  2986.79  2988.81  2991.07  2992.83  3003.03
eigval :     3005.43  3008.02  3021.16  3029.07  3049.84  3059.47
eigval :     3071.63  3074.82  3079.09  3088.74  3089.05  3431.81
           -------------------------------------------------
          |                Property Printout                |
           -------------------------------------------------

    * Orbital Energies and Occupations

         #    Occupation            Energy/Eh            Energy/eV
      -------------------------------------------------------------
         1        2.0000           -0.7557606             -20.5653
       ...           ...                  ...                  ...
        56        2.0000           -0.4476693             -12.1817
        57        2.0000           -0.4451820             -12.1140
        58        2.0000           -0.4365869             -11.8801
        59        2.0000           -0.4309024             -11.7254
        60        2.0000           -0.4286235             -11.6634
        61        2.0000           -0.4216477             -11.4736
        62        2.0000           -0.4139177             -11.2633
        63        2.0000           -0.4115601             -11.1991
        64        2.0000           -0.4078091             -11.0970
        65        2.0000           -0.3900796             -10.6146
        66        2.0000           -0.3554317              -9.6718
        67        2.0000           -0.3538349              -9.6283
        68        2.0000           -0.3518917              -9.5755 (HOMO)
        69                         -0.2457506              -6.6872 (LUMO)
        70                         -0.2204446              -5.9986
        71                         -0.2148792              -5.8472
        72                         -0.2026853              -5.5153
        73                         -0.0874925              -2.3808
        74                         -0.0494999              -1.3470
        75                         -0.0164299              -0.4471
        76                         -0.0089754              -0.2442
        77                         -0.0028133              -0.0766
        78                          0.0139202               0.3788
        79                          0.0215185               0.5855
       ...                                ...                  ...
       128                          0.6695178              18.2185
      -------------------------------------------------------------
                  HL-Gap            0.1061411 Eh            2.8882 eV
             Fermi-level           -0.2988212 Eh           -8.1313 eV

     #   Z          covCN         q      C6AA      α(0)
     1   6 c        3.803    -0.070    21.832     6.652
     2   6 c        3.813    -0.064    21.715     6.633
     3   6 c        2.918    -0.050    29.236     8.867
     4   6 c        2.918    -0.037    28.920     8.819
     5   6 c        2.925    -0.067    29.659     8.931
     6   6 c        2.917     0.067    26.506     8.443
     7   6 c        2.971    -0.022    28.553     8.765
     8   6 c        2.924    -0.042    29.049     8.839
     9   7 n        2.696    -0.215    25.679     7.526
    10   6 c        3.807     0.052    19.703     6.319
    11   6 c        3.947    -0.011    20.702     6.465
    12   6 c        3.932     0.017    20.233     6.392
    13   6 c        3.840    -0.064    21.690     6.625
    14   6 c        3.940     0.013    20.293     6.401
    15   6 c        3.849     0.008    20.417     6.427
    16   6 c        2.900    -0.046    29.150     8.852
    17   6 c        2.891    -0.053    29.309     8.876
    18   6 c        3.754    -0.025    21.083     6.547
    19   7 n        3.649     0.293    16.596     6.051
    20   6 c        3.781    -0.023    21.013     6.530
    21   6 c        3.821    -0.058    21.608     6.615
    22   8 o        0.927    -0.736    29.663     7.304
    23   1 h        0.924     0.068     2.104     2.268
    24   6 c        2.728     0.362    20.860     7.477
    25   8 o        0.856    -0.469    23.107     6.445
    26   8 o        1.704    -0.252    18.171     5.755
    27   6 c        3.653     0.026    20.442     6.492
    28   1 h        0.924     0.049     2.335     2.389
    29   1 h        0.924     0.044     2.399     2.422
    30   1 h        0.924     0.054     2.273     2.358
    31   1 h        0.924     0.047     2.361     2.403
    32   1 h        0.926     0.025     2.652     2.546
    33   1 h        0.926     0.029     2.597     2.520
    34   1 h        0.925     0.028     2.619     2.531
    35   1 h        0.926     0.059     2.212     2.326
    36   1 h        0.860     0.168     1.286     1.776
    37   1 h        0.924     0.044     2.403     2.424
    38   1 h        0.925     0.060     2.193     2.316
    39   1 h        0.925     0.048     2.341     2.393
    40   1 h        0.926     0.056     2.242     2.342
    41   1 h        0.926     0.060     2.203     2.321
    42   1 h        0.924     0.072     2.065     2.247
    43   1 h        0.924     0.084     1.938     2.177
    44   1 h        0.925     0.058     2.228     2.334
    45   1 h        0.925     0.071     2.076     2.253
    46   1 h        0.925     0.068     2.110     2.271
    47   1 h        0.925     0.042     2.429     2.437
    48   1 h        0.924     0.072     2.069     2.249
    49   1 h        0.925     0.090     1.882     2.145
    50   1 h        0.924     0.073     2.048     2.238

 Mol. C6AA /au·bohr⁶  :      26003.535979
 Mol. C8AA /au·bohr⁸  :     609526.355796
 Mol. α(0) /au        :        244.737554


Wiberg/Mayer (AO) data.
largest (>0.10) Wiberg bond orders for each atom

 ---------------------------------------------------------------------------
     #   Z sym  total        # sym  WBO       # sym  WBO       # sym  WBO
 ---------------------------------------------------------------------------
     1   6 c    3.994 --     2 c    1.006    10 c    0.975    28 h    0.975
                            29 h    0.972
     2   6 c    3.994 --     1 c    1.006    31 h    0.975    30 h    0.975
                            14 c    0.970
     3   6 c    3.990 --     8 c    1.436     4 c    1.422    32 h    0.971
     4   6 c    3.991 --     5 c    1.462     3 c    1.422    33 h    0.971
                             7 c    0.101
     5   6 c    3.985 --     4 c    1.462     6 c    1.350    34 h    0.967
                             8 c    0.103
     6   6 c    3.972 --     5 c    1.350     7 c    1.327     9 n    1.132
     7   6 c    3.981 --     8 c    1.425     6 c    1.327    12 c    0.991
                             4 c    0.101
     8   6 c    3.988 --     3 c    1.436     7 c    1.425    35 h    0.955
                             5 c    0.103
     9   7 n    3.293 --     6 c    1.132    10 c    1.003    36 h    0.940
    10   6 c    3.979 --     9 n    1.003     1 c    0.975    37 h    0.964
                            11 c    0.942
    11   6 c    3.988 --    13 c    0.983    12 c    0.956    24 c    0.948
                            10 c    0.942
    12   6 c    3.986 --     7 c    0.991    21 c    0.969    15 c    0.957
                            11 c    0.956
    13   6 c    3.991 --    11 c    0.983    38 h    0.972    39 h    0.969
                            14 c    0.966
    14   6 c    3.989 --    16 c    1.009     2 c    0.970    13 c    0.966
                            15 c    0.966
    15   6 c    3.963 --    14 c    0.966    23 h    0.962    12 c    0.957
                            19 n    0.922
    16   6 c    3.988 --    17 c    1.920    14 c    1.009    40 h    0.962
    17   6 c    3.985 --    16 c    1.920    18 c    1.024    41 h    0.962
    18   6 c    3.965 --    17 c    1.024    42 h    0.963    43 h    0.949
                            19 n    0.939
    19   7 n    3.872 --    22 o    1.014    20 c    0.942    18 c    0.939
                            15 c    0.922
    20   6 c    3.968 --    21 c    1.008    45 h    0.973    44 h    0.968
                            19 n    0.942
    21   6 c    3.992 --    20 c    1.008    47 h    0.972    46 h    0.972
                            12 c    0.969
    22   8 o    1.190 --    19 n    1.014
    23   1 h    0.995 --    15 c    0.962
    24   6 c    3.908 --    25 o    1.698    26 o    1.173    11 c    0.948
    25   8 o    1.982 --    24 c    1.698    26 o    0.174
    26   8 o    2.334 --    24 c    1.173    27 c    0.940    25 o    0.174
    27   6 c    3.907 --    49 h    0.979    48 h    0.976    50 h    0.976
                            26 o    0.940
    28   1 h    0.997 --     1 c    0.975
    29   1 h    0.998 --     1 c    0.972
    30   1 h    0.997 --     2 c    0.975
    31   1 h    0.997 --     2 c    0.975
    32   1 h    0.999 --     3 c    0.971
    33   1 h    0.998 --     4 c    0.971
    34   1 h    0.999 --     5 c    0.967
    35   1 h    0.996 --     8 c    0.955
    36   1 h    0.971 --     9 n    0.940
    37   1 h    0.997 --    10 c    0.964
    38   1 h    0.996 --    13 c    0.972
    39   1 h    0.997 --    13 c    0.969
    40   1 h    0.997 --    16 c    0.962
    41   1 h    0.996 --    17 c    0.962
    42   1 h    0.994 --    18 c    0.963
    43   1 h    0.993 --    18 c    0.949
    44   1 h    0.997 --    20 c    0.968
    45   1 h    0.994 --    20 c    0.973
    46   1 h    0.995 --    21 c    0.972
    47   1 h    0.998 --    21 c    0.972
    48   1 h    0.995 --    27 c    0.976
    49   1 h    0.992 --    27 c    0.979
    50   1 h    0.994 --    27 c    0.976
 ---------------------------------------------------------------------------

Topologies differ in total number of bonds
Writing topology from bond orders to xtbtopo.mol

molecular dipole:
                 x           y           z       tot (Debye)
 q only:        0.270       1.811       0.942
   full:        0.354       1.833       1.073       5.474
molecular quadrupole (traceless):
                xx          xy          yy          xz          yz          zz
 q only:       21.877       5.439     -32.232       4.684      -2.053      10.355
  q+dip:       21.545       5.641     -32.968      -1.533       0.353      11.423
   full:       21.798       5.050     -34.688       0.306      -1.190      12.890

           -------------------------------------------------
          |                Geometry Summary                 |
           -------------------------------------------------

      molecular mass/u    :      352.4276531
   center of mass at/Å    :       -0.0075912       0.0117862      -0.0095459
  moments of inertia/u·Å² :        0.1546276E+04   0.2229388E+04   0.2652275E+04
rotational constants/cm⁻¹ :        0.1090209E-01   0.7561552E-02   0.6355914E-02

 * 45 selected distances

     #   Z          #   Z                                           value/Å
     1   6 c        2   6 c                                       1.5286648
     3   6 c        4   6 c                                       1.3851804
     4   6 c        5   6 c                                       1.3792530
     5   6 c        6   6 c                                       1.3955706
     6   6 c        7   6 c                                       1.4032612
     3   6 c        8   6 c                                       1.3834532
     7   6 c        8   6 c                                       1.3887647
     6   6 c        9   7 n                                       1.3836099
     9   7 n       10   6 c                                       1.4417553
    11   6 c       12   6 c                                       1.5434985 (max)
    11   6 c       13   6 c                                       1.5208497
     2   6 c       14   6 c                                       1.5388443
    13   6 c       14   6 c                                       1.5357286
    16   6 c       17   6 c                                       1.3206032
    15   6 c       19   7 n                                       1.4942316
    18   6 c       19   7 n                                       1.4824357
    19   7 n       20   6 c                                       1.4785671
    20   6 c       21   6 c                                       1.5253501
    15   6 c       23   1 h                                       1.0906887
    24   6 c       25   8 o                                       1.2133337
    24   6 c       26   8 o                                       1.3230565
    26   8 o       27   6 c                                       1.4265171
     1   6 c       28   1 h                                       1.0920763
     1   6 c       29   1 h                                       1.0918402
     2   6 c       30   1 h                                       1.0913386
     2   6 c       31   1 h                                       1.0920458
     3   6 c       32   1 h                                       1.0796158
     4   6 c       33   1 h                                       1.0804997
     5   6 c       34   1 h                                       1.0812890
     8   6 c       35   1 h                                       1.0808950
     9   7 n       36   1 h                                       1.0096343 (min)
    10   6 c       37   1 h                                       1.0966970
    13   6 c       38   1 h                                       1.0885775
    13   6 c       39   1 h                                       1.0887679
    16   6 c       40   1 h                                       1.0797958
    17   6 c       41   1 h                                       1.0796890
    18   6 c       42   1 h                                       1.0920983
    18   6 c       43   1 h                                       1.0960778
    20   6 c       44   1 h                                       1.0897885
    20   6 c       45   1 h                                       1.0898078
    21   6 c       46   1 h                                       1.0882154
    21   6 c       47   1 h                                       1.0884470
    27   6 c       48   1 h                                       1.0915358
    27   6 c       49   1 h                                       1.0861663
    27   6 c       50   1 h                                       1.0911517

 * 5 distinct bonds (by element types)

   Z      Z             #   av. dist./Å        max./Å        min./Å
   1 H    6 C          23     1.0881350     1.0966970     1.0796158
   6 C    6 C          13     1.4499248     1.5434985     1.3206032
   1 H    7 N           1     1.0096343     1.0096343     1.0096343
   6 C    7 N           5     1.4561199     1.4942316     1.3836099
   6 C    8 O           3     1.3209691     1.4265171     1.2133337

           -------------------------------------------------
          |               Frequency Printout                |
           -------------------------------------------------
 projected vibrational frequencies (cm⁻¹)
eigval :       -0.00    -0.00     0.00     0.00     0.00     0.00
eigval :       33.11    42.21    56.27    77.09    84.26    99.99
eigval :      147.29   151.35   164.21   192.60   225.45   233.65
eigval :      250.49   263.76   274.05   289.69   304.66   312.21
eigval :      332.80   353.54   361.78   370.44   407.20   419.33
eigval :      434.70   456.08   462.14   497.20   503.66   511.83
eigval :      524.11   533.35   550.76   566.14   578.44   603.42
eigval :      631.44   681.61   692.31   704.54   725.03   748.26
eigval :      764.20   777.16   782.63   813.53   833.22   845.12
eigval :      862.83   864.92   888.84   899.40   909.09   916.43
eigval :      920.84   932.64   935.42   963.67   972.83   988.30
eigval :      991.91  1010.26  1016.55  1027.07  1048.42  1053.35
eigval :     1076.92  1086.13  1091.60  1096.77  1100.10  1110.71
eigval :     1113.18  1119.12  1127.03  1136.18  1145.33  1149.75
eigval :     1157.90  1172.79  1174.04  1182.25  1186.73  1193.52
eigval :     1204.92  1210.89  1218.69  1230.49  1241.32  1246.84
eigval :     1251.71  1263.26  1278.21  1285.65  1291.02  1297.79
eigval :     1301.59  1309.89  1313.24  1326.82  1333.48  1335.68
eigval :     1347.73  1353.63  1373.38  1377.39  1430.08  1439.32
eigval :     1449.71  1450.16  1451.04  1469.43  1481.26  1487.97
eigval :     1494.55  1503.13  1577.30  1599.75  1698.13  1733.52
eigval :     2913.89  2934.07  2966.41  2972.78  2979.25  2979.86
eigval :     2980.05  2986.79  2988.81  2991.07  2992.83  3003.03
eigval :     3005.43  3008.02  3021.16  3029.07  3049.84  3059.47
eigval :     3071.63  3074.82  3079.09  3088.74  3089.05  3431.81
 reduced masses (amu)
   1: 11.86   2: 11.94   3: 11.60   4: 11.59   5: 11.33   6: 12.05   7:  8.75   8:  7.41
   9: 11.09  10: 10.64  11: 10.18  12: 10.76  13: 10.50  14: 10.61  15:  8.80  16: 10.75
  17: 11.47  18: 11.51  19: 10.07  20: 10.32  21: 11.08  22: 10.48  23:  9.05  24: 10.21
  25: 13.07  26: 10.02  27:  9.78  28: 10.73  29: 10.90  30:  9.51  31: 10.46  32:  8.51
  33:  9.23  34: 10.48  35:  9.66  36: 11.01  37: 10.12  38:  9.31  39:  9.64  40: 10.40
  41:  9.53  42:  9.97  43: 10.80  44: 10.67  45: 11.69  46: 10.87  47:  8.59  48:  9.28
  49:  8.50  50:  8.12  51:  4.55  52:  8.73  53:  9.89  54:  7.97  55:  8.56  56:  4.24
  57:  8.88  58:  8.54  59:  3.54  60:  3.44  61:  8.77  62:  6.74  63:  3.36  64:  8.94
  65:  9.64  66:  8.52  67:  9.10  68:  9.44  69:  7.74  70:  7.69  71:  9.16  72:  8.31
  73:  8.18  74:  9.88  75:  7.64  76:  7.56  77:  8.61  78:  7.20  79:  3.95  80:  9.14
  81:  7.78  82:  6.75  83:  6.90  84:  6.11  85:  8.76  86:  6.47  87:  5.45  88:  2.17
  89:  3.70  90:  6.29  91:  8.45  92:  5.03  93:  4.66  94:  6.96  95:  6.22  96:  6.62
  97:  6.58  98:  6.75  99:  6.16 100:  6.04 101:  4.66 102:  4.56 103:  4.45 104:  5.04
 105:  5.67 106:  4.90 107: 10.42 108:  5.41 109:  7.24 110:  4.27 111:  6.46 112:  2.67
 113:  1.52 114:  2.00 115:  9.47 116:  1.75 117:  1.89 118:  2.43 119:  1.98 120:  7.84
 121:  3.44 122:  2.00 123: 11.55 124: 11.50 125: 13.41 126: 11.65 127:  1.75 128:  1.83
 129:  1.97 130:  1.89 131:  1.68 132:  1.92 133:  1.72 134:  1.62 135:  1.58 136:  1.42
 137:  1.69 138:  1.98 139:  1.73 140:  1.87 141:  1.51 142:  1.64 143:  1.79 144:  1.78
 145:  1.80 146:  1.76 147:  1.84 148:  1.91 149:  1.91 150:  1.84
 IR intensities (km·mol⁻¹)
   1:  0.18   2:  0.10   3:  0.03   4:  0.26   5:  0.45   6:  0.32   7:  4.47   8:  3.15
   9:  0.41  10:  0.39  11:  2.50  12:  6.08  13:  3.39  14:  9.99  15:  2.54  16:  3.98
  17:  2.51  18:  6.76  19:  2.83  20:  5.69  21: 20.02  22:  2.44  23:  1.32  24:  0.17
  25: 11.62  26:  6.64  27:  1.46  28: 19.94  29:  9.28  30:  3.33  31:  5.69  32: 45.36
  33: 31.04  34: 14.63  35:  8.04  36:  9.87  37: 14.96  38: 46.05  39:  5.53  40: 20.81
  41: 18.53  42:  5.63  43:  6.77  44:  1.66  45: 11.46  46:  9.92  47: 34.11  48: 21.82
  49:  3.22  50:  3.75  51: 42.28  52:  1.54  53:  2.69  54:  4.04  55:  3.25  56:  0.13
  57:  1.99  58: 13.60  59:  0.31  60:  0.49  61: 11.67  62:  0.49  63:  7.12  64:  4.41
  65:  1.61  66: 33.80  67: 65.10  68: 29.14  69:  6.45  70:  3.75  71: 18.33  72:  9.68
  73:  3.42  74:  1.43  75:  7.25  76:  4.69  77:  5.61  78:  3.63  79:  1.75  80: 15.50
  81:  4.67  82: 25.63  83: 29.78  84:  2.28  85:106.72  86:  5.64  87: 17.46  88:  2.40
  89:  2.27  90: 29.03  91: 76.09  92: 26.95  93:  9.93  94: 83.91  95: 30.81  96: 59.13
  97: 13.46  98:  6.66  99: 66.50 100: 29.07 101:  2.89 102: 15.25 103: 12.42 104:  9.72
 105: 27.18 106:  5.91 107: 27.41 108:  1.19 109: 16.01 110: 36.37 111: 62.62 112: 18.17
 113:  8.85 114:  2.19 115: 92.19 116:  7.87 117:  7.95 118: 17.88 119:  5.53 120: 92.38
 121: 29.60 122:  1.33 123: 28.56 124:105.09 125:671.88 126:  9.31 127: 68.45 128:  8.88
 129: 22.10 130: 51.89 131: 21.25 132:  6.62 133: 30.60 134: 60.70 135: 23.62 136: 20.29
 137: 57.94 138: 44.91 139: 23.65 140: 43.80 141: 53.25 142: 22.89 143:  3.56 144: 46.41
 145: 91.73 146: 14.42 147: 18.22 148:188.43 149: 13.27 150:  0.43
 Raman intensities (Ä⁴*amu⁻¹)
   1:  0.00   2:  0.00   3:  0.00   4:  0.00   5:  0.00   6:  0.00   7:  0.00   8:  0.00
   9:  0.00  10:  0.00  11:  0.00  12:  0.00  13:  0.00  14:  0.00  15:  0.00  16:  0.00
  17:  0.00  18:  0.00  19:  0.00  20:  0.00  21:  0.00  22:  0.00  23:  0.00  24:  0.00
  25:  0.00  26:  0.00  27:  0.00  28:  0.00  29:  0.00  30:  0.00  31:  0.00  32:  0.00
  33:  0.00  34:  0.00  35:  0.00  36:  0.00  37:  0.00  38:  0.00  39:  0.00  40:  0.00
  41:  0.00  42:  0.00  43:  0.00  44:  0.00  45:  0.00  46:  0.00  47:  0.00  48:  0.00
  49:  0.00  50:  0.00  51:  0.00  52:  0.00  53:  0.00  54:  0.00  55:  0.00  56:  0.00
  57:  0.00  58:  0.00  59:  0.00  60:  0.00  61:  0.00  62:  0.00  63:  0.00  64:  0.00
  65:  0.00  66:  0.00  67:  0.00  68:  0.00  69:  0.00  70:  0.00  71:  0.00  72:  0.00
  73:  0.00  74:  0.00  75:  0.00  76:  0.00  77:  0.00  78:  0.00  79:  0.00  80:  0.00
  81:  0.00  82:  0.00  83:  0.00  84:  0.00  85:  0.00  86:  0.00  87:  0.00  88:  0.00
  89:  0.00  90:  0.00  91:  0.00  92:  0.00  93:  0.00  94:  0.00  95:  0.00  96:  0.00
  97:  0.00  98:  0.00  99:  0.00 100:  0.00 101:  0.00 102:  0.00 103:  0.00 104:  0.00
 105:  0.00 106:  0.00 107:  0.00 108:  0.00 109:  0.00 110:  0.00 111:  0.00 112:  0.00
 113:  0.00 114:  0.00 115:  0.00 116:  0.00 117:  0.00 118:  0.00 119:  0.00 120:  0.00
 121:  0.00 122:  0.00 123:  0.00 124:  0.00 125:  0.00 126:  0.00 127:  0.00 128:  0.00
 129:  0.00 130:  0.00 131:  0.00 132:  0.00 133:  0.00 134:  0.00 135:  0.00 136:  0.00
 137:  0.00 138:  0.00 139:  0.00 140:  0.00 141:  0.00 142:  0.00 143:  0.00 144:  0.00
 145:  0.00 146:  0.00 147:  0.00 148:  0.00 149:  0.00 150:  0.00
 output can be read by thermo (or use thermo option).
 writing <g98.out> molden fake output.
 recommended (thermochemical) frequency scaling factor: 1.0
           -------------------------------------------------
          |             Thermodynamic Functions             |
           -------------------------------------------------

Molecule has no symmetry elements
It seems to be the C1 point group
c1  symmetry found (for desy threshold:  0.10E+00) used in thermo

          ...................................................
          :                      SETUP                      :
          :.................................................:
          :  # frequencies                         144      :
          :  # imaginary freq.                       0      :
          :  linear?                             false      :
          :  only rotor calc.                    false      :
          :  symmetry                               c1      :
          :  rotational number                       1      :
          :  scaling factor                  1.0000000      :
          :  rotor cutoff                   50.0000000 cm⁻¹ :
          :  imag. cutoff                  -50.0000000 cm⁻¹ :
          :.................................................:

    mode    ω/cm⁻¹     T·S(HO)/kcal·mol⁻¹    T·S(FR)/kcal·mol⁻¹   T·S(vib)
   ------------------------------------------------------------------------
       1     33.11    -1.67972 ( 16.13%)    -1.17859 ( 83.87%)    -1.25941
       2     42.21    -1.53619 ( 33.69%)    -1.10665 ( 66.31%)    -1.25136
       3     56.27    -1.36671 ( 61.59%)    -1.02152 ( 38.41%)    -1.23414
       4     77.09    -1.18178 ( 84.96%)    -0.92827 ( 15.04%)    -1.14365
       5     84.26    -1.12971 ( 88.97%)    -0.90191 ( 11.03%)    -1.10458
       6     99.99    -1.02998 ( 94.11%)    -0.85123 (  5.89%)    -1.01946
       7    147.29    -0.80708 ( 98.69%)    -0.73648 (  1.31%)    -0.80615
       8    151.35    -0.79166 ( 98.82%)    -0.72843 (  1.18%)    -0.79091
       9    164.21    -0.74559 ( 99.15%)    -0.70427 (  0.85%)    -0.74524
      10    192.60    -0.65672 ( 99.55%)    -0.65703 (  0.45%)    -0.65672
      11    225.45    -0.57091 ( 99.76%)    -0.61037 (  0.24%)    -0.57101
      12    233.65    -0.55179 ( 99.79%)    -0.59979 (  0.21%)    -0.55189
      13    250.49    -0.51493 ( 99.84%)    -0.57917 (  0.16%)    -0.51504
      14    263.76    -0.48800 ( 99.87%)    -0.56389 (  0.13%)    -0.48810
      15    274.05    -0.46825 ( 99.89%)    -0.55255 (  0.11%)    -0.46834
      16    289.69    -0.44000 ( 99.91%)    -0.53611 (  0.09%)    -0.44009
   ------------------------------------------------------------------------

   temp. (K)  partition function   enthalpy   heat capacity  entropy
                                   cal/mol     cal/K/mol   cal/K/mol   J/K/mol
 298.15  VIB  0.989E+07            11458.360     80.313     67.381
         ROT  0.730E+07              888.752      2.981     34.388
         INT  0.723E+14            12347.113     83.294    101.769
         TR   0.640E+28             1481.254      4.968     43.453
         TOT                       13828.3665    88.2625   145.2218   607.6080

       T/K    H(0)-H(T)+PV         H(T)/Eh          T*S/Eh         G(T)/Eh
   ------------------------------------------------------------------------
    298.15    0.220369E-01    0.433581E+00    0.689996E-01    0.364582E+00
   ------------------------------------------------------------------------

         :::::::::::::::::::::::::::::::::::::::::::::::::::::
         ::                  THERMODYNAMIC                  ::
         :::::::::::::::::::::::::::::::::::::::::::::::::::::
         :: total free energy         -74.927935731543 Eh   ::
         ::.................................................::
         :: total energy              -75.292517408244 Eh   ::
         :: zero point energy           0.411544338281 Eh   ::
         :: G(RRHO) w/o ZPVE           -0.046962661580 Eh   ::
         :: G(RRHO) contrib.            0.364581676701 Eh   ::
         :::::::::::::::::::::::::::::::::::::::::::::::::::::

optimized geometry written to: xtbopt.coord


           -------------------------------------------------
          | TOTAL ENERGY              -75.292517408244 Eh   |
          | TOTAL ENTHALPY            -74.858936165211 Eh   |
          | TOTAL FREE ENERGY         -74.927935731543 Eh   |
          | GRADIENT NORM               0.000080393233 Eh/α |
          | HOMO-LUMO GAP               2.888245843193 eV   |
           -------------------------------------------------

------------------------------------------------------------------------
 * finished run on 2026/08/09 at 20:55:44.978     
------------------------------------------------------------------------
 total:
 * wall-time:     0 d,  0 h,  0 min,  4.995 sec
 *  cpu-time:     0 d,  0 h,  0 min, 59.356 sec
 * ratio c/w:    11.884 speedup
 SCF:
 * wall-time:     0 d,  0 h,  0 min,  0.084 sec
 *  cpu-time:     0 d,  0 h,  0 min,  0.915 sec
 * ratio c/w:    10.883 speedup
 ANC optimizer:
 * wall-time:     0 d,  0 h,  0 min,  2.638 sec
 *  cpu-time:     0 d,  0 h,  0 min, 31.585 sec
 * ratio c/w:    11.972 speedup
 analytical hessian:
 * wall-time:     0 d,  0 h,  0 min,  2.234 sec
 *  cpu-time:     0 d,  0 h,  0 min, 26.489 sec
 * ratio c/w:    11.857 speedup

normal termination of xtb
