50
 xtb: 6.7.1 (edcfbbe)
c            0.07868513711646        0.49908681205227        2.60165821097973
c            1.57091681050404        0.79163439210423        2.41688620674767
c           -2.32403501891765       -3.22906344724480       -0.28098618326113
c           -3.32500376040258       -2.80188201312947        0.59082527920857
c           -3.23915744350278       -1.54973252112767        1.17667694447090
c           -2.16128995801601       -0.69313164468912        0.89767232550698
c           -1.15265879798883       -1.10633998384936       -0.00184360790407
c           -1.25896913273244       -2.38145508211635       -0.56365788408912
n           -2.14186829475522        0.57161941591163        1.48808717951660
c           -0.83831510865740        1.21533069118689        1.59045500831990
c           -0.24247805480913        1.26113233186047        0.16094927460247
c            0.01637803717960       -0.18723309437620       -0.35345270096184
c            1.15008249431059        1.88148331580940        0.23443481513812
c            1.95513767208627        0.75700501639407        0.91931249744354
c            1.38728057953185       -0.56398703372075        0.32744167459908
c            3.42709481900112        0.93805713873585        0.75001495903196
c            4.20953412251741        0.06457786780607        0.12364017722484
c            3.69427700003042       -1.20927064700466       -0.45957098455688
n            2.22266657262139       -1.19710885591147       -0.77631460409615
c            1.89320496995744       -0.36164938391861       -1.98114805418397
c            0.38395048830945       -0.18274606005123       -1.88070740353770
o            1.80660606445082       -2.48280840057316       -0.99282208033481
h            1.30819269123713       -1.34968504493598        1.08116828833176
c           -1.19427290590852        2.11713780303399       -0.66132264198238
o           -1.19609890263350        3.33202672763129       -0.60524913888681
o           -2.04746756788626        1.41170574057134       -1.41316513928596
c           -3.02172749235084        2.18514838434191       -2.15548832306732
h           -0.24078479445357        0.77162325160787        3.61448892218569
h           -0.09441964886143       -0.57964670263624        2.50539592502432
h            1.83182643379677        1.78115090292953        2.81251058040633
h            2.16179116351752        0.05016038012195        2.96872882216692
h           -2.36872099791470       -4.21506368174835       -0.73383748971338
h           -4.16806004280015       -3.44729096470764        0.82342847695447
h           -4.01165769807669       -1.21159091518625        1.86426570521754
h           -0.45329086561851       -2.71820395204766       -1.20897196823205
h           -2.69541837013583        0.63118655813971        2.33279169052924
h           -0.99363762893532        2.25552358922560        1.90562289860244
h            1.16862787393221        2.80864223088456        0.81528988020485
h            1.52955932201859        2.10980801943147       -0.76644703682514
h            3.85001329110625        1.85174550592357        1.16650809833833
h            5.27871423429200        0.24319623727455        0.03099454611671
h            4.19970726134531       -1.47050529555770       -1.39530915303979
h            3.82831390214112       -2.05244917670795        0.22841509096471
h            2.43770147550565        0.58675516073082       -1.91662097286392
h            2.22320004221943       -0.91731963453972       -2.86089297495496
h           -0.13268434526821       -0.99554700701806       -2.39135365960605
h            0.08489908785017        0.74907911250254       -2.36456247741238
h           -3.62235350766435        2.78882497841667       -1.47041001677685
h           -2.51800491986610        2.83535040635158       -2.87561327886981
h           -3.64147575904375        1.44960141104706       -2.66764581829076
