50
 xtb: 6.7.1 (edcfbbe)
c            0.10241880234237        0.52454015428430        2.61609866293155
c            1.59216481824639        0.81674763065953        2.42454129723747
c           -2.34573892304620       -3.21001098426583       -0.33724221360324
c           -3.40143099758090       -2.74906458384854        0.45097447883859
c           -3.30448426462463       -1.51643271870089        1.07343147342436
c           -2.17030333257141       -0.70654294064462        0.89918499443158
c           -1.13184203038966       -1.12830466054495        0.04265368365714
c           -1.23494718807207       -2.40006482502218       -0.53377023404637
n           -2.10537566303523        0.49172810338216        1.62058753148015
c           -0.84301512558100        1.20898415670408        1.60465780632407
c           -0.23248175403963        1.25522171054559        0.17261838941811
c            0.03057152315028       -0.20333046812782       -0.31704066690752
c            1.15648340785218        1.88213599796824        0.24452511883302
c            1.97327070645982        0.76936797913721        0.92814660094378
c            1.41266264974638       -0.55934546082221        0.34806172260024
c            3.44256113790170        0.96059212186318        0.74814384727797
c            4.22577504048036        0.09595035830883        0.11063163305764
c            3.71651817718461       -1.18076097919390       -0.47151580441254
n            2.24029976907091       -1.18562640967264       -0.76681113505916
c            1.88303569598476       -0.35727054678549       -1.96979512949871
c            0.37132836634121       -0.20960426126153       -1.85063761066398
o            1.83633858133127       -2.47675424288043       -0.97478923941186
h            1.35238902724252       -1.34391096428472        1.10486292787858
c           -1.14915136631057        2.09226259174418       -0.69884064467970
o           -0.99206485436670        3.28440034301516       -0.88325572788035
o           -2.17630414083251        1.39901493995751       -1.21024398068151
c           -3.10855556995055        2.15536518970860       -2.02167578213886
h           -0.21836434841229        0.80702475786039        3.62464035936401
h           -0.06520190299050       -0.55633059278960        2.53855970572109
h            1.85384824082621        1.81010379341373        2.80998659134651
h            2.18270791291234        0.08071539886738        2.98403150837979
h           -2.39108172754582       -4.19073985559747       -0.80176225517417
h           -4.28707911128779       -3.36100878242172        0.60098011174823
h           -4.10036503395820       -1.16266125974606        1.72501784567096
h           -0.40394291975861       -2.75015184797723       -1.13921714036271
h           -2.93674037961042        1.06278279300777        1.56298684801976
h           -1.03041726351426        2.24383248498464        1.91862635161146
h            1.17041990970658        2.81021218407755        0.82487414053531
h            1.53037895511389        2.11809359098673       -0.75648263820225
h            3.86241967587920        1.87612109450923        1.16371945295302
h            5.29268277584692        0.28302273943010        0.00867419896689
h            4.21174443865290       -1.43224270962855       -1.41535551414696
h            3.87030613763554       -2.02499920123268        0.21095020569819
h            2.41151758322071        0.60044474927913       -1.91354354712513
h            2.21216435855349       -0.90904980082942       -2.85230591006695
h           -0.13096433418473       -1.04090187706790       -2.34487970878151
h            0.04250424939184        0.71045622343203       -2.34164292768373
h           -2.60031415229544        2.55699084985279       -2.90210325498166
h           -3.87842610473229        1.44172478799724       -2.31347813769760
h           -3.53850831092942        2.97410893715566       -1.43952040713513
