      -----------------------------------------------------------      
     |                   =====================                   |     
     |                           x T B                           |     
     |                   =====================                   |     
     |                         S. Grimme                         |     
     |          Mulliken Center for Theoretical Chemistry        |     
     |                    University of Bonn                     |     
      -----------------------------------------------------------      

   * xtb version 6.7.1 (edcfbbe) compiled by 'albert@albert-system' on 2024-07-22

   xtb is free software: you can redistribute it and/or modify it under
   the terms of the GNU Lesser General Public License as published by
   the Free Software Foundation, either version 3 of the License, or
   (at your option) any later version.
   
   xtb is distributed in the hope that it will be useful,
   but WITHOUT ANY WARRANTY; without even the implied warranty of
   MERCHANTABILITY or FITNESS FOR A PARTICULAR PURPOSE.  See the
   GNU Lesser General Public License for more details.
   
   Cite this work as:
   * C. Bannwarth, E. Caldeweyher, S. Ehlert, A. Hansen, P. Pracht,
     J. Seibert, S. Spicher, S. Grimme, WIREs Comput. Mol. Sci., 2020, 11,
     e01493. DOI: 10.1002/wcms.1493
   
   for GFN2-xTB:
   * C. Bannwarth, S. Ehlert and S. Grimme., J. Chem. Theory Comput., 2019,
     15, 1652-1671. DOI: 10.1021/acs.jctc.8b01176
   for GFN1-xTB:
   * S. Grimme, C. Bannwarth, P. Shushkov, J. Chem. Theory Comput., 2017,
     13, 1989-2009. DOI: 10.1021/acs.jctc.7b00118
   for GFN0-xTB:
   * P. Pracht, E. Caldeweyher, S. Ehlert, S. Grimme, ChemRxiv, 2019, preprint.
     DOI: 10.26434/chemrxiv.8326202.v1
   for GFN-FF:
   * S. Spicher and S. Grimme, Angew. Chem. Int. Ed., 2020, 59, 15665-15673.
     DOI: 10.1002/anie.202004239
   
   for ALPB and GBSA implicit solvation:
   * S. Ehlert, M. Stahn, S. Spicher, S. Grimme, J. Chem. Theory Comput.,
     2021, 17, 4250-4261. DOI: 10.1021/acs.jctc.1c00471
   
   for ddCOSMO and CPCM-X implicit solvation:
   * M. Stahn, S. Ehlert, S. Grimme, J. Phys. Chem. A,
     2023, XX, XXXX-XXXX. DOI: 10.1021/acs.jpca.3c04382
   
   for DFT-D4:
   * E. Caldeweyher, C. Bannwarth and S. Grimme, J. Chem. Phys., 2017,
     147, 034112. DOI: 10.1063/1.4993215
   * E. Caldeweyher, S. Ehlert, A. Hansen, H. Neugebauer, S. Spicher,
     C. Bannwarth and S. Grimme, J. Chem. Phys., 2019, 150, 154122.
     DOI: 10.1063/1.5090222
   * E. Caldeweyher, J.-M. Mewes, S. Ehlert and S. Grimme, Phys. Chem. Chem. Phys.
     2020, 22, 8499-8512. DOI: 10.1039/D0CP00502A
   
   for sTDA-xTB:
   * S. Grimme and C. Bannwarth, J. Chem. Phys., 2016, 145, 054103.
     DOI: 10.1063/1.4959605
   
   in the mass-spec context:
   * V. Asgeirsson, C. Bauer and S. Grimme, Chem. Sci., 2017, 8, 4879.
     DOI: 10.1039/c7sc00601b
   * J. Koopman and S. Grimme, ACS Omega 2019, 4, 12, 15120-15133.
     DOI: 10.1021/acsomega.9b02011
   
   for metadynamics refer to:
   * S. Grimme, J. Chem. Theory Comput., 2019, 155, 2847-2862
     DOI: 10.1021/acs.jctc.9b00143
   
   for SPH calculations refer to:
   * S. Spicher and S. Grimme, J. Chem. Theory Comput., 2021, 17, 1701-1714
     DOI: 10.1021/acs.jctc.0c01306
   
   for ONIOM refer to:
   * C. Plett, A. Katbashev, S. Ehlert, S. Grimme, M. Bursch,
     Phys. Chem. Chem. Phys., 2023, 25, 17860-17868. DOI: 10.1039/D3CP02178E
   
   for DIPRO refer to:
   * J. Kohn, N. Gildemeister, S. Grimme, D. Fazzi, A. Hansen,
     J. Chem. Phys., 2023, just accepted.
   
   for PTB refer to:
   * S. Grimme, M. Mueller, A. Hansen, J. Chem. Phys., 2023, 158, 124111.
     DOI: 10.1063/5.0137838
   
   with help from (in alphabetical order)
   P. Atkinson, C. Bannwarth, F. Bohle, G. Brandenburg, E. Caldeweyher
   M. Checinski, S. Dohm, S. Ehlert, S. Ehrlich, I. Gerasimov, C. Hölzer
   A. Katbashev, J. Kohn, J. Koopman, C. Lavigne, S. Lehtola, F. März, M. Müller,
   F. Musil, H. Neugebauer, J. Pisarek, C. Plett, P. Pracht, F. Pultar,
   J. Seibert, P. Shushkov, S. Spicher, M. Stahn, M. Steiner, T. Strunk,
   J. Stückrath, T. Rose, and J. Unsleber
   
 * started run on 2026/08/09 at 20:03:56.151     
   ID    Z sym.   atoms
    1    6 c      1-8, 10-18, 20, 21, 24, 27
    2    7 n      9, 19
    3    8 o      22, 25, 26
    4    1 h      23, 28-50

           -------------------------------------------------
          |                Calculation Setup                |
           -------------------------------------------------

          program call               : /home/dinglab/software/xtb_6.7.1/xtb_dist/bin/xtb coord --gfn2 --sp --chrg 0 --norestart --parallel 12 --alpb chcl3 reference -I xcontrol-inp
          hostname                   : localhost
          coordinate file            : coord
          omp threads                :                    12


           -------------------------------------------------
          |                 G F N 2 - x T B                 |
           -------------------------------------------------

        Reference                      10.1021/acs.jctc.8b01176
      * Hamiltonian:
        H0-scaling (s, p, d)           1.850000    2.230000    2.230000
        zeta-weighting                 0.500000
      * Dispersion:
        s8                             2.700000
        a1                             0.520000
        a2                             5.000000
        s9                             5.000000
      * Repulsion:
        kExp                           1.500000    1.000000
        rExp                           1.000000
      * Coulomb:
        alpha                          2.000000
        third order                    shell-resolved
        anisotropic                    true
        a3                             3.000000
        a5                             4.000000
        cn-shift                       1.200000
        cn-exp                         4.000000
        max-rad                        5.000000

      * Solvation model:               ALPB
        Solvent                        chcl3
        Parameter file                 internal GFN2-xTB/ALPB
        Dielectric constant                4.8100E+00
        Reference state                gsolv=reference [X=1]
        Free energy shift                  2.5086E-03 Eh       1.5742E+00 kcal/mol
        Temperature                        2.9815E+02 K
        Density                            1.4900E+00 kg/L
        Solvent mass                       1.1938E+02 g/mol
        Interaction kernel             P16
        Born radius scaling (c1)           1.3274E+00
        Born radii integrator          GBOBC
        Born offset                        0.0000E+00 a0       0.0000E+00 AA
        H-bond correction              false
        Ion screening                  false
        Surface tension                    1.0000E-05 Eh       1.5569E+01 dyn/cm
        Grid points                               974 per atom

          ...................................................
          :                      SETUP                      :
          :.................................................:
          :  # basis functions                 128          :
          :  # atomic orbitals                 128          :
          :  # shells                           76          :
          :  # electrons                       136          :
          :  max. iterations                   250          :
          :  Hamiltonian                  GFN2-xTB          :
          :  restarted?                      false          :
          :  GBSA solvation                   true          :
          :  PC potential                    false          :
          :  electronic temp.          300.0000000     K    :
          :  accuracy                    1.0000000          :
          :  -> integral cutoff          0.2500000E+02      :
          :  -> integral neglect         0.1000000E-07      :
          :  -> SCF convergence          0.1000000E-05 Eh   :
          :  -> wf. convergence          0.1000000E-03 e    :
          :  Broyden damping             0.4000000          :
          :  net charge                          0          :
          :  unpaired electrons                  0          :
          ...................................................

 iter      E             dE          RMSdq      gap      omega  full diag
   1    -76.1140426 -0.761140E+02  0.397E+00    3.32       0.0  T
   2    -76.2751181 -0.161075E+00  0.221E+00    2.82       1.0  T
   3    -76.2794572 -0.433914E-02  0.106E+00    3.20       1.0  T
   4    -76.2824503 -0.299311E-02  0.310E-01    2.70       1.0  T
   5    -76.2850200 -0.256968E-02  0.108E-01    2.83       1.0  T
   6    -76.2852014 -0.181427E-03  0.515E-02    2.91       1.0  T
   7    -76.2852270 -0.255243E-04  0.196E-02    2.92       1.0  T
   8    -76.2852318 -0.488199E-05  0.912E-03    2.93       1.5  T
   9    -76.2852332 -0.136290E-05  0.287E-03    2.92       4.9  T
  10    -76.2852333 -0.904112E-07  0.121E-03    2.92      11.7  T
  11    -76.2852333 -0.128038E-07  0.636E-04    2.92      22.2  T
  12    -76.2852333 -0.320908E-08  0.219E-04    2.92      64.5  T

   *** convergence criteria satisfied after 12 iterations ***

         #    Occupation            Energy/Eh            Energy/eV
      -------------------------------------------------------------
         1        2.0000           -0.7555428             -20.5594
       ...           ...                  ...                  ...
        62        2.0000           -0.4135813             -11.2541
        63        2.0000           -0.4112999             -11.1920
        64        2.0000           -0.4074198             -11.0865
        65        2.0000           -0.3896834             -10.6038
        66        2.0000           -0.3565379              -9.7019
        67        2.0000           -0.3539743              -9.6321
        68        2.0000           -0.3523722              -9.5885 (HOMO)
        69                         -0.2450118              -6.6671 (LUMO)
        70                         -0.2202992              -5.9946
        71                         -0.2147182              -5.8428
        72                         -0.2024627              -5.5093
        73                         -0.0871542              -2.3716
       ...                                ...                  ...
       128                          0.6710080              18.2591
      -------------------------------------------------------------
                  HL-Gap            0.1073604 Eh            2.9214 eV
             Fermi-level           -0.2986920 Eh           -8.1278 eV

 SCC (total)                   0 d,  0 h,  0 min,  0.071 sec
 SCC setup                      ...        0 min,  0.001 sec (  1.441%)
 Dispersion                     ...        0 min,  0.001 sec (  1.104%)
 classical contributions        ...        0 min,  0.000 sec (  0.073%)
 integral evaluation            ...        0 min,  0.003 sec (  4.341%)
 iterations                     ...        0 min,  0.059 sec ( 83.722%)
 molecular gradient             ...        0 min,  0.006 sec (  9.018%)
 printout                       ...        0 min,  0.000 sec (  0.249%)

         :::::::::::::::::::::::::::::::::::::::::::::::::::::
         ::                     SUMMARY                     ::
         :::::::::::::::::::::::::::::::::::::::::::::::::::::
         :: total energy             -75.293275327112 Eh    ::
         :: total w/o Gsasa/hb       -75.273419728692 Eh    ::
         :: gradient norm              0.027612296603 Eh/a0 ::
         :: HOMO-LUMO gap              2.921424446149 eV    ::
         ::.................................................::
         :: SCC energy               -76.283038666765 Eh    ::
         :: -> isotropic ES            0.146105571579 Eh    ::
         :: -> anisotropic ES          0.004197341311 Eh    ::
         :: -> anisotropic XC          0.022109148753 Eh    ::
         :: -> dispersion             -0.067866717331 Eh    ::
         :: -> Gsolv                  -0.044579763387 Eh    ::
         ::    -> Gelec               -0.024724164966 Eh    ::
         ::    -> Gsasa               -0.022364246422 Eh    ::
         ::    -> Ghb                  0.000000000000 Eh    ::
         ::    -> Gshift               0.002508648001 Eh    ::
         :: repulsion energy           0.989763339653 Eh    ::
         :: add. restraining           0.000000000000 Eh    ::
         :: total charge              -0.000000000000 e     ::
         :::::::::::::::::::::::::::::::::::::::::::::::::::::

           -------------------------------------------------
          |                Property Printout                |
           -------------------------------------------------

    * Orbital Energies and Occupations

         #    Occupation            Energy/Eh            Energy/eV
      -------------------------------------------------------------
         1        2.0000           -0.7555428             -20.5594
       ...           ...                  ...                  ...
        56        2.0000           -0.4475155             -12.1775
        57        2.0000           -0.4450843             -12.1114
        58        2.0000           -0.4365320             -11.8786
        59        2.0000           -0.4305575             -11.7161
        60        2.0000           -0.4286299             -11.6636
        61        2.0000           -0.4212253             -11.4621
        62        2.0000           -0.4135813             -11.2541
        63        2.0000           -0.4112999             -11.1920
        64        2.0000           -0.4074198             -11.0865
        65        2.0000           -0.3896834             -10.6038
        66        2.0000           -0.3565379              -9.7019
        67        2.0000           -0.3539743              -9.6321
        68        2.0000           -0.3523722              -9.5885 (HOMO)
        69                         -0.2450118              -6.6671 (LUMO)
        70                         -0.2202992              -5.9946
        71                         -0.2147182              -5.8428
        72                         -0.2024627              -5.5093
        73                         -0.0871542              -2.3716
        74                         -0.0491912              -1.3386
        75                         -0.0152348              -0.4146
        76                         -0.0079457              -0.2162
        77                         -0.0000765              -0.0021
        78                          0.0191989               0.5224
        79                          0.0228071               0.6206
       ...                                ...                  ...
       128                          0.6710080              18.2591
      -------------------------------------------------------------
                  HL-Gap            0.1073604 Eh            2.9214 eV
             Fermi-level           -0.2986920 Eh           -8.1278 eV

     #   Z          covCN         q      C6AA      α(0)
     1   6 c        3.802    -0.070    21.834     6.653
     2   6 c        3.813    -0.064    21.711     6.632
     3   6 c        2.919    -0.049    29.226     8.865
     4   6 c        2.918    -0.037    28.926     8.820
     5   6 c        2.925    -0.066    29.651     8.930
     6   6 c        2.917     0.066    26.512     8.444
     7   6 c        2.973    -0.022    28.545     8.764
     8   6 c        2.923    -0.044    29.098     8.846
     9   7 n        2.696    -0.216    25.714     7.531
    10   6 c        3.807     0.052    19.697     6.318
    11   6 c        3.947    -0.012    20.718     6.468
    12   6 c        3.933     0.017    20.233     6.392
    13   6 c        3.840    -0.064    21.693     6.626
    14   6 c        3.940     0.013    20.290     6.401
    15   6 c        3.848     0.005    20.464     6.434
    16   6 c        2.900    -0.047    29.157     8.854
    17   6 c        2.891    -0.053    29.305     8.875
    18   6 c        3.754    -0.028    21.131     6.555
    19   7 n        3.650     0.302    16.469     6.027
    20   6 c        3.780    -0.026    21.055     6.537
    21   6 c        3.822    -0.058    21.604     6.614
    22   8 o        0.931    -0.727    29.402     7.272
    23   1 h        0.924     0.067     2.117     2.275
    24   6 c        2.732     0.363    20.848     7.475
    25   8 o        0.856    -0.460    22.926     6.420
    26   8 o        1.704    -0.254    18.205     5.761
    27   6 c        3.659     0.028    20.389     6.480
    28   1 h        0.924     0.048     2.344     2.394
    29   1 h        0.924     0.043     2.403     2.424
    30   1 h        0.924     0.053     2.280     2.362
    31   1 h        0.924     0.046     2.367     2.406
    32   1 h        0.926     0.025     2.653     2.547
    33   1 h        0.926     0.029     2.600     2.522
    34   1 h        0.925     0.027     2.625     2.533
    35   1 h        0.925     0.062     2.173     2.305
    36   1 h        0.860     0.167     1.290     1.779
    37   1 h        0.924     0.043     2.414     2.430
    38   1 h        0.925     0.060     2.202     2.321
    39   1 h        0.925     0.048     2.346     2.395
    40   1 h        0.926     0.056     2.250     2.346
    41   1 h        0.926     0.059     2.209     2.324
    42   1 h        0.924     0.071     2.077     2.254
    43   1 h        0.924     0.083     1.948     2.183
    44   1 h        0.924     0.056     2.241     2.341
    45   1 h        0.925     0.070     2.090     2.261
    46   1 h        0.925     0.068     2.107     2.270
    47   1 h        0.925     0.041     2.438     2.442
    48   1 h        0.924     0.071     2.073     2.251
    49   1 h        0.924     0.069     2.100     2.266
    50   1 h        0.925     0.088     1.901     2.156

 Mol. C6AA /au·bohr⁶  :      26011.283392
 Mol. C8AA /au·bohr⁸  :     609606.934148
 Mol. α(0) /au        :        244.780390


Wiberg/Mayer (AO) data.
largest (>0.10) Wiberg bond orders for each atom

 ---------------------------------------------------------------------------
     #   Z sym  total        # sym  WBO       # sym  WBO       # sym  WBO
 ---------------------------------------------------------------------------
     1   6 c    3.994 --     2 c    1.006    28 h    0.975    10 c    0.974
                            29 h    0.972
     2   6 c    3.994 --     1 c    1.006    31 h    0.975    30 h    0.975
                            14 c    0.970
     3   6 c    3.990 --     8 c    1.437     4 c    1.422    32 h    0.971
     4   6 c    3.991 --     5 c    1.461     3 c    1.422    33 h    0.971
                             7 c    0.101
     5   6 c    3.985 --     4 c    1.461     6 c    1.352    34 h    0.967
                             8 c    0.104
     6   6 c    3.972 --     5 c    1.352     7 c    1.330     9 n    1.127
     7   6 c    3.982 --     8 c    1.424     6 c    1.330    12 c    0.991
                             4 c    0.101
     8   6 c    3.987 --     3 c    1.437     7 c    1.424    35 h    0.952
                             5 c    0.104
     9   7 n    3.288 --     6 c    1.127    10 c    1.004    36 h    0.941
    10   6 c    3.979 --     9 n    1.004     1 c    0.974    37 h    0.964
                            11 c    0.943
    11   6 c    3.988 --    13 c    0.984    12 c    0.957    24 c    0.946
                            10 c    0.943
    12   6 c    3.986 --     7 c    0.991    21 c    0.969    15 c    0.958
                            11 c    0.957
    13   6 c    3.991 --    11 c    0.984    38 h    0.972    39 h    0.969
                            14 c    0.966
    14   6 c    3.989 --    16 c    1.009     2 c    0.970    15 c    0.967
                            13 c    0.966
    15   6 c    3.964 --    14 c    0.967    23 h    0.963    12 c    0.958
                            19 n    0.916
    16   6 c    3.988 --    17 c    1.920    14 c    1.009    40 h    0.962
    17   6 c    3.985 --    16 c    1.920    18 c    1.025    41 h    0.962
    18   6 c    3.966 --    17 c    1.025    42 h    0.964    43 h    0.949
                            19 n    0.934
    19   7 n    3.875 --    22 o    1.031    20 c    0.938    18 c    0.934
                            15 c    0.916
    20   6 c    3.969 --    21 c    1.009    45 h    0.973    44 h    0.968
                            19 n    0.938
    21   6 c    3.992 --    20 c    1.009    47 h    0.972    46 h    0.972
                            12 c    0.969
    22   8 o    1.225 --    19 n    1.031
    23   1 h    0.995 --    15 c    0.963
    24   6 c    3.908 --    25 o    1.710    26 o    1.162    11 c    0.946
    25   8 o    1.995 --    24 c    1.710    26 o    0.174
    26   8 o    2.329 --    24 c    1.162    27 c    0.945    25 o    0.174
    27   6 c    3.910 --    50 h    0.979    48 h    0.976    49 h    0.976
                            26 o    0.945
    28   1 h    0.997 --     1 c    0.975
    29   1 h    0.998 --     1 c    0.972
    30   1 h    0.997 --     2 c    0.975
    31   1 h    0.997 --     2 c    0.975
    32   1 h    0.999 --     3 c    0.971
    33   1 h    0.998 --     4 c    0.971
    34   1 h    0.999 --     5 c    0.967
    35   1 h    0.996 --     8 c    0.952
    36   1 h    0.971 --     9 n    0.941
    37   1 h    0.997 --    10 c    0.964
    38   1 h    0.996 --    13 c    0.972
    39   1 h    0.997 --    13 c    0.969
    40   1 h    0.997 --    16 c    0.962
    41   1 h    0.996 --    17 c    0.962
    42   1 h    0.995 --    18 c    0.964
    43   1 h    0.993 --    18 c    0.949
    44   1 h    0.997 --    20 c    0.968
    45   1 h    0.994 --    20 c    0.973
    46   1 h    0.995 --    21 c    0.972
    47   1 h    0.998 --    21 c    0.972
    48   1 h    0.995 --    27 c    0.976
    49   1 h    0.995 --    27 c    0.976
    50   1 h    0.992 --    27 c    0.979
 ---------------------------------------------------------------------------

Topologies differ in total number of bonds
Writing topology from bond orders to xtbtopo.mol

molecular dipole:
                 x           y           z       tot (Debye)
 q only:        0.303       1.747       0.951
   full:        0.385       1.783       1.086       5.396
molecular quadrupole (traceless):
                xx          xy          yy          xz          yz          zz
 q only:       21.182       4.922     -31.003       4.512      -2.200       9.821
  q+dip:       20.939       5.133     -31.874      -1.685       0.062      10.936
   full:       21.205       4.559     -33.613       0.180      -1.439      12.408


           -------------------------------------------------
          | TOTAL ENERGY              -75.293275327112 Eh   |
          | GRADIENT NORM               0.027612296603 Eh/α |
          | HOMO-LUMO GAP               2.921424446149 eV   |
           -------------------------------------------------

------------------------------------------------------------------------
 * finished run on 2026/08/09 at 20:03:56.243     
------------------------------------------------------------------------
 total:
 * wall-time:     0 d,  0 h,  0 min,  0.091 sec
 *  cpu-time:     0 d,  0 h,  0 min,  0.922 sec
 * ratio c/w:    10.109 speedup
 SCF:
 * wall-time:     0 d,  0 h,  0 min,  0.071 sec
 *  cpu-time:     0 d,  0 h,  0 min,  0.744 sec
 * ratio c/w:    10.473 speedup

normal termination of xtb
