35
 xtb: 6.7.1 (edcfbbe)
c           -0.01775611670578       -0.56870649034608        0.28566531173435
c           -1.02603359833995        0.58489405489837        0.68487000352197
c           -0.34407906386893        1.98769331970002        0.60316790483050
c            0.58054582909711        2.18179151592261       -0.61799801041488
c            1.47612923266008        0.93594117062908       -0.83864057648614
c            0.58546483379435       -0.28882975085581       -1.12599648612338
c            1.25410030124805       -0.45968237426950        1.18847881265856
c            2.16427113877230        0.53432795770469        0.46407014326186
o            1.43335328015633       -1.34286363128675       -1.60165663753161
c           -0.75250770304453       -1.92243221168553        0.41568072437694
c            3.34818265575485        0.97926735545562        0.89790805207831
c           -2.39466310985520        0.53726646315529       -0.01415610045894
c           -2.63320428879058        0.93146610289897       -1.27625987626126
h           -1.23706672470545        0.41310487334852        1.75491210379539
o            0.02991856707343       -3.08190581354860        0.04960188663729
c           -3.54125561088078        0.06609414024434        0.86390421761062
h           -1.11883237521394        2.76922093560149        0.62450130091002
h            0.25797528650947        2.12796963071516        1.51500985702641
h           -0.00366903072711        2.37164182604679       -1.53344134122489
h            1.21195815712201        3.07082412088755       -0.45867967438361
h            2.19090035363961        1.12127678970861       -1.65556679861121
h           -0.19867885015143       -0.07331408234732       -1.87191228508068
h            1.76666500283320       -1.43213227118380        1.27256370518845
h            1.01105021464579       -0.14312273130580        2.21546198920562
h            1.04464620100397       -2.19392876207492       -1.29557162117815
h           -1.61453420001989       -1.94293077130620       -0.26643769753128
h           -1.13639232229964       -2.03695567850285        1.44594880293111
h            3.76885288426305        0.66387204648232        1.85627212653179
h            3.94481879435191        1.68169799634205        0.31060709572166
h           -3.64301201037503        0.89503966009373       -1.69203791467484
h           -1.86051959341340        1.31037464478356       -1.94371477679632
h            0.67358799666461       -3.26468705523495        0.76444940127834
h           -3.65723618932155        0.73437446181706        1.73496328560690
h           -4.49543051388214        0.04682792209765        0.31777765995007
h           -3.35667613077564       -0.94272513639475        1.26857262486000
