 Entering Gaussian System
 *********************************************
 Gaussian 98:
 frequency output generated by the xtb code
 *********************************************
                         Standard orientation:
 --------------------------------------------------------------------
  Center     Atomic     Atomic              Coordinates (Angstroms)
  Number     Number      Type              X           Y           Z
 --------------------------------------------------------------------
    1          6             0        0.111888   -0.689947   -0.260127
    2          6             0        0.598831    0.624838   -0.931194
    3          6             0       -0.489768    1.712084   -0.844793
    4          6             0       -1.224742    1.755598    0.492799
    5          6             0       -1.682278    0.348420    0.893850
    6          6             0       -0.442201   -0.512318    1.166347
    7          6             0       -1.182403   -1.140728   -0.969007
    8          6             0       -2.285409   -0.377332   -0.281775
    9          8             0        0.475897   -0.001513    2.105226
   10          6             0        1.209694   -1.762119   -0.343169
   11          6             0       -3.556597   -0.349481   -0.638840
   12          6             0        1.979496    1.112245   -0.531260
   13          6             0        3.030117    0.759189   -1.260563
   14          1             0        0.697430    0.364568   -1.992592
   15          8             0        0.809991   -3.025125    0.149218
   16          6             0        2.150635    2.036935    0.633974
   17          1             0       -0.045360    2.685011   -1.060122
   18          1             0       -1.228120    1.518625   -1.625542
   19          1             0       -0.576778    2.148836    1.276759
   20          1             0       -2.091792    2.413013    0.403470
   21          1             0       -2.358944    0.399709    1.751408
   22          1             0       -0.784772   -1.502288    1.516894
   23          1             0       -1.157024   -0.960324   -2.042991
   24          1             0       -1.317398   -2.215717   -0.818846
   25          1             0       -0.003275    0.173441    2.924817
   26          1             0        2.101222   -1.410173    0.187201
   27          1             0        1.468775   -1.931512   -1.390759
   28          1             0       -3.914396   -0.887747   -1.500507
   29          1             0       -4.289522    0.213476   -0.085776
   30          1             0        4.025496    1.095390   -1.021451
   31          1             0        2.948179    0.112549   -2.118453
   32          1             0        0.742697   -2.967474    1.109950
   33          1             0        1.578679    2.951824    0.492301
   34          1             0        1.808538    1.554465    1.544552
   35          1             0        3.198512    2.302570    0.750741
 --------------------------------------------------------------------
     1 basis functions        1 primitive gaussians
     1 alpha electrons        1 beta electrons
 
 Harmonic frequencies (cm**-1), IR intensities (km*mol⁻¹),
 Raman scattering activities (A**4/amu), Raman depolarization ratios,
 reduced masses (AMU), force constants (mDyne/A) and normal coordinates:
                      1                      2                      3
                        a                      a                      a 
 Frequencies --    46.2847                81.7463                98.3246
 Red. masses --    10.1658                10.7762                 9.7383
 Frc consts  --     0.0000                 0.0000                 0.0000
 IR Inten    --     0.0957                 5.7846                 1.5124
 Raman Activ --     0.0000                 0.0000                 0.0000
 Depolar     --     0.0000                 0.0000                 0.0000
 Atom AN      X      Y      Z        X      Y      Z        X      Y      Z
   1   6     0.01   0.00  -0.06     0.04   0.03   0.12     0.01  -0.07   0.09
   2   6     0.04   0.01  -0.01     0.04  -0.02   0.04    -0.10  -0.05   0.05
   3   6    -0.01  -0.04  -0.08     0.05  -0.00  -0.03    -0.12  -0.07   0.10
   4   6     0.00   0.01  -0.07    -0.03   0.04  -0.07    -0.05  -0.08   0.14
   5   6     0.06   0.01   0.02    -0.04   0.06  -0.01    -0.00  -0.11   0.10
   6   6     0.09   0.03  -0.03    -0.02   0.11   0.10     0.05  -0.04   0.10
   7   6    -0.02   0.05  -0.03     0.08  -0.03   0.09     0.02  -0.16   0.15
   8   6    -0.01  -0.03   0.08     0.02  -0.06   0.03     0.06   0.02  -0.02
   9   8     0.18   0.07  -0.14    -0.11   0.25   0.12     0.08   0.10   0.02
  10   6    -0.05  -0.06  -0.11     0.06   0.05   0.24     0.08  -0.00   0.10
  11   6    -0.05  -0.12   0.21     0.01  -0.24   0.06     0.16   0.47  -0.36
  12   6    -0.00   0.03   0.14     0.06  -0.01  -0.02    -0.09   0.00  -0.04
  13   6     0.13  -0.26   0.47     0.01   0.08  -0.14    -0.10  -0.11   0.01
  14   1     0.04   0.01  -0.00     0.01  -0.03   0.02    -0.05  -0.02   0.01
  15   8    -0.17  -0.08  -0.25    -0.22  -0.16  -0.54     0.09  -0.12  -0.21
  16   6    -0.16   0.36  -0.10     0.12  -0.09   0.03    -0.09   0.19  -0.19
  17   1    -0.02  -0.01  -0.04     0.02  -0.00  -0.01    -0.05  -0.02   0.02
  18   1    -0.00  -0.04  -0.02     0.02  -0.01  -0.02    -0.05  -0.03   0.04
  19   1    -0.00   0.02  -0.03    -0.02   0.02  -0.02    -0.00  -0.02   0.03
  20   1    -0.01  -0.01  -0.03    -0.01   0.01  -0.04    -0.02  -0.03   0.06
  21   1     0.03   0.01   0.02    -0.02   0.03  -0.01    -0.01  -0.05   0.02
  22   1     0.03   0.01   0.01     0.00   0.04   0.05     0.04  -0.01   0.05
  23   1    -0.02   0.04  -0.00     0.03  -0.01   0.02     0.01  -0.11   0.03
  24   1    -0.00   0.01  -0.03     0.03  -0.01   0.02    -0.01  -0.04   0.10
  25   1     0.07   0.00  -0.02    -0.04   0.08   0.02     0.03   0.02   0.01
  26   1    -0.01  -0.05  -0.02    -0.06  -0.04   0.24    -0.01  -0.01   0.09
  27   1    -0.02  -0.00  -0.04     0.17   0.13   0.09     0.08   0.05   0.03
  28   1    -0.03  -0.04   0.07     0.02  -0.10   0.03     0.07   0.19  -0.14
  29   1    -0.01  -0.05   0.08    -0.01  -0.08   0.01     0.06   0.18  -0.15
  30   1     0.03  -0.08   0.17     0.00   0.03  -0.06    -0.03  -0.02  -0.01
  31   1     0.08  -0.14   0.18    -0.01   0.04  -0.06    -0.03  -0.07   0.03
  32   1    -0.05  -0.04  -0.06    -0.25  -0.14  -0.14    -0.05  -0.07  -0.05
  33   1    -0.04   0.09  -0.12     0.03  -0.03   0.04    -0.03   0.05  -0.10
  34   1    -0.08   0.18  -0.00     0.05  -0.04   0.01    -0.03   0.10  -0.03
  35   1    -0.05   0.11  -0.01     0.03  -0.02  -0.00    -0.03   0.06  -0.07
                      4                      5                      6
                        a                      a                      a 
 Frequencies --   124.0001               159.2238               170.2612
 Red. masses --     9.9424                11.9648                 5.8279
 Frc consts  --     0.0000                 0.0000                 0.0000
 IR Inten    --     0.2174                 4.9833                 2.0434
 Raman Activ --     0.0000                 0.0000                 0.0000
 Depolar     --     0.0000                 0.0000                 0.0000
 Atom AN      X      Y      Z        X      Y      Z        X      Y      Z
   1   6    -0.01   0.10  -0.02     0.05  -0.02  -0.01    -0.03  -0.03  -0.02
   2   6    -0.06   0.15   0.05     0.07   0.03   0.09    -0.02  -0.02   0.02
   3   6    -0.03   0.18   0.25     0.03  -0.00   0.19    -0.04  -0.04  -0.04
   4   6    -0.14  -0.03   0.20    -0.04  -0.11   0.16    -0.09  -0.02  -0.06
   5   6    -0.12  -0.09  -0.00    -0.02  -0.16   0.02    -0.01  -0.03   0.00
   6   6    -0.04   0.02  -0.02     0.06  -0.04  -0.01     0.06   0.07  -0.00
   7   6     0.05   0.06  -0.09     0.09   0.04  -0.10    -0.06  -0.07   0.05
   8   6    -0.02  -0.06  -0.07     0.05  -0.07  -0.07    -0.04  -0.03   0.03
   9   8    -0.10   0.20  -0.06     0.13   0.14  -0.17     0.08   0.35  -0.17
  10   6     0.04   0.15  -0.02    -0.14  -0.21   0.02    -0.03  -0.02  -0.17
  11   6    -0.02  -0.23  -0.09     0.07  -0.10  -0.15    -0.03   0.09  -0.01
  12   6     0.05  -0.09  -0.04     0.07   0.12   0.00    -0.03  -0.04   0.11
  13   6    -0.04  -0.48   0.01     0.02   0.23  -0.12    -0.02  -0.05   0.12
  14   1    -0.06   0.07   0.00     0.01   0.03   0.02     0.01   0.00   0.01
  15   8     0.13   0.16   0.01    -0.55  -0.06   0.23     0.14  -0.02  -0.06
  16   6     0.28  -0.03  -0.13     0.13   0.20  -0.06     0.07  -0.18   0.21
  17   1     0.00   0.06   0.14    -0.00   0.01   0.08    -0.01  -0.01  -0.01
  18   1     0.00   0.10   0.05     0.02   0.01   0.04    -0.00  -0.02  -0.02
  19   1    -0.06  -0.03   0.09    -0.02  -0.05   0.06    -0.04   0.02  -0.02
  20   1    -0.04  -0.01   0.07    -0.01  -0.03   0.05    -0.04  -0.02  -0.03
  21   1    -0.05  -0.06  -0.01    -0.01  -0.08   0.00     0.01  -0.01   0.01
  22   1     0.03  -0.00  -0.00     0.05  -0.01   0.02     0.05   0.02   0.05
  23   1     0.02   0.04  -0.02     0.04   0.05  -0.02    -0.02  -0.04   0.01
  24   1     0.03   0.01  -0.05     0.03   0.01  -0.06    -0.01  -0.02   0.04
  25   1    -0.03   0.03  -0.01     0.05   0.05  -0.03     0.00   0.25  -0.09
  26   1     0.01   0.06  -0.01    -0.01  -0.11  -0.02     0.02   0.00  -0.10
  27   1     0.01   0.04  -0.00    -0.07  -0.11   0.01    -0.07  -0.01  -0.06
  28   1     0.02  -0.07  -0.03     0.05  -0.01  -0.07    -0.02   0.04  -0.00
  29   1    -0.03  -0.10  -0.03    -0.00  -0.06  -0.05     0.00   0.04  -0.00
  30   1     0.01  -0.22  -0.01     0.00   0.10  -0.07    -0.01  -0.03   0.05
  31   1    -0.06  -0.16   0.02    -0.01   0.05  -0.02    -0.01  -0.00   0.03
  32   1     0.05   0.04   0.00    -0.06   0.01   0.06     0.07   0.01  -0.01
  33   1     0.14   0.02  -0.06    -0.03   0.02   0.02    -0.28  -0.21   0.29
  34   1     0.05   0.04  -0.03     0.13   0.04   0.01     0.39  -0.23   0.11
  35   1     0.10  -0.07  -0.04     0.03   0.13  -0.09    -0.03   0.23  -0.18
                      7                      8                      9
                        a                      a                      a 
 Frequencies --   198.3896               220.0922               229.8008
 Red. masses --     7.1250                10.1914                11.2590
 Frc consts  --     0.0000                 0.0000                 0.0000
 IR Inten    --     2.8226                 7.4543                 6.3196
 Raman Activ --     0.0000                 0.0000                 0.0000
 Depolar     --     0.0000                 0.0000                 0.0000
 Atom AN      X      Y      Z        X      Y      Z        X      Y      Z
   1   6    -0.01   0.04  -0.04     0.00  -0.03   0.09    -0.14  -0.14  -0.02
   2   6    -0.06   0.05  -0.06     0.09  -0.06   0.05     0.07  -0.12   0.13
   3   6    -0.05   0.06  -0.02     0.12  -0.05   0.05     0.13  -0.06   0.10
   4   6     0.11   0.06   0.06     0.20  -0.03   0.09     0.02  -0.05   0.04
   5   6     0.02   0.06  -0.03    -0.04   0.01  -0.01    -0.12  -0.02  -0.04
   6   6    -0.06  -0.04  -0.06    -0.11  -0.07   0.08    -0.16  -0.07  -0.06
   7   6     0.04   0.05  -0.09    -0.01   0.08   0.00    -0.17   0.06  -0.15
   8   6     0.04   0.05  -0.05    -0.04   0.06  -0.03    -0.16   0.05  -0.07
   9   8     0.10  -0.43  -0.03    -0.43  -0.01   0.37     0.02   0.07  -0.39
  10   6     0.10   0.14   0.31    -0.06  -0.09  -0.19     0.02  -0.01   0.23
  11   6     0.02  -0.06   0.02    -0.06  -0.05   0.02    -0.23   0.11   0.14
  12   6    -0.06   0.04  -0.09     0.10   0.04  -0.08     0.08  -0.04   0.11
  13   6    -0.05  -0.15   0.03     0.12   0.02  -0.05     0.05   0.16  -0.03
  14   1    -0.03   0.01  -0.02     0.02  -0.04   0.02     0.03  -0.02   0.04
  15   8    -0.06   0.11   0.08     0.14  -0.11  -0.09     0.37  -0.20   0.04
  16   6    -0.08   0.06  -0.11     0.02   0.25  -0.24     0.14   0.15  -0.03
  17   1    -0.02   0.01  -0.03     0.03  -0.02  -0.00     0.06  -0.02   0.05
  18   1    -0.04   0.01   0.02     0.02  -0.02   0.03     0.05   0.01   0.01
  19   1     0.07  -0.03   0.01     0.10  -0.07   0.03    -0.00  -0.04   0.03
  20   1     0.05   0.05   0.07     0.10   0.05   0.06     0.03   0.01  -0.00
  21   1    -0.00   0.01  -0.02    -0.02   0.02  -0.01    -0.04  -0.00  -0.02
  22   1    -0.06  -0.01  -0.06    -0.04  -0.03  -0.00    -0.04  -0.01   0.03
  23   1     0.01   0.03  -0.02     0.02   0.04   0.00    -0.03   0.07  -0.03
  24   1     0.00   0.01  -0.05    -0.02   0.02  -0.02    -0.08   0.01  -0.10
  25   1     0.04  -0.08  -0.00    -0.21   0.10   0.01     0.06   0.05  -0.07
  26   1    -0.05   0.05   0.22     0.04  -0.03  -0.14    -0.07   0.07   0.15
  27   1     0.18   0.06   0.13    -0.12  -0.02  -0.08     0.12   0.03   0.09
  28   1     0.01  -0.03   0.01    -0.01  -0.02   0.01    -0.12   0.06   0.05
  29   1     0.00  -0.03   0.01    -0.02  -0.02   0.01    -0.03   0.03   0.09
  30   1    -0.01  -0.06   0.01     0.02   0.05  -0.04     0.01   0.10  -0.04
  31   1    -0.02  -0.07   0.03     0.05  -0.05   0.02     0.02   0.03   0.00
  32   1    -0.17   0.02   0.01     0.12  -0.03  -0.02    -0.08  -0.05  -0.00
  33   1    -0.28  -0.12   0.13    -0.14  -0.02  -0.03     0.07   0.05  -0.07
  34   1     0.28  -0.12   0.02     0.16   0.03  -0.03     0.02   0.11   0.02
  35   1    -0.07   0.28  -0.23    -0.02   0.23  -0.17     0.05   0.02  -0.02
                     10                     11                     12
                        a                      a                      a 
 Frequencies --   262.5374               273.1855               280.1503
 Red. masses --     7.7380                 6.7321                 7.1424
 Frc consts  --     0.0000                 0.0000                 0.0000
 IR Inten    --    41.1160                33.8746               116.6144
 Raman Activ --     0.0000                 0.0000                 0.0000
 Depolar     --     0.0000                 0.0000                 0.0000
 Atom AN      X      Y      Z        X      Y      Z        X      Y      Z
   1   6     0.08   0.06  -0.05     0.04  -0.04  -0.12     0.04   0.06  -0.07
   2   6     0.08   0.06  -0.03    -0.07  -0.01  -0.14     0.06  -0.00  -0.14
   3   6    -0.07  -0.07  -0.05    -0.00   0.04   0.09    -0.02  -0.10  -0.00
   4   6    -0.31  -0.17  -0.16     0.31  -0.02   0.25     0.06  -0.19   0.06
   5   6     0.03  -0.21   0.07     0.10  -0.04  -0.05    -0.04  -0.17   0.03
   6   6     0.07  -0.09  -0.02     0.07  -0.02  -0.10     0.06   0.00  -0.03
   7   6     0.06   0.12  -0.13     0.03  -0.04  -0.11     0.01   0.07  -0.09
   8   6     0.01  -0.12   0.05     0.09   0.04  -0.09    -0.03  -0.06   0.00
   9   8    -0.10  -0.16   0.19    -0.11   0.20  -0.06    -0.18   0.39   0.01
  10   6     0.08   0.05   0.07     0.07  -0.02   0.06     0.05   0.06   0.07
  11   6    -0.03   0.28   0.21     0.04  -0.01   0.11    -0.07   0.16   0.13
  12   6     0.11   0.04  -0.08    -0.12  -0.04  -0.06     0.06  -0.03  -0.13
  13   6     0.12  -0.05  -0.03    -0.03   0.01   0.05     0.18   0.00   0.03
  14   1     0.02   0.01  -0.01    -0.04   0.02  -0.05     0.01  -0.00  -0.04
  15   8    -0.09   0.10   0.04    -0.04   0.01   0.06    -0.06   0.08   0.03
  16   6     0.08   0.01  -0.06    -0.30  -0.15   0.04    -0.14  -0.14  -0.03
  17   1    -0.05   0.00   0.03     0.00   0.00   0.01    -0.04  -0.01   0.01
  18   1     0.02  -0.03  -0.05    -0.06   0.03   0.07    -0.02  -0.03   0.01
  19   1    -0.17   0.08  -0.04     0.17  -0.11   0.06     0.04  -0.11   0.02
  20   1    -0.16  -0.15  -0.13     0.13   0.06   0.17     0.04  -0.02   0.05
  21   1     0.02  -0.07   0.03     0.02  -0.04  -0.02    -0.00  -0.05   0.01
  22   1     0.03  -0.04  -0.04     0.04  -0.01  -0.00     0.09  -0.02  -0.02
  23   1     0.01   0.11  -0.03     0.01  -0.02  -0.03    -0.00   0.06  -0.02
  24   1     0.04   0.02  -0.11    -0.01  -0.01  -0.02     0.02   0.01  -0.06
  25   1    -0.17   0.36  -0.12    -0.16   0.48  -0.18     0.06  -0.58   0.21
  26   1    -0.00   0.01   0.06    -0.01  -0.00   0.06    -0.01   0.02   0.05
  27   1     0.07   0.01   0.03     0.08  -0.02   0.03     0.06   0.01   0.03
  28   1    -0.10   0.19   0.03    -0.03  -0.01   0.05    -0.08   0.11   0.02
  29   1     0.07   0.08   0.16     0.04   0.01   0.06     0.03   0.04   0.10
  30   1     0.04  -0.03   0.00    -0.02  -0.00   0.06     0.04   0.01   0.06
  31   1     0.03  -0.02  -0.01     0.02   0.02  -0.00     0.10   0.01  -0.00
  32   1    -0.06   0.03   0.01    -0.09   0.03   0.01     0.01  -0.00   0.01
  33   1     0.03   0.00  -0.01    -0.02  -0.00  -0.03    -0.11  -0.08   0.03
  34   1     0.01  -0.01  -0.03    -0.18  -0.04  -0.03    -0.01  -0.10  -0.03
  35   1     0.02  -0.00   0.00    -0.08  -0.10   0.11    -0.06   0.03   0.01
                     13                     14                     15
                        a                      a                      a 
 Frequencies --   310.4702               317.6304               333.1785
 Red. masses --     7.8876                 9.8966                 8.2743
 Frc consts  --     0.0000                 0.0000                 0.0000
 IR Inten    --     2.2150                 3.5465                 7.7078
 Raman Activ --     0.0000                 0.0000                 0.0000
 Depolar     --     0.0000                 0.0000                 0.0000
 Atom AN      X      Y      Z        X      Y      Z        X      Y      Z
   1   6     0.02   0.02  -0.01    -0.10   0.09  -0.05    -0.05   0.06   0.09
   2   6    -0.04   0.04   0.03     0.08   0.01  -0.09     0.05  -0.06  -0.02
   3   6    -0.30  -0.25  -0.26     0.02  -0.07  -0.03    -0.11  -0.22  -0.05
   4   6     0.23  -0.10  -0.01     0.13  -0.15   0.05     0.01  -0.06   0.04
   5   6     0.03  -0.04  -0.02    -0.10  -0.08   0.06    -0.06   0.01   0.24
   6   6    -0.00  -0.06  -0.00    -0.06  -0.04  -0.02     0.00   0.04   0.13
   7   6     0.04   0.06  -0.09    -0.17  -0.23   0.24    -0.05   0.43  -0.08
   8   6     0.02  -0.00  -0.04    -0.19  -0.13   0.12    -0.10   0.12   0.18
   9   8    -0.09   0.05   0.02     0.02  -0.12  -0.09     0.19   0.02   0.00
  10   6     0.02   0.03   0.00    -0.04   0.24  -0.04    -0.07   0.04   0.04
  11   6     0.01   0.04   0.03    -0.13  -0.03  -0.13     0.02  -0.12  -0.27
  12   6    -0.09   0.14   0.17     0.15  -0.01  -0.05     0.06  -0.07  -0.10
  13   6    -0.24  -0.04   0.04     0.31   0.12   0.10     0.13  -0.02  -0.02
  14   1     0.06  -0.01   0.02     0.02  -0.01  -0.02     0.01  -0.05   0.00
  15   8    -0.04   0.06   0.00    -0.14   0.34  -0.05     0.11  -0.03  -0.01
  16   6     0.36   0.11   0.15     0.15  -0.01  -0.05    -0.14  -0.14  -0.03
  17   1    -0.18  -0.06  -0.21    -0.03  -0.00  -0.01    -0.09  -0.05  -0.08
  18   1    -0.13  -0.22   0.01    -0.01  -0.05   0.01    -0.05  -0.14   0.02
  19   1     0.20  -0.12  -0.08     0.09  -0.10   0.00     0.03   0.00  -0.02
  20   1     0.11   0.05   0.13     0.08   0.02   0.06     0.01  -0.00   0.01
  21   1     0.01   0.00  -0.01    -0.01   0.00   0.03     0.00   0.02   0.08
  22   1     0.01  -0.02  -0.00     0.00  -0.02  -0.01     0.02   0.00   0.04
  23   1     0.02   0.05  -0.02    -0.10  -0.19   0.05    -0.01   0.28   0.00
  24   1     0.01   0.01  -0.06     0.00  -0.06   0.20    -0.03   0.10  -0.19
  25   1    -0.03  -0.03   0.01    -0.01   0.14  -0.07     0.06   0.15  -0.02
  26   1     0.00   0.01   0.01    -0.03   0.08   0.01    -0.02   0.03   0.00
  27   1     0.01   0.01   0.00     0.02   0.07  -0.00    -0.03   0.03   0.01
  28   1    -0.02   0.03   0.00     0.01  -0.03  -0.04     0.18  -0.03  -0.15
  29   1     0.02   0.00   0.03    -0.06   0.02  -0.10    -0.13  -0.15  -0.14
  30   1    -0.04  -0.07  -0.03     0.06   0.08   0.09     0.03   0.01   0.03
  31   1    -0.14   0.00   0.01     0.17   0.04   0.02     0.07   0.00  -0.02
  32   1    -0.01   0.02   0.00    -0.06   0.10  -0.02     0.01  -0.02  -0.00
  33   1     0.19   0.09   0.05     0.06   0.01  -0.02    -0.04  -0.05  -0.03
  34   1     0.10   0.08   0.07     0.03   0.01  -0.01    -0.08  -0.06  -0.04
  35   1     0.14  -0.08  -0.01     0.05  -0.02  -0.00    -0.05  -0.03   0.05
                     16                     17                     18
                        a                      a                      a 
 Frequencies --   358.9080               394.4141               425.9596
 Red. masses --     2.3260                10.1788                 9.1869
 Frc consts  --     0.0000                 0.0000                 0.0000
 IR Inten    --   172.1930                 4.8973                 0.5237
 Raman Activ --     0.0000                 0.0000                 0.0000
 Depolar     --     0.0000                 0.0000                 0.0000
 Atom AN      X      Y      Z        X      Y      Z        X      Y      Z
   1   6     0.01  -0.04  -0.02     0.07   0.01  -0.11    -0.03   0.02  -0.13
   2   6     0.00  -0.02   0.02    -0.05   0.17  -0.14    -0.05   0.09  -0.21
   3   6     0.01  -0.01   0.02    -0.31   0.02   0.05     0.17   0.28  -0.14
   4   6    -0.01  -0.00   0.00    -0.17   0.17   0.14     0.14  -0.15  -0.15
   5   6     0.03  -0.01   0.01    -0.03   0.11   0.01     0.09  -0.12   0.07
   6   6     0.05   0.01   0.02     0.01   0.09  -0.13     0.15  -0.04  -0.04
   7   6    -0.01  -0.00  -0.00    -0.03  -0.03   0.07    -0.17   0.05   0.03
   8   6     0.01  -0.01   0.03     0.00   0.12  -0.02    -0.18  -0.17   0.27
   9   8    -0.02   0.03   0.09    -0.07  -0.06  -0.00    -0.02   0.04   0.15
  10   6    -0.02  -0.05  -0.19    -0.00  -0.23   0.06    -0.04  -0.09   0.09
  11   6     0.02  -0.01  -0.02    -0.01  -0.03   0.01    -0.07   0.00  -0.15
  12   6    -0.00  -0.02   0.03     0.04   0.21  -0.24    -0.14   0.20  -0.05
  13   6    -0.02  -0.00  -0.01     0.27   0.07   0.14    -0.14  -0.00   0.08
  14   1     0.00   0.00   0.00    -0.05   0.08  -0.05     0.00   0.02  -0.06
  15   8     0.19   0.04   0.08     0.12  -0.37   0.08     0.08  -0.21   0.07
  16   6     0.00   0.02   0.00     0.19  -0.06  -0.04     0.07   0.07   0.06
  17   1     0.01  -0.01   0.01    -0.16   0.02  -0.07     0.14   0.08   0.14
  18   1     0.01   0.00   0.00    -0.13  -0.08   0.07     0.08   0.26  -0.11
  19   1    -0.01   0.01   0.00    -0.03   0.06   0.02     0.06  -0.07  -0.04
  20   1    -0.01  -0.01  -0.01    -0.06   0.04   0.05     0.04  -0.04   0.01
  21   1     0.01  -0.00   0.01     0.00  -0.03   0.02     0.09   0.03   0.07
  22   1    -0.02   0.02   0.03    -0.01   0.02  -0.06     0.08  -0.03  -0.03
  23   1    -0.01   0.02   0.00    -0.03  -0.10   0.01    -0.11   0.09   0.02
  24   1    -0.01  -0.00  -0.02    -0.02   0.00   0.11    -0.01  -0.00  -0.06
  25   1     0.00  -0.08   0.04    -0.04  -0.03  -0.01    -0.06  -0.01   0.01
  26   1     0.03  -0.00  -0.11    -0.01  -0.06   0.03    -0.05  -0.00   0.08
  27   1    -0.07  -0.07  -0.06     0.02  -0.08   0.02     0.06  -0.04   0.05
  28   1     0.02  -0.00  -0.01     0.01  -0.04   0.02     0.08   0.01  -0.09
  29   1    -0.00  -0.00  -0.02    -0.02  -0.00  -0.02    -0.09  -0.03  -0.11
  30   1    -0.00   0.00  -0.01     0.05   0.02   0.15    -0.03  -0.04   0.03
  31   1    -0.01  -0.01   0.00     0.17   0.03   0.03    -0.05  -0.01   0.03
  32   1    -0.86   0.34  -0.06    -0.06  -0.08   0.01    -0.01  -0.07   0.02
  33   1    -0.00   0.00  -0.01     0.08   0.01   0.08     0.07   0.06   0.10
  34   1     0.01   0.01   0.01     0.05  -0.09  -0.05     0.05  -0.01   0.01
  35   1     0.00   0.01  -0.01     0.07  -0.07   0.00     0.04  -0.04  -0.02
                     19                     20                     21
                        a                      a                      a 
 Frequencies --   470.2296               478.5164               513.8519
 Red. masses --     8.4825                 8.6676                11.1295
 Frc consts  --     0.0000                 0.0000                 0.0000
 IR Inten    --     2.4007                 3.0033                 3.7367
 Raman Activ --     0.0000                 0.0000                 0.0000
 Depolar     --     0.0000                 0.0000                 0.0000
 Atom AN      X      Y      Z        X      Y      Z        X      Y      Z
   1   6     0.10  -0.02  -0.28    -0.10  -0.14  -0.11    -0.03  -0.01   0.05
   2   6     0.16   0.01   0.00    -0.22  -0.17  -0.06    -0.00   0.03   0.07
   3   6     0.03  -0.14   0.10    -0.06   0.02   0.03    -0.00   0.05  -0.01
   4   6    -0.05   0.09   0.06    -0.06   0.11   0.02     0.04   0.12  -0.01
   5   6     0.13   0.06   0.12     0.14   0.05   0.05    -0.03   0.13   0.12
   6   6     0.13  -0.02  -0.30     0.07  -0.02  -0.03    -0.27  -0.07  -0.05
   7   6    -0.16   0.02   0.10    -0.08  -0.02  -0.15     0.11  -0.07   0.01
   8   6    -0.06   0.16   0.20     0.13   0.03   0.08     0.16  -0.36   0.40
   9   8    -0.24   0.02  -0.06    -0.08   0.05   0.12    -0.30  -0.02  -0.38
  10   6     0.16  -0.04  -0.00     0.03   0.05  -0.02    -0.04   0.01  -0.02
  11   6     0.01  -0.04  -0.05     0.18  -0.03   0.00     0.32   0.09   0.04
  12   6     0.15  -0.12   0.22    -0.22  -0.38   0.12     0.04   0.09  -0.07
  13   6    -0.09  -0.06  -0.17     0.02   0.23   0.18     0.04  -0.03  -0.01
  14   1     0.06   0.08  -0.02    -0.05  -0.02  -0.02    -0.01  -0.01   0.02
  15   8    -0.04   0.04   0.02    -0.05   0.12  -0.00     0.00  -0.01  -0.01
  16   6    -0.07   0.09   0.10     0.19  -0.07  -0.20    -0.02  -0.00   0.00
  17   1    -0.05  -0.03  -0.06     0.04  -0.02   0.02    -0.00   0.01  -0.03
  18   1    -0.00  -0.13   0.06    -0.03   0.06   0.00    -0.01  -0.01   0.01
  19   1    -0.08   0.12   0.02    -0.04   0.09  -0.00     0.03   0.02  -0.01
  20   1    -0.06  -0.04  -0.07    -0.06  -0.02  -0.02     0.02   0.05   0.01
  21   1     0.12  -0.02   0.10     0.05  -0.01   0.02     0.00   0.08   0.04
  22   1     0.04  -0.02  -0.13     0.01   0.00  -0.00    -0.11  -0.01  -0.02
  23   1    -0.13  -0.07   0.01    -0.03   0.09  -0.03    -0.04   0.18   0.03
  24   1    -0.05   0.02   0.12    -0.06  -0.01  -0.14     0.11  -0.05  -0.18
  25   1    -0.15  -0.08  -0.05    -0.07  -0.06   0.02    -0.02  -0.03  -0.06
  26   1    -0.01   0.01   0.08    -0.03   0.04   0.04     0.01  -0.01  -0.04
  27   1     0.15  -0.04   0.03     0.07   0.02   0.01    -0.06   0.01  -0.02
  28   1     0.12  -0.07  -0.03     0.10  -0.03  -0.00     0.10  -0.01   0.04
  29   1    -0.09  -0.04  -0.10     0.02  -0.02  -0.03     0.11   0.11  -0.05
  30   1     0.02  -0.08  -0.14    -0.06   0.18   0.17     0.01  -0.00  -0.01
  31   1    -0.15   0.00  -0.05     0.18   0.10   0.01     0.01  -0.03   0.01
  32   1     0.03   0.00   0.01     0.06   0.02   0.00    -0.01   0.00  -0.00
  33   1    -0.08  -0.03  -0.07     0.09  -0.01  -0.11    -0.01   0.00   0.03
  34   1    -0.03   0.08   0.05     0.14   0.13   0.06    -0.02  -0.05  -0.03
  35   1    -0.04   0.11   0.04     0.08  -0.05  -0.22    -0.01  -0.00   0.04
                     22                     23                     24
                        a                      a                      a 
 Frequencies --   529.9639               568.7261               590.3537
 Red. masses --     9.6313                 9.1583                10.0959
 Frc consts  --     0.0000                 0.0000                 0.0000
 IR Inten    --    13.2384                 4.3227                 4.5308
 Raman Activ --     0.0000                 0.0000                 0.0000
 Depolar     --     0.0000                 0.0000                 0.0000
 Atom AN      X      Y      Z        X      Y      Z        X      Y      Z
   1   6     0.04  -0.10   0.09     0.05  -0.19  -0.05     0.35   0.01   0.15
   2   6    -0.03  -0.17  -0.01     0.03  -0.22   0.04    -0.05   0.00  -0.01
   3   6     0.13  -0.12   0.00     0.13  -0.24   0.22    -0.03   0.06  -0.03
   4   6    -0.01  -0.12  -0.06    -0.01   0.19   0.10    -0.02   0.01  -0.03
   5   6     0.06  -0.06   0.15    -0.01   0.14  -0.12    -0.16   0.04  -0.03
   6   6    -0.10  -0.25   0.03     0.08   0.15  -0.04    -0.05   0.02  -0.06
   7   6     0.00   0.12   0.12    -0.09  -0.10  -0.12     0.20   0.20   0.24
   8   6     0.12   0.42  -0.05    -0.16  -0.20   0.04    -0.23  -0.05   0.07
   9   8    -0.18   0.04  -0.24     0.11   0.01   0.17    -0.05  -0.07  -0.16
  10   6     0.11   0.03  -0.03     0.21  -0.02  -0.07     0.45  -0.17  -0.07
  11   6     0.09  -0.06   0.08    -0.15   0.03  -0.08    -0.24   0.05  -0.05
  12   6    -0.17   0.29  -0.21    -0.10   0.29  -0.18    -0.12  -0.18   0.06
  13   6    -0.07  -0.03   0.12    -0.05  -0.05   0.07    -0.07   0.07   0.06
  14   1    -0.02  -0.10   0.01    -0.01  -0.03   0.00    -0.02  -0.02   0.00
  15   8    -0.06   0.13  -0.03    -0.09   0.16  -0.03    -0.09   0.02   0.00
  16   6     0.05  -0.00  -0.01     0.03   0.02   0.03     0.00  -0.07  -0.10
  17   1     0.11  -0.05   0.09     0.06  -0.10  -0.02     0.03   0.01   0.03
  18   1     0.06   0.07  -0.05    -0.00  -0.09   0.10     0.00   0.07  -0.03
  19   1    -0.07   0.08  -0.02    -0.07   0.07   0.07     0.05  -0.08  -0.01
  20   1    -0.05  -0.11  -0.10     0.01   0.06  -0.07     0.04   0.07   0.05
  21   1     0.02  -0.01   0.04     0.01   0.01  -0.02     0.00   0.03   0.03
  22   1    -0.02  -0.07   0.02    -0.02   0.07   0.01    -0.04   0.00  -0.03
  23   1     0.03  -0.09   0.02    -0.04   0.14  -0.01     0.07   0.09   0.08
  24   1    -0.11   0.06   0.16    -0.00  -0.05  -0.20     0.08   0.05   0.01
  25   1    -0.00  -0.03  -0.03    -0.00  -0.01   0.03     0.02   0.01  -0.03
  26   1     0.04   0.00  -0.01     0.04   0.00   0.01     0.19  -0.14  -0.06
  27   1     0.02   0.01  -0.01     0.09  -0.01  -0.01     0.05  -0.07  -0.04
  28   1     0.11   0.00  -0.03    -0.08  -0.08   0.05    -0.08   0.03  -0.02
  29   1    -0.05  -0.13   0.04    -0.01   0.13  -0.10    -0.06   0.01   0.00
  30   1    -0.04   0.05   0.02    -0.03   0.08  -0.06    -0.03  -0.00   0.11
  31   1     0.02  -0.09   0.09    -0.00  -0.14   0.11     0.03   0.10  -0.05
  32   1    -0.01   0.05  -0.01     0.06   0.05  -0.00    -0.01   0.04  -0.00
  33   1     0.08   0.06   0.16     0.06   0.06   0.16     0.01  -0.02  -0.08
  34   1     0.02  -0.11  -0.05    -0.00  -0.12  -0.06     0.04   0.06   0.03
  35   1     0.04  -0.10  -0.01     0.03  -0.08   0.03     0.01  -0.02  -0.10
                     25                     26                     27
                        a                      a                      a 
 Frequencies --   620.0040               698.1526               701.4764
 Red. masses --    10.2050                 4.9357                 5.0842
 Frc consts  --     0.0000                 0.0000                 0.0000
 IR Inten    --     4.6361                 4.3383                 5.0455
 Raman Activ --     0.0000                 0.0000                 0.0000
 Depolar     --     0.0000                 0.0000                 0.0000
 Atom AN      X      Y      Z        X      Y      Z        X      Y      Z
   1   6    -0.03  -0.22   0.11    -0.03  -0.16  -0.13    -0.04  -0.20  -0.04
   2   6    -0.12   0.14   0.35    -0.04  -0.04   0.03     0.01  -0.01  -0.19
   3   6    -0.19   0.29  -0.14    -0.11   0.09  -0.09    -0.01  -0.04  -0.01
   4   6     0.04   0.13  -0.07    -0.08   0.04  -0.04    -0.05  -0.06   0.01
   5   6     0.29  -0.06  -0.11    -0.21   0.07   0.11    -0.15   0.05   0.09
   6   6     0.07  -0.38   0.14    -0.10   0.15   0.03    -0.16  -0.02   0.19
   7   6    -0.15  -0.06  -0.03    -0.09  -0.10  -0.13    -0.14  -0.11  -0.10
   8   6    -0.11   0.05  -0.02     0.07  -0.03   0.07     0.08   0.11  -0.01
   9   8    -0.02   0.11  -0.01     0.06   0.00   0.09     0.06   0.03   0.07
  10   6     0.17  -0.04  -0.04     0.23  -0.10  -0.09     0.20  -0.08  -0.08
  11   6    -0.13  -0.01  -0.05     0.11   0.00   0.03     0.08  -0.01   0.04
  12   6     0.16   0.02  -0.05     0.11  -0.02   0.04     0.08   0.11  -0.04
  13   6     0.16  -0.04  -0.07     0.08  -0.03  -0.05     0.07  -0.02  -0.04
  14   1    -0.05   0.01   0.10     0.00   0.02   0.00     0.01  -0.01  -0.05
  15   8    -0.07   0.07   0.01    -0.05   0.04  -0.00    -0.06   0.05  -0.00
  16   6    -0.02  -0.02  -0.01     0.00   0.05   0.07     0.01   0.10   0.11
  17   1    -0.07   0.07  -0.11     0.03   0.02   0.06     0.03  -0.00   0.09
  18   1    -0.05  -0.01  -0.02     0.01   0.10  -0.08     0.00   0.09  -0.03
  19   1     0.04   0.06  -0.05     0.11  -0.13  -0.05     0.00  -0.02  -0.01
  20   1    -0.06  -0.04   0.08     0.06   0.14   0.12     0.01   0.01  -0.00
  21   1     0.10   0.02  -0.01    -0.07   0.03   0.02    -0.10   0.02  -0.02
  22   1    -0.00  -0.07   0.11    -0.05   0.06   0.04    -0.06   0.02   0.10
  23   1    -0.00   0.06   0.00    -0.05  -0.09  -0.05    -0.05   0.05  -0.02
  24   1    -0.09  -0.02  -0.10    -0.10  -0.01   0.04    -0.11  -0.03  -0.10
  25   1     0.00  -0.02   0.01     0.03   0.02   0.03     0.08   0.03   0.05
  26   1     0.03  -0.01   0.02     0.03  -0.02   0.02     0.03  -0.01   0.01
  27   1     0.08  -0.01  -0.00     0.11  -0.05  -0.01     0.10  -0.02  -0.01
  28   1    -0.01  -0.08   0.02     0.11   0.35  -0.24     0.03  -0.10   0.07
  29   1    -0.06   0.04  -0.09    -0.05  -0.35   0.26     0.03   0.08  -0.07
  30   1     0.04   0.04  -0.04     0.01   0.15  -0.18     0.11  -0.44   0.23
  31   1     0.06  -0.05   0.01     0.02  -0.18   0.11    -0.10   0.37  -0.28
  32   1     0.01   0.04   0.00     0.04   0.05   0.00     0.04   0.05  -0.00
  33   1    -0.05  -0.03  -0.01    -0.01   0.01   0.04    -0.03  -0.00  -0.05
  34   1    -0.06  -0.06  -0.05    -0.02  -0.03  -0.02     0.00   0.09   0.06
  35   1    -0.03   0.04   0.09    -0.01   0.02   0.08    -0.01   0.09   0.02
                     28                     29                     30
                        a                      a                      a 
 Frequencies --   720.1216               788.1436               813.6476
 Red. masses --     3.9405                 7.5523                 8.9540
 Frc consts  --     0.0000                 0.0000                 0.0000
 IR Inten    --     4.9436                 1.2507                 0.2147
 Raman Activ --     0.0000                 0.0000                 0.0000
 Depolar     --     0.0000                 0.0000                 0.0000
 Atom AN      X      Y      Z        X      Y      Z        X      Y      Z
   1   6    -0.02   0.00   0.05    -0.00  -0.07   0.08    -0.02   0.07  -0.17
   2   6     0.02   0.03   0.07    -0.10  -0.16   0.41     0.12   0.29   0.42
   3   6     0.16  -0.01   0.10    -0.13  -0.13   0.03     0.15  -0.01   0.08
   4   6     0.13   0.23   0.03    -0.15  -0.07  -0.09     0.06  -0.20  -0.16
   5   6     0.15  -0.00  -0.04     0.09   0.03  -0.17    -0.14   0.00  -0.02
   6   6     0.02  -0.10   0.03     0.22   0.21  -0.31    -0.08   0.06   0.02
   7   6     0.04  -0.05  -0.05    -0.03   0.04   0.08    -0.13   0.05  -0.11
   8   6    -0.09  -0.20   0.02     0.02   0.02   0.04     0.06   0.01   0.07
   9   8    -0.04   0.02  -0.03    -0.02  -0.05  -0.01     0.06   0.02   0.08
  10   6    -0.09   0.04   0.02    -0.14   0.06   0.05     0.11  -0.08  -0.11
  11   6    -0.10   0.00  -0.07     0.06   0.01   0.02     0.12   0.02   0.05
  12   6    -0.09   0.09  -0.08     0.02   0.10  -0.10    -0.13   0.06  -0.02
  13   6    -0.05   0.01   0.05     0.06  -0.04  -0.01    -0.15   0.04   0.09
  14   1    -0.02  -0.01   0.02    -0.03  -0.08   0.12     0.04   0.12   0.10
  15   8     0.01  -0.00  -0.00     0.02   0.05  -0.02    -0.01  -0.07   0.04
  16   6    -0.00  -0.03  -0.06    -0.01   0.01  -0.03    -0.04  -0.20  -0.28
  17   1    -0.01  -0.02  -0.17     0.12  -0.07   0.18    -0.11   0.05  -0.05
  18   1    -0.03  -0.15   0.13     0.08   0.13  -0.14     0.10  -0.19   0.02
  19   1    -0.09   0.15   0.06     0.15  -0.20  -0.09     0.01  -0.09  -0.02
  20   1    -0.02  -0.03  -0.12     0.05   0.12   0.18     0.05  -0.01  -0.06
  21   1     0.07   0.05   0.01     0.11  -0.06   0.02    -0.08   0.06  -0.04
  22   1    -0.01  -0.02   0.02     0.01   0.07  -0.10    -0.01   0.02   0.02
  23   1     0.04  -0.09  -0.03     0.01   0.03   0.03    -0.15  -0.11  -0.05
  24   1     0.03  -0.01   0.05    -0.03   0.01   0.00     0.00   0.03   0.12
  25   1    -0.01  -0.02  -0.00    -0.13  -0.05  -0.07     0.04   0.02   0.03
  26   1    -0.02   0.01  -0.00    -0.03   0.04  -0.01    -0.03  -0.00   0.06
  27   1    -0.03   0.02   0.00    -0.06   0.04   0.00     0.15  -0.04   0.00
  28   1     0.01   0.36  -0.26     0.05   0.02  -0.02     0.06  -0.08   0.06
  29   1    -0.09  -0.34   0.26    -0.01  -0.05   0.02     0.03   0.05  -0.05
  30   1     0.02  -0.23   0.22     0.03  -0.15   0.14    -0.07   0.02   0.13
  31   1    -0.03   0.24  -0.16     0.02   0.17  -0.14     0.03   0.05  -0.00
  32   1    -0.01  -0.01  -0.00    -0.00  -0.02  -0.00     0.02   0.04   0.01
  33   1     0.00  -0.01  -0.04    -0.02  -0.00  -0.01    -0.01  -0.05  -0.05
  34   1     0.01   0.02   0.00    -0.02  -0.02  -0.03    -0.02  -0.08  -0.09
  35   1     0.00  -0.01  -0.06    -0.02   0.03   0.03    -0.01  -0.08  -0.08
                     31                     32                     33
                        a                      a                      a 
 Frequencies --   877.1816               882.9112               891.8529
 Red. masses --     7.6373                 6.8295                 4.0631
 Frc consts  --     0.0000                 0.0000                 0.0000
 IR Inten    --     0.3708                 5.6115                54.0529
 Raman Activ --     0.0000                 0.0000                 0.0000
 Depolar     --     0.0000                 0.0000                 0.0000
 Atom AN      X      Y      Z        X      Y      Z        X      Y      Z
   1   6    -0.01   0.05  -0.15     0.02   0.03   0.08    -0.01  -0.01  -0.00
   2   6     0.05  -0.12   0.13     0.06   0.09   0.09    -0.01  -0.01  -0.03
   3   6     0.01  -0.04  -0.16     0.04   0.03  -0.08     0.03   0.05   0.01
   4   6    -0.10   0.34   0.05     0.05  -0.03   0.02    -0.00  -0.01  -0.01
   5   6    -0.16  -0.01   0.39    -0.01   0.00   0.33    -0.03  -0.04  -0.11
   6   6     0.06  -0.24   0.03     0.01   0.16  -0.10     0.02   0.01  -0.00
   7   6     0.21   0.08  -0.15    -0.00  -0.33  -0.21    -0.04   0.07   0.13
   8   6    -0.04  -0.07  -0.05    -0.03   0.16  -0.09     0.04   0.03  -0.02
   9   8     0.03   0.06   0.04    -0.02  -0.02  -0.02     0.00  -0.01  -0.00
  10   6    -0.11  -0.01  -0.13     0.08   0.03   0.18    -0.02  -0.01  -0.06
  11   6    -0.09  -0.07  -0.07    -0.16  -0.20   0.16     0.01  -0.22   0.15
  12   6    -0.01   0.04  -0.02    -0.01   0.01   0.03    -0.02   0.07  -0.07
  13   6    -0.01  -0.04   0.04    -0.05   0.08  -0.02     0.05  -0.31   0.21
  14   1     0.05  -0.06   0.04     0.05   0.01   0.03    -0.02  -0.01  -0.01
  15   8     0.01  -0.03   0.03    -0.00   0.03  -0.04    -0.00  -0.02   0.02
  16   6    -0.01  -0.02  -0.04    -0.01  -0.06  -0.09     0.00  -0.01   0.05
  17   1     0.15  -0.06   0.01    -0.02   0.03   0.00    -0.03   0.02  -0.06
  18   1     0.07   0.08  -0.13     0.04  -0.01  -0.05    -0.02  -0.04   0.04
  19   1     0.12   0.07  -0.10     0.03   0.07  -0.05    -0.03  -0.03   0.04
  20   1     0.03   0.18   0.09    -0.00  -0.03  -0.02     0.00   0.00  -0.01
  21   1    -0.02  -0.07   0.13     0.05  -0.03   0.14    -0.03  -0.01  -0.05
  22   1     0.10  -0.09  -0.01     0.03   0.01  -0.07    -0.00   0.00   0.00
  23   1     0.03  -0.17  -0.07     0.07   0.01  -0.04    -0.02   0.07   0.05
  24   1     0.16   0.03   0.15    -0.03  -0.10  -0.16    -0.02   0.01  -0.02
  25   1    -0.03  -0.01  -0.01    -0.04  -0.02  -0.03    -0.00   0.00  -0.00
  26   1    -0.13   0.06   0.10     0.17  -0.08  -0.15    -0.05   0.02   0.04
  27   1     0.15  -0.01   0.02    -0.23  -0.01  -0.02     0.07   0.01   0.00
  28   1    -0.17  -0.02   0.04     0.07   0.25  -0.20     0.07   0.30  -0.20
  29   1     0.09   0.16  -0.04    -0.03   0.25  -0.24     0.09   0.25  -0.16
  30   1    -0.01   0.01   0.00    -0.00  -0.08   0.08    -0.06   0.39  -0.28
  31   1    -0.01   0.08  -0.05    -0.00  -0.07   0.07    -0.05   0.37  -0.27
  32   1     0.01   0.06   0.00    -0.04  -0.11  -0.00     0.01   0.04   0.00
  33   1    -0.00  -0.00   0.00    -0.01  -0.02  -0.01    -0.00  -0.01  -0.05
  34   1    -0.00  -0.02  -0.02    -0.01  -0.04  -0.04     0.01   0.06   0.05
  35   1    -0.00  -0.01  -0.01    -0.00  -0.02  -0.02    -0.00   0.02  -0.02
                     34                     35                     36
                        a                      a                      a 
 Frequencies --   894.0989               918.4722               938.2852
 Red. masses --     4.9817                 7.6080                 6.2878
 Frc consts  --     0.0000                 0.0000                 0.0000
 IR Inten    --     4.7477                11.1115                 7.9003
 Raman Activ --     0.0000                 0.0000                 0.0000
 Depolar     --     0.0000                 0.0000                 0.0000
 Atom AN      X      Y      Z        X      Y      Z        X      Y      Z
   1   6    -0.02  -0.05  -0.04    -0.03   0.06  -0.08    -0.08  -0.16   0.00
   2   6    -0.00  -0.04  -0.04    -0.24   0.04   0.06     0.03   0.11   0.04
   3   6     0.01  -0.01   0.03    -0.16  -0.18   0.18     0.05   0.08  -0.05
   4   6    -0.06   0.07  -0.01     0.21  -0.23  -0.11     0.08  -0.12   0.00
   5   6    -0.04  -0.04  -0.21     0.24   0.19   0.05    -0.08   0.04   0.22
   6   6     0.03  -0.11   0.03    -0.15   0.13   0.07     0.05   0.15  -0.10
   7   6    -0.03   0.18   0.23     0.22   0.03  -0.14     0.13  -0.23   0.32
   8   6     0.05  -0.01  -0.01    -0.07  -0.05   0.01     0.01   0.14  -0.13
   9   8     0.01   0.01   0.01    -0.04   0.00  -0.01    -0.02  -0.03  -0.02
  10   6    -0.08  -0.03  -0.12    -0.01  -0.02  -0.15    -0.13  -0.03  -0.21
  11   6     0.05  -0.25   0.14    -0.14  -0.05   0.01    -0.03  -0.01  -0.13
  12   6     0.01  -0.06   0.04     0.03  -0.07  -0.04     0.00   0.03   0.02
  13   6    -0.03   0.23  -0.17     0.05  -0.05  -0.10    -0.02   0.02   0.03
  14   1    -0.01   0.00  -0.01    -0.10   0.08  -0.00     0.04   0.06   0.01
  15   8     0.01  -0.01   0.02    -0.01  -0.08   0.04    -0.01  -0.03   0.04
  16   6    -0.00   0.03   0.01     0.04   0.09   0.12     0.01  -0.04  -0.07
  17   1     0.01  -0.02  -0.04     0.03  -0.04   0.22    -0.08   0.06  -0.03
  18   1    -0.02  -0.02   0.03    -0.03   0.12  -0.00     0.01  -0.04   0.00
  19   1    -0.02  -0.07   0.04     0.00   0.11  -0.07    -0.01   0.06  -0.01
  20   1     0.02   0.06   0.02    -0.02  -0.18  -0.12     0.00  -0.07  -0.07
  21   1    -0.05  -0.01  -0.09     0.13   0.19   0.06     0.03  -0.00   0.10
  22   1    -0.00  -0.02   0.03    -0.13   0.07   0.04     0.00   0.04  -0.03
  23   1    -0.04   0.08   0.07     0.07  -0.13  -0.06     0.23   0.27   0.14
  24   1    -0.01   0.04   0.02     0.15   0.01   0.09    -0.05  -0.09  -0.27
  25   1     0.01   0.01   0.00     0.07   0.02   0.04    -0.06  -0.03  -0.03
  26   1    -0.13   0.06   0.11    -0.09   0.02   0.09    -0.19   0.07   0.16
  27   1     0.16   0.00   0.01     0.15   0.02  -0.00     0.23   0.06   0.00
  28   1     0.04   0.32  -0.21    -0.01   0.08  -0.07    -0.17  -0.01   0.04
  29   1     0.14   0.27  -0.14    -0.04   0.09  -0.10     0.06  -0.11   0.17
  30   1     0.05  -0.30   0.21    -0.02   0.04   0.04    -0.00  -0.00  -0.00
  31   1     0.04  -0.28   0.21     0.12  -0.03  -0.03    -0.02   0.00   0.01
  32   1     0.03   0.07   0.00     0.04   0.09   0.01     0.07   0.16   0.00
  33   1     0.01   0.02   0.05    -0.02   0.01   0.01    -0.01  -0.02  -0.02
  34   1     0.00  -0.03  -0.02    -0.01   0.02   0.02    -0.01  -0.03  -0.03
  35   1     0.01  -0.02   0.01    -0.01   0.07   0.08    -0.00  -0.01  -0.00
                     37                     38                     39
                        a                      a                      a 
 Frequencies --   943.3268               958.8799               971.9981
 Red. masses --     6.9074                 5.5494                 7.2057
 Frc consts  --     0.0000                 0.0000                 0.0000
 IR Inten    --     8.3060                 2.5328                 0.7299
 Raman Activ --     0.0000                 0.0000                 0.0000
 Depolar     --     0.0000                 0.0000                 0.0000
 Atom AN      X      Y      Z        X      Y      Z        X      Y      Z
   1   6    -0.06   0.06   0.02    -0.00   0.00   0.00     0.08   0.03  -0.10
   2   6    -0.25  -0.07   0.14     0.05   0.05  -0.02    -0.01   0.26  -0.06
   3   6     0.10   0.11  -0.09    -0.14  -0.11   0.06    -0.01  -0.27   0.23
   4   6     0.18  -0.03   0.02     0.05  -0.03  -0.01    -0.03   0.11  -0.22
   5   6    -0.17  -0.11   0.16     0.18   0.12   0.06    -0.10   0.12  -0.02
   6   6     0.06   0.14  -0.13    -0.04   0.01   0.05     0.10  -0.36   0.04
   7   6    -0.17   0.14   0.03    -0.23   0.13   0.06    -0.03  -0.14   0.13
   8   6     0.06  -0.06  -0.06     0.03  -0.10  -0.09     0.02   0.09  -0.03
   9   8     0.02  -0.02   0.00    -0.03  -0.00  -0.02     0.05   0.06   0.03
  10   6     0.15  -0.02   0.05     0.07  -0.00   0.09    -0.04   0.08   0.11
  11   6     0.12  -0.11  -0.14     0.09  -0.21  -0.25     0.01  -0.02  -0.04
  12   6    -0.02  -0.08  -0.10     0.05   0.07   0.08    -0.02  -0.05  -0.02
  13   6    -0.01  -0.11  -0.19     0.07   0.10   0.15    -0.09  -0.10  -0.09
  14   1    -0.08  -0.07   0.05     0.01   0.04  -0.01    -0.03   0.22  -0.06
  15   8    -0.01  -0.01  -0.00    -0.00   0.03  -0.02     0.01   0.01  -0.00
  16   6     0.07   0.18   0.20    -0.05  -0.14  -0.15     0.04   0.04   0.07
  17   1     0.03  -0.01  -0.18    -0.00  -0.01   0.17     0.01  -0.05   0.18
  18   1    -0.06  -0.05   0.07     0.01   0.10  -0.05     0.08   0.01  -0.03
  19   1    -0.09   0.10   0.06     0.05   0.08  -0.08     0.10  -0.04  -0.12
  20   1    -0.00  -0.09  -0.13    -0.02  -0.05   0.00     0.12   0.20  -0.08
  21   1    -0.06  -0.04   0.03     0.10   0.07   0.06    -0.06   0.11  -0.04
  22   1     0.10  -0.01  -0.07    -0.06   0.02   0.02     0.09  -0.12  -0.01
  23   1    -0.12  -0.01  -0.00    -0.17   0.01   0.01    -0.02   0.14   0.06
  24   1    -0.08   0.05   0.06    -0.09   0.04   0.04    -0.03  -0.06  -0.14
  25   1    -0.07  -0.03  -0.04     0.03   0.01   0.01    -0.02   0.01  -0.01
  26   1     0.09  -0.04  -0.06     0.08  -0.02  -0.06     0.05  -0.00  -0.07
  27   1    -0.06  -0.02  -0.01    -0.08  -0.03  -0.00    -0.12  -0.03   0.01
  28   1    -0.22   0.00   0.06    -0.37   0.11   0.00    -0.05   0.04  -0.01
  29   1     0.23   0.07   0.13     0.33   0.08   0.21     0.03  -0.05   0.08
  30   1    -0.08   0.05   0.19     0.10  -0.07  -0.18    -0.12   0.15   0.12
  31   1     0.27  -0.02  -0.08    -0.25   0.02   0.07     0.21  -0.02  -0.05
  32   1    -0.03  -0.04   0.00    -0.02  -0.06  -0.00    -0.05  -0.12   0.00
  33   1    -0.02   0.02   0.05     0.01  -0.03  -0.05    -0.03  -0.02  -0.03
  34   1    -0.02   0.01   0.02     0.01  -0.01  -0.02    -0.02   0.01   0.01
  35   1    -0.00   0.10   0.15    -0.00  -0.06  -0.10    -0.01   0.08   0.08
                     40                     41                     42
                        a                      a                      a 
 Frequencies --   996.7141              1015.0325              1025.1024
 Red. masses --     6.5849                 5.8732                 8.4379
 Frc consts  --     0.0000                 0.0000                 0.0000
 IR Inten    --     7.5070                15.9066                90.2413
 Raman Activ --     0.0000                 0.0000                 0.0000
 Depolar     --     0.0000                 0.0000                 0.0000
 Atom AN      X      Y      Z        X      Y      Z        X      Y      Z
   1   6    -0.03   0.04  -0.04     0.02   0.25  -0.01    -0.01   0.34   0.16
   2   6    -0.39  -0.01   0.12    -0.08  -0.02   0.04     0.03   0.06   0.05
   3   6    -0.01  -0.03   0.09    -0.11  -0.17  -0.16     0.05  -0.11   0.00
   4   6     0.20   0.00  -0.17     0.14   0.10   0.19    -0.06   0.09   0.01
   5   6    -0.28  -0.03   0.03    -0.01  -0.09  -0.10     0.12  -0.07   0.01
   6   6     0.11  -0.11  -0.12    -0.04   0.03   0.02     0.04   0.06   0.11
   7   6     0.09  -0.01   0.01    -0.12  -0.08   0.09    -0.21  -0.14  -0.02
   8   6     0.01   0.03   0.02     0.03  -0.01  -0.06     0.03   0.03  -0.09
   9   8     0.08   0.02   0.04    -0.01  -0.01  -0.01    -0.08  -0.04  -0.08
  10   6     0.03   0.03   0.01     0.08   0.08  -0.09     0.16   0.19  -0.20
  11   6     0.01   0.05   0.07     0.01   0.04   0.06     0.01   0.00  -0.00
  12   6     0.06   0.01  -0.01     0.06   0.06   0.13    -0.03  -0.05  -0.09
  13   6     0.26   0.13   0.11    -0.10   0.04   0.09     0.09  -0.04  -0.09
  14   1    -0.20   0.06   0.01     0.09  -0.04   0.03    -0.05  -0.07   0.03
  15   8    -0.01  -0.03   0.01    -0.03  -0.14   0.06    -0.09  -0.31   0.13
  16   6    -0.07  -0.04  -0.01     0.21  -0.05  -0.19    -0.22   0.02   0.14
  17   1     0.06  -0.06  -0.05     0.20  -0.12   0.07     0.03  -0.03   0.03
  18   1    -0.08   0.02   0.09    -0.05   0.21  -0.08     0.08  -0.03  -0.06
  19   1    -0.05   0.05   0.01    -0.05   0.19   0.04     0.08   0.02  -0.07
  20   1     0.08   0.02  -0.22    -0.05  -0.10  -0.06    -0.00   0.05   0.05
  21   1    -0.15   0.09  -0.06    -0.16  -0.11  -0.15    -0.01  -0.11  -0.02
  22   1     0.16  -0.09  -0.07     0.07  -0.04  -0.06     0.03  -0.02  -0.05
  23   1     0.04   0.01   0.01    -0.13   0.11   0.04    -0.12   0.07   0.01
  24   1     0.03  -0.01  -0.01     0.10  -0.05  -0.08     0.06  -0.06  -0.10
  25   1    -0.10  -0.03  -0.05     0.06   0.02   0.03     0.03   0.01   0.01
  26   1     0.02   0.01  -0.02     0.02  -0.04   0.02     0.02  -0.07   0.06
  27   1    -0.03  -0.02  -0.00     0.05   0.03  -0.01     0.10   0.14  -0.04
  28   1     0.09  -0.03   0.01     0.10   0.01  -0.03     0.02   0.00  -0.01
  29   1    -0.06  -0.01  -0.04    -0.07  -0.07  -0.01    -0.02  -0.05   0.02
  30   1     0.21  -0.17  -0.26    -0.03   0.02   0.02     0.03  -0.02  -0.03
  31   1    -0.29   0.00   0.08    -0.06   0.04   0.01     0.06  -0.05  -0.00
  32   1    -0.03  -0.04   0.00    -0.00   0.03   0.01     0.03   0.14   0.02
  33   1     0.04   0.03   0.02    -0.13  -0.14  -0.11     0.12   0.13   0.09
  34   1     0.04   0.05   0.05    -0.14  -0.17  -0.21     0.14   0.16   0.19
  35   1     0.01  -0.07  -0.11    -0.03   0.17   0.24     0.02  -0.16  -0.25
                     43                     44                     45
                        a                      a                      a 
 Frequencies --  1040.3507              1055.6298              1080.2908
 Red. masses --     4.4749                 6.9662                 7.5426
 Frc consts  --     0.0000                 0.0000                 0.0000
 IR Inten    --     5.8247                31.0829                16.6997
 Raman Activ --     0.0000                 0.0000                 0.0000
 Depolar     --     0.0000                 0.0000                 0.0000
 Atom AN      X      Y      Z        X      Y      Z        X      Y      Z
   1   6    -0.00   0.04  -0.09     0.09   0.00  -0.20    -0.03   0.09  -0.21
   2   6     0.01  -0.02   0.01     0.15  -0.02   0.19    -0.02  -0.25   0.06
   3   6    -0.03   0.02   0.00    -0.16   0.00  -0.13     0.07   0.14  -0.02
   4   6    -0.01  -0.01  -0.00     0.16  -0.01   0.17    -0.16  -0.17   0.04
   5   6     0.03   0.01  -0.01    -0.05   0.03  -0.06     0.02   0.19  -0.02
   6   6    -0.05  -0.03  -0.00    -0.11  -0.02  -0.04    -0.14  -0.18  -0.11
   7   6     0.03  -0.02   0.05     0.03  -0.05   0.13     0.14  -0.10   0.07
   8   6     0.00   0.03  -0.01     0.01   0.02  -0.03    -0.01   0.19   0.01
   9   8     0.01   0.02   0.02     0.06   0.04   0.07     0.12   0.10   0.12
  10   6     0.01   0.01   0.02    -0.13  -0.24   0.11     0.11   0.27  -0.05
  11   6    -0.01  -0.00  -0.01    -0.02   0.02   0.02    -0.02  -0.04  -0.05
  12   6     0.03  -0.29   0.17    -0.01   0.04  -0.07    -0.02   0.05  -0.05
  13   6     0.05  -0.04  -0.01     0.03  -0.07  -0.10     0.00   0.02   0.02
  14   1     0.01   0.04  -0.01     0.10  -0.04   0.06    -0.00  -0.13   0.03
  15   8     0.00   0.01  -0.00     0.10   0.26  -0.10    -0.07  -0.19   0.08
  16   6    -0.13   0.34  -0.20    -0.19  -0.05   0.09     0.05  -0.03   0.04
  17   1    -0.00  -0.00  -0.01     0.04  -0.01   0.09    -0.02   0.02  -0.14
  18   1     0.00  -0.03   0.00    -0.01   0.12  -0.09    -0.01  -0.08   0.05
  19   1     0.01  -0.00  -0.01    -0.02   0.20  -0.01    -0.06  -0.17   0.09
  20   1    -0.02  -0.03   0.03    -0.10  -0.19  -0.01    -0.08  -0.07   0.16
  21   1     0.00   0.03  -0.01    -0.17   0.00  -0.14     0.11   0.23   0.07
  22   1     0.00  -0.02  -0.01     0.02  -0.02  -0.03    -0.06  -0.03  -0.04
  23   1    -0.03   0.04   0.02    -0.18   0.11   0.05    -0.21   0.10   0.03
  24   1     0.05  -0.02  -0.03     0.17  -0.04  -0.05     0.29  -0.07  -0.07
  25   1     0.05   0.02   0.03     0.04   0.01   0.03     0.04   0.03   0.03
  26   1     0.02  -0.01  -0.02    -0.04   0.03  -0.01     0.05   0.09  -0.08
  27   1    -0.02  -0.03   0.00    -0.00  -0.19   0.05    -0.05  -0.05  -0.01
  28   1    -0.01   0.01  -0.00     0.03   0.03  -0.03    -0.08   0.04  -0.01
  29   1     0.00  -0.01   0.02    -0.05  -0.06   0.01     0.03  -0.03   0.07
  30   1     0.02  -0.03  -0.00    -0.02   0.02   0.04     0.02  -0.04   0.00
  31   1    -0.02   0.19  -0.15     0.11  -0.04  -0.02    -0.03  -0.01   0.02
  32   1    -0.02  -0.05   0.00    -0.01  -0.11  -0.02    -0.07  -0.16   0.02
  33   1     0.10   0.25   0.53     0.09   0.08   0.02    -0.03  -0.04  -0.07
  34   1     0.03  -0.37  -0.26     0.11   0.15   0.17    -0.02   0.04   0.02
  35   1     0.04  -0.23   0.04     0.01  -0.12  -0.24    -0.00   0.05   0.03
                     46                     47                     48
                        a                      a                      a 
 Frequencies --  1080.6229              1098.1191              1121.1834
 Red. masses --     6.8648                 8.0944                 7.1571
 Frc consts  --     0.0000                 0.0000                 0.0000
 IR Inten    --    27.3602                28.5381                39.4134
 Raman Activ --     0.0000                 0.0000                 0.0000
 Depolar     --     0.0000                 0.0000                 0.0000
 Atom AN      X      Y      Z        X      Y      Z        X      Y      Z
   1   6     0.01  -0.06   0.20     0.14   0.30   0.18     0.25  -0.05   0.10
   2   6     0.25  -0.06  -0.04    -0.03  -0.15  -0.05    -0.07   0.15   0.00
   3   6    -0.21   0.08  -0.02    -0.00   0.09   0.13     0.03  -0.07  -0.09
   4   6     0.11  -0.09   0.09    -0.07  -0.06  -0.11     0.02   0.01   0.04
   5   6    -0.18   0.27  -0.06     0.01   0.10   0.05    -0.07  -0.05  -0.07
   6   6     0.15  -0.19  -0.16     0.15  -0.04   0.09    -0.33  -0.17  -0.33
   7   6    -0.04   0.01  -0.13    -0.12  -0.15  -0.13    -0.01  -0.04  -0.04
   8   6    -0.01  -0.07   0.09     0.02   0.10  -0.06    -0.01   0.04   0.05
   9   8     0.13   0.05   0.03    -0.06  -0.03  -0.08     0.19   0.15   0.20
  10   6     0.02   0.16  -0.06    -0.16  -0.39   0.05    -0.15  -0.04   0.09
  11   6     0.03  -0.01   0.01    -0.00  -0.01  -0.02     0.04  -0.01  -0.00
  12   6     0.01   0.00   0.05    -0.02  -0.04  -0.01     0.01  -0.02   0.02
  13   6    -0.07  -0.03  -0.03    -0.01   0.04   0.05     0.02  -0.00  -0.01
  14   1     0.14  -0.21   0.05    -0.08  -0.19   0.02    -0.04   0.08  -0.01
  15   8    -0.05  -0.15   0.06     0.13   0.23  -0.10     0.03  -0.02  -0.03
  16   6    -0.04   0.00  -0.04     0.09   0.03   0.00    -0.03  -0.00   0.01
  17   1    -0.18   0.12   0.21    -0.10   0.06  -0.01     0.14  -0.09  -0.07
  18   1    -0.07   0.10  -0.01    -0.02  -0.06   0.07    -0.04   0.06   0.00
  19   1    -0.08   0.08   0.06     0.00  -0.10   0.00    -0.06  -0.04   0.09
  20   1    -0.00  -0.08  -0.11     0.03   0.06   0.02     0.01  -0.00  -0.05
  21   1    -0.13   0.23  -0.09     0.00   0.18   0.01     0.22  -0.13   0.18
  22   1     0.07  -0.04  -0.01     0.09  -0.07  -0.08    -0.15   0.00  -0.06
  23   1     0.07  -0.09  -0.05    -0.25   0.02  -0.03    -0.12  -0.00  -0.01
  24   1    -0.11   0.02   0.05     0.17  -0.07  -0.06    -0.09   0.00  -0.00
  25   1    -0.25  -0.10  -0.14    -0.01  -0.00  -0.02     0.12   0.06   0.08
  26   1     0.01  -0.04   0.03    -0.06  -0.20   0.13     0.00  -0.19   0.08
  27   1    -0.01   0.19  -0.04     0.10   0.02   0.03    -0.07   0.29  -0.03
  28   1     0.00   0.03  -0.02    -0.03   0.01  -0.00    -0.00  -0.00   0.00
  29   1     0.02   0.02  -0.00     0.00  -0.03   0.03     0.04   0.01   0.02
  30   1    -0.04   0.03   0.05     0.01  -0.02  -0.02     0.01   0.01  -0.02
  31   1     0.06   0.00  -0.02    -0.06   0.01   0.02     0.01  -0.01   0.00
  32   1     0.02   0.14   0.00     0.08   0.21  -0.03     0.09   0.31  -0.02
  33   1     0.02   0.03   0.05    -0.04  -0.03  -0.01     0.01   0.01   0.01
  34   1     0.02  -0.02  -0.01    -0.04  -0.04  -0.05     0.01   0.02   0.02
  35   1     0.01  -0.05  -0.04    -0.00   0.06   0.10     0.00  -0.02  -0.03
                     49                     50                     51
                        a                      a                      a 
 Frequencies --  1139.6784              1144.8412              1151.5982
 Red. masses --     4.9703                 8.4431                 5.0337
 Frc consts  --     0.0000                 0.0000                 0.0000
 IR Inten    --    23.8772                72.6351                 6.2550
 Raman Activ --     0.0000                 0.0000                 0.0000
 Depolar     --     0.0000                 0.0000                 0.0000
 Atom AN      X      Y      Z        X      Y      Z        X      Y      Z
   1   6     0.11   0.10  -0.03     0.42  -0.21  -0.13    -0.12   0.29  -0.02
   2   6    -0.09   0.15   0.06     0.11  -0.25   0.06     0.07  -0.19   0.01
   3   6     0.07  -0.12  -0.21    -0.14   0.19   0.15    -0.04   0.05   0.15
   4   6    -0.13  -0.12   0.18     0.10   0.04  -0.17     0.01   0.07  -0.08
   5   6    -0.01   0.18  -0.03    -0.07  -0.14   0.06     0.04  -0.04  -0.03
   6   6     0.18  -0.01   0.17     0.06   0.15   0.13    -0.25  -0.07  -0.19
   7   6    -0.03  -0.08  -0.09     0.04  -0.02  -0.04    -0.11  -0.01   0.05
   8   6    -0.03   0.02   0.12    -0.00   0.03   0.03    -0.01  -0.10   0.02
   9   8    -0.10  -0.05  -0.09    -0.16  -0.08  -0.06     0.06   0.08   0.12
  10   6    -0.07  -0.02  -0.01    -0.16   0.25   0.01     0.07  -0.10  -0.03
  11   6     0.01  -0.04  -0.05    -0.04  -0.01  -0.02     0.06   0.00   0.02
  12   6     0.04   0.03   0.03     0.00   0.03  -0.00    -0.01   0.03  -0.03
  13   6     0.02  -0.02  -0.03    -0.03  -0.00  -0.00    -0.02   0.00   0.01
  14   1     0.05   0.14  -0.00    -0.04   0.17  -0.05     0.02  -0.04  -0.00
  15   8     0.02   0.03  -0.00    -0.03  -0.11   0.04     0.02   0.03  -0.01
  16   6    -0.05  -0.02  -0.02     0.00  -0.01   0.00     0.02  -0.01   0.02
  17   1     0.34  -0.22  -0.21     0.02  -0.00  -0.07    -0.04   0.02   0.02
  18   1    -0.06   0.08  -0.01    -0.06   0.01   0.07     0.04  -0.06   0.01
  19   1    -0.17  -0.18   0.24     0.07   0.07  -0.12     0.11   0.07  -0.14
  20   1    -0.09  -0.09   0.14    -0.07  -0.09   0.08    -0.11  -0.10   0.16
  21   1    -0.03   0.33  -0.04    -0.13   0.13  -0.08     0.03   0.14  -0.00
  22   1     0.07  -0.04  -0.03     0.14  -0.05  -0.08     0.17  -0.17  -0.29
  23   1     0.21  -0.05  -0.02    -0.17   0.00  -0.01     0.46  -0.03   0.02
  24   1    -0.24   0.01  -0.02    -0.15   0.02  -0.00    -0.29   0.03  -0.03
  25   1     0.01   0.01  -0.00     0.23   0.09   0.12     0.22   0.10   0.13
  26   1    -0.02  -0.03   0.03    -0.02  -0.00   0.01     0.01  -0.03   0.01
  27   1     0.03  -0.04   0.01    -0.08   0.20  -0.03     0.06  -0.10   0.01
  28   1    -0.07   0.02   0.00    -0.04  -0.01   0.01     0.04  -0.01   0.01
  29   1     0.05   0.03   0.02    -0.01   0.01  -0.01     0.03   0.02  -0.00
  30   1    -0.00   0.02   0.00    -0.02  -0.01   0.03    -0.00  -0.02   0.02
  31   1     0.04  -0.00  -0.01     0.01   0.00  -0.00    -0.01   0.00   0.00
  32   1    -0.00  -0.02   0.00     0.02   0.07   0.01    -0.02  -0.01  -0.00
  33   1     0.02   0.02   0.02     0.00  -0.00  -0.02    -0.00  -0.01  -0.03
  34   1     0.02   0.03   0.02    -0.00  -0.00  -0.00    -0.00   0.01   0.01
  35   1     0.01  -0.06  -0.06    -0.00   0.01  -0.01    -0.00   0.03   0.00
                     52                     53                     54
                        a                      a                      a 
 Frequencies --  1157.3411              1187.6980              1208.3322
 Red. masses --     2.7652                 6.4676                 5.5764
 Frc consts  --     0.0000                 0.0000                 0.0000
 IR Inten    --    24.0189                 7.6360                59.5033
 Raman Activ --     0.0000                 0.0000                 0.0000
 Depolar     --     0.0000                 0.0000                 0.0000
 Atom AN      X      Y      Z        X      Y      Z        X      Y      Z
   1   6     0.16   0.08   0.03     0.38  -0.02   0.11     0.21   0.05   0.25
   2   6     0.05  -0.03   0.06    -0.16   0.12   0.00     0.10   0.04  -0.09
   3   6    -0.15   0.03  -0.03     0.19  -0.04  -0.11    -0.07   0.02   0.15
   4   6     0.08   0.03  -0.05    -0.04  -0.09   0.18     0.03   0.06  -0.15
   5   6    -0.09  -0.05  -0.06    -0.01   0.22  -0.02    -0.08  -0.14   0.07
   6   6     0.06  -0.00   0.05     0.01  -0.06  -0.06    -0.19   0.03  -0.05
   7   6    -0.05  -0.07  -0.06    -0.02  -0.04  -0.08    -0.12  -0.01  -0.01
   8   6     0.00   0.03   0.00    -0.02  -0.06   0.08     0.05  -0.09  -0.19
   9   8    -0.13  -0.03  -0.01     0.01   0.03   0.02     0.17   0.03   0.01
  10   6    -0.05   0.08  -0.12    -0.15   0.11  -0.13    -0.05   0.05  -0.17
  11   6     0.03  -0.00   0.01    -0.02  -0.01  -0.02     0.02   0.04   0.06
  12   6     0.03   0.02   0.04    -0.12  -0.15  -0.11     0.05   0.01   0.06
  13   6    -0.01  -0.02  -0.02     0.06   0.05   0.05    -0.04  -0.01  -0.00
  14   1     0.10  -0.22   0.07    -0.16  -0.15   0.03    -0.06   0.01  -0.03
  15   8     0.00   0.02   0.03     0.02   0.02   0.04     0.01   0.05   0.05
  16   6    -0.03  -0.01  -0.02     0.07   0.07   0.06    -0.01  -0.01  -0.03
  17   1    -0.07   0.05   0.11    -0.15   0.10   0.07     0.20  -0.14  -0.15
  18   1    -0.18   0.15   0.09     0.22  -0.17  -0.15    -0.10   0.06   0.11
  19   1    -0.18  -0.11   0.21     0.08   0.12  -0.10     0.07   0.02  -0.09
  20   1     0.21   0.22  -0.33    -0.05  -0.08   0.05    -0.10  -0.10   0.15
  21   1     0.28  -0.09   0.23    -0.14  -0.17  -0.10     0.13   0.16   0.13
  22   1    -0.01  -0.02  -0.05    -0.09   0.01  -0.05    -0.06   0.07   0.13
  23   1     0.03  -0.01  -0.01    -0.06  -0.04  -0.03    -0.11   0.02  -0.00
  24   1    -0.10  -0.01  -0.02    -0.23   0.02  -0.03    -0.06   0.00  -0.01
  25   1     0.28   0.12   0.15     0.06   0.03   0.04    -0.33  -0.14  -0.18
  26   1    -0.07   0.13  -0.00    -0.10   0.10   0.03    -0.10   0.13   0.03
  27   1     0.10  -0.22   0.04     0.10  -0.14   0.03     0.14  -0.18   0.03
  28   1     0.02  -0.02   0.01    -0.03   0.03  -0.02     0.09  -0.04   0.01
  29   1     0.02   0.01   0.01    -0.01  -0.00  -0.01    -0.04  -0.01  -0.03
  30   1    -0.01   0.01   0.01     0.05  -0.03  -0.07    -0.03   0.04   0.03
  31   1     0.04  -0.00  -0.01    -0.09   0.00   0.03     0.01   0.00  -0.00
  32   1    -0.06  -0.24   0.02    -0.06  -0.22   0.02    -0.07  -0.26   0.02
  33   1     0.01   0.01   0.01    -0.02  -0.01   0.01     0.00   0.00   0.01
  34   1     0.01   0.01   0.01    -0.02  -0.01  -0.01     0.01  -0.01  -0.01
  35   1     0.01  -0.04  -0.05    -0.01   0.07   0.10     0.00  -0.02  -0.00
                     55                     56                     57
                        a                      a                      a 
 Frequencies --  1235.7004              1252.4728              1257.7646
 Red. masses --     5.5354                 9.6600                 5.4518
 Frc consts  --     0.0000                 0.0000                 0.0000
 IR Inten    --    11.3952                11.9683                21.1252
 Raman Activ --     0.0000                 0.0000                 0.0000
 Depolar     --     0.0000                 0.0000                 0.0000
 Atom AN      X      Y      Z        X      Y      Z        X      Y      Z
   1   6    -0.13  -0.19   0.11     0.12   0.08  -0.22    -0.04   0.12  -0.23
   2   6     0.01   0.13  -0.03    -0.07  -0.13   0.08    -0.02   0.05   0.05
   3   6     0.05  -0.09  -0.07     0.03   0.07  -0.06     0.00  -0.08  -0.03
   4   6     0.04   0.06   0.15    -0.09  -0.14   0.06     0.02   0.16   0.03
   5   6    -0.29   0.02  -0.13     0.12   0.22   0.26     0.06  -0.26  -0.07
   6   6     0.16   0.03  -0.00     0.02  -0.09   0.05    -0.16   0.10   0.13
   7   6    -0.03   0.09   0.04    -0.13   0.13   0.19     0.35  -0.08   0.05
   8   6     0.06  -0.13  -0.25     0.13  -0.39  -0.47     0.00   0.02   0.02
   9   8    -0.12  -0.06  -0.01     0.00   0.04  -0.01     0.06  -0.02  -0.02
  10   6     0.05  -0.03   0.02    -0.03   0.04   0.08    -0.01   0.02   0.04
  11   6     0.05   0.06   0.11    -0.05   0.10   0.13    -0.04   0.00  -0.01
  12   6    -0.07  -0.07  -0.06     0.01   0.03   0.00    -0.08  -0.06  -0.08
  13   6     0.02   0.02   0.02     0.01  -0.00  -0.01     0.03   0.02   0.02
  14   1    -0.05   0.05  -0.02     0.05   0.06   0.00     0.05  -0.22   0.07
  15   8    -0.02  -0.00  -0.00     0.01  -0.03  -0.02     0.01  -0.03  -0.02
  16   6     0.02   0.03   0.03    -0.00  -0.01  -0.00     0.03   0.02   0.03
  17   1    -0.05   0.03   0.07    -0.04   0.03  -0.03    -0.11   0.06   0.13
  18   1     0.17  -0.07  -0.15    -0.03   0.00   0.02     0.09  -0.03  -0.08
  19   1     0.02   0.12  -0.02    -0.03  -0.03   0.02    -0.06  -0.04   0.10
  20   1    -0.10  -0.12   0.11     0.11   0.13  -0.11     0.01   0.05  -0.01
  21   1     0.33   0.31   0.27    -0.02   0.05   0.03     0.10   0.23   0.03
  22   1     0.23  -0.08  -0.03    -0.18   0.03  -0.03     0.11   0.01   0.12
  23   1    -0.15   0.01   0.01     0.00   0.06   0.05    -0.24   0.08   0.02
  24   1     0.12   0.01   0.03    -0.18   0.04  -0.00    -0.48   0.05  -0.01
  25   1     0.19   0.08   0.10    -0.02  -0.01  -0.01    -0.19  -0.08  -0.11
  26   1    -0.01   0.09  -0.02     0.04  -0.07  -0.01     0.04  -0.11   0.00
  27   1    -0.04   0.06  -0.02    -0.05   0.04   0.00    -0.01  -0.03   0.01
  28   1     0.16  -0.04  -0.00     0.15  -0.04  -0.01    -0.04  -0.01   0.01
  29   1    -0.04  -0.01  -0.03    -0.16  -0.04  -0.11    -0.03   0.01  -0.03
  30   1     0.02  -0.01  -0.03     0.01  -0.02  -0.00     0.03  -0.02  -0.04
  31   1    -0.03  -0.00   0.01     0.01   0.00  -0.01    -0.03  -0.00   0.01
  32   1    -0.00   0.02  -0.00     0.03   0.09  -0.01     0.03   0.09  -0.01
  33   1    -0.00   0.00   0.00     0.00  -0.00   0.00    -0.01  -0.00   0.01
  34   1    -0.01  -0.00  -0.00    -0.00   0.01   0.00    -0.01   0.01   0.01
  35   1    -0.00   0.03   0.03     0.00  -0.01  -0.01    -0.00   0.03   0.04
                     58                     59                     60
                        a                      a                      a 
 Frequencies --  1269.2646              1276.9863              1291.6228
 Red. masses --     6.3090                 6.6979                 5.0708
 Frc consts  --     0.0000                 0.0000                 0.0000
 IR Inten    --     5.2587                28.6662                19.5013
 Raman Activ --     0.0000                 0.0000                 0.0000
 Depolar     --     0.0000                 0.0000                 0.0000
 Atom AN      X      Y      Z        X      Y      Z        X      Y      Z
   1   6    -0.10  -0.23   0.23     0.17  -0.12   0.02    -0.02   0.02   0.13
   2   6    -0.09   0.23  -0.10     0.16   0.02   0.08    -0.14  -0.28  -0.01
   3   6     0.08  -0.08   0.02    -0.08  -0.03  -0.12     0.05   0.01  -0.14
   4   6    -0.11   0.01  -0.05     0.01   0.12   0.04     0.00  -0.01   0.09
   5   6     0.27  -0.02   0.20     0.20  -0.23   0.13     0.06   0.08  -0.07
   6   6    -0.10   0.07  -0.19    -0.20   0.09  -0.05    -0.17   0.04   0.10
   7   6     0.14   0.05   0.00    -0.26   0.04   0.01     0.07   0.00  -0.03
   8   6     0.05  -0.07  -0.08     0.00   0.03  -0.02    -0.00   0.00   0.02
   9   8    -0.01   0.03   0.05     0.06   0.02   0.01     0.07   0.01  -0.01
  10   6     0.06  -0.07  -0.04    -0.03   0.03  -0.03    -0.01  -0.04  -0.15
  11   6    -0.07   0.01  -0.00     0.01  -0.01  -0.01    -0.01  -0.00  -0.01
  12   6     0.11   0.08   0.14    -0.22  -0.20  -0.22     0.18   0.18   0.16
  13   6    -0.02  -0.03  -0.03     0.06   0.05   0.05    -0.05  -0.04  -0.04
  14   1     0.02  -0.21   0.05    -0.04   0.15  -0.03    -0.09   0.43  -0.13
  15   8    -0.03   0.01   0.01    -0.00   0.01   0.02     0.04   0.10   0.09
  16   6    -0.04  -0.03  -0.05     0.07   0.07   0.08    -0.05  -0.05  -0.05
  17   1     0.02  -0.02  -0.02    -0.06   0.04   0.10    -0.18   0.12   0.09
  18   1    -0.08   0.05   0.08     0.08  -0.00  -0.12     0.12  -0.07  -0.12
  19   1    -0.02  -0.11   0.04    -0.16  -0.14   0.23    -0.07  -0.04   0.10
  20   1     0.04   0.10   0.01     0.09   0.13  -0.10     0.05   0.05  -0.07
  21   1    -0.22   0.16  -0.19    -0.10   0.28  -0.11     0.08  -0.10   0.04
  22   1     0.18  -0.14  -0.28     0.06  -0.03  -0.05     0.24  -0.14  -0.13
  23   1    -0.26  -0.00  -0.01     0.21  -0.04  -0.00    -0.12  -0.01  -0.01
  24   1    -0.04   0.02   0.03     0.28  -0.04  -0.02    -0.04   0.01   0.01
  25   1     0.14   0.07   0.08    -0.07  -0.03  -0.04    -0.13  -0.05  -0.07
  26   1    -0.07   0.23  -0.02    -0.02   0.03   0.00    -0.02  -0.15   0.08
  27   1    -0.01   0.03  -0.02     0.01   0.06  -0.01     0.07   0.14  -0.04
  28   1    -0.05   0.01   0.00     0.00  -0.02   0.01    -0.01   0.01  -0.00
  29   1    -0.08  -0.02  -0.06     0.03   0.01   0.02    -0.01  -0.00  -0.00
  30   1    -0.02   0.03   0.02     0.04  -0.04  -0.06    -0.03   0.01   0.06
  31   1     0.06  -0.01  -0.01    -0.10  -0.00   0.03     0.08   0.01  -0.02
  32   1    -0.03  -0.02   0.00    -0.03  -0.06   0.01    -0.10  -0.26   0.03
  33   1     0.00  -0.00  -0.01    -0.02  -0.00   0.04     0.01  -0.00  -0.03
  34   1     0.01  -0.01  -0.01    -0.02   0.04   0.02     0.01  -0.02  -0.01
  35   1     0.01  -0.05  -0.06    -0.01   0.07   0.10     0.01  -0.06  -0.08
                     61                     62                     63
                        a                      a                      a 
 Frequencies --  1298.8253              1308.5119              1327.9869
 Red. masses --     6.6069                 4.3043                 4.6218
 Frc consts  --     0.0000                 0.0000                 0.0000
 IR Inten    --     0.8769                42.0340                31.5034
 Raman Activ --     0.0000                 0.0000                 0.0000
 Depolar     --     0.0000                 0.0000                 0.0000
 Atom AN      X      Y      Z        X      Y      Z        X      Y      Z
   1   6    -0.18   0.08   0.14     0.20   0.11   0.05     0.16  -0.16  -0.09
   2   6     0.36  -0.03   0.09    -0.15  -0.14  -0.02    -0.11   0.10   0.01
   3   6    -0.15   0.06  -0.02     0.02   0.00  -0.05     0.08  -0.00   0.04
   4   6     0.03  -0.10  -0.05     0.02   0.03   0.05    -0.05  -0.06  -0.06
   5   6     0.02   0.22  -0.01    -0.01  -0.07  -0.04     0.05   0.24  -0.07
   6   6    -0.00  -0.03   0.07    -0.05   0.01   0.06    -0.26   0.09   0.17
   7   6     0.18  -0.05  -0.02    -0.07  -0.03  -0.04    -0.11   0.04   0.01
   8   6     0.02  -0.03  -0.00    -0.02   0.04   0.04    -0.01  -0.03  -0.02
   9   8     0.02   0.02  -0.01     0.04   0.01  -0.02     0.04  -0.05  -0.03
  10   6     0.11  -0.11   0.01     0.04  -0.05   0.19    -0.07   0.10   0.05
  11   6    -0.03   0.01   0.00     0.01  -0.01  -0.01     0.01  -0.00   0.00
  12   6    -0.21  -0.20  -0.23     0.14   0.11   0.13    -0.08  -0.04  -0.04
  13   6     0.03   0.05   0.06    -0.03  -0.03  -0.03     0.04   0.00  -0.00
  14   1    -0.13   0.26  -0.07    -0.09   0.11  -0.04     0.32  -0.11   0.07
  15   8    -0.04  -0.03  -0.03    -0.08  -0.16  -0.15    -0.00  -0.04  -0.04
  16   6     0.06   0.06   0.06    -0.03  -0.03  -0.05     0.01   0.00   0.00
  17   1     0.16  -0.09  -0.08    -0.10   0.06   0.05     0.01   0.00  -0.00
  18   1    -0.09   0.08   0.03     0.12  -0.08  -0.10    -0.12   0.03   0.13
  19   1    -0.05  -0.06   0.05    -0.03   0.00   0.04     0.04  -0.03  -0.05
  20   1     0.02  -0.01  -0.05     0.01   0.02  -0.02    -0.02  -0.03   0.04
  21   1     0.02  -0.28   0.03     0.03   0.05   0.02     0.10  -0.25   0.08
  22   1     0.08  -0.10  -0.18    -0.03  -0.00  -0.02     0.54  -0.19   0.04
  23   1    -0.20   0.02  -0.00     0.04  -0.02  -0.01     0.08  -0.02   0.00
  24   1    -0.20   0.02   0.01     0.01  -0.01  -0.03     0.12  -0.01   0.01
  25   1    -0.04  -0.01  -0.02    -0.09  -0.04  -0.05    -0.14  -0.06  -0.08
  26   1    -0.06   0.27  -0.05    -0.09   0.58  -0.17     0.03  -0.04  -0.02
  27   1    -0.03  -0.02  -0.01    -0.07  -0.25   0.07     0.00  -0.12   0.04
  28   1    -0.03   0.02  -0.01     0.00  -0.00   0.00     0.03   0.01  -0.01
  29   1    -0.05  -0.01  -0.03     0.03   0.01   0.02     0.01  -0.00   0.02
  30   1     0.01  -0.01  -0.01    -0.03   0.03   0.05     0.04  -0.04  -0.08
  31   1    -0.13   0.00   0.03     0.04   0.01  -0.02     0.03  -0.00  -0.01
  32   1     0.01   0.06  -0.01     0.12   0.39  -0.05     0.03   0.14  -0.02
  33   1    -0.02   0.00   0.05     0.00  -0.00  -0.01    -0.00   0.00   0.02
  34   1    -0.02   0.05   0.02     0.01  -0.02  -0.01    -0.00   0.02   0.01
  35   1    -0.01   0.07   0.11     0.01  -0.05  -0.05    -0.01   0.02   0.03
                     64                     65                     66
                        a                      a                      a 
 Frequencies --  1335.4422              1342.6337              1349.1584
 Red. masses --     4.2992                 3.5990                 3.2014
 Frc consts  --     0.0000                 0.0000                 0.0000
 IR Inten    --    15.0956                20.4989                 3.9720
 Raman Activ --     0.0000                 0.0000                 0.0000
 Depolar     --     0.0000                 0.0000                 0.0000
 Atom AN      X      Y      Z        X      Y      Z        X      Y      Z
   1   6    -0.02  -0.02  -0.03     0.10   0.14  -0.05     0.09   0.05  -0.24
   2   6     0.05   0.01   0.03    -0.16  -0.02   0.02     0.14   0.07   0.02
   3   6     0.08  -0.17  -0.09     0.09  -0.07   0.01    -0.04   0.01  -0.02
   4   6     0.19   0.23  -0.30     0.06   0.11  -0.14    -0.04  -0.07   0.05
   5   6    -0.04   0.11   0.14    -0.05  -0.00   0.02     0.04   0.09  -0.03
   6   6     0.05  -0.02  -0.04     0.04  -0.04   0.04    -0.11   0.02   0.02
   7   6    -0.03   0.03   0.03    -0.03  -0.03  -0.01    -0.06   0.00   0.05
   8   6     0.04  -0.06  -0.07     0.01  -0.00  -0.00    -0.01  -0.02  -0.01
   9   8    -0.03  -0.01   0.00     0.00   0.00  -0.01    -0.02  -0.05  -0.01
  10   6    -0.03   0.09   0.02     0.09  -0.28  -0.03     0.05  -0.17   0.01
  11   6    -0.01   0.01   0.02     0.00   0.00   0.00     0.00   0.00   0.00
  12   6     0.07   0.02   0.03    -0.12  -0.02  -0.03     0.13   0.02   0.06
  13   6    -0.03  -0.00   0.00     0.05   0.00  -0.00    -0.06  -0.00   0.01
  14   1    -0.29  -0.03  -0.01     0.40   0.03   0.04    -0.53  -0.30   0.03
  15   8     0.01  -0.02  -0.03    -0.03   0.04   0.08    -0.02   0.03   0.06
  16   6    -0.00  -0.00  -0.01     0.02   0.00   0.00    -0.01   0.01   0.00
  17   1    -0.17   0.09   0.20    -0.11   0.07   0.11     0.06  -0.04  -0.05
  18   1    -0.09   0.07   0.06    -0.08   0.02   0.10     0.00   0.02  -0.02
  19   1    -0.21  -0.25   0.30    -0.04  -0.06   0.06     0.02   0.01  -0.02
  20   1    -0.22  -0.23   0.33    -0.11  -0.11   0.17     0.04   0.04  -0.07
  21   1    -0.06  -0.19   0.01    -0.00  -0.06   0.02     0.04  -0.06   0.02
  22   1     0.00   0.02   0.06    -0.12   0.05   0.04     0.26   0.00   0.26
  23   1     0.02  -0.00   0.01     0.02   0.02   0.00     0.14  -0.02   0.01
  24   1     0.01   0.00  -0.01    -0.04  -0.00   0.01    -0.00  -0.01  -0.06
  25   1     0.04   0.02   0.02    -0.02  -0.01  -0.01    -0.02  -0.01  -0.01
  26   1     0.04  -0.12   0.01    -0.12   0.34  -0.04    -0.04   0.18  -0.05
  27   1     0.02  -0.14   0.04    -0.10   0.48  -0.12    -0.08   0.38  -0.09
  28   1    -0.02   0.01   0.00    -0.01   0.00   0.00     0.03  -0.00  -0.01
  29   1    -0.05  -0.01  -0.04    -0.00  -0.00  -0.00     0.02   0.00   0.02
  30   1    -0.04   0.04   0.06     0.07  -0.08  -0.13    -0.07   0.08   0.11
  31   1    -0.04   0.00   0.01     0.09  -0.00  -0.02    -0.08  -0.00   0.02
  32   1     0.03   0.07  -0.01    -0.07  -0.19   0.03    -0.05  -0.11   0.02
  33   1    -0.01  -0.01   0.01    -0.01  -0.01   0.02     0.00  -0.00  -0.04
  34   1     0.00   0.01   0.00    -0.02   0.02   0.00     0.01  -0.04  -0.01
  35   1     0.01  -0.03  -0.01    -0.00   0.02   0.02     0.01  -0.03  -0.04
                     67                     68                     69
                        a                      a                      a 
 Frequencies --  1356.0718              1371.7440              1391.4493
 Red. masses --     4.3114                 4.0214                 3.2000
 Frc consts  --     0.0000                 0.0000                 0.0000
 IR Inten    --     7.7224                18.5943                10.8328
 Raman Activ --     0.0000                 0.0000                 0.0000
 Depolar     --     0.0000                 0.0000                 0.0000
 Atom AN      X      Y      Z        X      Y      Z        X      Y      Z
   1   6     0.01   0.03   0.01    -0.02   0.15   0.16     0.00   0.01   0.01
   2   6     0.06  -0.03   0.13    -0.01  -0.11  -0.00    -0.06  -0.03  -0.03
   3   6     0.33  -0.15  -0.27    -0.01   0.03  -0.01    -0.02   0.03   0.00
   4   6    -0.19  -0.03   0.12    -0.03  -0.03   0.01     0.00  -0.00   0.01
   5   6    -0.00  -0.10  -0.07     0.07   0.06   0.08     0.01   0.00   0.01
   6   6    -0.00   0.01  -0.01    -0.02  -0.07  -0.38    -0.00  -0.01  -0.05
   7   6     0.01  -0.03  -0.02     0.02  -0.04  -0.03    -0.00   0.00  -0.00
   8   6    -0.02   0.03   0.04     0.04  -0.02  -0.01     0.01  -0.00  -0.00
   9   8     0.00  -0.00   0.00    -0.11  -0.09   0.04    -0.02  -0.01   0.01
  10   6     0.00   0.00   0.00     0.01   0.00  -0.02     0.01  -0.01  -0.01
  11   6     0.01  -0.01  -0.01     0.00   0.00   0.00     0.00   0.00   0.00
  12   6    -0.01  -0.05  -0.05    -0.05  -0.01  -0.02     0.11   0.03   0.01
  13   6     0.00   0.01   0.01     0.01   0.00   0.00     0.01  -0.02  -0.03
  14   1    -0.15   0.16  -0.03     0.13   0.21  -0.04     0.05  -0.00  -0.00
  15   8    -0.00  -0.01  -0.01    -0.00  -0.01  -0.01     0.00   0.01   0.01
  16   6    -0.00   0.00   0.00     0.01   0.03   0.05    -0.03  -0.24  -0.34
  17   1    -0.21   0.14   0.14    -0.00   0.00  -0.01     0.02  -0.00   0.03
  18   1    -0.46   0.28   0.36     0.02  -0.01  -0.02     0.03  -0.07  -0.01
  19   1     0.16   0.16  -0.22    -0.01  -0.02   0.01     0.00   0.00  -0.00
  20   1     0.01   0.07   0.03     0.03   0.04  -0.03     0.00   0.00  -0.01
  21   1     0.02   0.15  -0.01    -0.09   0.03  -0.07    -0.01   0.01  -0.01
  22   1    -0.01   0.01   0.01     0.29   0.15   0.66     0.04   0.02   0.08
  23   1     0.01   0.02   0.00    -0.05   0.08   0.01     0.00   0.01   0.00
  24   1    -0.01   0.00   0.03    -0.06   0.01   0.06     0.00   0.00   0.01
  25   1     0.00  -0.00   0.00     0.17   0.06   0.11     0.04   0.02   0.02
  26   1    -0.01   0.02   0.00    -0.02   0.03   0.02    -0.02  -0.00   0.03
  27   1    -0.00  -0.04   0.01     0.02  -0.11   0.02    -0.03   0.01  -0.01
  28   1     0.02  -0.01  -0.00    -0.07   0.03   0.01    -0.01   0.01   0.00
  29   1     0.03   0.01   0.03    -0.06  -0.02  -0.05    -0.01  -0.00  -0.01
  30   1    -0.02   0.03   0.05     0.03  -0.04  -0.05    -0.07   0.09   0.15
  31   1    -0.08   0.00   0.01     0.04   0.00  -0.01    -0.16  -0.01   0.02
  32   1     0.01   0.02  -0.00     0.02   0.03  -0.00    -0.00  -0.01   0.00
  33   1     0.02   0.02   0.02    -0.01  -0.01  -0.05     0.08   0.11   0.47
  34   1     0.02   0.01   0.01    -0.03  -0.04  -0.03     0.08   0.46   0.25
  35   1    -0.01   0.03   0.03     0.01  -0.00  -0.06    -0.10   0.21   0.37
                     70                     71                     72
                        a                      a                      a 
 Frequencies --  1410.9239              1431.1140              1463.5912
 Red. masses --     2.3925                 2.4945                 1.8405
 Frc consts  --     0.0000                 0.0000                 0.0000
 IR Inten    --     5.2983                10.6255                 2.5579
 Raman Activ --     0.0000                 0.0000                 0.0000
 Depolar     --     0.0000                 0.0000                 0.0000
 Atom AN      X      Y      Z        X      Y      Z        X      Y      Z
   1   6    -0.01   0.01   0.03    -0.02   0.00  -0.02    -0.04   0.02   0.03
   2   6     0.00  -0.01  -0.00     0.12   0.01   0.01    -0.02  -0.01  -0.00
   3   6    -0.01   0.00   0.00     0.00  -0.01  -0.03    -0.01   0.03  -0.05
   4   6     0.01  -0.01  -0.03    -0.01  -0.03   0.01     0.01  -0.06  -0.05
   5   6     0.07   0.04   0.08    -0.00  -0.01  -0.01    -0.00  -0.01  -0.00
   6   6     0.01  -0.01  -0.04    -0.00   0.00   0.00     0.00  -0.00  -0.04
   7   6     0.10  -0.03  -0.02     0.00   0.01   0.02     0.04   0.12   0.13
   8   6    -0.25  -0.00  -0.08     0.00   0.00   0.01     0.00   0.02   0.01
   9   8    -0.02  -0.01   0.00    -0.00  -0.00   0.00    -0.01  -0.01   0.00
  10   6     0.00   0.00  -0.01    -0.02   0.01   0.02    -0.13  -0.02   0.06
  11   6    -0.16   0.00  -0.05     0.01  -0.00   0.00    -0.00   0.00  -0.00
  12   6    -0.01   0.00   0.00    -0.18   0.10   0.18     0.01  -0.02  -0.01
  13   6     0.00  -0.00  -0.00    -0.09   0.02   0.05     0.02  -0.01  -0.01
  14   1     0.01   0.02  -0.00    -0.27  -0.02  -0.02     0.07   0.03  -0.00
  15   8     0.00   0.00  -0.00    -0.00  -0.00  -0.01    -0.02  -0.02   0.01
  16   6     0.01  -0.00  -0.01     0.08  -0.08  -0.13     0.01  -0.05   0.04
  17   1     0.01  -0.00   0.01     0.00  -0.00  -0.00     0.08  -0.01   0.12
  18   1     0.01  -0.01  -0.01    -0.02   0.02   0.00    -0.04  -0.12   0.07
  19   1    -0.04  -0.01   0.04    -0.02   0.06  -0.02    -0.10   0.13   0.02
  20   1     0.01   0.01   0.04     0.03   0.04   0.03     0.06   0.10   0.13
  21   1    -0.08  -0.02  -0.05     0.01   0.01   0.00    -0.00   0.01  -0.00
  22   1     0.02   0.01   0.05     0.01  -0.00   0.00     0.01   0.02   0.04
  23   1    -0.07   0.03  -0.00     0.00  -0.04  -0.01    -0.09  -0.43  -0.07
  24   1    -0.05   0.00   0.01    -0.00  -0.01  -0.05    -0.02  -0.05  -0.44
  25   1     0.02   0.01   0.01     0.00   0.00   0.00     0.01   0.00   0.01
  26   1    -0.01   0.00   0.01     0.03  -0.01  -0.05     0.21   0.02  -0.37
  27   1    -0.00  -0.02   0.00     0.05  -0.02   0.02     0.38   0.11   0.08
  28   1     0.60  -0.22  -0.12    -0.02   0.01   0.00     0.00  -0.00  -0.00
  29   1     0.46   0.19   0.42    -0.01  -0.01  -0.01     0.00  -0.00   0.00
  30   1     0.01  -0.01  -0.01     0.21  -0.28  -0.43    -0.02   0.03   0.05
  31   1     0.02   0.00  -0.00     0.57   0.03  -0.09    -0.07  -0.01   0.01
  32   1     0.00  -0.00  -0.00     0.00   0.01  -0.00    -0.01  -0.01   0.00
  33   1    -0.01  -0.00   0.01    -0.13  -0.07   0.20     0.10   0.06   0.03
  34   1    -0.01   0.02   0.00    -0.14   0.19   0.03    -0.12  -0.02  -0.05
  35   1     0.00   0.00  -0.00    -0.00  -0.00   0.05    -0.02   0.15  -0.13
                     73                     74                     75
                        a                      a                      a 
 Frequencies --  1464.6941              1468.2323              1476.5141
 Red. masses --     1.7983                 1.8553                 1.7410
 Frc consts  --     0.0000                 0.0000                 0.0000
 IR Inten    --     5.0980                 5.2525                 1.3377
 Raman Activ --     0.0000                 0.0000                 0.0000
 Depolar     --     0.0000                 0.0000                 0.0000
 Atom AN      X      Y      Z        X      Y      Z        X      Y      Z
   1   6    -0.02  -0.00   0.01     0.00  -0.03  -0.00    -0.00   0.01   0.00
   2   6     0.01  -0.01   0.01    -0.01   0.02  -0.01    -0.02  -0.01   0.01
   3   6     0.01  -0.02   0.03    -0.00  -0.01   0.01     0.02  -0.04   0.05
   4   6    -0.03   0.14   0.09     0.03  -0.10  -0.07     0.02  -0.10  -0.06
   5   6     0.00   0.02   0.02     0.00  -0.00  -0.01    -0.00  -0.01  -0.01
   6   6     0.01  -0.01  -0.01    -0.01   0.01   0.02    -0.00  -0.00  -0.01
   7   6     0.00  -0.03  -0.03    -0.03  -0.13  -0.14     0.01   0.03   0.03
   8   6    -0.00  -0.01  -0.01    -0.00  -0.01  -0.00    -0.00   0.01   0.01
   9   8    -0.01  -0.00   0.00     0.01   0.01   0.00    -0.01  -0.00   0.00
  10   6    -0.14  -0.02   0.07    -0.11  -0.02   0.05    -0.01  -0.00   0.00
  11   6    -0.01   0.00  -0.00     0.01  -0.00   0.00     0.01  -0.00   0.00
  12   6    -0.01   0.01  -0.00     0.02  -0.01   0.00     0.00   0.01  -0.04
  13   6    -0.02   0.01   0.01     0.02  -0.01  -0.02     0.04  -0.01  -0.02
  14   1    -0.01   0.02  -0.00    -0.02  -0.02   0.00     0.06   0.01   0.00
  15   8    -0.02  -0.02   0.01    -0.01  -0.01   0.01    -0.00  -0.00   0.00
  16   6    -0.07   0.04  -0.07     0.05  -0.03   0.03     0.03   0.18  -0.07
  17   1    -0.08   0.02  -0.10     0.00  -0.01  -0.01    -0.08   0.01  -0.11
  18   1     0.02   0.12  -0.05     0.02  -0.02  -0.02     0.03   0.13  -0.06
  19   1     0.24  -0.31  -0.03    -0.18   0.23   0.03    -0.16   0.23   0.01
  20   1    -0.14  -0.22  -0.30     0.11   0.16   0.22     0.10   0.15   0.21
  21   1    -0.01   0.00  -0.00     0.00  -0.01  -0.00     0.00  -0.00  -0.00
  22   1    -0.00   0.00   0.00    -0.00  -0.02  -0.05     0.01   0.00   0.02
  23   1     0.00   0.09   0.02     0.07   0.46   0.07    -0.02  -0.10  -0.02
  24   1    -0.00   0.01   0.10     0.02   0.06   0.47    -0.01  -0.01  -0.10
  25   1     0.01   0.01   0.01    -0.01  -0.00  -0.01     0.01  -0.00   0.01
  26   1     0.22   0.03  -0.38     0.16   0.02  -0.28     0.02  -0.00  -0.03
  27   1     0.39   0.12   0.08     0.29   0.10   0.06     0.03   0.01   0.01
  28   1     0.02  -0.01  -0.00    -0.02   0.01   0.00    -0.01   0.00   0.00
  29   1     0.01   0.01   0.01    -0.01  -0.01  -0.01    -0.00  -0.00  -0.00
  30   1     0.02  -0.03  -0.04    -0.02   0.04   0.05    -0.03   0.05   0.07
  31   1     0.05  -0.00  -0.00    -0.06  -0.01   0.01    -0.09  -0.01   0.01
  32   1    -0.01  -0.01   0.00    -0.01  -0.01   0.00    -0.00  -0.00   0.00
  33   1    -0.00  -0.01  -0.12    -0.01   0.00   0.10    -0.43  -0.26  -0.02
  34   1     0.29  -0.04   0.09    -0.19   0.05  -0.04     0.18   0.14   0.13
  35   1    -0.00  -0.12   0.26     0.00   0.06  -0.16     0.12  -0.55   0.23
                     76                     77                     78
                        a                      a                      a 
 Frequencies --  1488.6567              1500.2421              1704.9796
 Red. masses --     1.7211                 1.8610                11.2026
 Frc consts  --     0.0000                 0.0000                 0.0000
 IR Inten    --     6.7129                 1.3585                30.9898
 Raman Activ --     0.0000                 0.0000                 0.0000
 Depolar     --     0.0000                 0.0000                 0.0000
 Atom AN      X      Y      Z        X      Y      Z        X      Y      Z
   1   6    -0.00  -0.00  -0.00    -0.01  -0.01   0.00     0.01   0.01  -0.00
   2   6     0.02   0.00  -0.01    -0.01   0.01  -0.01     0.07  -0.01  -0.01
   3   6    -0.02   0.03  -0.05    -0.05   0.16  -0.19     0.01   0.00  -0.00
   4   6     0.02  -0.10  -0.08    -0.02   0.05   0.03    -0.00  -0.00   0.00
   5   6     0.00  -0.01  -0.01    -0.00  -0.01   0.00     0.00   0.00   0.00
   6   6    -0.01  -0.00  -0.00     0.00   0.00   0.00    -0.00  -0.00   0.00
   7   6    -0.00  -0.01  -0.01    -0.00  -0.02  -0.02    -0.00  -0.00  -0.00
   8   6    -0.00   0.00   0.00     0.01  -0.00  -0.01    -0.01   0.00  -0.00
   9   8    -0.00   0.00   0.00    -0.00   0.00   0.00     0.00  -0.00  -0.00
  10   6     0.01   0.00  -0.00    -0.00   0.00   0.00     0.00   0.00  -0.00
  11   6     0.01   0.00   0.00    -0.00   0.00   0.00     0.00  -0.00   0.00
  12   6    -0.01   0.02   0.01     0.01   0.02   0.00    -0.56   0.21   0.41
  13   6    -0.07   0.02   0.05     0.00  -0.00  -0.01     0.49  -0.17  -0.34
  14   1    -0.05  -0.01  -0.00    -0.02  -0.00  -0.01    -0.07  -0.01  -0.00
  15   8     0.00   0.00  -0.00     0.00   0.00  -0.00     0.00   0.00   0.00
  16   6    -0.18  -0.02  -0.05     0.03   0.08  -0.01     0.02  -0.04  -0.06
  17   1     0.09  -0.02   0.11     0.36  -0.05   0.50     0.00   0.00   0.00
  18   1    -0.02  -0.13   0.05    -0.12  -0.54   0.25     0.00  -0.01   0.00
  19   1    -0.21   0.22   0.06     0.09  -0.08  -0.03     0.00  -0.00  -0.00
  20   1     0.10   0.17   0.22    -0.04  -0.06  -0.10    -0.00  -0.00  -0.00
  21   1     0.00  -0.00  -0.00     0.00   0.01   0.00     0.00  -0.00  -0.00
  22   1     0.01  -0.00   0.00    -0.01  -0.00  -0.01    -0.00   0.00   0.00
  23   1     0.01   0.05   0.01     0.00   0.09   0.01     0.00   0.00   0.00
  24   1     0.00   0.01   0.05     0.00   0.01   0.08    -0.00   0.00   0.00
  25   1     0.00  -0.01   0.00     0.00   0.00   0.00    -0.00  -0.00  -0.00
  26   1    -0.01   0.00   0.02     0.00  -0.00  -0.00    -0.00  -0.01   0.01
  27   1    -0.02  -0.01  -0.00     0.01  -0.00   0.00    -0.01  -0.00  -0.00
  28   1    -0.01   0.00   0.00    -0.00  -0.00   0.00    -0.00   0.00   0.00
  29   1    -0.01  -0.00  -0.01    -0.00  -0.00  -0.00    -0.00  -0.00  -0.00
  30   1     0.04  -0.08  -0.11    -0.01   0.01   0.02     0.04   0.10   0.12
  31   1     0.14   0.01  -0.01    -0.01  -0.00   0.00    -0.13  -0.07  -0.06
  32   1     0.00   0.00  -0.00    -0.00  -0.00  -0.00    -0.00   0.00  -0.00
  33   1     0.30   0.15  -0.30    -0.21  -0.13  -0.02     0.01  -0.01  -0.07
  34   1     0.51  -0.23   0.07     0.00   0.05   0.02     0.02  -0.06  -0.03
  35   1    -0.08   0.11   0.35     0.06  -0.22   0.02    -0.02   0.04   0.05
                     79                     80                     81
                        a                      a                      a 
 Frequencies --  1738.8659              2808.6487              2903.1304
 Red. masses --    11.5840                 1.7112                 1.7514
 Frc consts  --     0.0000                 0.0000                 0.0000
 IR Inten    --    31.5582               135.4985                72.4434
 Raman Activ --     0.0000                 0.0000                 0.0000
 Depolar     --     0.0000                 0.0000                 0.0000
 Atom AN      X      Y      Z        X      Y      Z        X      Y      Z
   1   6    -0.02   0.01   0.00     0.00   0.01  -0.01    -0.00  -0.00   0.01
   2   6     0.00   0.00  -0.00     0.00  -0.00  -0.00    -0.02   0.06   0.25
   3   6     0.00  -0.00   0.00    -0.00  -0.00   0.00    -0.02  -0.00  -0.01
   4   6    -0.00  -0.01   0.00    -0.00  -0.00   0.00    -0.00   0.00  -0.00
   5   6    -0.06  -0.02  -0.05    -0.00   0.01   0.00     0.00  -0.00  -0.00
   6   6    -0.01  -0.01  -0.01     0.07   0.22  -0.09     0.00   0.00  -0.00
   7   6    -0.08   0.03   0.01    -0.00  -0.00   0.00     0.00   0.00  -0.01
   8   6     0.73  -0.02   0.20    -0.00   0.00   0.00    -0.00   0.00   0.00
   9   8     0.00   0.00   0.00     0.01   0.01   0.01     0.00  -0.00  -0.00
  10   6     0.00  -0.00  -0.00    -0.00   0.00  -0.00     0.01   0.00  -0.00
  11   6    -0.59   0.01  -0.17    -0.00  -0.00  -0.00    -0.00  -0.00  -0.00
  12   6    -0.00   0.00   0.00    -0.00   0.00   0.00     0.00   0.01   0.01
  13   6     0.00  -0.00  -0.00     0.00  -0.00  -0.00    -0.00  -0.00  -0.00
  14   1    -0.00  -0.00  -0.00    -0.00   0.00   0.01     0.09  -0.23  -0.93
  15   8     0.00  -0.00  -0.00    -0.00  -0.00   0.00     0.00   0.00  -0.00
  16   6     0.00  -0.00  -0.00     0.00  -0.00   0.00     0.00  -0.00  -0.00
  17   1    -0.00  -0.00  -0.00     0.00   0.00  -0.00    -0.00   0.00  -0.00
  18   1     0.00  -0.00  -0.00     0.00  -0.00   0.00     0.05   0.02   0.05
  19   1    -0.00   0.01  -0.01     0.00  -0.00   0.00     0.00   0.00   0.00
  20   1     0.00   0.00   0.01     0.00  -0.00  -0.00     0.00  -0.00   0.00
  21   1     0.03   0.01   0.02     0.02  -0.00  -0.02    -0.01   0.00   0.01
  22   1     0.00  -0.00  -0.00    -0.29  -0.87   0.31    -0.00  -0.01   0.00
  23   1     0.03   0.00   0.00    -0.00  -0.00  -0.00    -0.00  -0.00   0.02
  24   1     0.00   0.00   0.01     0.00   0.01  -0.00    -0.00  -0.01  -0.00
  25   1    -0.00   0.00  -0.00     0.00  -0.00   0.00    -0.00   0.00   0.00
  26   1    -0.00   0.00   0.00     0.00   0.00  -0.00    -0.02  -0.01  -0.01
  27   1     0.00  -0.00  -0.00     0.00   0.00  -0.00    -0.00   0.00   0.02
  28   1     0.05  -0.08  -0.10     0.00   0.00   0.00     0.00   0.00   0.00
  29   1    -0.00   0.08   0.11     0.00   0.00   0.00    -0.00   0.00   0.00
  30   1     0.00   0.00   0.00    -0.00  -0.00  -0.00     0.00   0.00  -0.00
  31   1    -0.00  -0.00  -0.00    -0.00   0.00   0.00     0.00   0.01   0.01
  32   1    -0.00   0.00  -0.00     0.00  -0.00   0.00    -0.00   0.00   0.00
  33   1    -0.00  -0.00  -0.00    -0.00   0.00  -0.00    -0.00   0.00  -0.00
  34   1    -0.00  -0.00  -0.00    -0.00   0.00  -0.00    -0.00  -0.00   0.00
  35   1    -0.00   0.00   0.00    -0.00  -0.00  -0.00    -0.01  -0.00   0.00
                     82                     83                     84
                        a                      a                      a 
 Frequencies --  2926.8204              2939.0569              2950.0187
 Red. masses --     1.7604                 1.7698                 1.8339
 Frc consts  --     0.0000                 0.0000                 0.0000
 IR Inten    --    55.7758                98.6667                26.5927
 Raman Activ --     0.0000                 0.0000                 0.0000
 Depolar     --     0.0000                 0.0000                 0.0000
 Atom AN      X      Y      Z        X      Y      Z        X      Y      Z
   1   6     0.01   0.00   0.01     0.00   0.00  -0.00     0.00   0.01  -0.00
   2   6     0.00  -0.00  -0.01    -0.00   0.00   0.00     0.00  -0.00  -0.00
   3   6    -0.00  -0.00   0.00    -0.00  -0.00  -0.00     0.00  -0.00   0.00
   4   6    -0.00   0.00  -0.00     0.01  -0.02   0.00     0.00  -0.00   0.00
   5   6     0.00   0.00  -0.00    -0.16   0.01   0.21     0.00   0.00  -0.00
   6   6     0.00   0.00   0.00    -0.00  -0.01   0.01     0.00   0.00  -0.00
   7   6    -0.00  -0.00  -0.00     0.00   0.00  -0.00     0.03   0.26  -0.09
   8   6     0.00   0.00   0.00    -0.01   0.00   0.00    -0.00   0.01  -0.00
   9   8    -0.00   0.00   0.00    -0.00  -0.00  -0.00     0.00  -0.00   0.00
  10   6     0.20   0.08   0.15     0.00  -0.00   0.00     0.00   0.00  -0.00
  11   6     0.00  -0.00  -0.00     0.00  -0.00  -0.00     0.00  -0.00  -0.00
  12   6    -0.00   0.00  -0.00     0.00   0.00   0.00    -0.00   0.00  -0.00
  13   6     0.00   0.00   0.00    -0.00  -0.00  -0.00     0.00   0.00   0.00
  14   1    -0.00   0.01   0.02     0.00  -0.00  -0.01    -0.00   0.00   0.01
  15   8     0.01   0.01  -0.00     0.00   0.00  -0.00    -0.00  -0.00  -0.00
  16   6     0.00   0.00  -0.00     0.00  -0.00   0.00     0.00  -0.00  -0.00
  17   1     0.00   0.00  -0.00     0.00   0.00   0.00     0.00   0.01  -0.00
  18   1    -0.00   0.00   0.00     0.01   0.00   0.01    -0.01  -0.01  -0.02
  19   1     0.00   0.00   0.00     0.01   0.00   0.01     0.00   0.00   0.00
  20   1     0.00  -0.00   0.00    -0.07   0.05  -0.01    -0.00   0.00  -0.00
  21   1    -0.00   0.00   0.00     0.60  -0.05  -0.75    -0.01   0.00   0.01
  22   1     0.00  -0.00   0.00     0.01   0.02  -0.01    -0.00  -0.01   0.01
  23   1    -0.00  -0.00   0.00    -0.00  -0.00   0.01    -0.00   0.00   0.19
  24   1    -0.00   0.01  -0.00    -0.00  -0.01   0.00    -0.12  -0.92   0.13
  25   1     0.00  -0.00  -0.00    -0.00   0.00  -0.00    -0.00   0.00   0.00
  26   1    -0.78  -0.31  -0.48    -0.00  -0.00  -0.00    -0.01  -0.00  -0.01
  27   1     0.05  -0.00  -0.06    -0.00   0.00   0.00    -0.00   0.00   0.02
  28   1    -0.00   0.00   0.00     0.00  -0.00  -0.00     0.00   0.00   0.00
  29   1    -0.00   0.00   0.00    -0.00   0.00   0.01     0.00  -0.00  -0.00
  30   1    -0.00  -0.00  -0.00     0.00   0.00   0.00    -0.00  -0.00  -0.00
  31   1    -0.00  -0.00  -0.00     0.00   0.00   0.00    -0.00  -0.00  -0.00
  32   1    -0.01   0.00   0.00    -0.00  -0.00  -0.00     0.00  -0.00   0.00
  33   1     0.00  -0.00   0.00    -0.00   0.00   0.00    -0.00   0.00  -0.00
  34   1    -0.00  -0.00   0.00     0.00   0.00  -0.00    -0.00  -0.00   0.00
  35   1    -0.00  -0.00  -0.00    -0.00  -0.00  -0.00    -0.00  -0.00  -0.00
                     85                     86                     87
                        a                      a                      a 
 Frequencies --  2967.8750              2974.5458              2977.2487
 Red. masses --     1.9372                 1.8736                 1.6776
 Frc consts  --     0.0000                 0.0000                 0.0000
 IR Inten    --    37.6382                79.9062                40.3232
 Raman Activ --     0.0000                 0.0000                 0.0000
 Depolar     --     0.0000                 0.0000                 0.0000
 Atom AN      X      Y      Z        X      Y      Z        X      Y      Z
   1   6     0.00   0.00  -0.00     0.00   0.00  -0.00     0.00  -0.00  -0.01
   2   6    -0.00  -0.01  -0.02    -0.00  -0.01  -0.00     0.00  -0.00  -0.01
   3   6    -0.18  -0.15  -0.11    -0.10  -0.11  -0.03    -0.00  -0.00   0.00
   4   6     0.12  -0.05   0.05    -0.20   0.11  -0.05    -0.00   0.00  -0.00
   5   6     0.01  -0.00  -0.01    -0.02   0.00   0.01    -0.00   0.00  -0.00
   6   6    -0.00   0.00  -0.00     0.00  -0.00   0.00     0.00   0.00   0.00
   7   6     0.00   0.00   0.01     0.00   0.00   0.01    -0.00  -0.01   0.02
   8   6     0.00   0.00  -0.00    -0.00   0.00   0.00    -0.00  -0.00   0.00
   9   8    -0.00   0.00   0.00    -0.00   0.00   0.00    -0.00  -0.00   0.00
  10   6    -0.00   0.00   0.00    -0.00   0.00   0.00     0.07  -0.04  -0.23
  11   6    -0.00   0.00   0.00     0.00  -0.00  -0.00     0.00   0.00   0.00
  12   6     0.00   0.00  -0.00     0.00   0.00  -0.00     0.00  -0.00  -0.00
  13   6     0.00   0.00   0.00    -0.00  -0.00   0.00     0.00   0.00   0.00
  14   1    -0.00   0.01   0.05    -0.00   0.01   0.02    -0.00   0.00   0.02
  15   8     0.00  -0.00   0.00    -0.00  -0.00   0.00     0.00   0.01  -0.00
  16   6    -0.00   0.00   0.00    -0.01   0.01   0.00    -0.00   0.00  -0.00
  17   1     0.17   0.39  -0.10     0.17   0.38  -0.08     0.01   0.02  -0.00
  18   1     0.48   0.13   0.51     0.16   0.03   0.17    -0.00  -0.00  -0.00
  19   1    -0.13  -0.09  -0.17     0.08   0.08   0.11     0.00   0.00   0.00
  20   1    -0.31   0.24  -0.03     0.64  -0.48   0.07     0.01  -0.01   0.00
  21   1    -0.03   0.00   0.03     0.04  -0.00  -0.05     0.00  -0.00   0.00
  22   1     0.00  -0.00   0.00     0.00   0.01  -0.00    -0.00  -0.00   0.00
  23   1     0.00   0.01  -0.03     0.00   0.00  -0.02     0.00   0.01  -0.08
  24   1    -0.00  -0.02   0.00    -0.00  -0.01   0.00     0.00   0.01   0.00
  25   1    -0.00  -0.00  -0.00     0.00  -0.00  -0.00     0.00   0.00  -0.00
  26   1     0.00   0.00   0.00     0.01   0.00   0.00    -0.06  -0.04  -0.08
  27   1     0.00  -0.00  -0.01     0.00  -0.00  -0.02    -0.21   0.15   0.92
  28   1     0.00   0.00   0.00     0.00   0.00   0.00    -0.00  -0.00  -0.00
  29   1     0.00  -0.00  -0.00    -0.00   0.00   0.00    -0.00   0.00  -0.00
  30   1    -0.00  -0.00   0.00     0.00   0.00   0.00    -0.00  -0.00   0.00
  31   1    -0.00  -0.00  -0.00    -0.00  -0.00  -0.00    -0.00  -0.01  -0.01
  32   1    -0.00   0.00   0.00    -0.00  -0.00   0.00     0.00  -0.00  -0.01
  33   1     0.01  -0.01   0.00     0.02  -0.03   0.01     0.00  -0.00   0.00
  34   1     0.00   0.00  -0.00     0.00   0.00  -0.01    -0.00  -0.00   0.00
  35   1    -0.00  -0.00  -0.00     0.00   0.00   0.00     0.00   0.00   0.00
                     88                     89                     90
                        a                      a                      a 
 Frequencies --  2992.3758              2995.9732              2998.5154
 Red. masses --     1.5392                 1.6429                 1.6076
 Frc consts  --     0.0000                 0.0000                 0.0000
 IR Inten    --    73.4759                45.1500                82.8673
 Raman Activ --     0.0000                 0.0000                 0.0000
 Depolar     --     0.0000                 0.0000                 0.0000
 Atom AN      X      Y      Z        X      Y      Z        X      Y      Z
   1   6     0.00   0.00  -0.00     0.00  -0.00  -0.01     0.00  -0.00  -0.00
   2   6     0.00  -0.00   0.01     0.00  -0.00  -0.01    -0.00  -0.00  -0.00
   3   6     0.03  -0.14   0.15    -0.00   0.01  -0.01    -0.03  -0.04  -0.00
   4   6     0.06  -0.01   0.04     0.01   0.02   0.03    -0.08  -0.13  -0.16
   5   6     0.00   0.00  -0.00     0.00   0.00   0.00     0.01  -0.01  -0.01
   6   6    -0.00  -0.00   0.00    -0.00  -0.00   0.00    -0.00  -0.00  -0.00
   7   6    -0.00  -0.00  -0.02    -0.00  -0.01  -0.24    -0.00  -0.00  -0.04
   8   6     0.00  -0.00  -0.00     0.00  -0.00  -0.01     0.00   0.00   0.00
   9   8     0.00  -0.00  -0.00    -0.00  -0.00  -0.00     0.00   0.00   0.00
  10   6    -0.00   0.00   0.00     0.00  -0.00  -0.02    -0.00  -0.00  -0.00
  11   6    -0.00   0.00   0.00    -0.00   0.00   0.00     0.00   0.00   0.00
  12   6    -0.00  -0.00   0.00     0.00  -0.00  -0.00     0.00  -0.00  -0.00
  13   6     0.00  -0.00  -0.00     0.00   0.00   0.00     0.00   0.00   0.00
  14   1     0.00  -0.01  -0.04    -0.00   0.00   0.02    -0.00   0.00   0.01
  15   8     0.00  -0.00  -0.00     0.00   0.00   0.00     0.00  -0.00   0.00
  16   6    -0.01   0.01  -0.00     0.00  -0.00  -0.00    -0.01  -0.00   0.00
  17   1     0.32   0.64  -0.11    -0.02  -0.05   0.01     0.07   0.15  -0.03
  18   1    -0.41  -0.14  -0.42     0.04   0.01   0.04     0.03   0.00   0.03
  19   1    -0.10  -0.06  -0.12    -0.09  -0.05  -0.11     0.55   0.30   0.63
  20   1    -0.13   0.10  -0.01     0.06  -0.04   0.01    -0.24   0.15  -0.05
  21   1    -0.00  -0.00   0.01     0.00   0.00  -0.00    -0.03   0.00   0.03
  22   1     0.00   0.00  -0.00     0.00   0.00   0.00    -0.00  -0.00  -0.00
  23   1    -0.00  -0.01   0.06    -0.03  -0.18   0.91    -0.00  -0.03   0.16
  24   1     0.00   0.03  -0.01     0.03   0.20  -0.07     0.01   0.04  -0.01
  25   1    -0.00   0.00   0.00     0.00  -0.00  -0.00     0.00  -0.00   0.00
  26   1     0.00   0.00   0.00    -0.00  -0.00  -0.00     0.00   0.00   0.00
  27   1     0.00  -0.00  -0.01    -0.02   0.01   0.07    -0.00   0.00   0.01
  28   1    -0.00  -0.00  -0.00    -0.00  -0.01  -0.01    -0.00  -0.00  -0.00
  29   1     0.00  -0.00  -0.00     0.00   0.00   0.00     0.00  -0.00   0.00
  30   1    -0.00  -0.00  -0.00    -0.00   0.00   0.00    -0.00  -0.00  -0.00
  31   1     0.00   0.00   0.00    -0.00  -0.00  -0.00     0.00   0.00   0.00
  32   1    -0.00   0.00   0.00     0.00  -0.00  -0.00    -0.00   0.00  -0.00
  33   1     0.03  -0.04   0.01    -0.00   0.00  -0.00    -0.00   0.00   0.00
  34   1    -0.00  -0.00   0.00    -0.00  -0.00   0.00     0.00   0.01  -0.01
  35   1     0.01   0.00   0.00    -0.00  -0.00  -0.00     0.02   0.01   0.00
                     91                     92                     93
                        a                      a                      a 
 Frequencies --  3017.0373              3038.0865              3064.8438
 Red. masses --     1.8056                 1.6680                 1.6499
 Frc consts  --     0.0000                 0.0000                 0.0000
 IR Inten    --    42.8344                54.6865                 6.0424
 Raman Activ --     0.0000                 0.0000                 0.0000
 Depolar     --     0.0000                 0.0000                 0.0000
 Atom AN      X      Y      Z        X      Y      Z        X      Y      Z
   1   6    -0.00   0.00   0.00     0.00  -0.00  -0.00    -0.00  -0.00  -0.00
   2   6     0.00   0.00   0.00    -0.00  -0.00  -0.00     0.00  -0.00  -0.00
   3   6     0.00   0.01  -0.01     0.00  -0.00   0.00    -0.00  -0.00  -0.00
   4   6     0.00  -0.00  -0.00    -0.00  -0.00  -0.00    -0.00  -0.00  -0.00
   5   6     0.00  -0.00  -0.00     0.00  -0.00  -0.00    -0.00   0.00   0.00
   6   6     0.00   0.00  -0.00    -0.00  -0.00   0.00     0.00   0.00   0.00
   7   6     0.00   0.00  -0.00    -0.00  -0.00  -0.00     0.00  -0.00   0.00
   8   6     0.00   0.00  -0.00    -0.00  -0.00  -0.00     0.00   0.00   0.00
   9   8     0.00  -0.00  -0.00    -0.00   0.00  -0.00     0.00   0.00  -0.00
  10   6    -0.00   0.00   0.00    -0.00  -0.00  -0.00    -0.00   0.00   0.00
  11   6     0.00  -0.00  -0.00     0.00   0.00   0.00    -0.00  -0.00  -0.00
  12   6    -0.01   0.01   0.00     0.01   0.00   0.00     0.00  -0.00  -0.01
  13   6     0.00   0.00   0.00    -0.01  -0.01  -0.00    -0.00   0.00   0.00
  14   1    -0.00  -0.00  -0.00     0.00   0.00   0.01     0.00   0.00   0.00
  15   8     0.00   0.00   0.00    -0.00   0.00   0.00     0.00   0.00   0.00
  16   6    -0.16   0.21  -0.06     0.22   0.10   0.01     0.08   0.10  -0.21
  17   1    -0.02  -0.05   0.01     0.00   0.00  -0.00     0.00   0.01  -0.00
  18   1     0.01   0.00   0.01    -0.00  -0.00  -0.00     0.00   0.00   0.00
  19   1     0.01   0.00   0.00     0.01   0.01   0.02     0.00   0.00   0.01
  20   1    -0.01   0.01  -0.00    -0.01   0.00  -0.00     0.00  -0.00   0.00
  21   1    -0.00   0.00   0.00    -0.00  -0.00   0.00     0.00  -0.00  -0.00
  22   1    -0.00  -0.00   0.00     0.00   0.00  -0.00    -0.00  -0.00  -0.00
  23   1    -0.00  -0.00   0.00    -0.00  -0.00   0.00     0.00   0.00  -0.00
  24   1    -0.00  -0.00   0.00     0.00   0.00  -0.00     0.00   0.00   0.00
  25   1    -0.00   0.00   0.00     0.00  -0.00  -0.00    -0.00   0.00   0.01
  26   1     0.00  -0.00   0.00     0.00   0.00   0.00     0.00  -0.00   0.00
  27   1     0.00  -0.00  -0.00    -0.00  -0.00   0.00     0.00  -0.00  -0.00
  28   1     0.00   0.00   0.00    -0.00  -0.00  -0.00     0.00   0.00   0.00
  29   1    -0.00   0.00   0.00    -0.00   0.00   0.00     0.00  -0.00  -0.00
  30   1    -0.00  -0.00  -0.00     0.03   0.01   0.01    -0.00  -0.00  -0.00
  31   1    -0.00  -0.01  -0.01    -0.00   0.01   0.01     0.00   0.00   0.00
  32   1    -0.00  -0.00  -0.00     0.00  -0.00  -0.00    -0.00   0.00  -0.00
  33   1     0.50  -0.79   0.13     0.11  -0.11   0.02    -0.03   0.08  -0.04
  34   1    -0.05  -0.00   0.05     0.02  -0.01   0.04    -0.31  -0.44   0.80
  35   1     0.13   0.07   0.00    -0.92  -0.22  -0.09     0.04   0.02  -0.02
                     94                     95                     96
                        a                      a                      a 
 Frequencies --  3094.9576              3099.2602              3112.1023
 Red. masses --     1.5181                 1.5125                 2.0815
 Frc consts  --     0.0000                 0.0000                 0.0000
 IR Inten    --    53.7328                38.1450                91.8728
 Raman Activ --     0.0000                 0.0000                 0.0000
 Depolar     --     0.0000                 0.0000                 0.0000
 Atom AN      X      Y      Z        X      Y      Z        X      Y      Z
   1   6     0.00  -0.00  -0.00     0.00  -0.00  -0.00    -0.00  -0.00   0.00
   2   6    -0.00  -0.00  -0.00    -0.00   0.00   0.00    -0.00  -0.00   0.00
   3   6     0.00   0.00  -0.00     0.00   0.00   0.00     0.00   0.00   0.00
   4   6    -0.00   0.00   0.00     0.00   0.00   0.00    -0.00   0.00  -0.00
   5   6    -0.00   0.00   0.00     0.00  -0.00  -0.00    -0.00   0.00   0.00
   6   6    -0.00  -0.00   0.00     0.00   0.00  -0.00     0.00   0.00   0.00
   7   6    -0.00  -0.00  -0.00    -0.00   0.00   0.00     0.00  -0.00   0.00
   8   6    -0.00   0.00  -0.00    -0.01   0.00  -0.00    -0.00  -0.00  -0.00
   9   8    -0.00   0.00  -0.00     0.00  -0.00   0.00    -0.00  -0.00  -0.00
  10   6     0.00  -0.00  -0.00    -0.00   0.00   0.00    -0.00   0.00   0.00
  11   6     0.00  -0.00   0.00     0.21  -0.00   0.06     0.00  -0.00  -0.00
  12   6    -0.01   0.00   0.01     0.00  -0.00  -0.00     0.01   0.01   0.01
  13   6     0.17  -0.06  -0.12    -0.00   0.00   0.00     0.19   0.17   0.19
  14   1     0.00   0.00   0.01     0.00  -0.00  -0.00    -0.00  -0.00  -0.01
  15   8    -0.00   0.00   0.00     0.00  -0.00  -0.00    -0.00  -0.00  -0.00
  16   6     0.00   0.00   0.00    -0.00  -0.00  -0.00     0.01   0.00   0.00
  17   1    -0.00  -0.00   0.00    -0.00  -0.00  -0.00     0.00   0.00   0.00
  18   1     0.00   0.00   0.00     0.00   0.00   0.00    -0.00  -0.00  -0.00
  19   1    -0.00  -0.00  -0.00    -0.00  -0.00  -0.00     0.00   0.00   0.00
  20   1     0.00  -0.00   0.00    -0.00   0.00   0.00     0.00  -0.00  -0.00
  21   1     0.00  -0.00  -0.00    -0.00   0.00   0.00     0.00  -0.00  -0.00
  22   1     0.00   0.00  -0.00    -0.00  -0.00   0.00    -0.00  -0.00  -0.00
  23   1    -0.00  -0.00   0.00     0.00   0.00  -0.01    -0.00   0.00  -0.00
  24   1     0.00   0.00  -0.00    -0.00  -0.01   0.00     0.00   0.00   0.00
  25   1     0.00  -0.00  -0.00    -0.00   0.00   0.00    -0.00   0.00   0.00
  26   1    -0.00  -0.00  -0.00     0.00   0.00   0.00     0.01   0.00   0.00
  27   1    -0.00   0.00   0.01     0.00  -0.00  -0.00     0.00  -0.00  -0.01
  28   1    -0.00  -0.01  -0.01    -0.21  -0.36  -0.56     0.00   0.00   0.01
  29   1    -0.01   0.01   0.01    -0.45   0.37   0.37    -0.00   0.00   0.00
  30   1    -0.62  -0.23  -0.17     0.01   0.00   0.00    -0.63  -0.20  -0.14
  31   1     0.08   0.42   0.55    -0.00  -0.01  -0.01    -0.03  -0.40  -0.53
  32   1     0.00  -0.00  -0.00    -0.00   0.00   0.00     0.00  -0.00   0.00
  33   1     0.00  -0.01  -0.00    -0.00   0.00  -0.00    -0.00   0.00   0.00
  34   1     0.00  -0.00  -0.00    -0.00  -0.00   0.00     0.00   0.00   0.00
  35   1    -0.02  -0.00  -0.00     0.00   0.00   0.00    -0.03  -0.01  -0.01
                     97                     98                     99
                        a                      a                      a 
 Frequencies --  3119.9718              3518.5364              3530.3361
 Red. masses --     2.0938                 1.8742                 1.8762
 Frc consts  --     0.0000                 0.0000                 0.0000
 IR Inten    --    61.5284                32.5415                25.9711
 Raman Activ --     0.0000                 0.0000                 0.0000
 Depolar     --     0.0000                 0.0000                 0.0000
 Atom AN      X      Y      Z        X      Y      Z        X      Y      Z
   1   6     0.00  -0.00  -0.00    -0.00  -0.00   0.00     0.00  -0.00  -0.00
   2   6     0.00  -0.00  -0.00     0.00  -0.00  -0.00     0.00  -0.00  -0.00
   3   6     0.00   0.00   0.00     0.00  -0.00  -0.00    -0.00  -0.00  -0.00
   4   6     0.00  -0.00   0.00     0.00   0.00  -0.00    -0.00   0.00  -0.00
   5   6     0.00   0.00   0.00    -0.00   0.00   0.00     0.00   0.00   0.00
   6   6    -0.00  -0.00  -0.00    -0.00  -0.00  -0.01    -0.00  -0.00   0.00
   7   6    -0.00   0.00  -0.00     0.00  -0.00  -0.00     0.00  -0.00  -0.00
   8   6     0.00  -0.01  -0.01     0.00  -0.00  -0.00    -0.00   0.00   0.00
   9   8    -0.00   0.00   0.00     0.12  -0.04  -0.20    -0.01   0.00   0.01
  10   6    -0.00  -0.00  -0.00     0.00   0.00  -0.00     0.00   0.00  -0.01
  11   6     0.07  -0.19  -0.24     0.00  -0.00  -0.00    -0.00  -0.00   0.00
  12   6    -0.00  -0.00  -0.00    -0.00  -0.00   0.00     0.00  -0.00  -0.00
  13   6    -0.00  -0.00  -0.00    -0.00  -0.00  -0.00    -0.00  -0.00  -0.00
  14   1    -0.00   0.00   0.00    -0.00   0.00   0.00    -0.00  -0.00   0.00
  15   8     0.00  -0.00   0.00     0.00  -0.00  -0.02     0.01  -0.02  -0.24
  16   6     0.00  -0.00   0.00    -0.00  -0.00   0.00     0.00   0.00  -0.00
  17   1     0.00   0.00   0.00    -0.00  -0.00   0.00    -0.00  -0.00   0.00
  18   1    -0.00  -0.00  -0.00     0.00   0.00   0.00     0.00   0.00   0.00
  19   1     0.00  -0.00   0.00    -0.00   0.00  -0.00     0.00  -0.00   0.00
  20   1    -0.00   0.00  -0.00     0.00  -0.00   0.00     0.00  -0.00   0.00
  21   1    -0.00   0.00   0.01    -0.00   0.00  -0.00     0.00  -0.00  -0.00
  22   1     0.00   0.00  -0.00     0.00   0.00   0.00    -0.00   0.00   0.00
  23   1    -0.00  -0.00   0.01    -0.00  -0.00   0.00     0.00  -0.00   0.00
  24   1    -0.00   0.01  -0.00     0.00   0.00  -0.00    -0.00   0.00  -0.00
  25   1     0.00  -0.00  -0.00    -0.48   0.18   0.82     0.03  -0.01  -0.06
  26   1     0.00   0.00   0.00    -0.00  -0.00  -0.00     0.00   0.00   0.00
  27   1    -0.00   0.00   0.00    -0.00   0.00   0.00    -0.00   0.00   0.01
  28   1     0.24   0.33   0.53     0.00   0.00   0.00     0.00  -0.00   0.00
  29   1    -0.47   0.35   0.33    -0.00   0.00   0.00     0.00  -0.00  -0.00
  30   1     0.01   0.00   0.00     0.00   0.00  -0.00     0.00   0.00   0.00
  31   1     0.00   0.00   0.00    -0.00   0.00   0.00    -0.00   0.00   0.00
  32   1    -0.00   0.00  -0.00    -0.00   0.00   0.07    -0.07   0.05   0.96
  33   1    -0.00   0.00  -0.00     0.00   0.00  -0.00     0.00  -0.00   0.00
  34   1     0.00   0.00  -0.00     0.00   0.00  -0.01    -0.00  -0.00   0.00
  35   1    -0.00  -0.00   0.00    -0.00  -0.00   0.00    -0.00  -0.00   0.00
