
                                 *****************
                                 * O   R   C   A *
                                 *****************

                                            #,                                       
                                            ###                                      
                                            ####                                     
                                            #####                                    
                                            ######                                   
                                           ########,                                 
                                     ,,################,,,,,                         
                               ,,#################################,,                 
                          ,,##########################################,,             
                       ,#########################################, ''#####,          
                    ,#############################################,,   '####,        
                  ,##################################################,,,,####,       
                ,###########''''           ''''###############################       
              ,#####''   ,,,,##########,,,,          '''####'''          '####       
            ,##' ,,,,###########################,,,                        '##       
           ' ,,###''''                  '''############,,,                           
         ,,##''                                '''############,,,,        ,,,,,,###''
      ,#''                                            '''#######################'''  
     '                                                          ''''####''''         
             ,#######,   #######,   ,#######,      ##                                
            ,#'     '#,  ##    ##  ,#'     '#,    #''#        ,####,    ,#,          
            ##       ##  ##   ,#'  ##            #'  '#       #'       ,# #          
            ##       ##  #######   ##           ,######,      #####,      #          
            '#,     ,#'  ##    ##  '#,     ,#' ,#      #,     #,   #      #          
             '#######'   ##     ##  '#######'  #'      '#     '####' #    #          



                #########################################################
                #                        -***-                          #
                #          Department of theory and spectroscopy        #
                #                                                       #
                #                      Frank Neese                      #
                #                                                       #
                #     Directorship, Architecture, Infrastructure        #
                #                    SHARK, DRIVERS                     #
                #        Core code/Algorithms in most modules           #
                #                                                       #
                #        Max Planck Institute fuer Kohlenforschung      #
                #                Kaiser Wilhelm Platz 1                 #
                #                 D-45470 Muelheim/Ruhr                 #
                #                      Germany                          #
                #                                                       #
                #                  All rights reserved                  #
                #                        -***-                          #
                #########################################################


                         Program Version 6.1.1  -  RELEASE   -
                                (GIT: $487d211c$)
                          ($2025-11-21 10:33:24 +0100$)


 With contributions from (in alphabetic order):
[Max-Planck-Institut fuer Kohlenforschung]                               
  Daniel Aravena         : Magnetic Suceptibility                        
  Michael Atanasov       : Ab Initio Ligand Field Theory (pilot matlab implementation)
  Alexander A. Auer      : GIAO ZORA, VPT2 properties, NMR spectrum      
  Ute Becker             : All parallelization in ORCA, NUMFREQ, NUMCALC 
  Giovanni Bistoni       : ED, misc. LED, open-shell LED, HFLD           
  Dmytro Bykov           : pre 5.0 version of the SCF Hessian            
  Marcos Casanova-Páez   : Triplet and SCS-CIS(D). UHF-(DLPNO)-IP/EA/STEOM-CCSD. UHF-CVS-IP/STEOM-CCSD   
  Vijay G. Chilkuri      : MRCI spin determinant printing, contributions to CSF-ICE 
  Pauline Colinet        : FMM embedding                                 
  Dipayan Datta          : RHF DLPNO-CCSD density                        
  Achintya Kumar Dutta   : EOM-CC, STEOM-CC                              
  Nicolas Foglia         : Exact transition moments, OPA infrastructure, MCD improvements    
  Dmitry Ganyushin       : Spin-Orbit,Spin-Spin,Magnetic field MRCI      
  Miquel Garcia-Rates    : C-PCM and meta-GGA Hessian, CCSD/C-PCM, Gaussian charge scheme 
  Tiago L. C. Gouveia    : GS-ROHF, GS-ROCIS                             
  Yang Guo               : DLPNO-NEVPT2, F12-NEVPT2, CIM, IAO-localization        
  Andreas Hansen         : Spin unrestricted coupled pair/coupled cluster methods 
  Ingolf Harden          : AUTO-CI MPn and infrastructure                
  Benjamin Helmich-Paris : MC-RPA, TRAH-(SCF,CASSCF), AVAS, COSX integrals, SCF dyn. polar., MC-PDFT, srDFT 
  Lee Huntington         : MR-EOM, pCC                                   
  Robert Izsak           : Overlap fitted RIJCOSX, COSX-SCS-MP3, EOM     
  Riya Kayal             : Wick's Theorem for AUTO-CI, AUTO-CI UHF-CCSDT 
  Emily Kempfer          : AUTO-CI RHF CISDT and CCSDT, approximate NEVPT4
  Christian Kollmar      : KDIIS, OOCD, Brueckner-CCSD(T), CCSD density, CASPT2, CASPT2-K, improved NEVPT2 
  Axel Koslowski         : Symmetry handling                             
  Simone Kossmann        : meta-GGA functionals, TD-DFT gradient, OOMP2, (MP2 Hessian; deprecated post 5.0) 
  Lucas Lang             : DCDCAS, Hyperfine gauge corrections, ICE-SOC+SSC
  Marvin Lechner         : AUTO-CI (C++ implementation), FIC-MRCC        
  Spencer Leger          : CASSCF response                               
  Dagmar Lenk            : GEPOL surface, SMD, ORCA-2-JSON               
  Dimitrios Liakos       : Extrapolation schemes; Compound Job, Property file
  Dimitrios Manganas     : Further ROCIS development; embedding schemes. LFT, Crystal Embedding 
  Dimitrios Pantazis     : SARC Basis sets                               
  Anastasios Papadopoulos: AUTO-CI, single reference methods and gradients 
  Taras Petrenko         : pre 6.0 DFT Hessian and TD-DFT gradient,  ECA, NRVS 
  Petra Pikulova         : Analytic Raman intensities                    
  Peter Pinski           : DLPNO-MP2, DLPNO-MP2 Gradient                 
  Shashank Vittal Rao    : ES-AILFT, MagRelax                            
  Christoph Reimann      : Effective Core Potentials                     
  Marius Retegan         : Local ZFS, SOC                                
  Christoph Riplinger    : Optimizer, TS searches, QM/MM, DLPNO-CCSD(T), (RO)-DLPNO pert. Triples 
  Michael Roemelt        : Original ROCIS implementation, recursive CI coupling coefficients
  Masaaki Saitow         : Open-shell DLPNO-CCSD energy and density      
  Barbara Sandhoefer     : DKH picture change effects                    
  Yorick L. A. Schmerwitz: GMF and freeze-and-release deltaSCF, NEB S-IDPP initial path                    
  Kantharuban Sivalingam : CASSCF convergence/infrastructure, NEVPT2, NEVPT3, NEVPT4(SD), FIC-MRCI and CEPA variants
  Bernardo de Souza      : ESD, SOC TD-DFT                               
  Georgi L. Stoychev     : AutoAux, RI-MP2 NMR, DLPNO-MP2 response, X2C  
  Van Anh Tran           : RI-MP2 g-tensors                              
  Willem Van den Heuvel  : Paramagnetic NMR                              
  Zikuan Wang            : NOTCH, Electric field optimization            
  Frank Wennmohs         : Technical directorship and infrastructure     
  Hang Xu                : AUTO-CI-Response properties                   
                                                                         
[FACCTs GmbH]                                                            
  Markus Bursch, Nicolas Foglia, Miquel Garcia-Rates, Ingolf Harden, Hagen Neugebauer, Anastasios Papadopoulos, 
  Christoph Riplinger, Bernardo de Souza, Georgi L. Stoychev                                                    
                                                                 
  APM, various basis sets, CI-OPT, improved COSX, DLPNO-Multilevel,           
  DOCKER, DRACO, updates on ESD, Fragmentator, GOAT, IRC, LR-CPCM, L-BFGS, MBIS, meta-GGA TD-DFT gradient, ML-optimized integration grids, 
  MM, NACMEs, nearIR, NEB, NEB-TS, NL-DFT gradient (VV10), 2- and 3-layer-ONIOM, interface openCOSMO-RS, QMMM,   
  Crystal-QMMM, RESP, rigid body optimization, SF, symmetry and pop. for TD-DFT, various functionals, SOLVATOR                                   
                                                                         
[Other institutions]                                                     
  V. Asgeirsson          : NEB                                           
  Christoph Bannwarth    : sTDA-DFT, sTD-DFT, PBEh-3c, B97-3c, D3        
  Giovanni Bistoni       : ETS/NOCV, ADLD/ADEX, COVALED                  
  Martin Brehm           : Molecular dynamics                            
  Ronald Cardenas        : ETS/NOCV                                      
  Martina Colucci        : COVALED                                       
  Sebastian Ehlert       : rSCAN, r2SCAN, r2SCAN-3c, D4, dhf basis sets  
  Marvin Friede          : D4 for Fr, Ra, Ac-Lr                          
  Lars Goerigk           : TD-DFT with DH, B97 family of functionals     
  Stefan Grimme          : VdW corrections, initial TS optimization, DFT functionals, gCP, sTDA/sTD-DF 
  Waldemar Hujo          : DFT-NL                                        
  H. Jonsson             : NEB                                           
  Holger Kruse           : gCP                                           
  Marcel Mueller         : wB97X-3c, vDZP basis set                      
  Hagen Neugebauer       : wr2SCAN, Native XTB                           
  Gianluca Regni         : ADLD/ADEX                                     
  Tobias Risthaus        : pre 6.0 range-separated hybrid DFT and stability analysis
  Lukas Wittmann         : regularized MP2, r2SCAN double-hybrids, wr2SCAN        
                                                                         
We gratefully acknowledge several colleagues who have allowed us to      
interface, adapt or use parts of their codes:                            
  Ed Valeev, F. Pavosevic, A. Kumar             : LibInt (2-el integral package), F12 methods 
  Garnet Chan, S. Sharma, J. Yang, R. Olivares  : DMRG                   
  Ulf Ekstrom                                   : XCFun DFT Library      
  Mihaly Kallay                                 : mrcc  (arbitrary order and MRCC methods)
  Frank Weinhold                                : gennbo (NPA and NBO analysis)           
  Simon Mueller                                 : openCOSMO-RS                            
  Christopher J. Cramer and Donald G. Truhlar   : smd solvation model                     
  S Lehtola, MJT Oliveira, MAL Marques          : LibXC Library                           
  Liviu Ungur et al                             : ANISO software                          


 Your calculation uses the libint2 library for the computation of 2-el integrals
 For citations please refer to: http://libint.valeyev.net

 Your ORCA version has been built with support for libXC version: 7.0.0
 For citations please refer to: https://libxc.gitlab.io

 This ORCA versions uses:
   CBLAS   interface :  Fast vector & matrix operations
   LAPACKE interface :  Fast linear algebra routines
   SCALAPACK package :  Parallel linear algebra routines
   Shared memory     :  Shared parallel matrices
   BLAS/LAPACK       :  OpenBLAS 0.3.29  USE64BITINT DYNAMIC_ARCH NO_AFFINITY Haswell SINGLE_THREADED
        Core in use  :  Haswell
   Copyright (c) 2011-2014, The OpenBLAS Project


  ***********************************
  * Starting time: Sun Aug  9 22:43:02 2026
  * Host name:     localhost.localdomain
  * Process ID:    3146131
  * Working dir.:  /home/dinglab/calculation/templates/NMR_modules/STS/beta_melo_screening/CONF3/r2scan-3c
  ***********************************

NOTE: MaxCore=2500 MB was set to SCF,MP2,MDCI,CIPSI,MRCI,RASCI and CIS
      => If you want to overwrite this, your respective input block should be placed after the MaxCore statement
Your calculation utilizes the geometrical counterpoise correction gCP
Please cite in your paper:
H.Kruse, S. Grimme J.Chem.Phys., 136, (2012), 154101 
   

Your calculation utilizes the atom-pairwise dispersion correction
based on EEQ partial charges (D4)


================================================================================

----- Orbital basis set information -----
Your calculation utilizes the basis: def2-mTZVPP
   Stefan Grimme, Andreas Hansen, Sebastian Ehlert, and Jan-Michael Mewes 
   J. Chem. Phys. 154, 064103 (2021). DOI: 10.1063/5.0040021

----- AuxJ basis set information -----
Your calculation utilizes the basis: def2-mTZVPP/J
   Stefan Grimme, Andreas Hansen, Sebastian Ehlert, and Jan-Michael Mewes 
   J. Chem. Phys. 154, 000000 (2021). DOI: 10.1063/5.0040021

================================================================================
                                        WARNINGS
                       Please study these warnings very carefully!
================================================================================

WARNING: Old DensityContainer found on disk!
         Will remove this file - 
         If you want to keep old densities, please start your calculation with a different basename. 



WARNING: SCAN, rSCAN, or r2SCAN functional requested.
  ===> : libXC variant has now been activated.



================================================================================
                                       INPUT FILE
================================================================================
NAME = inp
|  1> ! r2scan-3c
|  2> ! DEFGRID2
|  3> ! scfconv6
|  4> ! miniprint nopop noautostart
|  5> %MaxCore 2500
|  6> %pal
|  7>     nprocs 12
|  8> end
|  9> ! CPCM(chloroform)
| 10> *xyz 0 1
| 11> C   -0.4320924717   0.0284390340  -2.5274794485
| 12> C    1.0943490041   0.0998554618  -2.6042838259
| 13> C   -2.5967794015   3.1984070081   0.6354562849
| 14> C   -3.7505794414   2.6094582633   0.1166324848
| 15> C   -3.6755281404   1.3499490033  -0.4538051985
| 16> C   -2.4633877821   0.6454267705  -0.4822621294
| 17> C   -1.3172327375   1.1765439517   0.1405448285
| 18> C   -1.4088410270   2.4787107657   0.6499202075
| 19> N   -2.3869649564  -0.5376006498  -1.2297246054
| 20> C   -1.0371192364  -0.9815798248  -1.5192059070
| 21> C   -0.1561246966  -1.1069335396  -0.2332724722
| 22> C   -0.0708662188   0.3206964963   0.4182213285
| 23> C    1.2639617298  -1.4794994143  -0.7180938944
| 24> C    1.7776557805  -0.1153861125  -1.2394243015
| 25> C    1.2575451413   0.8397200692  -0.1773631228
| 26> C    3.2583520902   0.1136842271  -1.4224257224
| 27> C    3.9730632390   0.9645400641  -0.6827758732
| 28> C    3.4379814587   1.6358996364   0.5583602349
| 29> N    2.2670858884   0.8214175497   1.0146929291
| 30> C    1.3957751621   1.3266762488   2.1231335116
| 31> C    0.1951896177   0.3871072971   1.9724316602
| 32> O    2.7220288476  -0.4058777538   1.3951332548
| 33> H    1.2032250656   1.8814661373  -0.5152559542
| 34> C   -0.8070389773  -2.1227169651   0.6702163971
| 35> O   -1.7346958277  -1.8877719154   1.4209487387
| 36> O   -0.2830865937  -3.3521432277   0.5092635119
| 37> C   -0.8911809225  -4.4011480129   1.3010021981
| 38> H   -0.8496740907  -0.1984269156  -3.5146681030
| 39> H   -0.8063397659   1.0222951482  -2.2621500553
| 40> H    1.4876118295  -0.6762505436  -3.2735590158
| 41> H    1.3881295930   1.0680821405  -3.0291859771
| 42> H   -2.6245746573   4.2053497568   1.0410611549
| 43> H   -4.6949838865   3.1468075444   0.1229218858
| 44> H   -4.5471549209   0.9018453427  -0.9250970334
| 45> H   -0.5368824321   2.9458722000   1.0960629047
| 46> H   -3.0384907370  -1.2614298269  -0.9561006749
| 47> H   -1.0927354081  -1.9773901356  -1.9757000926
| 48> H    1.8803628074  -1.8378476219   0.1017316588
| 49> H    1.2220621957  -2.2290951464  -1.5167042549
| 50> H    3.7285887394  -0.3833484182  -2.2701816448
| 51> H    5.0183532826   1.1502809131  -0.9169092209
| 52> H    3.1320043791   2.6773668676   0.3825010804
| 53> H    4.1763032216   1.6123219280   1.3654519005
| 54> H    1.9388470020   1.2133293106   3.0631581321
| 55> H    1.1507683861   2.3807711081   1.9526331180
| 56> H   -0.6815783339   0.7526903055   2.5083774032
| 57> H    0.4672416995  -0.5918361480   2.3683898169
| 58> H   -1.9465001629  -4.5119955546   1.0375473961
| 59> H   -0.3358856754  -5.3063482580   1.0559301239
| 60> H   -0.8011392565  -4.1701075605   2.3655949188
| 61> *
| 62> 
| 63>                          ****END OF INPUT****
================================================================================

                       ****************************
                       * Single Point Calculation *
                       ****************************

---------------------------------
CARTESIAN COORDINATES (ANGSTROEM)
---------------------------------
  C     -0.432092    0.028439   -2.527479
  C      1.094349    0.099855   -2.604284
  C     -2.596779    3.198407    0.635456
  C     -3.750579    2.609458    0.116632
  C     -3.675528    1.349949   -0.453805
  C     -2.463388    0.645427   -0.482262
  C     -1.317233    1.176544    0.140545
  C     -1.408841    2.478711    0.649920
  N     -2.386965   -0.537601   -1.229725
  C     -1.037119   -0.981580   -1.519206
  C     -0.156125   -1.106934   -0.233272
  C     -0.070866    0.320696    0.418221
  C      1.263962   -1.479499   -0.718094
  C      1.777656   -0.115386   -1.239424
  C      1.257545    0.839720   -0.177363
  C      3.258352    0.113684   -1.422426
  C      3.973063    0.964540   -0.682776
  C      3.437981    1.635900    0.558360
  N      2.267086    0.821418    1.014693
  C      1.395775    1.326676    2.123134
  C      0.195190    0.387107    1.972432
  O      2.722029   -0.405878    1.395133
  H      1.203225    1.881466   -0.515256
  C     -0.807039   -2.122717    0.670216
  O     -1.734696   -1.887772    1.420949
  O     -0.283087   -3.352143    0.509264
  C     -0.891181   -4.401148    1.301002
  H     -0.849674   -0.198427   -3.514668
  H     -0.806340    1.022295   -2.262150
  H      1.487612   -0.676251   -3.273559
  H      1.388130    1.068082   -3.029186
  H     -2.624575    4.205350    1.041061
  H     -4.694984    3.146808    0.122922
  H     -4.547155    0.901845   -0.925097
  H     -0.536882    2.945872    1.096063
  H     -3.038491   -1.261430   -0.956101
  H     -1.092735   -1.977390   -1.975700
  H      1.880363   -1.837848    0.101732
  H      1.222062   -2.229095   -1.516704
  H      3.728589   -0.383348   -2.270182
  H      5.018353    1.150281   -0.916909
  H      3.132004    2.677367    0.382501
  H      4.176303    1.612322    1.365452
  H      1.938847    1.213329    3.063158
  H      1.150768    2.380771    1.952633
  H     -0.681578    0.752690    2.508377
  H      0.467242   -0.591836    2.368390
  H     -1.946500   -4.511996    1.037547
  H     -0.335886   -5.306348    1.055930
  H     -0.801139   -4.170108    2.365595

----------------------------
CARTESIAN COORDINATES (A.U.)
----------------------------
  NO LB      ZA    FRAG     MASS         X           Y           Z
   0 C     6.0000    0    12.011   -0.816536    0.053742   -4.776244
   1 C     6.0000    0    12.011    2.068020    0.188699   -4.921383
   2 C     6.0000    0    12.011   -4.907202    6.044113    1.200838
   3 C     6.0000    0    12.011   -7.087568    4.931161    0.220403
   4 C     6.0000    0    12.011   -6.945742    2.551034   -0.857568
   5 C     6.0000    0    12.011   -4.655128    1.219680   -0.911343
   6 C     6.0000    0    12.011   -2.489209    2.223346    0.265591
   7 C     6.0000    0    12.011   -2.662324    4.684085    1.228171
   8 N     7.0000    0    14.007   -4.510710   -1.015918   -2.323843
   9 C     6.0000    0    12.011   -1.959871   -1.854917   -2.870883
  10 C     6.0000    0    12.011   -0.295033   -2.091801   -0.440821
  11 C     6.0000    0    12.011   -0.133918    0.606029    0.790324
  12 C     6.0000    0    12.011    2.388542   -2.795849   -1.357001
  13 C     6.0000    0    12.011    3.359283   -0.218048   -2.342172
  14 C     6.0000    0    12.011    2.376416    1.586841   -0.335168
  15 C     6.0000    0    12.011    6.157393    0.214832   -2.687995
  16 C     6.0000    0    12.011    7.508001    1.822717   -1.290259
  17 C     6.0000    0    12.011    6.496843    3.091402    1.055148
  18 N     7.0000    0    14.007    4.284171    1.552254    1.917492
  19 C     6.0000    0    12.011    2.637633    2.507055    4.012141
  20 C     6.0000    0    12.011    0.368855    0.731527    3.727356
  21 O     8.0000    0    15.999    5.143889   -0.766998    2.636420
  22 H     1.0000    0     1.008    2.273766    3.555456   -0.973693
  23 C     6.0000    0    12.011   -1.525083   -4.011354    1.266525
  24 O     8.0000    0    15.999   -3.278100   -3.567372    2.685204
  25 O     8.0000    0    15.999   -0.534956   -6.334633    0.962369
  26 C     6.0000    0    12.011   -1.684088   -8.316964    2.458538
  27 H     1.0000    0     1.008   -1.605651   -0.374973   -6.641760
  28 H     1.0000    0     1.008   -1.523761    1.931858   -4.274844
  29 H     1.0000    0     1.008    2.811179   -1.277928   -6.186130
  30 H     1.0000    0     1.008    2.623185    2.018383   -5.724332
  31 H     1.0000    0     1.008   -4.959727    7.946959    1.967320
  32 H     1.0000    0     1.008   -8.872234    5.946604    0.232289
  33 H     1.0000    0     1.008   -8.592877    1.704241   -1.748180
  34 H     1.0000    0     1.008   -1.014561    5.566892    2.071259
  35 H     1.0000    0     1.008   -5.741915   -2.383757   -1.806768
  36 H     1.0000    0     1.008   -2.064971   -3.736726   -3.733532
  37 H     1.0000    0     1.008    3.553371   -3.473029    0.192245
  38 H     1.0000    0     1.008    2.309363   -4.212379   -2.866156
  39 H     1.0000    0     1.008    7.046012   -0.724424   -4.290022
  40 H     1.0000    0     1.008    9.483313    2.173716   -1.732707
  41 H     1.0000    0     1.008    5.918631    5.059490    0.722822
  42 H     1.0000    0     1.008    7.892069    3.046847    2.580330
  43 H     1.0000    0     1.008    3.663890    2.292860    5.788530
  44 H     1.0000    0     1.008    2.174637    4.499005    3.689942
  45 H     1.0000    0     1.008   -1.287996    1.422379    4.740146
  46 H     1.0000    0     1.008    0.882959   -1.118408    4.475608
  47 H     1.0000    0     1.008   -3.678352   -8.526436    1.960680
  48 H     1.0000    0     1.008   -0.634732  -10.027545    1.995419
  49 H     1.0000    0     1.008   -1.513934   -7.880361    4.470327



           ************************************************************
           *        Program running with 12 parallel MPI-processes    *
           *              working on a common directory               *
           ************************************************************
------------------------------------------------------------------------------
                   ___                                                        
                  /   \      - P O W E R E D   B Y -                         
                 /     \                                                     
                 |  |  |   _    _      __       _____    __    __             
                 |  |  |  | |  | |    /  \     |  _  \  |  |  /  |          
                  \  \/   | |  | |   /    \    | | | |  |  | /  /          
                 / \  \   | |__| |  /  /\  \   | |_| |  |  |/  /          
                |  |  |   |  __  | /  /__\  \  |    /   |      \           
                |  |  |   | |  | | |   __   |  |    \   |  |\   \          
                \     /   | |  | | |  |  |  |  | |\  \  |  | \   \       
                 \___/    |_|  |_| |__|  |__|  |_| \__\ |__|  \__/        
                                                                              
                      - O R C A' S   B I G   F R I E N D -                    
                                      &                                       
                       - I N T E G R A L  F E E D E R -                       
                                                                              
 v1 FN, 2020, v2 2021, v3 2022-2024                                           
------------------------------------------------------------------------------


----------------------
SHARK INTEGRAL PACKAGE
----------------------

Number of atoms                             ...     50
Number of basis functions                   ...    639
Number of shells                            ...    311
Maximum angular momentum                    ...      2
Integral batch strategy                     ... SHARK/LIBINT Hybrid
RI-J (if used) integral strategy            ... SPLIT-RIJ (Revised 2003 algorithm where possible)
Printlevel                                  ...      1
Contraction scheme used                     ... SEGMENTED contraction
Prescreening option                         ... SCHWARTZ
   Thresh                                   ... 1.000e-10
   Tcut                                     ... 1.000e-11
   Tpresel                                  ... 1.000e-11 
Coulomb Range Separation                    ... NOT USED
Exchange Range Separation                   ... NOT USED
Multipole approximations                    ... NOT USED
Finite Nucleus Model                        ... NOT USED
CABS basis                                  ... NOT available
Auxiliary Coulomb fitting basis             ... AVAILABLE
   # of basis functions in Aux-J            ...   1044
   # of shells in Aux-J                     ...    432
   Maximum angular momentum in Aux-J        ...      2
Auxiliary J/K fitting basis                 ... NOT available
Auxiliary Correlation fitting basis         ... NOT available
Auxiliary 'external' fitting basis          ... NOT available

Checking pre-screening integrals            ... done (  0.0 sec) Dimension = 311
   => SHARK Basis and OBASIS are compatible. Storing Pre-screening
Shell pair information
Shell pair cut-off parameter TPreSel        ...   1.0e-11
Total number of shell pairs                 ...     48516
Shell pairs after pre-screening             ...     36372
Total number of primitive shell pairs       ...    176765
Primitive shell pairs kept                  ...     82909
          la=0 lb=0:  11421 shell pairs
          la=1 lb=0:  13895 shell pairs
          la=1 lb=1:   4232 shell pairs
          la=2 lb=0:   4002 shell pairs
          la=2 lb=1:   2446 shell pairs
          la=2 lb=2:    376 shell pairs

Checking whether 4 symmetric matrices of dimension 639 fit in memory
:Max Core in MB      =   2500.00
 MB in use           =     45.45
 MB left             =   2454.55
 MB needed           =      6.24
 Data fit in memory  = YES
Calculating RI/J V-Matrix + Cholesky decomp.... done (  0.0 sec)
Calculating Nuclear repulsion               ... done (  0.0 sec) ENN=   2639.700762019439 Eh

Diagonalization of the overlap matrix:
Smallest eigenvalue                        ... 8.385e-06
Time for diagonalization                   ...    0.100 sec
Threshold for overlap eigenvalues          ... 1.000e-07
Number of eigenvalues below threshold      ... 0
Time for construction of square roots      ...    0.038 sec
Total time needed                          ...    0.142 sec

-------------------
DFT GRID GENERATION
-------------------

General Integration Accuracy     IntAcc      ... 4.388
Radial Grid Type                 RadialGrid  ... OptM3 with GC (2021)
Angular Grid (max. ang.)         AngularGrid ... 4 (Lebedev-302)
Angular grid pruning method      GridPruning ... 4 (adaptive)
Weight generation scheme         WeightScheme... mBecke (2022)
Basis function cutoff            BFCut       ... 1.0000e-10
Integration weight cutoff        WCut        ... 1.0000e-14
Partially contracted basis set               ... off
Rotationally invariant grid construction     ... off
Angular grids for H and He will be reduced by one unit
Diffuse basis detected: some atoms will have their outermost
                        angular grid increased by 1.

Total number of grid points                  ...   229651
Total number of batches                      ...     3615
Average number of points per batch           ...       63
Average number of grid points per atom       ...     4593
Grids setup in   1.6 sec
Initializing property integral containers    ... done (  0.0 sec)

SHARK setup successfully completed in   2.2 seconds

Maximum memory used throughout the entire STARTUP-calculation: 88.5 MB


           ************************************************************
           *        Program running with 12 parallel MPI-processes    *
           *              working on a common directory               *
           ************************************************************
Loading Hartree-Fock densities                     ... done
Calculating cut-offs                               ... done
Initializing the effective Hamiltonian             ... done
Setting up the integral package (SHARK)            ... done
Starting the Coulomb interaction                   ... done (   0.5 sec)
Making the grid                                    ... done (   0.4 sec)
Mapping shells                                     ... done
Starting the XC term evaluation                    ... done (   0.3 sec)
  promolecular density results
     # of electrons  =    187.996145978
     EX              =   -152.164564087
     EC              =     -6.417357235
     EX+EC           =   -158.581921322
Transforming the Hamiltonian                       ... done (   0.0 sec)
Diagonalizing the Hamiltonian                      ... done (   0.1 sec)
Back transforming the eigenvectors                 ... done (   0.0 sec)
Now organizing SCF variables                       ... done
             **** ENERGY FILE WAS UPDATED (inp.en.tmp) ****
Finished Guess after   1.9 sec
Maximum memory used throughout the entire GUESS-calculation: 57.8 MB


           ************************************************************
           *        Program running with 12 parallel MPI-processes    *
           *              working on a common directory               *
           ************************************************************
--------------------
CPCM SOLVATION MODEL
--------------------
CPCM parameters:
  Epsilon                                         ...       4.8030
  Refrac                                          ...       1.4459
  Rsolv                                           ...       1.3000
  Surface type                                    ... GAUSSIAN VDW
  Discretization scheme                           ... Constant charge density
    Threshold for H atoms                         ...       5.0000 (charges/Ang^2)
    Threshold for non-H atoms                     ...       5.0000 (charges/Ang^2)
  Epsilon function type                           ...         CPCM
Solvent:                                          ... CHLOROFORM
Radii:
  Scheme                                          ... Element-dependent radii
  Radius for C  used is    3.8550 Bohr (=   2.0400 Ang.)
  Radius for N  used is    3.5149 Bohr (=   1.8600 Ang.)
  Radius for O  used is    3.4469 Bohr (=   1.8240 Ang.)
  Radius for H  used is    2.4944 Bohr (=   1.3200 Ang.)
Calculating surface                               ...        done! (  0.0s)
Cavity surface points                             ...         3521
Cavity Volume                                     ...    2656.8695
Cavity Surface-area                               ...    1231.9421
Calculating surface distance matrix               ...        done! (  0.1s)
Performing Cholesky decomposition & store         ...        done! (  0.4s)
Overall time for CPCM initialization              ...                 0.5s

----------------------------------------D-I-I-S--------------------------------------------
Iteration    Energy (Eh)           Delta-E    RMSDP     MaxDP     DIISErr   Damp  Time(sec)
-------------------------------------------------------------------------------------------
               ***  Starting incremental Fock matrix formation  ***
    1    -1148.9894084637644482     0.00e+00  1.41e-02  6.13e-01  2.74e-01  0.700   4.8
    2    -1149.2609415787915168    -2.72e-01  1.03e-02  4.04e-01  9.43e-02  0.700   4.4
                               ***Turning on AO-DIIS***
    3    -1149.3601202465961251    -9.92e-02  3.96e-03  1.14e-01  2.94e-02  0.700   4.2
    4    -1149.4222359627383412    -6.21e-02  9.66e-03  4.00e-01  1.43e-02  0.000   3.8
    5    -1149.5604172458602079    -1.38e-01  2.52e-03  9.14e-02  5.57e-03  0.000   4.0
                              *** Initializing SOSCF ***
---------------------------------------S-O-S-C-F--------------------------------------
Iteration    Energy (Eh)           Delta-E    RMSDP     MaxDP     MaxGrad    Time(sec)
--------------------------------------------------------------------------------------
    6    -1149.5612309615580671    -8.14e-04  9.12e-04  3.10e-02  2.38e-03     4.1
               *** Restarting incremental Fock matrix formation ***
    7    -1149.5612896818925037    -5.87e-05  8.48e-04  3.94e-02  7.35e-04     4.7
    8    -1149.5612364340454405     5.32e-05  2.87e-04  9.02e-03  2.02e-03     3.7
    9    -1149.5613069238147546    -7.05e-05  1.25e-04  3.85e-03  1.74e-04     3.6
   10    -1149.5613042387967653     2.69e-06  6.34e-05  1.86e-03  2.84e-04     3.1
   11    -1149.5613077440011693    -3.51e-06  8.77e-05  3.96e-03  2.39e-05     3.3
                  *** Gradient check signals convergence ***

               *****************************************************
               *                     SUCCESS                       *
               *           SCF CONVERGED AFTER  11 CYCLES          *
               *****************************************************

             **** ENERGY FILE WAS UPDATED (inp.en.tmp) ****

----------------
TOTAL SCF ENERGY
----------------

Total Energy       :      -1149.56130764915679 Eh          -31281.15348 eV

Components:
Nuclear Repulsion  :       2639.70076201943857 Eh           71829.90950 eV
Electronic Energy  :      -3789.23539251212333 Eh         -103110.33706 eV
One Electron Energy:      -6814.68313886710348 Eh         -185436.95564 eV
Two Electron Energy:       3025.44774635498015 Eh           82326.61858 eV
CPCM Dielectric    :         -0.02667715647187 Eh              -0.72592 eV

Virial components:
Potential Energy   :      -2293.79438044864946 Eh          -62417.31833 eV
Kinetic Energy     :       1144.23307279949245 Eh           31136.16484 eV
Virial Ratio       :          2.00465659923343

DFT components:
N(Alpha)           :       94.000086874022 electrons
N(Beta)            :       94.000086874022 electrons
N(Total)           :      188.000173748044 electrons
E(X)               :     -156.078057042266 Eh       
E(C)               :       -6.190377374055 Eh       
E(XC)              :     -162.268434416322 Eh       

CPCM Solvation Model Properties:
Surface-charge          :         -0.03381878572422
Corrected charge        :          0.00000000000000
Outlying charge corr.   :          0.00004866330138 Eh               0.00132 eV
Free-energy (cav+disp)  :  This term is not implemented in the current solvation scheme

---------------
SCF CONVERGENCE
---------------

  Last Energy change         ...    3.5052e-06  Tolerance :   1.0000e-06
  Last MAX-Density change    ...    3.9572e-03  Tolerance :   1.0000e-05
  Last RMS-Density change    ...    8.7667e-05  Tolerance :   1.0000e-06
  Last DIIS Error            ...    2.3765e-03  Tolerance :   1.0000e-06
  Last Orbital Gradient      ...    2.3884e-05  Tolerance :   3.3300e-04
  Last Orbital Rotation      ...    1.0987e-04  Tolerance :   3.3300e-04


----------------
ORBITAL ENERGIES
----------------

  NO   OCC          E(Eh)            E(eV) 
   0   2.0000     -19.004079      -517.1273 
   1   2.0000     -18.941634      -515.4281 
   2   2.0000     -18.874355      -513.5973 
   3   2.0000     -14.291880      -388.9018 
   4   2.0000     -14.165448      -385.4614 
   5   2.0000     -10.158354      -276.4229 
   6   2.0000     -10.082314      -274.3537 
   7   2.0000     -10.077891      -274.2333 
   8   2.0000     -10.075120      -274.1580 
   9   2.0000     -10.074733      -274.1474 
  10   2.0000     -10.070562      -274.0339 
  11   2.0000     -10.069409      -274.0025 
  12   2.0000     -10.068931      -273.9895 
  13   2.0000     -10.060727      -273.7663 
  14   2.0000     -10.053253      -273.5629 
  15   2.0000     -10.044090      -273.3136 
  16   2.0000     -10.038005      -273.1480 
  17   2.0000     -10.036361      -273.1033 
  18   2.0000     -10.035344      -273.0756 
  19   2.0000     -10.034289      -273.0469 
  20   2.0000     -10.033300      -273.0200 
  21   2.0000     -10.032787      -273.0060 
  22   2.0000     -10.030793      -272.9518 
  23   2.0000     -10.029984      -272.9297 
  24   2.0000     -10.028557      -272.8909 
  25   2.0000     -10.022459      -272.7250 
  26   2.0000      -1.071003       -29.1435 
  27   2.0000      -1.023086       -27.8396 
  28   2.0000      -0.983369       -26.7588 
  29   2.0000      -0.911060       -24.7912 
  30   2.0000      -0.846139       -23.0246 
  31   2.0000      -0.817810       -22.2537 
  32   2.0000      -0.796801       -21.6821 
  33   2.0000      -0.793586       -21.5946 
  34   2.0000      -0.742049       -20.1922 
  35   2.0000      -0.738722       -20.1016 
  36   2.0000      -0.725205       -19.7338 
  37   2.0000      -0.707538       -19.2531 
  38   2.0000      -0.697688       -18.9851 
  39   2.0000      -0.688830       -18.7440 
  40   2.0000      -0.670089       -18.2341 
  41   2.0000      -0.641105       -17.4454 
  42   2.0000      -0.609014       -16.5721 
  43   2.0000      -0.591446       -16.0941 
  44   2.0000      -0.585143       -15.9226 
  45   2.0000      -0.572567       -15.5803 
  46   2.0000      -0.566097       -15.4043 
  47   2.0000      -0.543442       -14.7878 
  48   2.0000      -0.537056       -14.6140 
  49   2.0000      -0.511697       -13.9240 
  50   2.0000      -0.502157       -13.6644 
  51   2.0000      -0.495200       -13.4751 
  52   2.0000      -0.486775       -13.2458 
  53   2.0000      -0.466786       -12.7019 
  54   2.0000      -0.464982       -12.6528 
  55   2.0000      -0.454209       -12.3597 
  56   2.0000      -0.446958       -12.1623 
  57   2.0000      -0.444374       -12.0920 
  58   2.0000      -0.438747       -11.9389 
  59   2.0000      -0.430325       -11.7097 
  60   2.0000      -0.423448       -11.5226 
  61   2.0000      -0.417367       -11.3571 
  62   2.0000      -0.415256       -11.2997 
  63   2.0000      -0.405108       -11.0236 
  64   2.0000      -0.403300       -10.9743 
  65   2.0000      -0.391800       -10.6614 
  66   2.0000      -0.387857       -10.5541 
  67   2.0000      -0.380568       -10.3558 
  68   2.0000      -0.377094       -10.2612 
  69   2.0000      -0.369233       -10.0473 
  70   2.0000      -0.367417        -9.9979 
  71   2.0000      -0.353840        -9.6285 
  72   2.0000      -0.349192        -9.5020 
  73   2.0000      -0.345217        -9.3938 
  74   2.0000      -0.343701        -9.3526 
  75   2.0000      -0.336349        -9.1525 
  76   2.0000      -0.334323        -9.0974 
  77   2.0000      -0.329124        -8.9559 
  78   2.0000      -0.324415        -8.8278 
  79   2.0000      -0.318930        -8.6785 
  80   2.0000      -0.309985        -8.4351 
  81   2.0000      -0.305419        -8.3109 
  82   2.0000      -0.297324        -8.0906 
  83   2.0000      -0.293811        -7.9950 
  84   2.0000      -0.290438        -7.9032 
  85   2.0000      -0.286423        -7.7940 
  86   2.0000      -0.278188        -7.5699 
  87   2.0000      -0.257902        -7.0179 
  88   2.0000      -0.244084        -6.6419 
  89   2.0000      -0.231304        -6.2941 
  90   2.0000      -0.226348        -6.1592 
  91   2.0000      -0.186654        -5.0791 
  92   2.0000      -0.181270        -4.9326 
  93   2.0000      -0.176276        -4.7967 
  94   0.0000      -0.038662        -1.0520 
  95   0.0000      -0.027754        -0.7552 
  96   0.0000      -0.022757        -0.6192 
  97   0.0000      -0.019262        -0.5242 
  98   0.0000       0.050718         1.3801 
  99   0.0000       0.052534         1.4295 
 100   0.0000       0.062037         1.6881 
 101   0.0000       0.071730         1.9519 
 102   0.0000       0.080687         2.1956 
 103   0.0000       0.082218         2.2373 
 104   0.0000       0.089637         2.4391 
*Only the first 10 virtual orbitals were printed.
Total SCF time: 0 days 0 hours 0 min 47 sec 
Finished LeanSCF after  48.0 sec

Maximum memory used throughout the entire LEANSCF-calculation: 74.7 MB


-------------------------------------------------------------------------------
                          DFT DISPERSION CORRECTION                            
                                                                               
                                DFTD4 V3.4.0                                   
-------------------------------------------------------------------------------
-------------------------   ----------------
Dispersion correction           -0.028980109
-------------------------   ----------------

------------------   -----------------
gCP correction             0.031496995
------------------   -----------------

-------------------------   --------------------
FINAL SINGLE POINT ENERGY     -1149.558790763114
-------------------------   --------------------



           ************************************************************
           *        Program running with 12 parallel MPI-processes    *
           *              working on a common directory               *
           ************************************************************

------------------------------------------------------------------------------
                              ORCA PROPERTY CALCULATIONS
------------------------------------------------------------------------------

GBWName                                 ... inp.gbw
Number of atoms                         ...     50
Number of basis functions               ...    639
Max core memory                         ...   2500 MB

Electric properties:
Dipole moment                           ... YES
Quadrupole moment                       ...  NO
Static polarizability (Dipole/Dipole)   ...  NO
Static polarizability (Dipole/Quad.)    ...  NO
Static polarizability (Quad./Quad.)     ...  NO
Static polarizability (Velocity)        ...  NO
Static hyperpolarizability              ...  NO

Atomic electric properties:
Dipole moment                           ...  NO
Quadrupole moment                       ...  NO
Static polarizability                   ...  NO

Choice of electric origin               ... Center of mass
Position of electric origin             ...     0.016188    -0.004460     0.030792

General magnetic properties:
Magnetizability                         ...  NO

EPR properties:
g-Tensor (aka g-matrix)                 ...  NO
Zero-Field splitting spin-orbit         ...  NO
Zero-field splitting spin-spin          ...  NO
Hyperfine couplings                     ...  NO (   0 nuclei)
Quadrupole couplings                    ...  NO (   0 nuclei)
Contact density                         ...  NO (   0 nuclei)

NMR properties:
Chemical shifts                         ...  NO (   0 nuclei)
Spin-rotation constants                 ...  NO (   0 nuclei)
Spin-spin couplings                     ...  NO (   0 nuclei,    0 pairs)

Choice of magnetic origin               ... GIAO
Position of magnetic origin             ...     0.000000     0.000000     0.000000

Properties with geometric perturbations:
SCF Hessian                             ...  NO
IR spectrum                             ...  NO
VCD spectrum                            ...  NO
X-ray spectroscopy properties:
SCF XES/XAS/RIXS spectra                ...  NO

SCF SOC stabilization energy            ...  NO
Diagonal Born-Oppenheimer correction    ...  NO

-------------
DIPOLE MOMENT
-------------

Method             : SCF
Type of density    : Electron Density
Multiplicity       :   1
Irrep              :   0
Energy             : -1149.5613076491567881 Eh
Basis              : AO
                                X                 Y                 Z
Electronic contribution:     -4.427895865      -1.046191366       1.839712929
Nuclear contribution   :      4.354880998       1.673570927      -2.847381272
                        -----------------------------------------
Total Dipole Moment    :     -0.073014866       0.627379561      -1.007668343
                        -----------------------------------------
Magnitude (a.u.)       :      1.189256816
Magnitude (Debye)      :      3.022850595



--------------------
Rotational spectrum 
--------------------
 
Rotational constants in cm-1:             0.009844             0.007695             0.006149 
Rotational constants in MHz :           295.118479           230.699132           184.344937 

Dipole components along the rotational axes: 
x,y,z [a.u.] :    -0.127829     0.667079    -0.976216 
x,y,z [Debye]:    -0.324915     1.695580    -2.481343 

 

Dipole moment calculation done in   0.0 sec 

Maximum memory used throughout the entire PROP-calculation: 59.4 MB

--------------------------------
SUGGESTED CITATIONS FOR THIS RUN
--------------------------------

Below you find a list of papers that are relevant to this ORCA run
We neither can nor want to force you to cite these papers, but we appreciate if you do
You receive ORCA, which is the product of decades of hard work by many enthusiastic individuals, for free
The only thing we kindly ask in return is that you cite our papers,
We deeply appreciate it, if you show your appreciation for ORCA by not just citing the generic ORCA reference.

Please note that relegating all ORCA citations to the supporting information does *not* help us.
SI sections are not indexed - citations you put there will not count into any citation statistics
But we need these citations in order to attract the funding resources that allow us to do what we are doing

Therefore, if you are a happy ORCA user, please consider citing a few of the papers listed below in the main body of your paper

In addition to the list printed below, the program has created the file inp.bibtex that contains the list in bibtex format
You can import this file easily into all common literature databanks and citation aid programs

It goes without saying that in many instances, there are alternative algorithms to achieve similar
results as the ones you have gotten from ORCA. It is, of course, also the case that in some instances
ORCA just re-implements algorithms worked out by others. We are fully aware of that and we are also
fully appreciative of our colleagues work. Hence this citation list should not be read as indicating
that the listed papers, which are focused on our own work, are the only ones worth citing. It simply
meant to make it easier for users to cite ORCA specific papers. It is not a substitute for doing your
own literature research and citing the relevant literature in a scientifically appropriate manner.

List of essential papers. We consider these as the minimum necessary citations

  1. Grimme, S.; Hansen, A.; Ehlert, S.; Mewes, J.
     r2SCAN-3c: A 'Swiss army knife' composite electronic-structure method
     J. Chem. Phys. 2021 154 , 064103
     doi.org/10.1063/5.0040021
  2. Neese, F.
     Software update: the ORCA program system, version 6.0
     WIRES Comput. Molec. Sci. 2025 15(1), e70019
     doi.org/10.1002/wcms.70019

List of papers to cite with high priority. The work reported in these papers was absolutely
necessary for this run to complete.
Our perspective: the developers of density functionals and basis sets usually get cited in chemistry papers
Good! But without the algorithms to do something with them, the functionals or basis sets would not do anything.
Hence, in our opinion, the algorithm design and method developments papers are equally worthy of getting cited

  1. Neese, F.
     An improvement of the resolution of the identity approximation for the formation of the Coulomb matrix
     J. Comp. Chem. 2003 24(14), 1740-1747
     doi.org/10.1002/jcc.10318
  2. Caldeweyher, E.; Bannwarth, C.; Grimme, S.
     Extension of the D3 dispersion coefficient model
     J. Chem. Phys. 2017 147 , 034112
     doi.org/10.1063/1.4993215
  3. Lehtola, S.; Steigemann, C.; Oliveira, M.; Marques, M.
     Recent developments in Libxc - A comprehensive library of functionals for density functional theory
     Software X 2018 7 , 
     doi.org/10.1016/j.softx.2017.11.002
  4. Caldeweyher, E.; Ehlert, S.; Hansen, A.; Neugebauer, H.; Spicher, S.; Bannwarth, C.; Grimme, S.
     A generally applicable atomic-charge dependent London dispersion correction
     J. Chem. Phys. 2019 150 , 154122
     doi.org/10.1063/1.5090222
  5. Garcia-Rates, M.; Neese, F.
     Effect of the Solute Cavity on the Solvation Energy and its Derivatives within the Framework of the Gaussian Charge Scheme
     J. Comput. Chem. 2020 41 , 922-939
     doi.org/10.1002/jcc.26139
  6. Neese, F.
     The SHARK Integral Generation and Digestion System
     J. Comp. Chem. 2022 44(3), 381
     doi.org/10.1002/jcc.26942

List of suggested additional citations. These are papers that are important in the 'surrounding' of 
of this run, or papers that preceded the highly important papers. If you like your results we are grateful for a citation.

  1. Neese, F.
     The ORCA program system
     WIRES Comput. Molec. Sci. 2012 2(1), 73-78
     doi.org/10.1002/wcms.81
  2. Neese, F.
     Software update: the ORCA program system, version 4.0
     WIRES Comput. Molec. Sci. 2018 8(1), 1-6
     doi.org/10.1002/wcms.1327
  3. Neese, F.; Wennmohs, F.; Becker, U.; Riplinger, C.
     The ORCA quantum chemistry program package
     J. Chem. Phys. 2020 152(22), 224108
     doi.org/10.1063/5.0004608
  4. Neese, F.
     Software update: The ORCA program system—Version 5.0
     WIRES Comput. Molec. Sci. 2022 12(1), e1606
     doi.org/10.1002/wcms.1606

List of optional additional citations

  1. Neese, F.
     Approximate second-order SCF convergence for spin unrestricted wavefunctions
     Chem. Phys. Lett. 2000 325(1-3), 93-98
     doi.org/10.1016/s0009-2614(00)00662-x

Timings for individual modules:

Sum of individual times          ...       53.192 sec (=   0.887 min)
Startup calculation              ...        2.507 sec (=   0.042 min)   4.7 %
SCF iterations                   ...       50.239 sec (=   0.837 min)  94.4 %
Property calculations            ...        0.445 sec (=   0.007 min)   0.8 %
                             ****ORCA TERMINATED NORMALLY****
TOTAL RUN TIME: 0 days 0 hours 0 minutes 53 seconds 552 msec
