      -----------------------------------------------------------      
     |                   =====================                   |     
     |                           x T B                           |     
     |                   =====================                   |     
     |                         S. Grimme                         |     
     |          Mulliken Center for Theoretical Chemistry        |     
     |                    University of Bonn                     |     
      -----------------------------------------------------------      

   * xtb version 6.7.1 (edcfbbe) compiled by 'albert@albert-system' on 2024-07-22

   xtb is free software: you can redistribute it and/or modify it under
   the terms of the GNU Lesser General Public License as published by
   the Free Software Foundation, either version 3 of the License, or
   (at your option) any later version.
   
   xtb is distributed in the hope that it will be useful,
   but WITHOUT ANY WARRANTY; without even the implied warranty of
   MERCHANTABILITY or FITNESS FOR A PARTICULAR PURPOSE.  See the
   GNU Lesser General Public License for more details.
   
   Cite this work as:
   * C. Bannwarth, E. Caldeweyher, S. Ehlert, A. Hansen, P. Pracht,
     J. Seibert, S. Spicher, S. Grimme, WIREs Comput. Mol. Sci., 2020, 11,
     e01493. DOI: 10.1002/wcms.1493
   
   for GFN2-xTB:
   * C. Bannwarth, S. Ehlert and S. Grimme., J. Chem. Theory Comput., 2019,
     15, 1652-1671. DOI: 10.1021/acs.jctc.8b01176
   for GFN1-xTB:
   * S. Grimme, C. Bannwarth, P. Shushkov, J. Chem. Theory Comput., 2017,
     13, 1989-2009. DOI: 10.1021/acs.jctc.7b00118
   for GFN0-xTB:
   * P. Pracht, E. Caldeweyher, S. Ehlert, S. Grimme, ChemRxiv, 2019, preprint.
     DOI: 10.26434/chemrxiv.8326202.v1
   for GFN-FF:
   * S. Spicher and S. Grimme, Angew. Chem. Int. Ed., 2020, 59, 15665-15673.
     DOI: 10.1002/anie.202004239
   
   for ALPB and GBSA implicit solvation:
   * S. Ehlert, M. Stahn, S. Spicher, S. Grimme, J. Chem. Theory Comput.,
     2021, 17, 4250-4261. DOI: 10.1021/acs.jctc.1c00471
   
   for ddCOSMO and CPCM-X implicit solvation:
   * M. Stahn, S. Ehlert, S. Grimme, J. Phys. Chem. A,
     2023, XX, XXXX-XXXX. DOI: 10.1021/acs.jpca.3c04382
   
   for DFT-D4:
   * E. Caldeweyher, C. Bannwarth and S. Grimme, J. Chem. Phys., 2017,
     147, 034112. DOI: 10.1063/1.4993215
   * E. Caldeweyher, S. Ehlert, A. Hansen, H. Neugebauer, S. Spicher,
     C. Bannwarth and S. Grimme, J. Chem. Phys., 2019, 150, 154122.
     DOI: 10.1063/1.5090222
   * E. Caldeweyher, J.-M. Mewes, S. Ehlert and S. Grimme, Phys. Chem. Chem. Phys.
     2020, 22, 8499-8512. DOI: 10.1039/D0CP00502A
   
   for sTDA-xTB:
   * S. Grimme and C. Bannwarth, J. Chem. Phys., 2016, 145, 054103.
     DOI: 10.1063/1.4959605
   
   in the mass-spec context:
   * V. Asgeirsson, C. Bauer and S. Grimme, Chem. Sci., 2017, 8, 4879.
     DOI: 10.1039/c7sc00601b
   * J. Koopman and S. Grimme, ACS Omega 2019, 4, 12, 15120-15133.
     DOI: 10.1021/acsomega.9b02011
   
   for metadynamics refer to:
   * S. Grimme, J. Chem. Theory Comput., 2019, 155, 2847-2862
     DOI: 10.1021/acs.jctc.9b00143
   
   for SPH calculations refer to:
   * S. Spicher and S. Grimme, J. Chem. Theory Comput., 2021, 17, 1701-1714
     DOI: 10.1021/acs.jctc.0c01306
   
   for ONIOM refer to:
   * C. Plett, A. Katbashev, S. Ehlert, S. Grimme, M. Bursch,
     Phys. Chem. Chem. Phys., 2023, 25, 17860-17868. DOI: 10.1039/D3CP02178E
   
   for DIPRO refer to:
   * J. Kohn, N. Gildemeister, S. Grimme, D. Fazzi, A. Hansen,
     J. Chem. Phys., 2023, just accepted.
   
   for PTB refer to:
   * S. Grimme, M. Mueller, A. Hansen, J. Chem. Phys., 2023, 158, 124111.
     DOI: 10.1063/5.0137838
   
   with help from (in alphabetical order)
   P. Atkinson, C. Bannwarth, F. Bohle, G. Brandenburg, E. Caldeweyher
   M. Checinski, S. Dohm, S. Ehlert, S. Ehrlich, I. Gerasimov, C. Hölzer
   A. Katbashev, J. Kohn, J. Koopman, C. Lavigne, S. Lehtola, F. März, M. Müller,
   F. Musil, H. Neugebauer, J. Pisarek, C. Plett, P. Pracht, F. Pultar,
   J. Seibert, P. Shushkov, S. Spicher, M. Stahn, M. Steiner, T. Strunk,
   J. Stückrath, T. Rose, and J. Unsleber
   
 * started run on 2026/08/09 at 18:20:23.529     
   ID    Z sym.   atoms
    1    6 c      1-8, 10-13, 16
    2    8 o      9, 15
    3    1 h      14, 17-35

           -------------------------------------------------
          |                Calculation Setup                |
           -------------------------------------------------

          program call               : /home/dinglab/software/xtb_6.7.1/xtb_dist/bin/xtb coord --gfn2 --ohess vtight --alpb chcl3 --chrg 0 --enso --norestart -I xcontrol-inp --parallel 12
          hostname                   : localhost
          coordinate file            : coord
          omp threads                :                    12


           -------------------------------------------------
          |                 G F N 2 - x T B                 |
           -------------------------------------------------

        Reference                      10.1021/acs.jctc.8b01176
      * Hamiltonian:
        H0-scaling (s, p, d)           1.850000    2.230000    2.230000
        zeta-weighting                 0.500000
      * Dispersion:
        s8                             2.700000
        a1                             0.520000
        a2                             5.000000
        s9                             5.000000
      * Repulsion:
        kExp                           1.500000    1.000000
        rExp                           1.000000
      * Coulomb:
        alpha                          2.000000
        third order                    shell-resolved
        anisotropic                    true
        a3                             3.000000
        a5                             4.000000
        cn-shift                       1.200000
        cn-exp                         4.000000
        max-rad                        5.000000

      * Solvation model:               ALPB
        Solvent                        chcl3
        Parameter file                 internal GFN2-xTB/ALPB
        Dielectric constant                4.8100E+00
        Reference state                gsolv [1 M gas/solution]
        Free energy shift                  3.8910E-03 Eh       2.4417E+00 kcal/mol
        Temperature                        2.9815E+02 K
        Density                            1.4900E+00 kg/L
        Solvent mass                       1.1938E+02 g/mol
        Interaction kernel             P16
        Born radius scaling (c1)           1.3274E+00
        Born radii integrator          GBOBC
        Born offset                        0.0000E+00 a0       0.0000E+00 AA
        H-bond correction              false
        Ion screening                  false
        Surface tension                    1.0000E-05 Eh       1.5569E+01 dyn/cm
        Grid points                               974 per atom

          ...................................................
          :                      SETUP                      :
          :.................................................:
          :  # basis functions                  80          :
          :  # atomic orbitals                  80          :
          :  # shells                           50          :
          :  # electrons                        84          :
          :  max. iterations                   250          :
          :  Hamiltonian                  GFN2-xTB          :
          :  restarted?                      false          :
          :  GBSA solvation                   true          :
          :  PC potential                    false          :
          :  electronic temp.          300.0000000     K    :
          :  accuracy                    1.0000000          :
          :  -> integral cutoff          0.2500000E+02      :
          :  -> integral neglect         0.1000000E-07      :
          :  -> SCF convergence          0.1000000E-05 Eh   :
          :  -> wf. convergence          0.1000000E-03 e    :
          :  Broyden damping             0.4000000          :
          :  net charge                          0          :
          :  unpaired electrons                  0          :
          ...................................................

 iter      E             dE          RMSdq      gap      omega  full diag
   1    -46.6629436 -0.466629E+02  0.352E+00    5.00       0.0  T
   2    -46.7032457 -0.403021E-01  0.198E+00    4.91       1.0  T
   3    -46.6995433  0.370237E-02  0.743E-01    4.88       1.0  T
   4    -46.7043957 -0.485235E-02  0.359E-01    4.83       1.0  T
   5    -46.7069735 -0.257777E-02  0.837E-02    4.86       1.0  T
   6    -46.7070414 -0.679315E-04  0.449E-02    4.86       1.0  T
   7    -46.7070479 -0.655147E-05  0.152E-02    4.86       1.1  T
   8    -46.7070501 -0.216025E-05  0.643E-03    4.86       2.6  T
   9    -46.7070509 -0.814437E-06  0.229E-03    4.86       7.4  T
  10    -46.7070510 -0.286762E-07  0.910E-04    4.86      18.6  T
  11    -46.7070510 -0.365927E-08  0.380E-04    4.86      44.4  T

   *** convergence criteria satisfied after 11 iterations ***

         #    Occupation            Energy/Eh            Energy/eV
      -------------------------------------------------------------
         1        2.0000           -0.6962751             -18.9466
       ...           ...                  ...                  ...
        36        2.0000           -0.4248726             -11.5614
        37        2.0000           -0.4211651             -11.4605
        38        2.0000           -0.4160435             -11.3211
        39        2.0000           -0.4118469             -11.2069
        40        2.0000           -0.4060186             -11.0483
        41        2.0000           -0.3904981             -10.6260
        42        2.0000           -0.3849820             -10.4759 (HOMO)
        43                         -0.2064802              -5.6186 (LUMO)
        44                         -0.2053894              -5.5889
        45                         -0.0055024              -0.1497
        46                          0.0010017               0.0273
        47                          0.0183498               0.4993
       ...                                ...                  ...
        80                          0.5964151              16.2293
      -------------------------------------------------------------
                  HL-Gap            0.1785018 Eh            4.8573 eV
             Fermi-level           -0.2957311 Eh           -8.0473 eV

 SCC (total)                   0 d,  0 h,  0 min,  0.069 sec
 SCC setup                      ...        0 min,  0.001 sec (  1.124%)
 Dispersion                     ...        0 min,  0.000 sec (  0.561%)
 classical contributions        ...        0 min,  0.000 sec (  0.039%)
 integral evaluation            ...        0 min,  0.001 sec (  2.026%)
 iterations                     ...        0 min,  0.063 sec ( 91.257%)
 molecular gradient             ...        0 min,  0.003 sec (  4.704%)
 printout                       ...        0 min,  0.000 sec (  0.226%)

         :::::::::::::::::::::::::::::::::::::::::::::::::::::
         ::                     SUMMARY                     ::
         :::::::::::::::::::::::::::::::::::::::::::::::::::::
         :: total energy             -46.149144873983 Eh    ::
         :: total w/o Gsasa/hb       -46.136585878104 Eh    ::
         :: gradient norm              0.050332127678 Eh/a0 ::
         :: HOMO-LUMO gap              4.857281359116 eV    ::
         ::.................................................::
         :: SCC energy               -46.706365954517 Eh    ::
         :: -> isotropic ES            0.060868289831 Eh    ::
         :: -> anisotropic ES          0.008062479996 Eh    ::
         :: -> anisotropic XC          0.019360772384 Eh    ::
         :: -> dispersion             -0.035651193627 Eh    ::
         :: -> Gsolv                  -0.020168364101 Eh    ::
         ::    -> Gelec               -0.007609368222 Eh    ::
         ::    -> Gsasa               -0.016450015123 Eh    ::
         ::    -> Ghb                  0.000000000000 Eh    ::
         ::    -> Gshift               0.003891019244 Eh    ::
         :: repulsion energy           0.557221080534 Eh    ::
         :: add. restraining           0.000000000000 Eh    ::
         :: total charge               0.000000000000 e     ::
         :::::::::::::::::::::::::::::::::::::::::::::::::::::

      ----------------------------------------------------------- 
     |                   =====================                   |
     |                        A N C O P T                        |
     |                   =====================                   |
     |               Approximate Normal Coordinate               |
     |                Rational Function Optimizer                |
      ----------------------------------------------------------- 
      ----------------------------------------------------------- 
     |                   =====================                   |
     |                        A N C O P T                        |
     |                   =====================                   |
     |               Approximate Normal Coordinate               |
     |                Rational Function Optimizer                |
      ----------------------------------------------------------- 

          ...................................................
          :                      SETUP                      :
          :.................................................:
          :   optimization level         verytight          :
          :   max. optcycles                   700          :
          :   ANC micro-cycles                  20          :
          :   degrees of freedom                99          :
          :.................................................:
          :   RF solver                   davidson          :
          :   write xtbopt.log                true          :
          :   linear?                        false          :
          :   energy convergence         0.1000000E-06 Eh   :
          :   grad. convergence          0.2000000E-03 Eh/α :
          :   maxmium RF displ.          1.0000000          :
          :   Hlow (freq-cutoff)         0.1000000E-01      :
          :   Hmax (freq-cutoff)         5.0000000          :
          :   S6 in model hess.         20.0000000          :
          ...................................................

generating ANC from exact Hessian ...
Using Lindh-Hessian (1995)
 Shifting diagonal of input Hessian by   9.190970299781063E-003
 Lowest  eigenvalues of input Hessian
    0.000000    0.000000    0.000000    0.000000    0.000000    0.000000
    0.010000    0.010427    0.011415    0.012306    0.012523    0.014381
    0.014735    0.015707    0.016801    0.017645    0.018342    0.019200
 Highest eigenvalues
    1.394320    1.411875    1.414424    1.463171    1.781340    1.859023
 

........................................................................
.............................. CYCLE    1 ..............................
........................................................................

 iter      E             dE          RMSdq      gap      omega  full diag
   1    -46.7070510 -0.467071E+02  0.897E-05    4.86       0.0  T
   2    -46.7070510 -0.374314E-10  0.520E-05    4.86     324.9  T
   3    -46.7070510 -0.945022E-12  0.385E-05    4.86     439.0  T
     SCC iter.                  ...        0 min,  0.005 sec
     gradient                   ...        0 min,  0.003 sec
 * total energy  :   -46.1491449 Eh     change       -0.8020464E-09 Eh
   gradient norm :     0.0503361 Eh/α   predicted     0.0000000E+00 (-100.00%)
   displ. norm   :     0.3083725 α      lambda       -0.9468067E-02
   maximum displ.:     0.1102495 α      in ANC's #39, #29, #24, ...

........................................................................
.............................. CYCLE    2 ..............................
........................................................................

 iter      E             dE          RMSdq      gap      omega  full diag
   1    -46.7574562 -0.467575E+02  0.151E-01    5.01       0.0  T
   2    -46.7574869 -0.307265E-04  0.924E-02    5.00       1.0  T
   3    -46.7574601  0.267388E-04  0.596E-02    5.01       1.0  T
   4    -46.7575199 -0.597236E-04  0.674E-03    5.01       2.5  T
   5    -46.7575203 -0.439088E-06  0.300E-03    5.01       5.6  T
   6    -46.7575203  0.779499E-08  0.147E-03    5.01      11.5  T
   7    -46.7575203 -0.223443E-07  0.573E-04    5.01      29.5  T
   8    -46.7575203 -0.529108E-08  0.201E-04    5.01      84.1  T
     SCC iter.                  ...        0 min,  0.010 sec
     gradient                   ...        0 min,  0.003 sec
 * total energy  :   -46.1552870 Eh     change       -0.6142087E-02 Eh
   gradient norm :     0.0150887 Eh/α   predicted    -0.5184585E-02 ( -15.59%)
   displ. norm   :     0.2547619 α      lambda       -0.1763820E-02
   maximum displ.:     0.1200287 α      in ANC's #4, #10, #1, ...

........................................................................
.............................. CYCLE    3 ..............................
........................................................................

 iter      E             dE          RMSdq      gap      omega  full diag
   1    -46.7768005 -0.467768E+02  0.764E-02    5.04       0.0  T
   2    -46.7768105 -0.100173E-04  0.474E-02    5.04       1.0  T
   3    -46.7768073  0.317690E-05  0.299E-02    5.04       1.0  T
   4    -46.7768206 -0.132648E-04  0.417E-03    5.04       4.1  T
   5    -46.7768207 -0.168612E-06  0.165E-03    5.04      10.2  T
   6    -46.7768207 -0.452090E-08  0.804E-04    5.04      21.0  T
   7    -46.7768207 -0.291306E-08  0.383E-04    5.04      44.2  T
     SCC iter.                  ...        0 min,  0.011 sec
     gradient                   ...        0 min,  0.004 sec
 * total energy  :   -46.1562771 Eh     change       -0.9901324E-03 Eh
   gradient norm :     0.0051418 Eh/α   predicted    -0.9396808E-03 (  -5.10%)
   displ. norm   :     0.1530122 α      lambda       -0.3128399E-03
   maximum displ.:     0.0804241 α      in ANC's #4, #10, #1, ...

........................................................................
.............................. CYCLE    4 ..............................
........................................................................

 iter      E             dE          RMSdq      gap      omega  full diag
   1    -46.7776167 -0.467776E+02  0.420E-02    5.03       0.0  T
   2    -46.7776176 -0.883617E-06  0.253E-02    5.03       1.0  T
   3    -46.7776161  0.150800E-05  0.845E-03    5.03       2.0  T
   4    -46.7776180 -0.185426E-05  0.185E-03    5.03       9.1  T
   5    -46.7776180 -0.409564E-07  0.746E-04    5.03      22.7  T
   6    -46.7776180 -0.142812E-08  0.285E-04    5.03      59.4  T
     SCC iter.                  ...        0 min,  0.011 sec
     gradient                   ...        0 min,  0.003 sec
 * total energy  :   -46.1564799 Eh     change       -0.2028377E-03 Eh
   gradient norm :     0.0035889 Eh/α   predicted    -0.1600869E-03 ( -21.08%)
   displ. norm   :     0.1985416 α      lambda       -0.2692123E-03
   maximum displ.:     0.1062537 α      in ANC's #4, #6, #10, ...

........................................................................
.............................. CYCLE    5 ..............................
........................................................................

 iter      E             dE          RMSdq      gap      omega  full diag
   1    -46.7754390 -0.467754E+02  0.538E-02    5.02       0.0  T
   2    -46.7754400 -0.979164E-06  0.323E-02    5.02       1.0  T
   3    -46.7754394  0.591130E-06  0.620E-03    5.02       2.7  T
   4    -46.7754403 -0.923757E-06  0.220E-03    5.02       7.7  T
   5    -46.7754404 -0.507379E-07  0.103E-03    5.02      16.4  T
   6    -46.7754404 -0.495356E-08  0.329E-04    5.02      51.4  T
   7    -46.7754404 -0.571397E-09  0.121E-04    5.02     139.3  T
     SCC iter.                  ...        0 min,  0.009 sec
     gradient                   ...        0 min,  0.003 sec
 * total energy  :   -46.1566305 Eh     change       -0.1505196E-03 Eh
   gradient norm :     0.0054174 Eh/α   predicted    -0.1399186E-03 (  -7.04%)
   displ. norm   :     0.0830328 α      lambda       -0.8808365E-04
   maximum displ.:     0.0401308 α      in ANC's #6, #4, #14, ...

........................................................................
.............................. CYCLE    6 ..............................
........................................................................

 iter      E             dE          RMSdq      gap      omega  full diag
   1    -46.7743665 -0.467744E+02  0.252E-02    5.02       0.0  T
   2    -46.7743667 -0.210882E-06  0.152E-02    5.02       1.1  T
   3    -46.7743659  0.796748E-06  0.601E-03    5.02       2.8  T
   4    -46.7743669 -0.941902E-06  0.742E-04    5.02      22.8  T
   5    -46.7743669 -0.424651E-08  0.397E-04    5.02      42.5  T
     SCC iter.                  ...        0 min,  0.009 sec
     gradient                   ...        0 min,  0.004 sec
 * total energy  :   -46.1566902 Eh     change       -0.5970019E-04 Eh
   gradient norm :     0.0033580 Eh/α   predicted    -0.4434721E-04 ( -25.72%)
   displ. norm   :     0.0781909 α      lambda       -0.5148748E-04
   maximum displ.:     0.0344734 α      in ANC's #3, #9, #14, ...

........................................................................
.............................. CYCLE    7 ..............................
........................................................................

 iter      E             dE          RMSdq      gap      omega  full diag
   1    -46.7744740 -0.467745E+02  0.213E-02    5.02       0.0  T
   2    -46.7744742 -0.181050E-06  0.129E-02    5.02       1.3  T
   3    -46.7744735  0.635182E-06  0.539E-03    5.02       3.1  T
   4    -46.7744743 -0.760068E-06  0.699E-04    5.02      24.2  T
   5    -46.7744743 -0.280907E-08  0.341E-04    5.02      49.5  T
     SCC iter.                  ...        0 min,  0.009 sec
     gradient                   ...        0 min,  0.003 sec
 * total energy  :   -46.1567227 Eh     change       -0.3249926E-04 Eh
   gradient norm :     0.0013329 Eh/α   predicted    -0.2590768E-04 ( -20.28%)
   displ. norm   :     0.0911735 α      lambda       -0.2131425E-04
   maximum displ.:     0.0467342 α      in ANC's #3, #9, #4, ...

........................................................................
.............................. CYCLE    8 ..............................
........................................................................

 iter      E             dE          RMSdq      gap      omega  full diag
   1    -46.7750746 -0.467751E+02  0.260E-02    5.03       0.0  T
   2    -46.7750748 -0.150209E-06  0.155E-02    5.03       1.1  T
   3    -46.7750744  0.315058E-06  0.385E-03    5.03       4.4  T
   4    -46.7750748 -0.391110E-06  0.721E-04    5.03      23.4  T
   5    -46.7750748 -0.290268E-08  0.391E-04    5.03      43.2  T
     SCC iter.                  ...        0 min,  0.009 sec
     gradient                   ...        0 min,  0.004 sec
 * total energy  :   -46.1567406 Eh     change       -0.1790755E-04 Eh
   gradient norm :     0.0012183 Eh/α   predicted    -0.1069708E-04 ( -40.26%)
   displ. norm   :     0.0517604 α      lambda       -0.1099518E-04
   maximum displ.:     0.0279257 α      in ANC's #9, #3, #2, ...

........................................................................
.............................. CYCLE    9 ..............................
........................................................................

 iter      E             dE          RMSdq      gap      omega  full diag
   1    -46.7755441 -0.467755E+02  0.173E-02    5.03       0.0  T
   2    -46.7755441 -0.436836E-07  0.102E-02    5.03       1.7  T
   3    -46.7755440  0.100973E-06  0.208E-03    5.03       8.1  T
   4    -46.7755442 -0.121318E-06  0.345E-04    5.03      48.9  T
   5    -46.7755442 -0.138642E-08  0.185E-04    5.03      91.2  T
     SCC iter.                  ...        0 min,  0.009 sec
     gradient                   ...        0 min,  0.003 sec
 * total energy  :   -46.1567509 Eh     change       -0.1029641E-04 Eh
   gradient norm :     0.0012049 Eh/α   predicted    -0.5505780E-05 ( -46.53%)
   displ. norm   :     0.0523902 α      lambda       -0.7087399E-05
   maximum displ.:     0.0283636 α      in ANC's #9, #4, #3, ...

........................................................................
.............................. CYCLE   10 ..............................
........................................................................

 iter      E             dE          RMSdq      gap      omega  full diag
   1    -46.7752174 -0.467752E+02  0.177E-02    5.03       0.0  T
   2    -46.7752175 -0.471347E-07  0.104E-02    5.03       1.6  T
   3    -46.7752175  0.353890E-07  0.137E-03    5.03      12.4  T
   4    -46.7752175 -0.472151E-07  0.387E-04    5.03      43.7  T
   5    -46.7752175 -0.212081E-08  0.157E-04    5.03     107.6  T
     SCC iter.                  ...        0 min,  0.009 sec
     gradient                   ...        0 min,  0.004 sec
 * total energy  :   -46.1567565 Eh     change       -0.5629899E-05 Eh
   gradient norm :     0.0007196 Eh/α   predicted    -0.3550352E-05 ( -36.94%)
   displ. norm   :     0.0314315 α      lambda       -0.3120243E-05
   maximum displ.:     0.0203601 α      in ANC's #9, #4, #2, ...

........................................................................
.............................. CYCLE   11 ..............................
........................................................................

 iter      E             dE          RMSdq      gap      omega  full diag
   1    -46.7751830 -0.467752E+02  0.947E-03    5.03       0.0  T
   2    -46.7751830 -0.117677E-07  0.560E-03    5.03       3.0  T
   3    -46.7751829  0.178261E-07  0.926E-04    5.03      18.2  T
   4    -46.7751830 -0.229769E-07  0.202E-04    5.03      83.7  T
     SCC iter.                  ...        0 min,  0.007 sec
     gradient                   ...        0 min,  0.003 sec
 * total energy  :   -46.1567591 Eh     change       -0.2588349E-05 Eh
   gradient norm :     0.0004518 Eh/α   predicted    -0.1563786E-05 ( -39.58%)
   displ. norm   :     0.0337026 α      lambda       -0.2758160E-05
   maximum displ.:     0.0206416 α      in ANC's #4, #9, #2, ...

........................................................................
.............................. CYCLE   12 ..............................
........................................................................

 iter      E             dE          RMSdq      gap      omega  full diag
   1    -46.7752213 -0.467752E+02  0.971E-03    5.03       0.0  T
   2    -46.7752213 -0.135142E-07  0.577E-03    5.03       2.9  T
   3    -46.7752213  0.263018E-07  0.110E-03    5.03      15.3  T
   4    -46.7752213 -0.331359E-07  0.229E-04    5.03      73.8  T
   5    -46.7752213 -0.376531E-09  0.114E-04    5.03     148.2  T
     SCC iter.                  ...        0 min,  0.009 sec
     gradient                   ...        0 min,  0.004 sec
 * total energy  :   -46.1567608 Eh     change       -0.1714144E-05 Eh
   gradient norm :     0.0007469 Eh/α   predicted    -0.1382428E-05 ( -19.35%)
   displ. norm   :     0.0200474 α      lambda       -0.1776474E-05
   maximum displ.:     0.0112782 α      in ANC's #4, #3, #7, ...

........................................................................
.............................. CYCLE   13 ..............................
........................................................................

 iter      E             dE          RMSdq      gap      omega  full diag
   1    -46.7752204 -0.467752E+02  0.527E-03    5.03       0.0  T
   2    -46.7752204 -0.449838E-08  0.312E-03    5.03       5.4  T
   3    -46.7752204  0.873789E-08  0.632E-04    5.03      26.8  T
   4    -46.7752204 -0.105579E-07  0.119E-04    5.03     142.0  T
     SCC iter.                  ...        0 min,  0.008 sec
     gradient                   ...        0 min,  0.004 sec
 * total energy  :   -46.1567624 Eh     change       -0.1657367E-05 Eh
   gradient norm :     0.0003697 Eh/α   predicted    -0.8905451E-06 ( -46.27%)
   displ. norm   :     0.0171176 α      lambda       -0.8862023E-06
   maximum displ.:     0.0086898 α      in ANC's #3, #9, #7, ...

........................................................................
.............................. CYCLE   14 ..............................
........................................................................

 iter      E             dE          RMSdq      gap      omega  full diag
   1    -46.7752814 -0.467753E+02  0.456E-03    5.03       0.0  T
   2    -46.7752814 -0.626942E-08  0.273E-03    5.03       6.2  T
   3    -46.7752814  0.972124E-08  0.678E-04    5.03      24.9  T
   4    -46.7752814 -0.121867E-07  0.147E-04    5.03     115.3  T
     SCC iter.                  ...        0 min,  0.008 sec
     gradient                   ...        0 min,  0.004 sec
 * total energy  :   -46.1567632 Eh     change       -0.7460423E-06 Eh
   gradient norm :     0.0002327 Eh/α   predicted    -0.4475645E-06 ( -40.01%)
   displ. norm   :     0.0103408 α      lambda       -0.2926724E-06
   maximum displ.:     0.0054884 α      in ANC's #3, #9, #7, ...

........................................................................
.............................. CYCLE   15 ..............................
........................................................................

 iter      E             dE          RMSdq      gap      omega  full diag
   1    -46.7752627 -0.467753E+02  0.267E-03    5.03       0.0  T
   2    -46.7752627 -0.148835E-08  0.159E-03    5.03      10.6  T
   3    -46.7752627  0.242643E-09  0.177E-04    5.03      95.6  T
   4    -46.7752627 -0.646594E-09  0.788E-05    5.03     214.6  T
     SCC iter.                  ...        0 min,  0.007 sec
     gradient                   ...        0 min,  0.003 sec
 * total energy  :   -46.1567635 Eh     change       -0.2619373E-06 Eh
   gradient norm :     0.0001542 Eh/α   predicted    -0.1504249E-06 ( -42.57%)
   displ. norm   :     0.0067206 α      lambda       -0.1263914E-06
   maximum displ.:     0.0041674 α      in ANC's #9, #3, #2, ...

........................................................................
.............................. CYCLE   16 ..............................
........................................................................

 iter      E             dE          RMSdq      gap      omega  full diag
   1    -46.7752753 -0.467753E+02  0.168E-03    5.03       0.0  T
   2    -46.7752753 -0.570203E-09  0.101E-03    5.03      16.7  T
   3    -46.7752753  0.174524E-09  0.140E-04    5.03     120.7  T
   4    -46.7752753 -0.447940E-09  0.541E-05    5.03     312.4  T
     SCC iter.                  ...        0 min,  0.007 sec
     gradient                   ...        0 min,  0.004 sec
 * total energy  :   -46.1567636 Eh     change       -0.1293233E-06 Eh
   gradient norm :     0.0000931 Eh/α   predicted    -0.6531537E-07 ( -49.49%)
   displ. norm   :     0.0057577 α      lambda        0.1238003E-07
   maximum displ.:     0.0035748 α      in ANC's #9, #3, #2, ...

........................................................................
.............................. CYCLE   17 ..............................
........................................................................

 iter      E             dE          RMSdq      gap      omega  full diag
   1    -46.7752853 -0.467753E+02  0.145E-03    5.03       0.0  T
   2    -46.7752853 -0.434447E-09  0.873E-04    5.03      19.4  T
   3    -46.7752853  0.754810E-10  0.113E-04    5.03     148.9  T
     SCC iter.                  ...        0 min,  0.005 sec
     gradient                   ...        0 min,  0.003 sec
 * total energy  :   -46.1567636 Eh     change        0.4778542E-08 Eh
   gradient norm :     0.0001759 Eh/α   predicted     0.5512758E-08 (  15.36%)
   displ. norm   :     0.0030530 α      lambda       -0.1075552E-06
   maximum displ.:     0.0020196 α      in ANC's #4, #2, #1, ...

........................................................................
.............................. CYCLE   18 ..............................
........................................................................

 iter      E             dE          RMSdq      gap      omega  full diag
   1    -46.7752867 -0.467753E+02  0.111E-03    5.03       0.0  T
   2    -46.7752867 -0.667100E-09  0.652E-04    5.03      25.9  T
   3    -46.7752867  0.109551E-09  0.106E-04    5.03     160.0  T
     SCC iter.                  ...        0 min,  0.005 sec
     gradient                   ...        0 min,  0.003 sec
 * total energy  :   -46.1567637 Eh     change       -0.9931841E-07 Eh
   gradient norm :     0.0000679 Eh/α   predicted    -0.5656287E-07 ( -43.05%)
   displ. norm   :     0.0036371 α      lambda       -0.4469231E-07
   maximum displ.:     0.0023342 α      in ANC's #4, #1, #2, ...

   *** GEOMETRY OPTIMIZATION CONVERGED AFTER 18 ITERATIONS ***

------------------------------------------------------------------------
 total energy gain   :        -0.0076188 Eh       -4.7809 kcal/mol
 total RMSD          :         0.1640714 a0        0.0868 Å
 total power (kW/mol):        -1.1112868 (step)  -66.1169 (real)
------------------------------------------------------------------------

 ANCopt (total)                0 d,  0 h,  0 min,  0.303 sec
 optimizer setup                ...        0 min,  0.000 sec (  0.051%)
 model hessian                  ...        0 min,  0.047 sec ( 15.638%)
 ANC generation                 ...        0 min,  0.002 sec (  0.556%)
 coordinate transformation      ...        0 min,  0.000 sec (  0.111%)
 single point calculation       ...        0 min,  0.246 sec ( 81.440%)
 optimization log               ...        0 min,  0.003 sec (  1.125%)
 hessian update                 ...        0 min,  0.000 sec (  0.108%)
 rational function              ...        0 min,  0.002 sec (  0.567%)

================
 final structure:
================
$coord
        0.02329465504426       -1.45302862795027       -0.06756258010913      c
        1.11887991111547        0.87330435047896       -1.48968038017915      c
       -0.79307453907101        3.07533874593157       -1.54692877572118      c
       -2.35810458873905        3.36175468346351        0.85862402777395      c
       -3.44606468004016        0.79907227632894        1.66288662847301      c
       -1.24065060006259       -0.88636290741236        2.49439298535128      c
       -2.33889650761818       -2.32803662965754       -1.53922289283113      c
       -4.43865295500066       -0.65780674382320       -0.57484713836847      c
        0.36145804411978        0.13298557229966        4.35738776596393      o
        2.01251719807864       -3.54182598804454        0.24172030926970      c
       -6.74661043009545       -0.50593640207669       -1.51247204726638      c
        3.75980057702390        1.71093960799102       -0.75871841588364      c
        5.68191270408910        1.21319649224669       -2.29374365523899      c
        1.30284835868045        0.22849730923540       -3.45250388376668      h
        3.01231301792526       -4.44806426192384       -2.05419178724619      o
        4.17563804240022        3.22417377421207        1.59166021966370      c
        0.21291210466829        4.83139111948727       -1.94612556811528      h
       -2.09832200681977        2.75288666109385       -3.11240675616192      h
       -1.19727172510323        4.08796794987059        2.39995362640475      h
       -3.88905009742284        4.69993846156139        0.51180841270623      h
       -4.86574287982006        1.05458716703296        3.14149219391471      h
       -1.99850402287740       -2.69402823381643        3.20736271984637      h
       -2.10337162658168       -2.19874339053176       -3.57961810053234      h
       -2.75008708920991       -4.30331604367479       -1.09638939907320      h
       -0.64428375953870        0.47090412572859        5.84152251199898      h
        1.14411157887274       -5.18530153137112        1.14669444557219      h
        3.52744861504468       -2.84611647120150        1.47525918645103      h
       -7.31674931940728       -1.59763744583425       -3.13316395874678      h
       -8.15611138927918        0.71735009419576       -0.70078787526813      h
        7.57967550376601        1.81025978531882       -1.85867046441184      h
        5.46360409565754        0.23285016872468       -4.06877271627757      h
        4.04644815093021       -3.12217675952478       -2.76728851764681      h
        3.17484924873753        5.01788740134832        1.46871655444112      h
        3.47003830672486        2.21482552703003        3.23132925555135      h
        6.17661014987010        3.61478772460362        1.84893338049071      h
$end
 
 Bond Distances (Angstroems)
 ---------------------------
C1-C2=1.5550         C1-C6=1.5412         C1-C7=1.5438         C1-C10=1.5351        C2-C1=1.5550         C2-C3=1.5435         
C2-C12=1.5163        C2-H14=1.0976        C3-C2=1.5435         C3-C4=1.5262         C3-H17=1.0916        C3-H18=1.0920        
C4-C3=1.5262         C4-C5=1.5335         C4-H19=1.0910        C4-H20=1.0915        C5-C4=1.5335         C5-C6=1.5333         
C5-C8=1.5075         C5-H21=1.0931        C6-C1=1.5412         C6-C5=1.5333         C6-O9=1.4077         C6-H22=1.1037        
C7-C1=1.5438         C7-C8=1.5087         C7-H23=1.0891        C7-H24=1.0931        C8-C5=1.5075         C8-C7=1.5087         
C8-C11=1.3207        O9-C6=1.4077         O9-H25=0.9654        C10-C1=1.5351        C10-O15=1.4092       C10-H26=1.0940       
C10-H27=1.0974       C11-C8=1.3207        C11-H28=1.0772       C11-H29=1.0770       C12-C2=1.5163        C12-C13=1.3281       
C12-C16=1.4955       C13-C12=1.3281       C13-H30=1.0777       C13-H31=1.0792       H14-C2=1.0976        O15-C10=1.4092       
O15-H32=0.9665       C16-C12=1.4955       C16-H33=1.0889       C16-H34=1.0852       C16-H35=1.0874       H17-C3=1.0916        
H18-C3=1.0920        H19-C4=1.0910        H20-C4=1.0915        H21-C5=1.0931        H22-C6=1.1037        H23-C7=1.0891        
H24-C7=1.0931        H25-O9=0.9654        H26-C10=1.0940       H27-C10=1.0974       H28-C11=1.0772       H29-C11=1.0770       
H30-C13=1.0777       H31-C13=1.0792       H32-O15=0.9665       H33-C16=1.0889       H34-C16=1.0852       H35-C16=1.0874       
 C  H  Rav=1.0893 sigma=0.0073  Rmin=1.0770  Rmax=1.1037    18
 C  C  Rav=1.4992 sigma=0.0731  Rmin=1.3207  Rmax=1.5550    14
 O  H  Rav=0.9660 sigma=0.0005  Rmin=0.9654  Rmax=0.9665     2
 O  C  Rav=1.4085 sigma=0.0008  Rmin=1.4077  Rmax=1.4092     2
 
 selected bond angles (degree)
 --------------------
C6-C1-C2=115.69                C7-C1-C2=107.17                C7-C1-C6= 98.67                C10-C1-C2=111.47               
C10-C1-C6=110.11               C10-C1-C7=113.14               C3-C2-C1=111.27                C12-C2-C1=116.85               
C12-C2-C3=112.86               H14-C2-C1=104.18               H14-C2-C3=105.92               H14-C2-C12=104.51              
C4-C3-C2=114.48                H17-C3-C2=109.08               H17-C3-C4=109.97               H18-C3-C2=108.15               
H18-C3-C4=107.76               H18-C3-H17=107.14              C5-C4-C3=110.33                H19-C4-C3=110.67               
H19-C4-C5=108.38               H20-C4-C3=109.08               H20-C4-C5=109.98               H20-C4-H19=108.37              
C6-C5-C4=107.96                C8-C5-C4=111.41                C8-C5-C6=101.14                H21-C5-C4=110.32               
H21-C5-C6=112.93               H21-C5-C8=112.71               C5-C6-C1=101.01                O9-C6-C1=115.42                
O9-C6-C5=115.88                H22-C6-C1=106.84               H22-C6-C5=109.01               H22-C6-O9=108.15               
C8-C7-C1=104.48                H23-C7-C1=112.87               H23-C7-C8=112.51               H24-C7-C1=109.87               
H24-C7-C8=109.94               H24-C7-H23=107.18              C7-C8-C5=107.98                C11-C8-C5=125.89               
C11-C8-C7=126.13               H25-O9-C6=107.98               O15-C10-C1=114.24              H26-C10-C1=109.33              
H26-C10-O15=105.34             H27-C10-C1=108.83              H27-C10-O15=110.65             H27-C10-H26=108.25             
 
 selected dihedral angles (degree)
 ---------------------------------
C3-C2-C1-C6=312.87            C3-C2-C1-C7= 61.76            C3-C2-C1-C10=186.06           C12-C2-C1-C6= 84.50           
C12-C2-C1-C7=193.38           C12-C2-C1-C10=317.68          H14-C2-C1-C6=199.18           H14-C2-C1-C7=308.06           
H14-C2-C1-C10= 72.36          C4-C3-C2-C1= 36.97            C4-C3-C2-C12=263.33           C4-C3-C2-H14=149.57           
H17-C3-C2-C1=160.64           H17-C3-C2-C12= 27.00          H17-C3-C2-H14=273.24          H18-C3-C2-C1=276.84           
H18-C3-C2-C12=143.20          H18-C3-C2-H14= 29.44          C5-C4-C3-C2=311.98            C5-C4-C3-H17=188.79           
C5-C4-C3-H18= 72.33           H19-C4-C3-C2= 71.93           H19-C4-C3-H17=308.74          H19-C4-C3-H18=192.28          
H20-C4-C3-C2=191.07           H20-C4-C3-H17= 67.88          H20-C4-C3-H18=311.41          C6-C5-C4-C3= 67.70            
C6-C5-C4-H19=306.38           C6-C5-C4-H20=188.07           C8-C5-C4-C3=317.51            C8-C5-C4-H19=196.19           
C8-C5-C4-H20= 77.88           H21-C5-C4-C3=191.53           H21-C5-C4-H19= 70.21          H21-C5-C4-H20=311.91          
C5-C6-C1-C2= 63.23            C5-C6-C1-C7=309.36            C5-C6-C1-C10=190.72           O9-C6-C1-C2=297.44            
O9-C6-C1-C7=183.57            O9-C6-C1-C10= 64.93           H22-C6-C1-C2=177.16           H22-C6-C1-C7= 63.28           
H22-C6-C1-C10=304.65          C1-C6-C5-C4=288.35            C1-C6-C5-C8= 45.40            C1-C6-C5-H21=166.10           
O9-C6-C5-C4= 53.83            O9-C6-C5-C8=170.89            O9-C6-C5-H21=291.59           H22-C6-C5-C4=176.06           
H22-C6-C5-C8=293.12           H22-C6-C5-H21= 53.82          C8-C7-C1-C2=276.16            C8-C7-C1-C6= 36.56            
C8-C7-C1-C10=152.89           H23-C7-C1-C2= 38.71           H23-C7-C1-C6=159.11           H23-C7-C1-C10=275.44          
H24-C7-C1-C2=158.27           H24-C7-C1-C6=278.67           H24-C7-C1-C10= 34.99          C7-C8-C5-C4= 92.26            
C7-C8-C5-C6=337.77            C7-C8-C5-H21=216.91           C11-C8-C5-C4=271.89           C11-C8-C5-C6=157.39           
C11-C8-C5-H21= 36.54          C5-C8-C7-C1=350.72            C5-C8-C7-H23=227.94           C5-C8-C7-H24=108.57           
C11-C8-C7-C1=171.10           C11-C8-C7-H23= 48.32          C11-C8-C7-H24=288.94          H25-O9-C6-C1=177.70           
H25-O9-C6-C5= 59.94           H25-O9-C6-H22=297.26          O15-C10-C1-C2=301.08          O15-C10-C1-C6=171.28          
O15-C10-C1-C7= 61.95          H26-C10-C1-C2=183.34          H26-C10-C1-C6= 53.54          H26-C10-C1-C7=304.21          
H27-C10-C1-C2= 65.29          H27-C10-C1-C6=295.49          H27-C10-C1-C7=186.16          
           -------------------------------------------------
          |                Final Singlepoint                |
           -------------------------------------------------

          ...................................................
          :                      SETUP                      :
          :.................................................:
          :  # basis functions                  80          :
          :  # atomic orbitals                  80          :
          :  # shells                           50          :
          :  # electrons                        84          :
          :  max. iterations                   250          :
          :  Hamiltonian                  GFN2-xTB          :
          :  restarted?                      false          :
          :  GBSA solvation                   true          :
          :  PC potential                    false          :
          :  electronic temp.          300.0000000     K    :
          :  accuracy                    1.0000000          :
          :  -> integral cutoff          0.2500000E+02      :
          :  -> integral neglect         0.1000000E-07      :
          :  -> SCF convergence          0.1000000E-05 Eh   :
          :  -> wf. convergence          0.1000000E-03 e    :
          :  Broyden damping             0.4000000          :
          :  net charge                          0          :
          :  unpaired electrons                  0          :
          ...................................................

 iter      E             dE          RMSdq      gap      omega  full diag
   1    -46.7752867 -0.467753E+02  0.327E-05    5.03       0.0  T
   2    -46.7752867 -0.515143E-11  0.212E-05    5.03     795.9  T
   3    -46.7752867 -0.655831E-11  0.123E-05    5.03    1373.0  T

   *** convergence criteria satisfied after 3 iterations ***

         #    Occupation            Energy/Eh            Energy/eV
      -------------------------------------------------------------
         1        2.0000           -0.7013849             -19.0857
       ...           ...                  ...                  ...
        36        2.0000           -0.4247572             -11.5582
        37        2.0000           -0.4214831             -11.4691
        38        2.0000           -0.4158529             -11.3159
        39        2.0000           -0.4116704             -11.2021
        40        2.0000           -0.4047547             -11.0139
        41        2.0000           -0.3915902             -10.6557
        42        2.0000           -0.3864508             -10.5159 (HOMO)
        43                         -0.2017035              -5.4886 (LUMO)
        44                         -0.1997623              -5.4358
        45                          0.0145675               0.3964
        46                          0.0164699               0.4482
        47                          0.0406730               1.1068
       ...                                ...                  ...
        80                          0.6470641              17.6075
      -------------------------------------------------------------
                  HL-Gap            0.1847473 Eh            5.0272 eV
             Fermi-level           -0.2940772 Eh           -8.0022 eV

 SCC (total)                   0 d,  0 h,  0 min,  0.011 sec
 SCC setup                      ...        0 min,  0.001 sec (  5.180%)
 Dispersion                     ...        0 min,  0.000 sec (  1.820%)
 classical contributions        ...        0 min,  0.000 sec (  0.208%)
 integral evaluation            ...        0 min,  0.001 sec ( 10.472%)
 iterations                     ...        0 min,  0.005 sec ( 49.285%)
 molecular gradient             ...        0 min,  0.003 sec ( 31.136%)
 printout                       ...        0 min,  0.000 sec (  1.523%)

         :::::::::::::::::::::::::::::::::::::::::::::::::::::
         ::                     SUMMARY                     ::
         :::::::::::::::::::::::::::::::::::::::::::::::::::::
         :: total energy             -46.156763676377 Eh    ::
         :: total w/o Gsasa/hb       -46.144615917005 Eh    ::
         :: gradient norm              0.000067809194 Eh/a0 ::
         :: HOMO-LUMO gap              5.027229088976 eV    ::
         ::.................................................::
         :: SCC energy               -46.774607745280 Eh    ::
         :: -> isotropic ES            0.060652545318 Eh    ::
         :: -> anisotropic ES          0.005434476109 Eh    ::
         :: -> anisotropic XC          0.017155887681 Eh    ::
         :: -> dispersion             -0.036513774434 Eh    ::
         :: -> Gsolv                  -0.019512438470 Eh    ::
         ::    -> Gelec               -0.007364679098 Eh    ::
         ::    -> Gsasa               -0.016038778616 Eh    ::
         ::    -> Ghb                  0.000000000000 Eh    ::
         ::    -> Gshift               0.003891019244 Eh    ::
         :: repulsion energy           0.617844068903 Eh    ::
         :: add. restraining           0.000000000000 Eh    ::
         :: total charge               0.000000000000 e     ::
         :::::::::::::::::::::::::::::::::::::::::::::::::::::

           ------------------------------------------------- 
          |                Numerical Hessian                |
           ------------------------------------------------- 
step length          :   0.00500
SCC accuracy         :   0.30000
Hessian scale factor :   1.00000
frozen atoms in %    :   0.00000    0
RMS gradient         :   0.00007
estimated CPU  time      2.00 min
estimated wall time      0.21 min

writing file <hessian>.

 projected vibrational frequencies (cm⁻¹)
eigval :       -0.00    -0.00    -0.00     0.00     0.00     0.00
eigval :       48.29    91.12    99.26   126.16   146.95   159.31
eigval :      190.99   222.07   251.27   264.27   274.10   285.82
eigval :      291.70   313.64   343.77   369.09   378.06   416.17
eigval :      477.59   499.18   509.97   528.14   565.58   601.72
eigval :      614.48   686.28   708.02   726.40   789.54   829.16
eigval :      875.38   891.00   895.10   901.95   918.99   930.00
eigval :      943.55   957.81   966.28   995.98  1018.98  1028.05
eigval :     1043.26  1058.13  1079.47  1084.03  1094.24  1122.46
eigval :     1134.21  1143.36  1154.59  1167.91  1190.95  1199.75
eigval :     1238.96  1249.90  1257.59  1272.99  1280.90  1293.36
eigval :     1300.73  1306.23  1323.24  1336.61  1350.86  1356.39
eigval :     1357.68  1381.46  1396.96  1410.72  1436.30  1465.48
eigval :     1467.55  1471.35  1474.74  1488.36  1494.98  1700.88
eigval :     1738.26  2818.91  2900.87  2905.12  2943.80  2951.95
eigval :     2959.55  2965.49  2974.91  2988.21  2993.10  3002.13
eigval :     3012.02  3036.32  3076.53  3080.03  3099.42  3105.90
eigval :     3120.32  3489.81  3517.29
           -------------------------------------------------
          |                Property Printout                |
           -------------------------------------------------

    * Orbital Energies and Occupations

         #    Occupation            Energy/Eh            Energy/eV
      -------------------------------------------------------------
         1        2.0000           -0.7013850             -19.0857
       ...           ...                  ...                  ...
        30        2.0000           -0.4624429             -12.5837
        31        2.0000           -0.4591296             -12.4936
        32        2.0000           -0.4507724             -12.2661
        33        2.0000           -0.4453178             -12.1177
        34        2.0000           -0.4368541             -11.8874
        35        2.0000           -0.4338828             -11.8066
        36        2.0000           -0.4247572             -11.5582
        37        2.0000           -0.4214830             -11.4691
        38        2.0000           -0.4158528             -11.3159
        39        2.0000           -0.4116704             -11.2021
        40        2.0000           -0.4047547             -11.0139
        41        2.0000           -0.3915902             -10.6557
        42        2.0000           -0.3864508             -10.5159 (HOMO)
        43                         -0.2017035              -5.4886 (LUMO)
        44                         -0.1997623              -5.4358
        45                          0.0145675               0.3964
        46                          0.0164700               0.4482
        47                          0.0406731               1.1068
        48                          0.0486377               1.3235
        49                          0.0646304               1.7587
        50                          0.0776917               2.1141
        51                          0.0843986               2.2966
        52                          0.0935721               2.5462
        53                          0.0996283               2.7110
       ...                                ...                  ...
        80                          0.6470641              17.6075
      -------------------------------------------------------------
                  HL-Gap            0.1847472 Eh            5.0272 eV
             Fermi-level           -0.2940772 Eh           -8.0022 eV

     #   Z          covCN         q      C6AA      α(0)
     1   6 c        3.933     0.000    20.512     6.436
     2   6 c        3.860    -0.028    21.035     6.523
     3   6 c        3.803    -0.057    21.596     6.616
     4   6 c        3.808    -0.056    21.582     6.613
     5   6 c        3.889    -0.036    21.167     6.541
     6   6 c        3.796     0.118    18.668     6.152
     7   6 c        3.851    -0.073    21.856     6.649
     8   6 c        2.982     0.010    27.791     8.647
     9   8 o        1.655    -0.472    22.289     6.373
    10   6 c        3.678     0.081    19.446     6.317
    11   6 c        2.838    -0.112    30.827     9.099
    12   6 c        2.936     0.017    27.628     8.620
    13   6 c        2.848    -0.118    31.001     9.125
    14   1 h        0.924     0.044     2.396     2.421
    15   8 o        1.655    -0.482    22.518     6.406
    16   6 c        3.761    -0.119    22.820     6.810
    17   1 h        0.924     0.038     2.478     2.462
    18   1 h        0.924     0.038     2.482     2.464
    19   1 h        0.924     0.051     2.313     2.379
    20   1 h        0.924     0.035     2.516     2.481
    21   1 h        0.924     0.032     2.554     2.499
    22   1 h        0.923     0.007     2.937     2.680
    23   1 h        0.925     0.055     2.259     2.351
    24   1 h        0.924     0.051     2.312     2.378
    25   1 h        0.805     0.311     0.689     1.304
    26   1 h        0.924     0.041     2.437     2.441
    27   1 h        0.924     0.029     2.599     2.521
    28   1 h        0.926     0.037     2.493     2.469
    29   1 h        0.926     0.037     2.485     2.465
    30   1 h        0.926     0.029     2.599     2.521
    31   1 h        0.926     0.021     2.719     2.579
    32   1 h        0.805     0.312     0.686     1.301
    33   1 h        0.925     0.051     2.313     2.378
    34   1 h        0.925     0.074     2.039     2.233
    35   1 h        0.925     0.036     2.497     2.471

 Mol. C6AA /au·bohr⁶  :      10404.026696
 Mol. C8AA /au·bohr⁸  :     233764.154932
 Mol. α(0) /au        :        153.725009


Wiberg/Mayer (AO) data.
largest (>0.10) Wiberg bond orders for each atom

 ---------------------------------------------------------------------------
     #   Z sym  total        # sym  WBO       # sym  WBO       # sym  WBO
 ---------------------------------------------------------------------------
     1   6 c    3.988 --     7 c    0.980    10 c    0.977     6 c    0.966
                             2 c    0.961
     2   6 c    3.992 --    12 c    0.998     3 c    0.982     1 c    0.961
                            14 h    0.959
     3   6 c    3.997 --     4 c    1.010     2 c    0.982    18 h    0.976
                            17 h    0.975
     4   6 c    3.996 --     3 c    1.010     5 c    0.980    20 h    0.976
                            19 h    0.971
     5   6 c    3.995 --     8 c    0.994     4 c    0.980     6 c    0.969
                            21 h    0.965
     6   6 c    3.949 --     9 o    0.983     5 c    0.969     1 c    0.966
                            22 h    0.959
     7   6 c    3.995 --     8 c    1.006     1 c    0.980    23 h    0.965
                            24 h    0.958
     8   6 c    3.986 --    11 c    1.936     7 c    1.006     5 c    0.994
     9   8 o    1.958 --     6 c    0.983    25 h    0.885
    10   6 c    3.952 --    15 o    0.997     1 c    0.977    26 h    0.970
                            27 h    0.968
    11   6 c    3.988 --     8 c    1.936    28 h    0.975    29 h    0.975
    12   6 c    3.986 --    13 c    1.916    16 c    1.031     2 c    0.998
    13   6 c    3.984 --    12 c    1.916    30 h    0.975    31 h    0.969
    14   1 h    0.998 --     2 c    0.959
    15   8 o    1.938 --    10 c    0.997    32 h    0.875
    16   6 c    3.995 --    12 c    1.031    35 h    0.984    33 h    0.964
                            34 h    0.957
    17   1 h    0.998 --     3 c    0.975
    18   1 h    0.999 --     3 c    0.976
    19   1 h    0.997 --     4 c    0.971
    20   1 h    0.998 --     4 c    0.976
    21   1 h    0.999 --     5 c    0.965
    22   1 h    0.999 --     6 c    0.959
    23   1 h    0.997 --     7 c    0.965
    24   1 h    0.997 --     7 c    0.958
    25   1 h    0.903 --     9 o    0.885
    26   1 h    0.998 --    10 c    0.970
    27   1 h    0.999 --    10 c    0.968
    28   1 h    0.998 --    11 c    0.975
    29   1 h    0.998 --    11 c    0.975
    30   1 h    0.999 --    13 c    0.975
    31   1 h    1.000 --    13 c    0.969
    32   1 h    0.903 --    15 o    0.875
    33   1 h    0.997 --    16 c    0.964
    34   1 h    0.994 --    16 c    0.957
    35   1 h    0.998 --    16 c    0.984
 ---------------------------------------------------------------------------

Topologies differ in total number of bonds
Writing topology from bond orders to xtbtopo.mol

molecular dipole:
                 x           y           z       tot (Debye)
 q only:       -0.576       0.793       0.429
   full:       -0.671       0.889       0.579       3.191
molecular quadrupole (traceless):
                xx          xy          yy          xz          yz          zz
 q only:       -0.702       2.291      -4.225      -2.112      -0.892       4.927
  q+dip:        1.065       3.252      -7.023      -3.706      -1.495       5.958
   full:        0.182       3.262      -6.484      -3.982      -1.880       6.302

           -------------------------------------------------
          |                Geometry Summary                 |
           -------------------------------------------------

      molecular mass/u    :      208.2971915
   center of mass at/Å    :       -0.0001612      -0.0012812       0.0004000
  moments of inertia/u·Å² :        0.5794520E+03   0.8977187E+03   0.1046443E+04
rotational constants/cm⁻¹ :        0.2909237E-01   0.1877830E-01   0.1610946E-01

 * 30 selected distances

     #   Z          #   Z                                           value/Å
     3   6 c        4   6 c                                       1.5262006
     4   6 c        5   6 c                                       1.5335039
     1   6 c        6   6 c                                       1.5411949
     5   6 c        6   6 c                                       1.5333313
     1   6 c        7   6 c                                       1.5438351 (max)
     6   6 c        9   8 o                                       1.4077083
     1   6 c       10   6 c                                       1.5351374
     8   6 c       11   6 c                                       1.3207052
    12   6 c       13   6 c                                       1.3280732
     2   6 c       14   1 h                                       1.0976183
    10   6 c       15   8 o                                       1.4092490
     3   6 c       17   1 h                                       1.0915796
     3   6 c       18   1 h                                       1.0920003
     4   6 c       19   1 h                                       1.0910059
     4   6 c       20   1 h                                       1.0915442
     5   6 c       21   1 h                                       1.0931128
     6   6 c       22   1 h                                       1.1037275
     7   6 c       23   1 h                                       1.0890516
     7   6 c       24   1 h                                       1.0930948
     9   8 o       25   1 h                                       0.9654203 (min)
    10   6 c       26   1 h                                       1.0940179
    10   6 c       27   1 h                                       1.0974079
    11   6 c       28   1 h                                       1.0771730
    11   6 c       29   1 h                                       1.0769705
    13   6 c       30   1 h                                       1.0776623
    13   6 c       31   1 h                                       1.0792448
    15   8 o       32   1 h                                       0.9665159
    16   6 c       33   1 h                                       1.0888845
    16   6 c       34   1 h                                       1.0851579
    16   6 c       35   1 h                                       1.0874120

 * 4 distinct bonds (by element types)

   Z      Z             #   av. dist./Å        max./Å        min./Å
   1 H    6 C          18     1.0892592     1.1037275     1.0769705
   6 C    6 C           8     1.4827477     1.5438351     1.3207052
   1 H    8 O           2     0.9659681     0.9665159     0.9654203
   6 C    8 O           2     1.4084786     1.4092490     1.4077083

           -------------------------------------------------
          |               Frequency Printout                |
           -------------------------------------------------
 projected vibrational frequencies (cm⁻¹)
eigval :       -0.00    -0.00    -0.00     0.00     0.00     0.00
eigval :       48.29    91.12    99.26   126.16   146.95   159.31
eigval :      190.99   222.07   251.27   264.27   274.10   285.82
eigval :      291.70   313.64   343.77   369.09   378.06   416.17
eigval :      477.59   499.18   509.97   528.14   565.58   601.72
eigval :      614.48   686.28   708.02   726.40   789.54   829.16
eigval :      875.38   891.00   895.10   901.95   918.99   930.00
eigval :      943.55   957.81   966.28   995.98  1018.98  1028.05
eigval :     1043.26  1058.13  1079.47  1084.03  1094.24  1122.46
eigval :     1134.21  1143.36  1154.59  1167.91  1190.95  1199.75
eigval :     1238.96  1249.90  1257.59  1272.99  1280.90  1293.36
eigval :     1300.73  1306.23  1323.24  1336.61  1350.86  1356.39
eigval :     1357.68  1381.46  1396.96  1410.72  1436.30  1465.48
eigval :     1467.55  1471.35  1474.74  1488.36  1494.98  1700.88
eigval :     1738.26  2818.91  2900.87  2905.12  2943.80  2951.95
eigval :     2959.55  2965.49  2974.91  2988.21  2993.10  3002.13
eigval :     3012.02  3036.32  3076.53  3080.03  3099.42  3105.90
eigval :     3120.32  3489.81  3517.29
 reduced masses (amu)
   1: 10.74   2: 10.65   3: 11.67   4: 11.55   5: 11.08   6: 12.14   7: 10.64   8: 10.07
   9: 10.25  10:  9.66  11:  7.59  12: 10.80  13:  8.73  14:  8.18  15:  8.86  16:  9.51
  17:  5.75  18:  8.49  19:  7.23  20:  9.48  21:  9.30  22:  7.27  23:  5.44  24:  9.11
  25:  7.73  26:  9.87  27: 10.72  28:  9.18  29:  9.93  30:  9.98  31: 10.09  32:  7.58
  33:  2.61  34:  3.50  35:  8.02  36:  8.74  37:  8.59  38:  4.17  39:  4.16  40:  6.45
  41:  7.00  42:  6.78  43:  6.82  44:  5.53  45:  7.53  46:  6.84  47:  5.18  48:  8.41
  49:  4.55  50:  6.78  51:  7.20  52:  7.60  53:  8.66  54:  4.26  55:  8.59  56:  6.36
  57:  5.77  58:  3.02  59:  6.76  60:  5.28  61:  6.36  62:  8.86  63:  5.30  64:  7.37
  65:  6.93  66:  3.98  67:  5.91  68:  5.88  69:  4.57  70:  4.41  71:  3.40  72:  3.11
  73:  4.14  74:  3.42  75:  3.20  76:  2.39  77:  2.49  78:  1.82  79:  1.82  80:  1.74
  81:  1.86  82:  1.73  83:  1.88  84: 11.15  85: 11.58  86:  1.72  87:  1.75  88:  1.77
  89:  1.77  90:  1.83  91:  1.66  92:  1.96  93:  1.88  94:  1.57  95:  1.55  96:  1.64
  97:  1.79  98:  1.66  99:  1.67 100:  1.68 101:  1.51 102:  1.93 103:  2.09 104:  1.87
 105:  1.87
 IR intensities (km·mol⁻¹)
   1:  0.06   2:  0.25   3:  0.01   4:  0.06   5:  0.35   6:  0.37   7:  0.56   8:  0.80
   9:  1.16  10:  0.73  11:  2.16  12:  0.57  13:  2.72  14:  1.05  15: 37.17  16:  2.62
  17:138.60  18:  5.30  19:  2.25  20: 18.14  21:  0.82  22: 91.36  23: 76.41  24: 10.11
  25:  3.09  26:  2.81  27: 10.04  28: 10.24  29:  7.19  30:  1.47  31:  6.38  32:  3.65
  33:  1.08  34:  2.62  35:  1.92  36:  2.79  37:  3.18  38: 22.37  39: 26.08  40: 10.08
  41: 17.71  42:  5.02  43:  8.14  44:  2.17  45:  1.62  46: 12.45  47: 15.88  48: 55.77
  49:  1.79  50: 35.06  51: 29.90  52: 36.16  53:  5.68  54: 21.60  55:111.30  56:  6.47
  57: 28.26  58: 50.03  59: 16.24  60: 31.69  61:  3.26  62: 35.66  63: 12.37  64: 32.93
  65:  5.18  66: 19.37  67: 11.87  68: 17.79  69: 20.03  70: 18.81  71: 41.20  72: 12.00
  73:  1.77  74: 15.05  75: 11.64  76:  4.68  77: 11.20  78:  5.85  79:  1.80  80:  1.00
  81:  8.26  82: 10.65  83:  1.42  84: 34.28  85: 30.10  86:140.66  87: 64.08  88: 65.21
  89: 90.97  90: 27.66  91: 81.56  92: 38.28  93: 68.09  94: 85.29  95: 66.42  96: 51.81
  97: 38.69  98: 57.61  99: 65.64 100:  4.59 101: 39.05 102: 82.79 103: 59.95 104:105.16
 105: 25.61
 Raman intensities (Ä⁴*amu⁻¹)
   1:  0.00   2:  0.00   3:  0.00   4:  0.00   5:  0.00   6:  0.00   7:  0.00   8:  0.00
   9:  0.00  10:  0.00  11:  0.00  12:  0.00  13:  0.00  14:  0.00  15:  0.00  16:  0.00
  17:  0.00  18:  0.00  19:  0.00  20:  0.00  21:  0.00  22:  0.00  23:  0.00  24:  0.00
  25:  0.00  26:  0.00  27:  0.00  28:  0.00  29:  0.00  30:  0.00  31:  0.00  32:  0.00
  33:  0.00  34:  0.00  35:  0.00  36:  0.00  37:  0.00  38:  0.00  39:  0.00  40:  0.00
  41:  0.00  42:  0.00  43:  0.00  44:  0.00  45:  0.00  46:  0.00  47:  0.00  48:  0.00
  49:  0.00  50:  0.00  51:  0.00  52:  0.00  53:  0.00  54:  0.00  55:  0.00  56:  0.00
  57:  0.00  58:  0.00  59:  0.00  60:  0.00  61:  0.00  62:  0.00  63:  0.00  64:  0.00
  65:  0.00  66:  0.00  67:  0.00  68:  0.00  69:  0.00  70:  0.00  71:  0.00  72:  0.00
  73:  0.00  74:  0.00  75:  0.00  76:  0.00  77:  0.00  78:  0.00  79:  0.00  80:  0.00
  81:  0.00  82:  0.00  83:  0.00  84:  0.00  85:  0.00  86:  0.00  87:  0.00  88:  0.00
  89:  0.00  90:  0.00  91:  0.00  92:  0.00  93:  0.00  94:  0.00  95:  0.00  96:  0.00
  97:  0.00  98:  0.00  99:  0.00 100:  0.00 101:  0.00 102:  0.00 103:  0.00 104:  0.00
 105:  0.00
 output can be read by thermo (or use thermo option).
 writing <g98.out> molden fake output.
 recommended (thermochemical) frequency scaling factor: 1.0
           -------------------------------------------------
          |             Thermodynamic Functions             |
           -------------------------------------------------

Molecule has no symmetry elements
It seems to be the C1 point group
c1  symmetry found (for desy threshold:  0.10E+00) used in thermo

          ...................................................
          :                      SETUP                      :
          :.................................................:
          :  # frequencies                          99      :
          :  # imaginary freq.                       0      :
          :  linear?                             false      :
          :  only rotor calc.                    false      :
          :  symmetry                               c1      :
          :  rotational number                       1      :
          :  scaling factor                  1.0000000      :
          :  rotor cutoff                   50.0000000 cm⁻¹ :
          :  imag. cutoff                  -50.0000000 cm⁻¹ :
          :.................................................:

    mode    ω/cm⁻¹     T·S(HO)/kcal·mol⁻¹    T·S(FR)/kcal·mol⁻¹   T·S(vib)
   ------------------------------------------------------------------------
       1     48.29    -1.45679 ( 46.53%)    -1.06672 ( 53.47%)    -1.24822
       2     91.12    -1.08401 ( 91.69%)    -0.87868 (  8.31%)    -1.06694
       3     99.26    -1.03424 ( 93.95%)    -0.85336 (  6.05%)    -1.02330
       4    126.16    -0.89558 ( 97.59%)    -0.78233 (  2.41%)    -0.89285
       5    146.95    -0.80838 ( 98.68%)    -0.73714 (  1.32%)    -0.80744
       6    159.31    -0.76267 ( 99.04%)    -0.71322 (  0.96%)    -0.76219
       7    190.99    -0.66135 ( 99.53%)    -0.65949 (  0.47%)    -0.66134
       8    222.07    -0.57905 ( 99.74%)    -0.61483 (  0.26%)    -0.57914
       9    251.27    -0.51332 ( 99.84%)    -0.57825 (  0.16%)    -0.51342
      10    264.27    -0.48700 ( 99.87%)    -0.56330 (  0.13%)    -0.48710
      11    274.10    -0.46815 ( 99.89%)    -0.55248 (  0.11%)    -0.46824
      12    285.82    -0.44681 ( 99.91%)    -0.54008 (  0.09%)    -0.44690
      13    291.70    -0.43651 ( 99.91%)    -0.53404 (  0.09%)    -0.43659
   ------------------------------------------------------------------------

   temp. (K)  partition function   enthalpy   heat capacity  entropy
                                   cal/mol     cal/K/mol   cal/K/mol   J/K/mol
 298.15  VIB  0.224E+05             7724.512     54.130     45.009
         ROT  0.178E+07              888.752      2.981     31.584
         INT  0.399E+11             8613.265     57.111     76.593
         TR   0.291E+28             1481.254      4.968     41.886
         TOT                       10094.5186    62.0787   118.4795   495.7184

       T/K    H(0)-H(T)+PV         H(T)/Eh          T*S/Eh         G(T)/Eh
   ------------------------------------------------------------------------
    298.15    0.160866E-01    0.317711E+00    0.562935E-01    0.261417E+00
   ------------------------------------------------------------------------

         :::::::::::::::::::::::::::::::::::::::::::::::::::::
         ::                  THERMODYNAMIC                  ::
         :::::::::::::::::::::::::::::::::::::::::::::::::::::
         :: total free energy         -45.895346335577 Eh   ::
         ::.................................................::
         :: total energy              -46.156763676336 Eh   ::
         :: zero point energy           0.301624153072 Eh   ::
         :: G(RRHO) w/o ZPVE           -0.040206812313 Eh   ::
         :: G(RRHO) contrib.            0.261417340759 Eh   ::
         :::::::::::::::::::::::::::::::::::::::::::::::::::::

optimized geometry written to: xtbopt.coord


           -------------------------------------------------
          | TOTAL ENERGY              -46.156763676336 Eh   |
          | TOTAL ENTHALPY            -45.839052883853 Eh   |
          | TOTAL FREE ENERGY         -45.895346335577 Eh   |
          | GRADIENT NORM               0.000067756002 Eh/α |
          | HOMO-LUMO GAP               5.027228115879 eV   |
           -------------------------------------------------

------------------------------------------------------------------------
 * finished run on 2026/08/09 at 18:20:25.022     
------------------------------------------------------------------------
 total:
 * wall-time:     0 d,  0 h,  0 min,  1.492 sec
 *  cpu-time:     0 d,  0 h,  0 min, 15.343 sec
 * ratio c/w:    10.284 speedup
 SCF:
 * wall-time:     0 d,  0 h,  0 min,  0.069 sec
 *  cpu-time:     0 d,  0 h,  0 min,  0.771 sec
 * ratio c/w:    11.180 speedup
 ANC optimizer:
 * wall-time:     0 d,  0 h,  0 min,  0.316 sec
 *  cpu-time:     0 d,  0 h,  0 min,  3.775 sec
 * ratio c/w:    11.965 speedup
 analytical hessian:
 * wall-time:     0 d,  0 h,  0 min,  1.081 sec
 *  cpu-time:     0 d,  0 h,  0 min, 10.548 sec
 * ratio c/w:     9.760 speedup

normal termination of xtb
