      -----------------------------------------------------------      
     |                   =====================                   |     
     |                           x T B                           |     
     |                   =====================                   |     
     |                         S. Grimme                         |     
     |          Mulliken Center for Theoretical Chemistry        |     
     |                    University of Bonn                     |     
      -----------------------------------------------------------      

   * xtb version 6.7.1 (edcfbbe) compiled by 'albert@albert-system' on 2024-07-22

   xtb is free software: you can redistribute it and/or modify it under
   the terms of the GNU Lesser General Public License as published by
   the Free Software Foundation, either version 3 of the License, or
   (at your option) any later version.
   
   xtb is distributed in the hope that it will be useful,
   but WITHOUT ANY WARRANTY; without even the implied warranty of
   MERCHANTABILITY or FITNESS FOR A PARTICULAR PURPOSE.  See the
   GNU Lesser General Public License for more details.
   
   Cite this work as:
   * C. Bannwarth, E. Caldeweyher, S. Ehlert, A. Hansen, P. Pracht,
     J. Seibert, S. Spicher, S. Grimme, WIREs Comput. Mol. Sci., 2020, 11,
     e01493. DOI: 10.1002/wcms.1493
   
   for GFN2-xTB:
   * C. Bannwarth, S. Ehlert and S. Grimme., J. Chem. Theory Comput., 2019,
     15, 1652-1671. DOI: 10.1021/acs.jctc.8b01176
   for GFN1-xTB:
   * S. Grimme, C. Bannwarth, P. Shushkov, J. Chem. Theory Comput., 2017,
     13, 1989-2009. DOI: 10.1021/acs.jctc.7b00118
   for GFN0-xTB:
   * P. Pracht, E. Caldeweyher, S. Ehlert, S. Grimme, ChemRxiv, 2019, preprint.
     DOI: 10.26434/chemrxiv.8326202.v1
   for GFN-FF:
   * S. Spicher and S. Grimme, Angew. Chem. Int. Ed., 2020, 59, 15665-15673.
     DOI: 10.1002/anie.202004239
   
   for ALPB and GBSA implicit solvation:
   * S. Ehlert, M. Stahn, S. Spicher, S. Grimme, J. Chem. Theory Comput.,
     2021, 17, 4250-4261. DOI: 10.1021/acs.jctc.1c00471
   
   for ddCOSMO and CPCM-X implicit solvation:
   * M. Stahn, S. Ehlert, S. Grimme, J. Phys. Chem. A,
     2023, XX, XXXX-XXXX. DOI: 10.1021/acs.jpca.3c04382
   
   for DFT-D4:
   * E. Caldeweyher, C. Bannwarth and S. Grimme, J. Chem. Phys., 2017,
     147, 034112. DOI: 10.1063/1.4993215
   * E. Caldeweyher, S. Ehlert, A. Hansen, H. Neugebauer, S. Spicher,
     C. Bannwarth and S. Grimme, J. Chem. Phys., 2019, 150, 154122.
     DOI: 10.1063/1.5090222
   * E. Caldeweyher, J.-M. Mewes, S. Ehlert and S. Grimme, Phys. Chem. Chem. Phys.
     2020, 22, 8499-8512. DOI: 10.1039/D0CP00502A
   
   for sTDA-xTB:
   * S. Grimme and C. Bannwarth, J. Chem. Phys., 2016, 145, 054103.
     DOI: 10.1063/1.4959605
   
   in the mass-spec context:
   * V. Asgeirsson, C. Bauer and S. Grimme, Chem. Sci., 2017, 8, 4879.
     DOI: 10.1039/c7sc00601b
   * J. Koopman and S. Grimme, ACS Omega 2019, 4, 12, 15120-15133.
     DOI: 10.1021/acsomega.9b02011
   
   for metadynamics refer to:
   * S. Grimme, J. Chem. Theory Comput., 2019, 155, 2847-2862
     DOI: 10.1021/acs.jctc.9b00143
   
   for SPH calculations refer to:
   * S. Spicher and S. Grimme, J. Chem. Theory Comput., 2021, 17, 1701-1714
     DOI: 10.1021/acs.jctc.0c01306
   
   for ONIOM refer to:
   * C. Plett, A. Katbashev, S. Ehlert, S. Grimme, M. Bursch,
     Phys. Chem. Chem. Phys., 2023, 25, 17860-17868. DOI: 10.1039/D3CP02178E
   
   for DIPRO refer to:
   * J. Kohn, N. Gildemeister, S. Grimme, D. Fazzi, A. Hansen,
     J. Chem. Phys., 2023, just accepted.
   
   for PTB refer to:
   * S. Grimme, M. Mueller, A. Hansen, J. Chem. Phys., 2023, 158, 124111.
     DOI: 10.1063/5.0137838
   
   with help from (in alphabetical order)
   P. Atkinson, C. Bannwarth, F. Bohle, G. Brandenburg, E. Caldeweyher
   M. Checinski, S. Dohm, S. Ehlert, S. Ehrlich, I. Gerasimov, C. Hölzer
   A. Katbashev, J. Kohn, J. Koopman, C. Lavigne, S. Lehtola, F. März, M. Müller,
   F. Musil, H. Neugebauer, J. Pisarek, C. Plett, P. Pracht, F. Pultar,
   J. Seibert, P. Shushkov, S. Spicher, M. Stahn, M. Steiner, T. Strunk,
   J. Stückrath, T. Rose, and J. Unsleber
   
 * started run on 2026/08/09 at 17:05:33.926     
   ID    Z sym.   atoms
    1    6 c      1-8, 10-13, 16
    2    8 o      9, 15
    3    1 h      14, 17-35

           -------------------------------------------------
          |                Calculation Setup                |
           -------------------------------------------------

          program call               : /home/dinglab/software/xtb_6.7.1/xtb_dist/bin/xtb coord --gfn2 --ohess vtight --alpb chcl3 --chrg 0 --enso --norestart -I xcontrol-inp --parallel 12
          hostname                   : localhost
          coordinate file            : coord
          omp threads                :                    12


           -------------------------------------------------
          |                 G F N 2 - x T B                 |
           -------------------------------------------------

        Reference                      10.1021/acs.jctc.8b01176
      * Hamiltonian:
        H0-scaling (s, p, d)           1.850000    2.230000    2.230000
        zeta-weighting                 0.500000
      * Dispersion:
        s8                             2.700000
        a1                             0.520000
        a2                             5.000000
        s9                             5.000000
      * Repulsion:
        kExp                           1.500000    1.000000
        rExp                           1.000000
      * Coulomb:
        alpha                          2.000000
        third order                    shell-resolved
        anisotropic                    true
        a3                             3.000000
        a5                             4.000000
        cn-shift                       1.200000
        cn-exp                         4.000000
        max-rad                        5.000000

      * Solvation model:               ALPB
        Solvent                        chcl3
        Parameter file                 internal GFN2-xTB/ALPB
        Dielectric constant                4.8100E+00
        Reference state                gsolv [1 M gas/solution]
        Free energy shift                  3.8910E-03 Eh       2.4417E+00 kcal/mol
        Temperature                        2.9815E+02 K
        Density                            1.4900E+00 kg/L
        Solvent mass                       1.1938E+02 g/mol
        Interaction kernel             P16
        Born radius scaling (c1)           1.3274E+00
        Born radii integrator          GBOBC
        Born offset                        0.0000E+00 a0       0.0000E+00 AA
        H-bond correction              false
        Ion screening                  false
        Surface tension                    1.0000E-05 Eh       1.5569E+01 dyn/cm
        Grid points                               974 per atom

          ...................................................
          :                      SETUP                      :
          :.................................................:
          :  # basis functions                  80          :
          :  # atomic orbitals                  80          :
          :  # shells                           50          :
          :  # electrons                        84          :
          :  max. iterations                   250          :
          :  Hamiltonian                  GFN2-xTB          :
          :  restarted?                      false          :
          :  GBSA solvation                   true          :
          :  PC potential                    false          :
          :  electronic temp.          300.0000000     K    :
          :  accuracy                    1.0000000          :
          :  -> integral cutoff          0.2500000E+02      :
          :  -> integral neglect         0.1000000E-07      :
          :  -> SCF convergence          0.1000000E-05 Eh   :
          :  -> wf. convergence          0.1000000E-03 e    :
          :  Broyden damping             0.4000000          :
          :  net charge                          0          :
          :  unpaired electrons                  0          :
          ...................................................

 iter      E             dE          RMSdq      gap      omega  full diag
   1    -46.6665397 -0.466665E+02  0.351E+00    4.99       0.0  T
   2    -46.7102456 -0.437059E-01  0.198E+00    4.95       1.0  T
   3    -46.7053792  0.486640E-02  0.807E-01    4.93       1.0  T
   4    -46.7115966 -0.621736E-02  0.383E-01    4.89       1.0  T
   5    -46.7143954 -0.279880E-02  0.819E-02    4.91       1.0  T
   6    -46.7144381 -0.427509E-04  0.441E-02    4.91       1.0  T
   7    -46.7144448 -0.666315E-05  0.147E-02    4.91       1.2  T
   8    -46.7144463 -0.157499E-05  0.428E-03    4.91       3.9  T
   9    -46.7144464 -0.877942E-07  0.269E-03    4.91       6.3  T
  10    -46.7144465 -0.859829E-07  0.114E-03    4.91      14.8  T
  11    -46.7144465 -0.101257E-07  0.446E-04    4.91      37.9  T
  12    -46.7144465 -0.123980E-08  0.118E-04    4.91     143.0  T

   *** convergence criteria satisfied after 12 iterations ***

         #    Occupation            Energy/Eh            Energy/eV
      -------------------------------------------------------------
         1        2.0000           -0.6982502             -19.0004
       ...           ...                  ...                  ...
        36        2.0000           -0.4267818             -11.6133
        37        2.0000           -0.4220072             -11.4834
        38        2.0000           -0.4155487             -11.3077
        39        2.0000           -0.4131351             -11.2420
        40        2.0000           -0.4058315             -11.0432
        41        2.0000           -0.3889426             -10.5837
        42        2.0000           -0.3878454             -10.5538 (HOMO)
        43                         -0.2074054              -5.6438 (LUMO)
        44                         -0.2031428              -5.5278
        45                         -0.0204579              -0.5567
        46                          0.0012960               0.0353
        47                          0.0188583               0.5132
       ...                                ...                  ...
        80                          0.6000607              16.3285
      -------------------------------------------------------------
                  HL-Gap            0.1804400 Eh            4.9100 eV
             Fermi-level           -0.2976254 Eh           -8.0988 eV

 SCC (total)                   0 d,  0 h,  0 min,  0.051 sec
 SCC setup                      ...        0 min,  0.001 sec (  1.623%)
 Dispersion                     ...        0 min,  0.000 sec (  0.790%)
 classical contributions        ...        0 min,  0.000 sec (  0.051%)
 integral evaluation            ...        0 min,  0.001 sec (  2.849%)
 iterations                     ...        0 min,  0.044 sec ( 88.074%)
 molecular gradient             ...        0 min,  0.003 sec (  6.211%)
 printout                       ...        0 min,  0.000 sec (  0.329%)

         :::::::::::::::::::::::::::::::::::::::::::::::::::::
         ::                     SUMMARY                     ::
         :::::::::::::::::::::::::::::::::::::::::::::::::::::
         :: total energy             -46.156591063858 Eh    ::
         :: total w/o Gsasa/hb       -46.143945048337 Eh    ::
         :: gradient norm              0.051526691631 Eh/a0 ::
         :: HOMO-LUMO gap              4.910021917343 eV    ::
         ::.................................................::
         :: SCC energy               -46.713792799867 Eh    ::
         :: -> isotropic ES            0.061874281917 Eh    ::
         :: -> anisotropic ES          0.006649861222 Eh    ::
         :: -> anisotropic XC          0.019493461468 Eh    ::
         :: -> dispersion             -0.035345376982 Eh    ::
         :: -> Gsolv                  -0.020366979837 Eh    ::
         ::    -> Gelec               -0.007720964316 Eh    ::
         ::    -> Gsasa               -0.016537034765 Eh    ::
         ::    -> Ghb                  0.000000000000 Eh    ::
         ::    -> Gshift               0.003891019244 Eh    ::
         :: repulsion energy           0.557201736010 Eh    ::
         :: add. restraining           0.000000000000 Eh    ::
         :: total charge              -0.000000000000 e     ::
         :::::::::::::::::::::::::::::::::::::::::::::::::::::

      ----------------------------------------------------------- 
     |                   =====================                   |
     |                        A N C O P T                        |
     |                   =====================                   |
     |               Approximate Normal Coordinate               |
     |                Rational Function Optimizer                |
      ----------------------------------------------------------- 
      ----------------------------------------------------------- 
     |                   =====================                   |
     |                        A N C O P T                        |
     |                   =====================                   |
     |               Approximate Normal Coordinate               |
     |                Rational Function Optimizer                |
      ----------------------------------------------------------- 

          ...................................................
          :                      SETUP                      :
          :.................................................:
          :   optimization level         verytight          :
          :   max. optcycles                   700          :
          :   ANC micro-cycles                  20          :
          :   degrees of freedom                99          :
          :.................................................:
          :   RF solver                   davidson          :
          :   write xtbopt.log                true          :
          :   linear?                        false          :
          :   energy convergence         0.1000000E-06 Eh   :
          :   grad. convergence          0.2000000E-03 Eh/α :
          :   maxmium RF displ.          1.0000000          :
          :   Hlow (freq-cutoff)         0.1000000E-01      :
          :   Hmax (freq-cutoff)         5.0000000          :
          :   S6 in model hess.         20.0000000          :
          ...................................................

generating ANC from exact Hessian ...
Using Lindh-Hessian (1995)
 Shifting diagonal of input Hessian by   8.918059683871597E-003
 Lowest  eigenvalues of input Hessian
    0.000000    0.000000    0.000000    0.000000    0.000000    0.000000
    0.010000    0.010613    0.010968    0.011858    0.013533    0.014332
    0.015942    0.016075    0.016351    0.017869    0.018680    0.018979
 Highest eigenvalues
    1.388321    1.400855    1.407250    1.410400    1.808628    1.860970
 

........................................................................
.............................. CYCLE    1 ..............................
........................................................................

 iter      E             dE          RMSdq      gap      omega  full diag
   1    -46.7144465 -0.467144E+02  0.635E-05    4.91       0.0  T
   2    -46.7144465 -0.850520E-11  0.408E-05    4.91     414.6  T
   3    -46.7144465  0.509459E-11  0.274E-05    4.91     616.8  T
     SCC iter.                  ...        0 min,  0.005 sec
     gradient                   ...        0 min,  0.003 sec
 * total energy  :   -46.1565911 Eh     change       -0.6438228E-10 Eh
   gradient norm :     0.0515268 Eh/α   predicted     0.0000000E+00 (-100.00%)
   displ. norm   :     0.2928463 α      lambda       -0.9696041E-02
   maximum displ.:     0.0922867 α      in ANC's #62, #42, #23, ...

........................................................................
.............................. CYCLE    2 ..............................
........................................................................

 iter      E             dE          RMSdq      gap      omega  full diag
   1    -46.7659114 -0.467659E+02  0.158E-01    5.07       0.0  T
   2    -46.7659414 -0.300266E-04  0.967E-02    5.06       1.0  T
   3    -46.7659037  0.377472E-04  0.610E-02    5.07       1.0  T
   4    -46.7659704 -0.667209E-04  0.652E-03    5.07       2.6  T
   5    -46.7659709 -0.451279E-06  0.295E-03    5.07       5.7  T
   6    -46.7659709 -0.519798E-08  0.109E-03    5.07      15.6  T
   7    -46.7659709 -0.506304E-08  0.410E-04    5.07      41.2  T
   8    -46.7659709 -0.242505E-08  0.188E-04    5.07      89.9  T
     SCC iter.                  ...        0 min,  0.011 sec
     gradient                   ...        0 min,  0.003 sec
 * total energy  :   -46.1627856 Eh     change       -0.6194507E-02 Eh
   gradient norm :     0.0149281 Eh/α   predicted    -0.5264023E-02 ( -15.02%)
   displ. norm   :     0.1991841 α      lambda       -0.1495219E-02
   maximum displ.:     0.0732307 α      in ANC's #5, #10, #24, ...

........................................................................
.............................. CYCLE    3 ..............................
........................................................................

 iter      E             dE          RMSdq      gap      omega  full diag
   1    -46.7848793 -0.467849E+02  0.773E-02    5.11       0.0  T
   2    -46.7848862 -0.685718E-05  0.483E-02    5.10       1.0  T
   3    -46.7848780  0.821458E-05  0.291E-02    5.11       1.0  T
   4    -46.7848932 -0.152065E-04  0.315E-03    5.11       5.4  T
   5    -46.7848933 -0.108833E-06  0.135E-03    5.11      12.6  T
   6    -46.7848933 -0.234157E-08  0.537E-04    5.11      31.5  T
   7    -46.7848933 -0.517936E-09  0.214E-04    5.11      79.1  T
     SCC iter.                  ...        0 min,  0.009 sec
     gradient                   ...        0 min,  0.003 sec
 * total energy  :   -46.1635637 Eh     change       -0.7780875E-03 Eh
   gradient norm :     0.0049766 Eh/α   predicted    -0.7779410E-03 (  -0.02%)
   displ. norm   :     0.0836102 α      lambda       -0.1728962E-03
   maximum displ.:     0.0363977 α      in ANC's #5, #7, #23, ...

........................................................................
.............................. CYCLE    4 ..............................
........................................................................

 iter      E             dE          RMSdq      gap      omega  full diag
   1    -46.7850581 -0.467851E+02  0.344E-02    5.10       0.0  T
   2    -46.7850585 -0.415276E-06  0.208E-02    5.10       1.0  T
   3    -46.7850574  0.116201E-05  0.738E-03    5.10       2.3  T
   4    -46.7850588 -0.138310E-05  0.110E-03    5.10      15.4  T
   5    -46.7850588 -0.141555E-07  0.516E-04    5.10      32.7  T
   6    -46.7850588 -0.583078E-09  0.166E-04    5.10     102.0  T
     SCC iter.                  ...        0 min,  0.008 sec
     gradient                   ...        0 min,  0.003 sec
 * total energy  :   -46.1636549 Eh     change       -0.9121008E-04 Eh
   gradient norm :     0.0026318 Eh/α   predicted    -0.8799553E-04 (  -3.52%)
   displ. norm   :     0.0766962 α      lambda       -0.8950174E-04
   maximum displ.:     0.0426954 α      in ANC's #5, #16, #4, ...

........................................................................
.............................. CYCLE    5 ..............................
........................................................................

 iter      E             dE          RMSdq      gap      omega  full diag
   1    -46.7834879 -0.467835E+02  0.290E-02    5.10       0.0  T
   2    -46.7834882 -0.261274E-06  0.174E-02    5.10       1.0  T
   3    -46.7834878  0.342302E-06  0.413E-03    5.10       4.1  T
   4    -46.7834883 -0.447424E-06  0.917E-04    5.10      18.4  T
   5    -46.7834883 -0.821299E-08  0.510E-04    5.10      33.2  T
     SCC iter.                  ...        0 min,  0.007 sec
     gradient                   ...        0 min,  0.003 sec
 * total energy  :   -46.1637085 Eh     change       -0.5364170E-04 Eh
   gradient norm :     0.0019983 Eh/α   predicted    -0.4502441E-04 ( -16.06%)
   displ. norm   :     0.0689531 α      lambda       -0.2904914E-04
   maximum displ.:     0.0291338 α      in ANC's #5, #4, #9, ...

........................................................................
.............................. CYCLE    6 ..............................
........................................................................

 iter      E             dE          RMSdq      gap      omega  full diag
   1    -46.7824040 -0.467824E+02  0.300E-02    5.10       0.0  T
   2    -46.7824042 -0.238765E-06  0.180E-02    5.10       1.0  T
   3    -46.7824038  0.349433E-06  0.414E-03    5.10       4.1  T
   4    -46.7824043 -0.452845E-06  0.947E-04    5.10      17.9  T
   5    -46.7824043 -0.648262E-08  0.508E-04    5.10      33.3  T
     SCC iter.                  ...        0 min,  0.007 sec
     gradient                   ...        0 min,  0.003 sec
 * total energy  :   -46.1637293 Eh     change       -0.2083007E-04 Eh
   gradient norm :     0.0021745 Eh/α   predicted    -0.1457888E-04 ( -30.01%)
   displ. norm   :     0.0321073 α      lambda       -0.1625532E-04
   maximum displ.:     0.0179494 α      in ANC's #9, #4, #3, ...

........................................................................
.............................. CYCLE    7 ..............................
........................................................................

 iter      E             dE          RMSdq      gap      omega  full diag
   1    -46.7827080 -0.467827E+02  0.129E-02    5.10       0.0  T
   2    -46.7827080 -0.339534E-07  0.763E-03    5.10       2.2  T
   3    -46.7827080  0.189473E-07  0.116E-03    5.10      14.6  T
   4    -46.7827080 -0.295605E-07  0.399E-04    5.10      42.4  T
   5    -46.7827080 -0.171062E-08  0.194E-04    5.10      86.9  T
     SCC iter.                  ...        0 min,  0.007 sec
     gradient                   ...        0 min,  0.003 sec
 * total energy  :   -46.1637421 Eh     change       -0.1275413E-04 Eh
   gradient norm :     0.0012617 Eh/α   predicted    -0.8146247E-05 ( -36.13%)
   displ. norm   :     0.1092498 α      lambda       -0.2364634E-04
   maximum displ.:     0.0627005 α      in ANC's #9, #4, #2, ...

........................................................................
.............................. CYCLE    8 ..............................
........................................................................

 iter      E             dE          RMSdq      gap      omega  full diag
   1    -46.7836566 -0.467837E+02  0.405E-02    5.11       0.0  T
   2    -46.7836568 -0.241861E-06  0.240E-02    5.11       1.0  T
   3    -46.7836567  0.111217E-06  0.302E-03    5.11       5.6  T
   4    -46.7836569 -0.209762E-06  0.110E-03    5.11      15.3  T
   5    -46.7836569 -0.835983E-08  0.524E-04    5.11      32.2  T
   6    -46.7836569 -0.113093E-08  0.119E-04    5.11     141.9  T
     SCC iter.                  ...        0 min,  0.008 sec
     gradient                   ...        0 min,  0.003 sec
 * total energy  :   -46.1637578 Eh     change       -0.1570551E-04 Eh
   gradient norm :     0.0013217 Eh/α   predicted    -0.1188685E-04 ( -24.31%)
   displ. norm   :     0.0333061 α      lambda       -0.7116824E-05
   maximum displ.:     0.0151927 α      in ANC's #4, #5, #9, ...

........................................................................
.............................. CYCLE    9 ..............................
........................................................................

 iter      E             dE          RMSdq      gap      omega  full diag
   1    -46.7835174 -0.467835E+02  0.115E-02    5.11       0.0  T
   2    -46.7835175 -0.244901E-07  0.688E-03    5.11       2.5  T
   3    -46.7835174  0.481833E-07  0.145E-03    5.11      11.7  T
   4    -46.7835175 -0.582703E-07  0.306E-04    5.11      55.2  T
   5    -46.7835175 -0.931855E-09  0.136E-04    5.11     124.6  T
     SCC iter.                  ...        0 min,  0.007 sec
     gradient                   ...        0 min,  0.003 sec
 * total energy  :   -46.1637629 Eh     change       -0.5093919E-05 Eh
   gradient norm :     0.0008132 Eh/α   predicted    -0.3564427E-05 ( -30.03%)
   displ. norm   :     0.0395724 α      lambda       -0.6891762E-05
   maximum displ.:     0.0169207 α      in ANC's #5, #4, #8, ...

........................................................................
.............................. CYCLE   10 ..............................
........................................................................

 iter      E             dE          RMSdq      gap      omega  full diag
   1    -46.7831353 -0.467831E+02  0.118E-02    5.11       0.0  T
   2    -46.7831354 -0.320039E-07  0.700E-03    5.11       2.4  T
   3    -46.7831353  0.573485E-07  0.166E-03    5.11      10.2  T
   4    -46.7831354 -0.700623E-07  0.333E-04    5.11      50.8  T
   5    -46.7831354 -0.113863E-08  0.150E-04    5.11     112.8  T
     SCC iter.                  ...        0 min,  0.007 sec
     gradient                   ...        0 min,  0.003 sec
 * total energy  :   -46.1637671 Eh     change       -0.4213320E-05 Eh
   gradient norm :     0.0006868 Eh/α   predicted    -0.3449333E-05 ( -18.13%)
   displ. norm   :     0.0135733 α      lambda       -0.1312974E-05
   maximum displ.:     0.0075147 α      in ANC's #1, #9, #5, ...

........................................................................
.............................. CYCLE   11 ..............................
........................................................................

 iter      E             dE          RMSdq      gap      omega  full diag
   1    -46.7832360 -0.467832E+02  0.362E-03    5.11       0.0  T
   2    -46.7832360 -0.354724E-08  0.218E-03    5.11       7.8  T
   3    -46.7832360  0.701928E-08  0.552E-04    5.11      30.6  T
   4    -46.7832360 -0.836135E-08  0.121E-04    5.11     139.7  T
     SCC iter.                  ...        0 min,  0.005 sec
     gradient                   ...        0 min,  0.003 sec
 * total energy  :   -46.1637684 Eh     change       -0.1334268E-05 Eh
   gradient norm :     0.0002684 Eh/α   predicted    -0.6597887E-06 ( -50.55%)
   displ. norm   :     0.0162851 α      lambda       -0.7795593E-06
   maximum displ.:     0.0106829 α      in ANC's #1, #9, #8, ...

........................................................................
.............................. CYCLE   12 ..............................
........................................................................

 iter      E             dE          RMSdq      gap      omega  full diag
   1    -46.7833824 -0.467834E+02  0.373E-03    5.11       0.0  T
   2    -46.7833824 -0.229138E-08  0.223E-03    5.11       7.6  T
   3    -46.7833824  0.773682E-09  0.254E-04    5.11      66.6  T
   4    -46.7833824 -0.144216E-08  0.982E-05    5.11     172.1  T
     SCC iter.                  ...        0 min,  0.005 sec
     gradient                   ...        0 min,  0.003 sec
 * total energy  :   -46.1637692 Eh     change       -0.7377661E-06 Eh
   gradient norm :     0.0002343 Eh/α   predicted    -0.3920910E-06 ( -46.85%)
   displ. norm   :     0.0154818 α      lambda       -0.4463733E-06
   maximum displ.:     0.0103665 α      in ANC's #1, #9, #8, ...

........................................................................
.............................. CYCLE   13 ..............................
........................................................................

 iter      E             dE          RMSdq      gap      omega  full diag
   1    -46.7833713 -0.467834E+02  0.332E-03    5.11       0.0  T
   2    -46.7833713 -0.163948E-08  0.199E-03    5.11       8.5  T
   3    -46.7833713  0.344686E-08  0.402E-04    5.11      42.0  T
   4    -46.7833714 -0.438368E-08  0.836E-05    5.11     202.1  T
     SCC iter.                  ...        0 min,  0.005 sec
     gradient                   ...        0 min,  0.003 sec
 * total energy  :   -46.1637697 Eh     change       -0.4987890E-06 Eh
   gradient norm :     0.0002138 Eh/α   predicted    -0.2253717E-06 ( -54.82%)
   displ. norm   :     0.0158927 α      lambda       -0.3850172E-06
   maximum displ.:     0.0108292 α      in ANC's #1, #9, #8, ...

........................................................................
.............................. CYCLE   14 ..............................
........................................................................

 iter      E             dE          RMSdq      gap      omega  full diag
   1    -46.7833173 -0.467833E+02  0.371E-03    5.11       0.0  T
   2    -46.7833173 -0.170362E-08  0.221E-03    5.11       7.6  T
   3    -46.7833173  0.371399E-08  0.412E-04    5.11      41.1  T
   4    -46.7833173 -0.460366E-08  0.852E-05    5.11     198.5  T
     SCC iter.                  ...        0 min,  0.005 sec
     gradient                   ...        0 min,  0.003 sec
 * total energy  :   -46.1637701 Eh     change       -0.4482435E-06 Eh
   gradient norm :     0.0001096 Eh/α   predicted    -0.1970326E-06 ( -56.04%)
   displ. norm   :     0.0150192 α      lambda       -0.2595263E-06
   maximum displ.:     0.0102004 α      in ANC's #1, #2, #8, ...

........................................................................
.............................. CYCLE   15 ..............................
........................................................................

 iter      E             dE          RMSdq      gap      omega  full diag
   1    -46.7833354 -0.467833E+02  0.375E-03    5.11       0.0  T
   2    -46.7833354 -0.117650E-08  0.222E-03    5.11       7.6  T
   3    -46.7833354  0.287126E-08  0.362E-04    5.11      46.8  T
   4    -46.7833354 -0.355276E-08  0.725E-05    5.11     233.2  T
     SCC iter.                  ...        0 min,  0.005 sec
     gradient                   ...        0 min,  0.003 sec
 * total energy  :   -46.1637704 Eh     change       -0.2574190E-06 Eh
   gradient norm :     0.0000880 Eh/α   predicted    -0.1316215E-06 ( -48.87%)
   displ. norm   :     0.0080053 α      lambda       -0.9022354E-07
   maximum displ.:     0.0053218 α      in ANC's #1, #2, #9, ...

........................................................................
.............................. CYCLE   16 ..............................
........................................................................

 iter      E             dE          RMSdq      gap      omega  full diag
   1    -46.7833138 -0.467833E+02  0.212E-03    5.11       0.0  T
   2    -46.7833138 -0.345686E-09  0.125E-03    5.11      13.5  T
   3    -46.7833138  0.620830E-09  0.168E-04    5.11     100.6  T
   4    -46.7833138 -0.773035E-09  0.355E-05    5.11     476.3  T
     SCC iter.                  ...        0 min,  0.005 sec
     gradient                   ...        0 min,  0.003 sec
 * total energy  :   -46.1637705 Eh     change       -0.7924297E-07 Eh
   gradient norm :     0.0000670 Eh/α   predicted    -0.4565085E-07 ( -42.39%)
   displ. norm   :     0.0038869 α      lambda       -0.2594547E-07
   maximum displ.:     0.0025156 α      in ANC's #2, #1, #9, ...

   *** GEOMETRY OPTIMIZATION CONVERGED AFTER 16 ITERATIONS ***

------------------------------------------------------------------------
 total energy gain   :        -0.0071794 Eh       -4.5051 kcal/mol
 total RMSD          :         0.1109975 a0        0.0587 Å
 total power (kW/mol):        -1.1780944 (step)  -79.4577 (real)
------------------------------------------------------------------------

 ANCopt (total)                0 d,  0 h,  0 min,  0.237 sec
 optimizer setup                ...        0 min,  0.000 sec (  0.062%)
 model hessian                  ...        0 min,  0.046 sec ( 19.427%)
 ANC generation                 ...        0 min,  0.002 sec (  0.780%)
 coordinate transformation      ...        0 min,  0.000 sec (  0.098%)
 single point calculation       ...        0 min,  0.185 sec ( 77.795%)
 optimization log               ...        0 min,  0.002 sec (  0.895%)
 hessian update                 ...        0 min,  0.000 sec (  0.114%)
 rational function              ...        0 min,  0.001 sec (  0.460%)

================
 final structure:
================
$coord
       -0.07696428360299       -1.04953632491568        0.55273384834637      c
       -1.94113626230959        1.08193987171585        1.31729148937496      c
       -0.64169856823875        3.69096407679520        1.19505004101675      c
        1.11570920443480        4.08977227051565       -1.06372023369330      c
        2.74440303839253        1.74131538959287       -1.51870441656286      c
        0.99403756164190       -0.48887319910365       -2.09245679877090      c
        2.30433516926338       -0.90921717950322        2.22037090386124      c
        4.00955754993744        0.94650985703050        0.90850451381880      c
        2.33616997746472       -2.61699683510970       -3.04285820630137      o
       -1.37565926730644       -3.64061562393696        0.74070558640653      c
        6.23200353754495        1.74341257717239        1.71702504485341      c
       -4.45728293137834        1.01094710124735       -0.05441202039616      c
       -4.88363295624761        1.93625208555833       -2.34159681024349      c
       -2.38297959401306        0.74112157189220        3.31193561833737      h
        0.29066740486290       -5.70599597565711        0.52455988310869      o
       -6.60582026951507       -0.05836793547307        1.46436478424385      c
       -2.09382872955012        5.15583293919474        1.20310977139688      h
        0.48058718716600        3.92348920194162        2.90980574138164      h
        0.04633235278515        4.51027018183138       -2.77461299760074      h
        2.33716011591657        5.70803900847793       -0.68095958800045      h
        4.10003074989496        2.09631593483328       -3.03844334224031      h
       -0.50495070986195       -0.00693189460325       -3.43750905582750      h
        3.19939733308435       -2.76956794001136        2.28562595935063      h
        1.87615006863859       -0.35616006532969        4.15739361677492      h
        3.33008017516723       -2.07732966019693       -4.47274706165831      h
       -2.85059140315717       -3.76618761911315       -0.71784985148358      h
       -2.24997042952977       -3.84576484554332        2.60181170644971      h
        7.01653877460421        1.11193711419134        3.48571260178940      h
        7.35563027899241        3.06015765733640        0.64554216330440      h
       -6.74221639955955        1.85912371857408       -3.17230343135826      h
       -3.45941661210065        2.82019544238962       -3.48648163573776      h
        1.30225272750466       -5.40877263335369       -0.97418758281364      h
       -6.16848205294118       -1.94690066689307        2.14587581051745      h
       -6.95036828989330        1.13719759806163        3.10682834135667      h
       -8.32814753293679       -0.14102999023356        0.34819050568568      h
$end
 
 Bond Distances (Angstroems)
 ---------------------------
C1-C2=1.5521         C1-C6=1.5390         C1-C7=1.5402         C1-C10=1.5370        C2-C1=1.5521         C2-C3=1.5438         
C2-C12=1.5170        C2-H14=1.0960        C3-C2=1.5438         C3-C4=1.5291         C3-H17=1.0915        C3-H18=1.0914        
C4-C3=1.5291         C4-C5=1.5314         C4-H19=1.0906        C4-H20=1.0919        C5-C4=1.5314         C5-C6=1.5307         
C5-C8=1.5083         C5-H21=1.0939        C6-C1=1.5390         C6-C5=1.5307         C6-O9=1.4232         C6-H22=1.0958        
C7-C1=1.5402         C7-C8=1.5035         C7-H23=1.0930        C7-H24=1.0898        C8-C5=1.5083         C8-C7=1.5035         
C8-C11=1.3206        O9-C6=1.4232         O9-H25=0.9647        C10-C1=1.5370        C10-O15=1.4090       C10-H26=1.0997       
C10-H27=1.0935       C11-C8=1.3206        C11-H28=1.0770       C11-H29=1.0773       C12-C2=1.5170        C12-C13=1.3250       
C12-C16=1.5029       C13-C12=1.3250       C13-H30=1.0781       C13-H31=1.0742       H14-C2=1.0960        O15-C10=1.4090       
O15-H32=0.9697       C16-C12=1.5029       C16-H33=1.0874       C16-H34=1.0904       C16-H35=1.0870       H17-C3=1.0915        
H18-C3=1.0914        H19-C4=1.0906        H20-C4=1.0919        H21-C5=1.0939        H22-C6=1.0958        H23-C7=1.0930        
H24-C7=1.0898        H25-O9=0.9647        H26-C10=1.0997       H27-C10=1.0935       H28-C11=1.0770       H29-C11=1.0773       
H30-C13=1.0781       H31-C13=1.0742       H32-O15=0.9697       H33-C16=1.0874       H34-C16=1.0904       H35-C16=1.0870       
 C  H  Rav=1.0888 sigma=0.0072  Rmin=1.0742  Rmax=1.0997    18
 C  C  Rav=1.4986 sigma=0.0732  Rmin=1.3206  Rmax=1.5521    14
 O  H  Rav=0.9672 sigma=0.0025  Rmin=0.9647  Rmax=0.9697     2
 O  C  Rav=1.4161 sigma=0.0071  Rmin=1.4090  Rmax=1.4232     2
 
 selected bond angles (degree)
 --------------------
C6-C1-C2=109.33                C7-C1-C2=109.61                C7-C1-C6=102.15                C10-C1-C2=110.32               
C10-C1-C6=113.30               C10-C1-C7=111.82               C3-C2-C1=110.85                C12-C2-C1=114.53               
C12-C2-C3=113.15               H14-C2-C1=105.49               H14-C2-C3=106.41               H14-C2-C12=105.63              
C4-C3-C2=115.28                H17-C3-C2=108.75               H17-C3-C4=109.46               H18-C3-C2=107.96               
H18-C3-C4=107.66               H18-C3-H17=107.44              C5-C4-C3=110.68                H19-C4-C3=111.19               
H19-C4-C5=109.09               H20-C4-C3=108.86               H20-C4-C5=109.42               H20-C4-H19=107.53              
C6-C5-C4=108.44                C8-C5-C4=110.01                C8-C5-C6=102.86                H21-C5-C4=110.20               
H21-C5-C6=112.55               H21-C5-C8=112.51               C5-C6-C1=101.02                O9-C6-C1=110.65                
O9-C6-C5=112.22                H22-C6-C1=111.66               H22-C6-C5=112.79               H22-C6-O9=108.41               
C8-C7-C1=104.95                H23-C7-C1=109.22               H23-C7-C8=110.05               H24-C7-C1=112.44               
H24-C7-C8=112.56               H24-C7-H23=107.59              C7-C8-C5=107.99                C11-C8-C5=125.60               
C11-C8-C7=126.40               H25-O9-C6=108.36               O15-C10-C1=114.01              H26-C10-C1=109.02              
H26-C10-O15=109.90             H27-C10-C1=109.64              H27-C10-O15=105.12             H27-C10-H26=109.02             
 
 selected dihedral angles (degree)
 ---------------------------------
C3-C2-C1-C6=303.94            C3-C2-C1-C7= 55.15            C3-C2-C1-C10=178.71           C12-C2-C1-C6= 73.44           
C12-C2-C1-C7=184.66           C12-C2-C1-C10=308.21          H14-C2-C1-C6=189.15           H14-C2-C1-C7=300.37           
H14-C2-C1-C10= 63.92          C4-C3-C2-C1= 40.56            C4-C3-C2-C12=270.32           C4-C3-C2-H14=154.76           
H17-C3-C2-C1=163.89           H17-C3-C2-C12= 33.65          H17-C3-C2-H14=278.09          H18-C3-C2-C1=280.17           
H18-C3-C2-C12=149.93          H18-C3-C2-H14= 34.38          C5-C4-C3-C2=317.06            C5-C4-C3-H17=194.11           
C5-C4-C3-H18= 77.62           H19-C4-C3-C2= 78.49           H19-C4-C3-H17=315.54          H19-C4-C3-H18=199.04          
H20-C4-C3-C2=196.77           H20-C4-C3-H17= 73.82          H20-C4-C3-H18=317.32          C6-C5-C4-C3= 60.94            
C6-C5-C4-H19=298.28           C6-C5-C4-H20=180.90           C8-C5-C4-C3=309.16            C8-C5-C4-H19=186.50           
C8-C5-C4-H20= 69.12           H21-C5-C4-C3=184.53           H21-C5-C4-H19= 61.88          H21-C5-C4-H20=304.50          
C5-C6-C1-C2= 71.71            C5-C6-C1-C7=315.65            C5-C6-C1-C10=195.20           O9-C6-C1-C2=190.73            
O9-C6-C1-C7= 74.67            O9-C6-C1-C10=314.22           H22-C6-C1-C2=311.58           H22-C6-C1-C7=195.52           
H22-C6-C1-C10= 75.07          C1-C6-C5-C4=285.84            C1-C6-C5-C8= 42.34            C1-C6-C5-H21=163.67           
O9-C6-C5-C4=167.97            O9-C6-C5-C8=284.46            O9-C6-C5-H21= 45.79           H22-C6-C5-C4= 45.16           
H22-C6-C5-C8=161.66           H22-C6-C5-H21=282.99          C8-C7-C1-C2=273.74            C8-C7-C1-C6= 29.61            
C8-C7-C1-C10=151.08           H23-C7-C1-C2=155.78           H23-C7-C1-C6=271.65           H23-C7-C1-C10= 33.12          
H24-C7-C1-C2= 36.42           H24-C7-C1-C6=152.28           H24-C7-C1-C10=273.75          C7-C8-C5-C4= 90.89            
C7-C8-C5-C6=335.53            C7-C8-C5-H21=214.17           C11-C8-C5-C4=270.61           C11-C8-C5-C6=155.24           
C11-C8-C5-H21= 33.89          C5-C8-C7-C1=356.68            C5-C8-C7-H23=114.08           C5-C8-C7-H24=234.08           
C11-C8-C7-C1=176.97           C11-C8-C7-H23=294.37          C11-C8-C7-H24= 54.37          H25-O9-C6-C1=194.43           
H25-O9-C6-C5=306.43           H25-O9-C6-H22= 71.67          O15-C10-C1-C2=190.84          O15-C10-C1-C6= 67.90          
O15-C10-C1-C7=313.10          H26-C10-C1-C2= 67.63          H26-C10-C1-C6=304.69          H26-C10-C1-C7=189.90          
H27-C10-C1-C2=308.37          H27-C10-C1-C6=185.42          H27-C10-C1-C7= 70.63          
           -------------------------------------------------
          |                Final Singlepoint                |
           -------------------------------------------------

          ...................................................
          :                      SETUP                      :
          :.................................................:
          :  # basis functions                  80          :
          :  # atomic orbitals                  80          :
          :  # shells                           50          :
          :  # electrons                        84          :
          :  max. iterations                   250          :
          :  Hamiltonian                  GFN2-xTB          :
          :  restarted?                      false          :
          :  GBSA solvation                   true          :
          :  PC potential                    false          :
          :  electronic temp.          300.0000000     K    :
          :  accuracy                    1.0000000          :
          :  -> integral cutoff          0.2500000E+02      :
          :  -> integral neglect         0.1000000E-07      :
          :  -> SCF convergence          0.1000000E-05 Eh   :
          :  -> wf. convergence          0.1000000E-03 e    :
          :  Broyden damping             0.4000000          :
          :  net charge                          0          :
          :  unpaired electrons                  0          :
          ...................................................

 iter      E             dE          RMSdq      gap      omega  full diag
   1    -46.7833138 -0.467833E+02  0.179E-05    5.11       0.0  T
   2    -46.7833138 -0.525802E-12  0.110E-05    5.11    1532.8  T
   3    -46.7833138  0.120792E-12  0.492E-06    5.11    3437.9  T

   *** convergence criteria satisfied after 3 iterations ***

         #    Occupation            Energy/Eh            Energy/eV
      -------------------------------------------------------------
         1        2.0000           -0.7024157             -19.1137
       ...           ...                  ...                  ...
        36        2.0000           -0.4234141             -11.5217
        37        2.0000           -0.4219073             -11.4807
        38        2.0000           -0.4160277             -11.3207
        39        2.0000           -0.4125865             -11.2271
        40        2.0000           -0.4055352             -11.0352
        41        2.0000           -0.3897417             -10.6054
        42        2.0000           -0.3889126             -10.5829 (HOMO)
        43                         -0.2011346              -5.4732 (LUMO)
        44                         -0.1986474              -5.4055
        45                          0.0006384               0.0174
        46                          0.0214910               0.5848
        47                          0.0363534               0.9892
       ...                                ...                  ...
        80                          0.6503439              17.6968
      -------------------------------------------------------------
                  HL-Gap            0.1877779 Eh            5.1097 eV
             Fermi-level           -0.2950236 Eh           -8.0280 eV

 SCC (total)                   0 d,  0 h,  0 min,  0.009 sec
 SCC setup                      ...        0 min,  0.001 sec (  5.970%)
 Dispersion                     ...        0 min,  0.000 sec (  2.278%)
 classical contributions        ...        0 min,  0.000 sec (  0.227%)
 integral evaluation            ...        0 min,  0.001 sec ( 12.330%)
 iterations                     ...        0 min,  0.004 sec ( 45.780%)
 molecular gradient             ...        0 min,  0.003 sec ( 31.776%)
 printout                       ...        0 min,  0.000 sec (  1.264%)

         :::::::::::::::::::::::::::::::::::::::::::::::::::::
         ::                     SUMMARY                     ::
         :::::::::::::::::::::::::::::::::::::::::::::::::::::
         :: total energy             -46.163770463202 Eh    ::
         :: total w/o Gsasa/hb       -46.151487162304 Eh    ::
         :: gradient norm              0.000066956254 Eh/a0 ::
         :: HOMO-LUMO gap              5.109698037717 eV    ::
         ::.................................................::
         :: SCC energy               -46.782662379829 Eh    ::
         :: -> isotropic ES            0.061569996691 Eh    ::
         :: -> anisotropic ES          0.004485077315 Eh    ::
         :: -> anisotropic XC          0.017206483354 Eh    ::
         :: -> dispersion             -0.036035087344 Eh    ::
         :: -> Gsolv                  -0.019641842404 Eh    ::
         ::    -> Gelec               -0.007358541505 Eh    ::
         ::    -> Gsasa               -0.016174320142 Eh    ::
         ::    -> Ghb                  0.000000000000 Eh    ::
         ::    -> Gshift               0.003891019244 Eh    ::
         :: repulsion energy           0.618891916626 Eh    ::
         :: add. restraining           0.000000000000 Eh    ::
         :: total charge               0.000000000000 e     ::
         :::::::::::::::::::::::::::::::::::::::::::::::::::::

           ------------------------------------------------- 
          |                Numerical Hessian                |
           ------------------------------------------------- 
step length          :   0.00500
SCC accuracy         :   0.30000
Hessian scale factor :   1.00000
frozen atoms in %    :   0.00000    0
RMS gradient         :   0.00007
estimated CPU  time      1.60 min
estimated wall time      0.13 min

writing file <hessian>.

 projected vibrational frequencies (cm⁻¹)
eigval :       -0.00    -0.00    -0.00     0.00     0.00     0.00
eigval :       60.88    91.46   121.07   130.02   140.29   158.51
eigval :      183.60   225.63   246.46   256.39   277.07   286.32
eigval :      298.50   317.47   336.66   359.04   415.39   436.77
eigval :      465.70   492.41   512.99   550.95   578.60   587.12
eigval :      670.68   692.87   716.79   723.83   803.82   826.29
eigval :      878.58   882.37   890.60   894.40   921.13   929.97
eigval :      943.46   955.24   961.20  1004.36  1016.37  1035.76
eigval :     1042.12  1061.00  1068.51  1072.76  1092.59  1110.83
eigval :     1127.39  1139.51  1151.22  1161.51  1191.92  1206.76
eigval :     1219.42  1232.68  1248.15  1255.98  1262.80  1281.14
eigval :     1289.35  1309.63  1319.90  1334.02  1346.25  1350.66
eigval :     1354.77  1364.31  1396.52  1413.08  1422.50  1455.21
eigval :     1472.45  1480.49  1481.86  1487.46  1494.16  1719.36
eigval :     1739.43  2869.24  2917.38  2919.68  2936.69  2956.98
eigval :     2961.32  2966.24  2975.75  2988.23  2991.46  2992.55
eigval :     2996.12  3035.92  3042.94  3096.98  3098.02  3118.59
eigval :     3143.45  3445.23  3523.53
           -------------------------------------------------
          |                Property Printout                |
           -------------------------------------------------

    * Orbital Energies and Occupations

         #    Occupation            Energy/Eh            Energy/eV
      -------------------------------------------------------------
         1        2.0000           -0.7024157             -19.1137
       ...           ...                  ...                  ...
        30        2.0000           -0.4669855             -12.7073
        31        2.0000           -0.4617612             -12.5652
        32        2.0000           -0.4529695             -12.3259
        33        2.0000           -0.4450102             -12.1093
        34        2.0000           -0.4405652             -11.9884
        35        2.0000           -0.4329130             -11.7802
        36        2.0000           -0.4234141             -11.5217
        37        2.0000           -0.4219073             -11.4807
        38        2.0000           -0.4160277             -11.3207
        39        2.0000           -0.4125866             -11.2271
        40        2.0000           -0.4055352             -11.0352
        41        2.0000           -0.3897417             -10.6054
        42        2.0000           -0.3889126             -10.5829 (HOMO)
        43                         -0.2011347              -5.4732 (LUMO)
        44                         -0.1986474              -5.4055
        45                          0.0006384               0.0174
        46                          0.0214910               0.5848
        47                          0.0363534               0.9892
        48                          0.0583870               1.5888
        49                          0.0694600               1.8901
        50                          0.0785099               2.1364
        51                          0.0859064               2.3376
        52                          0.0939191               2.5557
        53                          0.1033707               2.8129
       ...                                ...                  ...
        80                          0.6503438              17.6968
      -------------------------------------------------------------
                  HL-Gap            0.1877779 Eh            5.1097 eV
             Fermi-level           -0.2950236 Eh           -8.0280 eV

     #   Z          covCN         q      C6AA      α(0)
     1   6 c        3.935     0.000    20.507     6.435
     2   6 c        3.858    -0.038    21.210     6.550
     3   6 c        3.803    -0.062    21.698     6.632
     4   6 c        3.808    -0.059    21.621     6.619
     5   6 c        3.890    -0.033    21.116     6.533
     6   6 c        3.770     0.113    18.757     6.172
     7   6 c        3.834    -0.071    21.826     6.647
     8   6 c        2.975     0.015    27.668     8.628
     9   8 o        1.654    -0.486    22.588     6.416
    10   6 c        3.677     0.085    19.385     6.308
    11   6 c        2.838    -0.114    30.868     9.105
    12   6 c        2.936     0.009    27.806     8.648
    13   6 c        2.844    -0.112    30.821     9.098
    14   1 h        0.924     0.048     2.342     2.393
    15   8 o        1.654    -0.489    22.650     6.425
    16   6 c        3.761    -0.118    22.798     6.806
    17   1 h        0.924     0.043     2.413     2.429
    18   1 h        0.924     0.044     2.400     2.423
    19   1 h        0.924     0.037     2.485     2.465
    20   1 h        0.924     0.042     2.419     2.432
    21   1 h        0.924     0.033     2.543     2.494
    22   1 h        0.924     0.023     2.691     2.566
    23   1 h        0.924     0.066     2.133     2.284
    24   1 h        0.925     0.050     2.317     2.380
    25   1 h        0.805     0.307     0.699     1.313
    26   1 h        0.923     0.021     2.716     2.577
    27   1 h        0.924     0.043     2.408     2.427
    28   1 h        0.926     0.034     2.533     2.489
    29   1 h        0.926     0.033     2.551     2.498
    30   1 h        0.926     0.032     2.562     2.503
    31   1 h        0.926     0.032     2.551     2.498
    32   1 h        0.804     0.324     0.654     1.270
    33   1 h        0.925     0.048     2.345     2.395
    34   1 h        0.924     0.051     2.306     2.375
    35   1 h        0.925     0.046     2.373     2.409

 Mol. C6AA /au·bohr⁶  :      10394.029714
 Mol. C8AA /au·bohr⁸  :     233678.827274
 Mol. α(0) /au        :        153.640608


Wiberg/Mayer (AO) data.
largest (>0.10) Wiberg bond orders for each atom

 ---------------------------------------------------------------------------
     #   Z sym  total        # sym  WBO       # sym  WBO       # sym  WBO
 ---------------------------------------------------------------------------
     1   6 c    3.989 --     7 c    0.983    10 c    0.978     6 c    0.970
                             2 c    0.957
     2   6 c    3.992 --    12 c    0.997     3 c    0.986    14 h    0.963
                             1 c    0.957
     3   6 c    3.996 --     4 c    1.009     2 c    0.986    18 h    0.977
                            17 h    0.976
     4   6 c    3.996 --     3 c    1.009     5 c    0.979    20 h    0.976
                            19 h    0.970
     5   6 c    3.995 --     8 c    0.994     4 c    0.979     6 c    0.976
                            21 h    0.962
     6   6 c    3.943 --     5 c    0.976     1 c    0.970     9 o    0.968
                            22 h    0.956
     7   6 c    3.995 --     8 c    1.010     1 c    0.983    24 h    0.963
                            23 h    0.953
     8   6 c    3.986 --    11 c    1.935     7 c    1.010     5 c    0.994
     9   8 o    1.946 --     6 c    0.968    25 h    0.884
    10   6 c    3.956 --    15 o    1.000     1 c    0.978    27 h    0.970
                            26 h    0.967
    11   6 c    3.988 --     8 c    1.935    28 h    0.975    29 h    0.975
    12   6 c    3.986 --    13 c    1.928    16 c    1.025     2 c    0.997
    13   6 c    3.988 --    12 c    1.928    30 h    0.974    31 h    0.967
    14   1 h    0.997 --     2 c    0.963
    15   8 o    1.936 --    10 c    1.000    32 h    0.860
    16   6 c    3.996 --    12 c    1.025    35 h    0.984    33 h    0.970
                            34 h    0.968
    17   1 h    0.998 --     3 c    0.976
    18   1 h    0.998 --     3 c    0.977
    19   1 h    0.999 --     4 c    0.970
    20   1 h    0.998 --     4 c    0.976
    21   1 h    0.999 --     5 c    0.962
    22   1 h    0.999 --     6 c    0.956
    23   1 h    0.995 --     7 c    0.953
    24   1 h    0.997 --     7 c    0.963
    25   1 h    0.905 --     9 o    0.884
    26   1 h    0.999 --    10 c    0.967
    27   1 h    0.998 --    10 c    0.970
    28   1 h    0.998 --    11 c    0.975
    29   1 h    0.998 --    11 c    0.975
    30   1 h    0.998 --    13 c    0.974
    31   1 h    0.999 --    13 c    0.967
    32   1 h    0.895 --    15 o    0.860
    33   1 h    0.998 --    16 c    0.970
    34   1 h    0.997 --    16 c    0.968
    35   1 h    0.997 --    16 c    0.984
 ---------------------------------------------------------------------------

Topologies differ in total number of bonds
Writing topology from bond orders to xtbtopo.mol

molecular dipole:
                 x           y           z       tot (Debye)
 q only:       -0.102       1.123      -0.218
   full:       -0.040       1.333      -0.535       3.652
molecular quadrupole (traceless):
                xx          xy          yy          xz          yz          zz
 q only:        3.017       0.551      -8.471      -4.905       1.850       5.454
  q+dip:        4.389       2.452     -14.219      -4.601       1.051       9.831
   full:        4.026       1.378     -12.672      -5.843       2.097       8.646

           -------------------------------------------------
          |                Geometry Summary                 |
           -------------------------------------------------

      molecular mass/u    :      208.2971915
   center of mass at/Å    :        0.0006165      -0.0000553      -0.0006163
  moments of inertia/u·Å² :        0.6094072E+03   0.8640447E+03   0.1113924E+04
rotational constants/cm⁻¹ :        0.2766234E-01   0.1951014E-01   0.1513355E-01

 * 30 selected distances

     #   Z          #   Z                                           value/Å
     3   6 c        4   6 c                                       1.5290909
     4   6 c        5   6 c                                       1.5314086
     1   6 c        6   6 c                                       1.5390256
     5   6 c        6   6 c                                       1.5306595
     1   6 c        7   6 c                                       1.5401958 (max)
     6   6 c        9   8 o                                       1.4232303
     1   6 c       10   6 c                                       1.5369511
     8   6 c       11   6 c                                       1.3206154
    12   6 c       13   6 c                                       1.3249713
     2   6 c       14   1 h                                       1.0960471
    10   6 c       15   8 o                                       1.4089596
     3   6 c       17   1 h                                       1.0915155
     3   6 c       18   1 h                                       1.0914376
     4   6 c       19   1 h                                       1.0906110
     4   6 c       20   1 h                                       1.0918551
     5   6 c       21   1 h                                       1.0939207
     6   6 c       22   1 h                                       1.0958441
     7   6 c       23   1 h                                       1.0930168
     7   6 c       24   1 h                                       1.0898061
     9   8 o       25   1 h                                       0.9647411 (min)
    10   6 c       26   1 h                                       1.0996931
    10   6 c       27   1 h                                       1.0935192
    11   6 c       28   1 h                                       1.0770431
    11   6 c       29   1 h                                       1.0772924
    13   6 c       30   1 h                                       1.0780621
    13   6 c       31   1 h                                       1.0741789
    15   8 o       32   1 h                                       0.9696934
    16   6 c       33   1 h                                       1.0873631
    16   6 c       34   1 h                                       1.0903847
    16   6 c       35   1 h                                       1.0869524

 * 4 distinct bonds (by element types)

   Z      Z             #   av. dist./Å        max./Å        min./Å
   1 H    6 C          18     1.0888079     1.0996931     1.0741789
   6 C    6 C           8     1.4816148     1.5401958     1.3206154
   1 H    8 O           2     0.9672173     0.9696934     0.9647411
   6 C    8 O           2     1.4160950     1.4232303     1.4089596

           -------------------------------------------------
          |               Frequency Printout                |
           -------------------------------------------------
 projected vibrational frequencies (cm⁻¹)
eigval :       -0.00    -0.00    -0.00     0.00     0.00     0.00
eigval :       60.88    91.46   121.07   130.02   140.29   158.51
eigval :      183.60   225.63   246.46   256.39   277.07   286.32
eigval :      298.50   317.47   336.66   359.04   415.39   436.77
eigval :      465.70   492.41   512.99   550.95   578.60   587.12
eigval :      670.68   692.87   716.79   723.83   803.82   826.29
eigval :      878.58   882.37   890.60   894.40   921.13   929.97
eigval :      943.46   955.24   961.20  1004.36  1016.37  1035.76
eigval :     1042.12  1061.00  1068.51  1072.76  1092.59  1110.83
eigval :     1127.39  1139.51  1151.22  1161.51  1191.92  1206.76
eigval :     1219.42  1232.68  1248.15  1255.98  1262.80  1281.14
eigval :     1289.35  1309.63  1319.90  1334.02  1346.25  1350.66
eigval :     1354.77  1364.31  1396.52  1413.08  1422.50  1455.21
eigval :     1472.45  1480.49  1481.86  1487.46  1494.16  1719.36
eigval :     1739.43  2869.24  2917.38  2919.68  2936.69  2956.98
eigval :     2961.32  2966.24  2975.75  2988.23  2991.46  2992.55
eigval :     2996.12  3035.92  3042.94  3096.98  3098.02  3118.59
eigval :     3143.45  3445.23  3523.53
 reduced masses (amu)
   1: 10.34   2: 11.57   3: 10.85   4: 11.32   5: 12.49   6: 11.27   7: 10.15   8:  9.75
   9:  9.56  10:  5.90  11: 12.27  12:  6.79  13: 10.38  14:  2.72  15: 11.12  16:  9.00
  17:  8.98  18:  9.01  19:  8.72  20: 10.69  21:  9.20  22: 11.23  23:  8.34  24: 10.26
  25:  9.87  26:  8.37  27:  2.91  28:  9.00  29:  8.41  30:  9.63  31: 10.07  32:  4.31
  33:  4.04  34:  5.87  35:  9.71  36:  7.96  37:  7.91  38:  7.28  39:  4.71  40:  4.20
  41:  6.93  42:  7.70  43:  6.43  44:  5.64  45:  5.42  46:  6.69  47:  6.24  48:  6.07
  49:  4.78  50: 10.16  51:  5.14  52: 10.59  53:  6.70  54:  6.38  55:  7.22  56:  7.23
  57:  4.30  58:  2.07  59:  6.63  60:  5.11  61:  6.96  62:  7.28  63:  6.12  64:  8.18
  65:  5.16  66:  6.18  67:  4.25  68:  3.44  69:  4.88  70:  5.09  71:  4.19  72:  4.50
  73:  4.00  74:  4.56  75:  2.97  76:  2.39  77:  2.45  78:  1.91  79:  1.69  80:  1.82
  81:  1.68  82:  1.69  83:  1.96  84: 11.22  85: 11.58  86:  1.74  87:  1.73  88:  1.76
  89:  1.77  90:  1.68  91:  1.89  92:  1.95  93:  1.94  94:  1.56  95:  1.59  96:  1.50
  97:  1.80  98:  1.79  99:  1.53 100:  1.71 101:  1.52 102:  2.09 103:  1.89 104:  1.87
 105:  1.87
 IR intensities (km·mol⁻¹)
   1:  0.06   2:  0.01   3:  0.34   4:  0.04   5:  0.62   6:  0.40   7:  0.63   8:  1.17
   9:  0.99  10:  1.65  11:  2.57  12:  0.47  13:  7.24  14:135.23  15:  1.15  16: 11.36
  17:  1.38  18: 11.93  19:  2.33  20:  5.32  21:  2.75  22:  0.28  23: 14.94  24:  1.00
  25:  9.61  26:  5.43  27:210.64  28: 12.19  29:  4.53  30: 12.97  31:  0.77  32:  4.29
  33:  3.91  34:  5.56  35:  0.91  36:  3.31  37:  2.99  38:  6.64  39: 39.20  40: 13.34
  41:  3.24  42:  8.49  43:  8.86  44:  1.32  45:  1.27  46:  7.52  47: 25.01  48: 24.47
  49:  0.64  50: 98.03  51:  6.39  52: 51.21  53: 85.57  54: 30.29  55: 16.84  56:  4.58
  57:  6.33  58: 33.04  59:  9.02  60: 22.69  61: 18.43  62: 11.31  63: 29.01  64: 11.71
  65: 13.75  66: 12.14  67:  2.59  68: 21.50  69: 17.72  70: 19.54  71: 56.60  72: 27.13
  73: 26.43  74:  1.26  75:  5.57  76:  4.75  77: 14.14  78:  4.85  79:  4.88  80:  1.13
  81:  1.59  82:  3.17  83:  0.60  84: 26.95  85: 32.13  86: 89.78  87: 71.16  88: 51.18
  89: 94.71  90: 60.64  91: 14.05  92: 18.69  93: 72.34  94: 61.79  95: 83.43  96: 75.37
  97: 47.50  98: 38.94  99: 43.45 100: 73.63 101: 35.40 102: 63.01 103: 52.13 104:166.59
 105: 17.92
 Raman intensities (Ä⁴*amu⁻¹)
   1:  0.00   2:  0.00   3:  0.00   4:  0.00   5:  0.00   6:  0.00   7:  0.00   8:  0.00
   9:  0.00  10:  0.00  11:  0.00  12:  0.00  13:  0.00  14:  0.00  15:  0.00  16:  0.00
  17:  0.00  18:  0.00  19:  0.00  20:  0.00  21:  0.00  22:  0.00  23:  0.00  24:  0.00
  25:  0.00  26:  0.00  27:  0.00  28:  0.00  29:  0.00  30:  0.00  31:  0.00  32:  0.00
  33:  0.00  34:  0.00  35:  0.00  36:  0.00  37:  0.00  38:  0.00  39:  0.00  40:  0.00
  41:  0.00  42:  0.00  43:  0.00  44:  0.00  45:  0.00  46:  0.00  47:  0.00  48:  0.00
  49:  0.00  50:  0.00  51:  0.00  52:  0.00  53:  0.00  54:  0.00  55:  0.00  56:  0.00
  57:  0.00  58:  0.00  59:  0.00  60:  0.00  61:  0.00  62:  0.00  63:  0.00  64:  0.00
  65:  0.00  66:  0.00  67:  0.00  68:  0.00  69:  0.00  70:  0.00  71:  0.00  72:  0.00
  73:  0.00  74:  0.00  75:  0.00  76:  0.00  77:  0.00  78:  0.00  79:  0.00  80:  0.00
  81:  0.00  82:  0.00  83:  0.00  84:  0.00  85:  0.00  86:  0.00  87:  0.00  88:  0.00
  89:  0.00  90:  0.00  91:  0.00  92:  0.00  93:  0.00  94:  0.00  95:  0.00  96:  0.00
  97:  0.00  98:  0.00  99:  0.00 100:  0.00 101:  0.00 102:  0.00 103:  0.00 104:  0.00
 105:  0.00
 output can be read by thermo (or use thermo option).
 writing <g98.out> molden fake output.
 recommended (thermochemical) frequency scaling factor: 1.0
           -------------------------------------------------
          |             Thermodynamic Functions             |
           -------------------------------------------------

Molecule has no symmetry elements
It seems to be the C1 point group
c1  symmetry found (for desy threshold:  0.10E+00) used in thermo

          ...................................................
          :                      SETUP                      :
          :.................................................:
          :  # frequencies                          99      :
          :  # imaginary freq.                       0      :
          :  linear?                             false      :
          :  only rotor calc.                    false      :
          :  symmetry                               c1      :
          :  rotational number                       1      :
          :  scaling factor                  1.0000000      :
          :  rotor cutoff                   50.0000000 cm⁻¹ :
          :  imag. cutoff                  -50.0000000 cm⁻¹ :
          :.................................................:

    mode    ω/cm⁻¹     T·S(HO)/kcal·mol⁻¹    T·S(FR)/kcal·mol⁻¹   T·S(vib)
   ------------------------------------------------------------------------
       1     60.88    -1.32034 ( 68.73%)    -0.99813 ( 31.27%)    -1.21959
       2     91.46    -1.08188 ( 91.80%)    -0.87760 (  8.20%)    -1.06513
       3    121.07    -0.91928 ( 97.17%)    -0.79453 (  2.83%)    -0.91575
       4    130.02    -0.87829 ( 97.86%)    -0.77341 (  2.14%)    -0.87605
       5    140.29    -0.83480 ( 98.41%)    -0.75088 (  1.59%)    -0.83347
       6    158.51    -0.76549 ( 99.02%)    -0.71471 (  0.98%)    -0.76499
       7    183.60    -0.68321 ( 99.45%)    -0.67119 (  0.55%)    -0.68315
       8    225.63    -0.57050 ( 99.76%)    -0.61013 (  0.24%)    -0.57060
       9    246.46    -0.52348 ( 99.83%)    -0.58397 (  0.17%)    -0.52358
      10    256.39    -0.50274 ( 99.86%)    -0.57226 (  0.14%)    -0.50284
      11    277.07    -0.46265 ( 99.89%)    -0.54929 (  0.11%)    -0.46274
      12    286.32    -0.44592 ( 99.91%)    -0.53956 (  0.09%)    -0.44600
      13    298.50    -0.42496 ( 99.92%)    -0.52722 (  0.08%)    -0.42504
   ------------------------------------------------------------------------

   temp. (K)  partition function   enthalpy   heat capacity  entropy
                                   cal/mol     cal/K/mol   cal/K/mol   J/K/mol
 298.15  VIB  0.156E+05             7651.827     54.227     44.429
         ROT  0.185E+07              888.752      2.981     31.659
         INT  0.288E+11             8540.579     57.208     76.088
         TR   0.291E+28             1481.254      4.968     41.886
         TOT                       10021.8332    62.1760   117.9742   493.6042

       T/K    H(0)-H(T)+PV         H(T)/Eh          T*S/Eh         G(T)/Eh
   ------------------------------------------------------------------------
    298.15    0.159708E-01    0.317625E+00    0.560534E-01    0.261572E+00
   ------------------------------------------------------------------------

         :::::::::::::::::::::::::::::::::::::::::::::::::::::
         ::                  THERMODYNAMIC                  ::
         :::::::::::::::::::::::::::::::::::::::::::::::::::::
         :: total free energy         -45.902198571643 Eh   ::
         ::.................................................::
         :: total energy              -46.163770463180 Eh   ::
         :: zero point energy           0.301654450946 Eh   ::
         :: G(RRHO) w/o ZPVE           -0.040082559408 Eh   ::
         :: G(RRHO) contrib.            0.261571891538 Eh   ::
         :::::::::::::::::::::::::::::::::::::::::::::::::::::

optimized geometry written to: xtbopt.coord


           -------------------------------------------------
          | TOTAL ENERGY              -46.163770463180 Eh   |
          | TOTAL ENTHALPY            -45.846145204395 Eh   |
          | TOTAL FREE ENERGY         -45.902198571643 Eh   |
          | GRADIENT NORM               0.000066970379 Eh/α |
          | HOMO-LUMO GAP               5.109697964086 eV   |
           -------------------------------------------------

------------------------------------------------------------------------
 * finished run on 2026/08/09 at 17:05:34.965     
------------------------------------------------------------------------
 total:
 * wall-time:     0 d,  0 h,  0 min,  1.038 sec
 *  cpu-time:     0 d,  0 h,  0 min, 12.297 sec
 * ratio c/w:    11.842 speedup
 SCF:
 * wall-time:     0 d,  0 h,  0 min,  0.051 sec
 *  cpu-time:     0 d,  0 h,  0 min,  0.572 sec
 * ratio c/w:    11.226 speedup
 ANC optimizer:
 * wall-time:     0 d,  0 h,  0 min,  0.248 sec
 *  cpu-time:     0 d,  0 h,  0 min,  2.966 sec
 * ratio c/w:    11.970 speedup
 analytical hessian:
 * wall-time:     0 d,  0 h,  0 min,  0.713 sec
 *  cpu-time:     0 d,  0 h,  0 min,  8.513 sec
 * ratio c/w:    11.936 speedup

normal termination of xtb
