      -----------------------------------------------------------      
     |                   =====================                   |     
     |                           x T B                           |     
     |                   =====================                   |     
     |                         S. Grimme                         |     
     |          Mulliken Center for Theoretical Chemistry        |     
     |                    University of Bonn                     |     
      -----------------------------------------------------------      

   * xtb version 6.7.1 (edcfbbe) compiled by 'albert@albert-system' on 2024-07-22

   xtb is free software: you can redistribute it and/or modify it under
   the terms of the GNU Lesser General Public License as published by
   the Free Software Foundation, either version 3 of the License, or
   (at your option) any later version.
   
   xtb is distributed in the hope that it will be useful,
   but WITHOUT ANY WARRANTY; without even the implied warranty of
   MERCHANTABILITY or FITNESS FOR A PARTICULAR PURPOSE.  See the
   GNU Lesser General Public License for more details.
   
   Cite this work as:
   * C. Bannwarth, E. Caldeweyher, S. Ehlert, A. Hansen, P. Pracht,
     J. Seibert, S. Spicher, S. Grimme, WIREs Comput. Mol. Sci., 2020, 11,
     e01493. DOI: 10.1002/wcms.1493
   
   for GFN2-xTB:
   * C. Bannwarth, S. Ehlert and S. Grimme., J. Chem. Theory Comput., 2019,
     15, 1652-1671. DOI: 10.1021/acs.jctc.8b01176
   for GFN1-xTB:
   * S. Grimme, C. Bannwarth, P. Shushkov, J. Chem. Theory Comput., 2017,
     13, 1989-2009. DOI: 10.1021/acs.jctc.7b00118
   for GFN0-xTB:
   * P. Pracht, E. Caldeweyher, S. Ehlert, S. Grimme, ChemRxiv, 2019, preprint.
     DOI: 10.26434/chemrxiv.8326202.v1
   for GFN-FF:
   * S. Spicher and S. Grimme, Angew. Chem. Int. Ed., 2020, 59, 15665-15673.
     DOI: 10.1002/anie.202004239
   
   for ALPB and GBSA implicit solvation:
   * S. Ehlert, M. Stahn, S. Spicher, S. Grimme, J. Chem. Theory Comput.,
     2021, 17, 4250-4261. DOI: 10.1021/acs.jctc.1c00471
   
   for ddCOSMO and CPCM-X implicit solvation:
   * M. Stahn, S. Ehlert, S. Grimme, J. Phys. Chem. A,
     2023, XX, XXXX-XXXX. DOI: 10.1021/acs.jpca.3c04382
   
   for DFT-D4:
   * E. Caldeweyher, C. Bannwarth and S. Grimme, J. Chem. Phys., 2017,
     147, 034112. DOI: 10.1063/1.4993215
   * E. Caldeweyher, S. Ehlert, A. Hansen, H. Neugebauer, S. Spicher,
     C. Bannwarth and S. Grimme, J. Chem. Phys., 2019, 150, 154122.
     DOI: 10.1063/1.5090222
   * E. Caldeweyher, J.-M. Mewes, S. Ehlert and S. Grimme, Phys. Chem. Chem. Phys.
     2020, 22, 8499-8512. DOI: 10.1039/D0CP00502A
   
   for sTDA-xTB:
   * S. Grimme and C. Bannwarth, J. Chem. Phys., 2016, 145, 054103.
     DOI: 10.1063/1.4959605
   
   in the mass-spec context:
   * V. Asgeirsson, C. Bauer and S. Grimme, Chem. Sci., 2017, 8, 4879.
     DOI: 10.1039/c7sc00601b
   * J. Koopman and S. Grimme, ACS Omega 2019, 4, 12, 15120-15133.
     DOI: 10.1021/acsomega.9b02011
   
   for metadynamics refer to:
   * S. Grimme, J. Chem. Theory Comput., 2019, 155, 2847-2862
     DOI: 10.1021/acs.jctc.9b00143
   
   for SPH calculations refer to:
   * S. Spicher and S. Grimme, J. Chem. Theory Comput., 2021, 17, 1701-1714
     DOI: 10.1021/acs.jctc.0c01306
   
   for ONIOM refer to:
   * C. Plett, A. Katbashev, S. Ehlert, S. Grimme, M. Bursch,
     Phys. Chem. Chem. Phys., 2023, 25, 17860-17868. DOI: 10.1039/D3CP02178E
   
   for DIPRO refer to:
   * J. Kohn, N. Gildemeister, S. Grimme, D. Fazzi, A. Hansen,
     J. Chem. Phys., 2023, just accepted.
   
   for PTB refer to:
   * S. Grimme, M. Mueller, A. Hansen, J. Chem. Phys., 2023, 158, 124111.
     DOI: 10.1063/5.0137838
   
   with help from (in alphabetical order)
   P. Atkinson, C. Bannwarth, F. Bohle, G. Brandenburg, E. Caldeweyher
   M. Checinski, S. Dohm, S. Ehlert, S. Ehrlich, I. Gerasimov, C. Hölzer
   A. Katbashev, J. Kohn, J. Koopman, C. Lavigne, S. Lehtola, F. März, M. Müller,
   F. Musil, H. Neugebauer, J. Pisarek, C. Plett, P. Pracht, F. Pultar,
   J. Seibert, P. Shushkov, S. Spicher, M. Stahn, M. Steiner, T. Strunk,
   J. Stückrath, T. Rose, and J. Unsleber
   
 * started run on 2026/08/09 at 15:28:27.283     
   ID    Z sym.   atoms
    1    6 c      1-8, 10-13, 16
    2    8 o      9, 15
    3    1 h      14, 17-35

           -------------------------------------------------
          |                Calculation Setup                |
           -------------------------------------------------

          program call               : /home/dinglab/software/xtb_6.7.1/xtb_dist/bin/xtb coord --gfn2 --sp --chrg 0 --norestart --parallel 12 --alpb chcl3 reference -I xcontrol-inp
          hostname                   : localhost
          coordinate file            : coord
          omp threads                :                    12


           -------------------------------------------------
          |                 G F N 2 - x T B                 |
           -------------------------------------------------

        Reference                      10.1021/acs.jctc.8b01176
      * Hamiltonian:
        H0-scaling (s, p, d)           1.850000    2.230000    2.230000
        zeta-weighting                 0.500000
      * Dispersion:
        s8                             2.700000
        a1                             0.520000
        a2                             5.000000
        s9                             5.000000
      * Repulsion:
        kExp                           1.500000    1.000000
        rExp                           1.000000
      * Coulomb:
        alpha                          2.000000
        third order                    shell-resolved
        anisotropic                    true
        a3                             3.000000
        a5                             4.000000
        cn-shift                       1.200000
        cn-exp                         4.000000
        max-rad                        5.000000

      * Solvation model:               ALPB
        Solvent                        chcl3
        Parameter file                 internal GFN2-xTB/ALPB
        Dielectric constant                4.8100E+00
        Reference state                gsolv=reference [X=1]
        Free energy shift                  2.5086E-03 Eh       1.5742E+00 kcal/mol
        Temperature                        2.9815E+02 K
        Density                            1.4900E+00 kg/L
        Solvent mass                       1.1938E+02 g/mol
        Interaction kernel             P16
        Born radius scaling (c1)           1.3274E+00
        Born radii integrator          GBOBC
        Born offset                        0.0000E+00 a0       0.0000E+00 AA
        H-bond correction              false
        Ion screening                  false
        Surface tension                    1.0000E-05 Eh       1.5569E+01 dyn/cm
        Grid points                               974 per atom

          ...................................................
          :                      SETUP                      :
          :.................................................:
          :  # basis functions                  80          :
          :  # atomic orbitals                  80          :
          :  # shells                           50          :
          :  # electrons                        84          :
          :  max. iterations                   250          :
          :  Hamiltonian                  GFN2-xTB          :
          :  restarted?                      false          :
          :  GBSA solvation                   true          :
          :  PC potential                    false          :
          :  electronic temp.          300.0000000     K    :
          :  accuracy                    1.0000000          :
          :  -> integral cutoff          0.2500000E+02      :
          :  -> integral neglect         0.1000000E-07      :
          :  -> SCF convergence          0.1000000E-05 Eh   :
          :  -> wf. convergence          0.1000000E-03 e    :
          :  Broyden damping             0.4000000          :
          :  net charge                          0          :
          :  unpaired electrons                  0          :
          ...................................................

 iter      E             dE          RMSdq      gap      omega  full diag
   1    -46.7367946 -0.467368E+02  0.338E+00    5.21       0.0  T
   2    -46.7787916 -0.419971E-01  0.192E+00    5.06       1.0  T
   3    -46.7728308  0.596086E-02  0.839E-01    5.05       1.0  T
   4    -46.7816151 -0.878431E-02  0.341E-01    4.96       1.0  T
   5    -46.7836296 -0.201454E-02  0.738E-02    4.98       1.0  T
   6    -46.7836592 -0.295938E-04  0.408E-02    4.98       1.0  T
   7    -46.7836644 -0.519995E-05  0.136E-02    4.98       1.2  T
   8    -46.7836660 -0.155719E-05  0.507E-03    4.98       3.3  T
   9    -46.7836664 -0.467945E-06  0.216E-03    4.98       7.8  T
  10    -46.7836665 -0.261271E-07  0.808E-04    4.98      20.9  T
  11    -46.7836665 -0.225646E-08  0.332E-04    4.98      50.9  T

   *** convergence criteria satisfied after 11 iterations ***

         #    Occupation            Energy/Eh            Energy/eV
      -------------------------------------------------------------
         1        2.0000           -0.6973229             -18.9751
       ...           ...                  ...                  ...
        36        2.0000           -0.4274735             -11.6321
        37        2.0000           -0.4226594             -11.5011
        38        2.0000           -0.4116651             -11.2020
        39        2.0000           -0.4105904             -11.1727
        40        2.0000           -0.4012956             -10.9198
        41        2.0000           -0.3915689             -10.6551
        42        2.0000           -0.3843927             -10.4599 (HOMO)
        43                         -0.2012624              -5.4766 (LUMO)
        44                         -0.1969030              -5.3580
        45                          0.0148286               0.4035
        46                          0.0280420               0.7631
        47                          0.0450010               1.2245
       ...                                ...                  ...
        80                          0.6485362              17.6476
      -------------------------------------------------------------
                  HL-Gap            0.1831302 Eh            4.9832 eV
             Fermi-level           -0.2928275 Eh           -7.9682 eV

 SCC (total)                   0 d,  0 h,  0 min,  0.039 sec
 SCC setup                      ...        0 min,  0.001 sec (  1.706%)
 Dispersion                     ...        0 min,  0.000 sec (  0.916%)
 classical contributions        ...        0 min,  0.000 sec (  0.062%)
 integral evaluation            ...        0 min,  0.001 sec (  3.448%)
 iterations                     ...        0 min,  0.033 sec ( 85.308%)
 molecular gradient             ...        0 min,  0.003 sec (  8.048%)
 printout                       ...        0 min,  0.000 sec (  0.399%)

         :::::::::::::::::::::::::::::::::::::::::::::::::::::
         ::                     SUMMARY                     ::
         :::::::::::::::::::::::::::::::::::::::::::::::::::::
         :: total energy             -46.161768426028 Eh    ::
         :: total w/o Gsasa/hb       -46.148193871416 Eh    ::
         :: gradient norm              0.007162022804 Eh/a0 ::
         :: HOMO-LUMO gap              4.983227642060 eV    ::
         ::.................................................::
         :: SCC energy               -46.783022828658 Eh    ::
         :: -> isotropic ES            0.061474422711 Eh    ::
         :: -> anisotropic ES          0.006659009663 Eh    ::
         :: -> anisotropic XC          0.017064515279 Eh    ::
         :: -> dispersion             -0.036306514572 Eh    ::
         :: -> Gsolv                  -0.021177107514 Eh    ::
         ::    -> Gelec               -0.007602552903 Eh    ::
         ::    -> Gsasa               -0.016083202613 Eh    ::
         ::    -> Ghb                  0.000000000000 Eh    ::
         ::    -> Gshift               0.002508648001 Eh    ::
         :: repulsion energy           0.621254402630 Eh    ::
         :: add. restraining           0.000000000000 Eh    ::
         :: total charge              -0.000000000000 e     ::
         :::::::::::::::::::::::::::::::::::::::::::::::::::::

           -------------------------------------------------
          |                Property Printout                |
           -------------------------------------------------

    * Orbital Energies and Occupations

         #    Occupation            Energy/Eh            Energy/eV
      -------------------------------------------------------------
         1        2.0000           -0.6973229             -18.9751
       ...           ...                  ...                  ...
        30        2.0000           -0.4660061             -12.6807
        31        2.0000           -0.4545262             -12.3683
        32        2.0000           -0.4472701             -12.1708
        33        2.0000           -0.4412223             -12.0063
        34        2.0000           -0.4399657             -11.9721
        35        2.0000           -0.4353043             -11.8452
        36        2.0000           -0.4274735             -11.6321
        37        2.0000           -0.4226594             -11.5011
        38        2.0000           -0.4116651             -11.2020
        39        2.0000           -0.4105904             -11.1727
        40        2.0000           -0.4012956             -10.9198
        41        2.0000           -0.3915689             -10.6551
        42        2.0000           -0.3843927             -10.4599 (HOMO)
        43                         -0.2012624              -5.4766 (LUMO)
        44                         -0.1969030              -5.3580
        45                          0.0148286               0.4035
        46                          0.0280420               0.7631
        47                          0.0450010               1.2245
        48                          0.0570860               1.5534
        49                          0.0715109               1.9459
        50                          0.0794174               2.1611
        51                          0.0887739               2.4157
        52                          0.0974019               2.6504
        53                          0.0998241               2.7164
       ...                                ...                  ...
        80                          0.6485362              17.6476
      -------------------------------------------------------------
                  HL-Gap            0.1831302 Eh            4.9832 eV
             Fermi-level           -0.2928275 Eh           -7.9682 eV

     #   Z          covCN         q      C6AA      α(0)
     1   6 c        3.937     0.001    20.501     6.434
     2   6 c        3.862    -0.034    21.140     6.539
     3   6 c        3.804    -0.061    21.677     6.628
     4   6 c        3.808    -0.060    21.650     6.624
     5   6 c        3.891    -0.036    21.171     6.541
     6   6 c        3.773     0.109    18.825     6.182
     7   6 c        3.835    -0.069    21.786     6.641
     8   6 c        2.976     0.009    27.810     8.650
     9   8 o        1.655    -0.486    22.588     6.416
    10   6 c        3.677     0.086    19.367     6.305
    11   6 c        2.838    -0.113    30.858     9.103
    12   6 c        2.936     0.011    27.779     8.644
    13   6 c        2.849    -0.112    30.820     9.099
    14   1 h        0.924     0.055     2.259     2.351
    15   8 o        1.655    -0.475    22.355     6.383
    16   6 c        3.760    -0.111    22.673     6.788
    17   1 h        0.924     0.040     2.448     2.447
    18   1 h        0.924     0.040     2.447     2.446
    19   1 h        0.924     0.044     2.398     2.421
    20   1 h        0.924     0.040     2.451     2.448
    21   1 h        0.924     0.041     2.440     2.443
    22   1 h        0.925     0.041     2.438     2.442
    23   1 h        0.924     0.049     2.339     2.392
    24   1 h        0.925     0.056     2.241     2.341
    25   1 h        0.805     0.310     0.690     1.305
    26   1 h        0.923     0.027     2.628     2.535
    27   1 h        0.923     0.023     2.693     2.566
    28   1 h        0.926     0.033     2.541     2.493
    29   1 h        0.926     0.034     2.527     2.486
    30   1 h        0.926     0.028     2.608     2.525
    31   1 h        0.926     0.033     2.543     2.494
    32   1 h        0.805     0.306     0.704     1.318
    33   1 h        0.925     0.054     2.276     2.359
    34   1 h        0.925     0.045     2.386     2.416
    35   1 h        0.925     0.044     2.402     2.424

 Mol. C6AA /au·bohr⁶  :      10391.394933
 Mol. C8AA /au·bohr⁸  :     233599.165550
 Mol. α(0) /au        :        153.628758


Wiberg/Mayer (AO) data.
largest (>0.10) Wiberg bond orders for each atom

 ---------------------------------------------------------------------------
     #   Z sym  total        # sym  WBO       # sym  WBO       # sym  WBO
 ---------------------------------------------------------------------------
     1   6 c    3.989 --    10 c    0.988     7 c    0.981     6 c    0.959
                             2 c    0.956
     2   6 c    3.992 --    12 c    0.998     3 c    0.989    14 h    0.959
                             1 c    0.956
     3   6 c    3.996 --     4 c    1.009     2 c    0.989    18 h    0.976
                            17 h    0.974
     4   6 c    3.996 --     3 c    1.009     5 c    0.978    20 h    0.976
                            19 h    0.972
     5   6 c    3.995 --     8 c    0.995     4 c    0.978     6 c    0.972
                            21 h    0.963
     6   6 c    3.947 --     9 o    0.986     5 c    0.972     1 c    0.959
                            22 h    0.955
     7   6 c    3.996 --     8 c    1.007     1 c    0.981    24 h    0.962
                            23 h    0.957
     8   6 c    3.986 --    11 c    1.934     7 c    1.007     5 c    0.995
     9   8 o    1.950 --     6 c    0.986    25 h    0.883
    10   6 c    3.950 --     1 c    0.988    15 o    0.987    27 h    0.967
                            26 h    0.966
    11   6 c    3.988 --     8 c    1.934    28 h    0.975    29 h    0.975
    12   6 c    3.986 --    13 c    1.925    16 c    1.027     2 c    0.998
    13   6 c    3.988 --    12 c    1.925    30 h    0.976    31 h    0.975
    14   1 h    0.997 --     2 c    0.959
    15   8 o    1.933 --    10 c    0.987    32 h    0.893
    16   6 c    3.996 --    12 c    1.027    35 h    0.983    33 h    0.968
                            34 h    0.962
    17   1 h    0.998 --     3 c    0.974
    18   1 h    0.998 --     3 c    0.976
    19   1 h    0.998 --     4 c    0.972
    20   1 h    0.998 --     4 c    0.976
    21   1 h    0.998 --     5 c    0.963
    22   1 h    0.998 --     6 c    0.955
    23   1 h    0.998 --     7 c    0.957
    24   1 h    0.997 --     7 c    0.962
    25   1 h    0.903 --     9 o    0.883
    26   1 h    0.999 --    10 c    0.966
    27   1 h    0.999 --    10 c    0.967
    28   1 h    0.998 --    11 c    0.975
    29   1 h    0.998 --    11 c    0.975
    30   1 h    0.998 --    13 c    0.976
    31   1 h    0.999 --    13 c    0.975
    32   1 h    0.906 --    15 o    0.893
    33   1 h    0.997 --    16 c    0.968
    34   1 h    0.998 --    16 c    0.962
    35   1 h    0.998 --    16 c    0.983
 ---------------------------------------------------------------------------

Topologies differ in total number of bonds
Writing topology from bond orders to xtbtopo.mol

molecular dipole:
                 x           y           z       tot (Debye)
 q only:       -0.015       0.283       0.122
   full:        0.019       0.080       0.108       0.344
molecular quadrupole (traceless):
                xx          xy          yy          xz          yz          zz
 q only:        0.464      -0.149       6.308       2.413      -1.673      -6.772
  q+dip:        2.693       1.695       7.192       4.569      -3.188      -9.885
   full:        1.797       0.922       7.856       3.679      -2.276      -9.653


           -------------------------------------------------
          | TOTAL ENERGY              -46.161768426028 Eh   |
          | GRADIENT NORM               0.007162022804 Eh/α |
          | HOMO-LUMO GAP               4.983227642060 eV   |
           -------------------------------------------------

------------------------------------------------------------------------
 * finished run on 2026/08/09 at 15:28:27.341     
------------------------------------------------------------------------
 total:
 * wall-time:     0 d,  0 h,  0 min,  0.057 sec
 *  cpu-time:     0 d,  0 h,  0 min,  0.601 sec
 * ratio c/w:    10.475 speedup
 SCF:
 * wall-time:     0 d,  0 h,  0 min,  0.039 sec
 *  cpu-time:     0 d,  0 h,  0 min,  0.438 sec
 * ratio c/w:    11.177 speedup

normal termination of xtb
