      -----------------------------------------------------------      
     |                   =====================                   |     
     |                           x T B                           |     
     |                   =====================                   |     
     |                         S. Grimme                         |     
     |          Mulliken Center for Theoretical Chemistry        |     
     |                    University of Bonn                     |     
      -----------------------------------------------------------      

   * xtb version 6.7.1 (edcfbbe) compiled by 'albert@albert-system' on 2024-07-22

   xtb is free software: you can redistribute it and/or modify it under
   the terms of the GNU Lesser General Public License as published by
   the Free Software Foundation, either version 3 of the License, or
   (at your option) any later version.
   
   xtb is distributed in the hope that it will be useful,
   but WITHOUT ANY WARRANTY; without even the implied warranty of
   MERCHANTABILITY or FITNESS FOR A PARTICULAR PURPOSE.  See the
   GNU Lesser General Public License for more details.
   
   Cite this work as:
   * C. Bannwarth, E. Caldeweyher, S. Ehlert, A. Hansen, P. Pracht,
     J. Seibert, S. Spicher, S. Grimme, WIREs Comput. Mol. Sci., 2020, 11,
     e01493. DOI: 10.1002/wcms.1493
   
   for GFN2-xTB:
   * C. Bannwarth, S. Ehlert and S. Grimme., J. Chem. Theory Comput., 2019,
     15, 1652-1671. DOI: 10.1021/acs.jctc.8b01176
   for GFN1-xTB:
   * S. Grimme, C. Bannwarth, P. Shushkov, J. Chem. Theory Comput., 2017,
     13, 1989-2009. DOI: 10.1021/acs.jctc.7b00118
   for GFN0-xTB:
   * P. Pracht, E. Caldeweyher, S. Ehlert, S. Grimme, ChemRxiv, 2019, preprint.
     DOI: 10.26434/chemrxiv.8326202.v1
   for GFN-FF:
   * S. Spicher and S. Grimme, Angew. Chem. Int. Ed., 2020, 59, 15665-15673.
     DOI: 10.1002/anie.202004239
   
   for ALPB and GBSA implicit solvation:
   * S. Ehlert, M. Stahn, S. Spicher, S. Grimme, J. Chem. Theory Comput.,
     2021, 17, 4250-4261. DOI: 10.1021/acs.jctc.1c00471
   
   for ddCOSMO and CPCM-X implicit solvation:
   * M. Stahn, S. Ehlert, S. Grimme, J. Phys. Chem. A,
     2023, XX, XXXX-XXXX. DOI: 10.1021/acs.jpca.3c04382
   
   for DFT-D4:
   * E. Caldeweyher, C. Bannwarth and S. Grimme, J. Chem. Phys., 2017,
     147, 034112. DOI: 10.1063/1.4993215
   * E. Caldeweyher, S. Ehlert, A. Hansen, H. Neugebauer, S. Spicher,
     C. Bannwarth and S. Grimme, J. Chem. Phys., 2019, 150, 154122.
     DOI: 10.1063/1.5090222
   * E. Caldeweyher, J.-M. Mewes, S. Ehlert and S. Grimme, Phys. Chem. Chem. Phys.
     2020, 22, 8499-8512. DOI: 10.1039/D0CP00502A
   
   for sTDA-xTB:
   * S. Grimme and C. Bannwarth, J. Chem. Phys., 2016, 145, 054103.
     DOI: 10.1063/1.4959605
   
   in the mass-spec context:
   * V. Asgeirsson, C. Bauer and S. Grimme, Chem. Sci., 2017, 8, 4879.
     DOI: 10.1039/c7sc00601b
   * J. Koopman and S. Grimme, ACS Omega 2019, 4, 12, 15120-15133.
     DOI: 10.1021/acsomega.9b02011
   
   for metadynamics refer to:
   * S. Grimme, J. Chem. Theory Comput., 2019, 155, 2847-2862
     DOI: 10.1021/acs.jctc.9b00143
   
   for SPH calculations refer to:
   * S. Spicher and S. Grimme, J. Chem. Theory Comput., 2021, 17, 1701-1714
     DOI: 10.1021/acs.jctc.0c01306
   
   for ONIOM refer to:
   * C. Plett, A. Katbashev, S. Ehlert, S. Grimme, M. Bursch,
     Phys. Chem. Chem. Phys., 2023, 25, 17860-17868. DOI: 10.1039/D3CP02178E
   
   for DIPRO refer to:
   * J. Kohn, N. Gildemeister, S. Grimme, D. Fazzi, A. Hansen,
     J. Chem. Phys., 2023, just accepted.
   
   for PTB refer to:
   * S. Grimme, M. Mueller, A. Hansen, J. Chem. Phys., 2023, 158, 124111.
     DOI: 10.1063/5.0137838
   
   with help from (in alphabetical order)
   P. Atkinson, C. Bannwarth, F. Bohle, G. Brandenburg, E. Caldeweyher
   M. Checinski, S. Dohm, S. Ehlert, S. Ehrlich, I. Gerasimov, C. Hölzer
   A. Katbashev, J. Kohn, J. Koopman, C. Lavigne, S. Lehtola, F. März, M. Müller,
   F. Musil, H. Neugebauer, J. Pisarek, C. Plett, P. Pracht, F. Pultar,
   J. Seibert, P. Shushkov, S. Spicher, M. Stahn, M. Steiner, T. Strunk,
   J. Stückrath, T. Rose, and J. Unsleber
   
 * started run on 2026/08/09 at 15:28:20.606     
   ID    Z sym.   atoms
    1    6 c      1-8, 10-13, 16
    2    8 o      9, 15
    3    1 h      14, 17-35

           -------------------------------------------------
          |                Calculation Setup                |
           -------------------------------------------------

          program call               : /home/dinglab/software/xtb_6.7.1/xtb_dist/bin/xtb coord --gfn2 --ohess vtight --alpb chcl3 --chrg 0 --enso --norestart -I xcontrol-inp --parallel 12
          hostname                   : localhost
          coordinate file            : coord
          omp threads                :                    12


           -------------------------------------------------
          |                 G F N 2 - x T B                 |
           -------------------------------------------------

        Reference                      10.1021/acs.jctc.8b01176
      * Hamiltonian:
        H0-scaling (s, p, d)           1.850000    2.230000    2.230000
        zeta-weighting                 0.500000
      * Dispersion:
        s8                             2.700000
        a1                             0.520000
        a2                             5.000000
        s9                             5.000000
      * Repulsion:
        kExp                           1.500000    1.000000
        rExp                           1.000000
      * Coulomb:
        alpha                          2.000000
        third order                    shell-resolved
        anisotropic                    true
        a3                             3.000000
        a5                             4.000000
        cn-shift                       1.200000
        cn-exp                         4.000000
        max-rad                        5.000000

      * Solvation model:               ALPB
        Solvent                        chcl3
        Parameter file                 internal GFN2-xTB/ALPB
        Dielectric constant                4.8100E+00
        Reference state                gsolv [1 M gas/solution]
        Free energy shift                  3.8910E-03 Eh       2.4417E+00 kcal/mol
        Temperature                        2.9815E+02 K
        Density                            1.4900E+00 kg/L
        Solvent mass                       1.1938E+02 g/mol
        Interaction kernel             P16
        Born radius scaling (c1)           1.3274E+00
        Born radii integrator          GBOBC
        Born offset                        0.0000E+00 a0       0.0000E+00 AA
        H-bond correction              false
        Ion screening                  false
        Surface tension                    1.0000E-05 Eh       1.5569E+01 dyn/cm
        Grid points                               974 per atom

          ...................................................
          :                      SETUP                      :
          :.................................................:
          :  # basis functions                  80          :
          :  # atomic orbitals                  80          :
          :  # shells                           50          :
          :  # electrons                        84          :
          :  max. iterations                   250          :
          :  Hamiltonian                  GFN2-xTB          :
          :  restarted?                      false          :
          :  GBSA solvation                   true          :
          :  PC potential                    false          :
          :  electronic temp.          300.0000000     K    :
          :  accuracy                    1.0000000          :
          :  -> integral cutoff          0.2500000E+02      :
          :  -> integral neglect         0.1000000E-07      :
          :  -> SCF convergence          0.1000000E-05 Eh   :
          :  -> wf. convergence          0.1000000E-03 e    :
          :  Broyden damping             0.4000000          :
          :  net charge                          0          :
          :  unpaired electrons                  0          :
          ...................................................

 iter      E             dE          RMSdq      gap      omega  full diag
   1    -46.7329759 -0.467330E+02  0.338E+00    5.19       0.0  T
   2    -46.7750357 -0.420598E-01  0.192E+00    5.11       1.0  T
   3    -46.7689977  0.603802E-02  0.846E-01    5.15       1.0  T
   4    -46.7779302 -0.893254E-02  0.344E-01    5.06       1.0  T
   5    -46.7799924 -0.206218E-02  0.766E-02    5.08       1.0  T
   6    -46.7800203 -0.278701E-04  0.416E-02    5.08       1.0  T
   7    -46.7800263 -0.602458E-05  0.129E-02    5.08       1.3  T
   8    -46.7800274 -0.113752E-05  0.456E-03    5.08       3.7  T
   9    -46.7800277 -0.309976E-06  0.226E-03    5.08       7.5  T
  10    -46.7800278 -0.384969E-07  0.868E-04    5.08      19.5  T
  11    -46.7800278 -0.323123E-08  0.360E-04    5.08      47.0  T

   *** convergence criteria satisfied after 11 iterations ***

         #    Occupation            Energy/Eh            Energy/eV
      -------------------------------------------------------------
         1        2.0000           -0.6988120             -19.0156
       ...           ...                  ...                  ...
        36        2.0000           -0.4258387             -11.5877
        37        2.0000           -0.4215422             -11.4707
        38        2.0000           -0.4194861             -11.4148
        39        2.0000           -0.4104489             -11.1689
        40        2.0000           -0.4034368             -10.9781
        41        2.0000           -0.3895738             -10.6008
        42        2.0000           -0.3850195             -10.4769 (HOMO)
        43                         -0.1981657              -5.3924 (LUMO)
        44                         -0.1964553              -5.3458
        45                          0.0151939               0.4134
        46                          0.0190604               0.5187
        47                          0.0391474               1.0653
       ...                                ...                  ...
        80                          0.6543743              17.8064
      -------------------------------------------------------------
                  HL-Gap            0.1868538 Eh            5.0846 eV
             Fermi-level           -0.2915926 Eh           -7.9346 eV

 SCC (total)                   0 d,  0 h,  0 min,  0.040 sec
 SCC setup                      ...        0 min,  0.001 sec (  1.961%)
 Dispersion                     ...        0 min,  0.000 sec (  0.927%)
 classical contributions        ...        0 min,  0.000 sec (  0.069%)
 integral evaluation            ...        0 min,  0.001 sec (  3.368%)
 iterations                     ...        0 min,  0.035 sec ( 85.599%)
 molecular gradient             ...        0 min,  0.003 sec (  7.622%)
 printout                       ...        0 min,  0.000 sec (  0.365%)

         :::::::::::::::::::::::::::::::::::::::::::::::::::::
         ::                     SUMMARY                     ::
         :::::::::::::::::::::::::::::::::::::::::::::::::::::
         :: total energy             -46.158479088500 Eh    ::
         :: total w/o Gsasa/hb       -46.146426403777 Eh    ::
         :: gradient norm              0.007844909376 Eh/a0 ::
         :: HOMO-LUMO gap              5.084550922019 eV    ::
         ::.................................................::
         :: SCC energy               -46.779354511472 Eh    ::
         :: -> isotropic ES            0.062306486527 Eh    ::
         :: -> anisotropic ES          0.006850291292 Eh    ::
         :: -> anisotropic XC          0.017055986792 Eh    ::
         :: -> dispersion             -0.036335091969 Eh    ::
         :: -> Gsolv                  -0.020274988516 Eh    ::
         ::    -> Gelec               -0.008222303793 Eh    ::
         ::    -> Gsasa               -0.015943703967 Eh    ::
         ::    -> Ghb                  0.000000000000 Eh    ::
         ::    -> Gshift               0.003891019244 Eh    ::
         :: repulsion energy           0.620875422973 Eh    ::
         :: add. restraining           0.000000000000 Eh    ::
         :: total charge               0.000000000000 e     ::
         :::::::::::::::::::::::::::::::::::::::::::::::::::::

      ----------------------------------------------------------- 
     |                   =====================                   |
     |                        A N C O P T                        |
     |                   =====================                   |
     |               Approximate Normal Coordinate               |
     |                Rational Function Optimizer                |
      ----------------------------------------------------------- 
      ----------------------------------------------------------- 
     |                   =====================                   |
     |                        A N C O P T                        |
     |                   =====================                   |
     |               Approximate Normal Coordinate               |
     |                Rational Function Optimizer                |
      ----------------------------------------------------------- 

          ...................................................
          :                      SETUP                      :
          :.................................................:
          :   optimization level         verytight          :
          :   max. optcycles                   700          :
          :   ANC micro-cycles                  20          :
          :   degrees of freedom                99          :
          :.................................................:
          :   RF solver                   davidson          :
          :   write xtbopt.log                true          :
          :   linear?                        false          :
          :   energy convergence         0.1000000E-06 Eh   :
          :   grad. convergence          0.2000000E-03 Eh/α :
          :   maxmium RF displ.          1.0000000          :
          :   Hlow (freq-cutoff)         0.1000000E-01      :
          :   Hmax (freq-cutoff)         5.0000000          :
          :   S6 in model hess.         20.0000000          :
          ...................................................

generating ANC from exact Hessian ...
Using Lindh-Hessian (1995)
 Shifting diagonal of input Hessian by   8.764126540256828E-003
 Lowest  eigenvalues of input Hessian
    0.000000    0.000000    0.000000    0.000000    0.000000    0.000000
    0.010000    0.010089    0.011337    0.012711    0.012994    0.013980
    0.015504    0.016941    0.017854    0.018589    0.019719    0.020831
 Highest eigenvalues
    1.492806    1.505140    1.514742    1.525845    1.897516    1.973822
 

........................................................................
.............................. CYCLE    1 ..............................
........................................................................

 iter      E             dE          RMSdq      gap      omega  full diag
   1    -46.7800278 -0.467800E+02  0.103E-04    5.08       0.0  T
   2    -46.7800278 -0.300702E-10  0.650E-05    5.08     259.9  T
   3    -46.7800278  0.496669E-11  0.450E-05    5.08     375.8  T
     SCC iter.                  ...        0 min,  0.005 sec
     gradient                   ...        0 min,  0.003 sec
 * total energy  :   -46.1584791 Eh     change       -0.8826788E-09 Eh
   gradient norm :     0.0078451 Eh/α   predicted     0.0000000E+00 (-100.00%)
   displ. norm   :     0.0247058 α      lambda       -0.6678142E-04
   maximum displ.:     0.0144039 α      in ANC's #4, #7, #5, ...

........................................................................
.............................. CYCLE    2 ..............................
........................................................................

 iter      E             dE          RMSdq      gap      omega  full diag
   1    -46.7786924 -0.467787E+02  0.134E-02    5.08       0.0  T
   2    -46.7786928 -0.391131E-06  0.795E-03    5.08       2.1  T
   3    -46.7786927  0.785803E-07  0.339E-03    5.08       5.0  T
   4    -46.7786929 -0.140235E-06  0.912E-04    5.08      18.5  T
   5    -46.7786929 -0.193606E-07  0.325E-04    5.08      51.9  T
     SCC iter.                  ...        0 min,  0.007 sec
     gradient                   ...        0 min,  0.003 sec
 * total energy  :   -46.1585286 Eh     change       -0.4955370E-04 Eh
   gradient norm :     0.0038879 Eh/α   predicted    -0.3499026E-04 ( -29.39%)
   displ. norm   :     0.0299489 α      lambda       -0.3176866E-04
   maximum displ.:     0.0213573 α      in ANC's #4, #7, #1, ...

........................................................................
.............................. CYCLE    3 ..............................
........................................................................

 iter      E             dE          RMSdq      gap      omega  full diag
   1    -46.7780338 -0.467780E+02  0.138E-02    5.08       0.0  T
   2    -46.7780342 -0.369641E-06  0.816E-03    5.08       2.1  T
   3    -46.7780341  0.479824E-07  0.296E-03    5.08       5.7  T
   4    -46.7780342 -0.106319E-06  0.714E-04    5.08      23.7  T
   5    -46.7780343 -0.865633E-08  0.344E-04    5.08      49.1  T
     SCC iter.                  ...        0 min,  0.007 sec
     gradient                   ...        0 min,  0.003 sec
 * total energy  :   -46.1585458 Eh     change       -0.1720411E-04 Eh
   gradient norm :     0.0010713 Eh/α   predicted    -0.1590055E-04 (  -7.58%)
   displ. norm   :     0.0218370 α      lambda       -0.3843295E-05
   maximum displ.:     0.0125511 α      in ANC's #4, #1, #2, ...

........................................................................
.............................. CYCLE    4 ..............................
........................................................................

 iter      E             dE          RMSdq      gap      omega  full diag
   1    -46.7782662 -0.467783E+02  0.944E-03    5.08       0.0  T
   2    -46.7782662 -0.482930E-07  0.560E-03    5.08       3.0  T
   3    -46.7782662  0.283190E-07  0.128E-03    5.08      13.3  T
   4    -46.7782662 -0.374444E-07  0.332E-04    5.08      50.9  T
   5    -46.7782662 -0.210250E-08  0.135E-04    5.08     125.4  T
     SCC iter.                  ...        0 min,  0.007 sec
     gradient                   ...        0 min,  0.003 sec
 * total energy  :   -46.1585486 Eh     change       -0.2757038E-05 Eh
   gradient norm :     0.0008256 Eh/α   predicted    -0.2123559E-05 ( -22.98%)
   displ. norm   :     0.0218587 α      lambda       -0.2842909E-05
   maximum displ.:     0.0133107 α      in ANC's #4, #1, #2, ...

........................................................................
.............................. CYCLE    5 ..............................
........................................................................

 iter      E             dE          RMSdq      gap      omega  full diag
   1    -46.7785286 -0.467785E+02  0.878E-03    5.08       0.0  T
   2    -46.7785286 -0.724957E-08  0.519E-03    5.08       3.3  T
   3    -46.7785286 -0.166551E-10  0.337E-04    5.08      50.2  T
   4    -46.7785286 -0.240338E-08  0.146E-04    5.08     116.1  T
     SCC iter.                  ...        0 min,  0.005 sec
     gradient                   ...        0 min,  0.003 sec
 * total energy  :   -46.1585512 Eh     change       -0.2620372E-05 Eh
   gradient norm :     0.0007813 Eh/α   predicted    -0.1422246E-05 ( -45.72%)
   displ. norm   :     0.0226317 α      lambda       -0.1663719E-05
   maximum displ.:     0.0142927 α      in ANC's #1, #4, #2, ...

........................................................................
.............................. CYCLE    6 ..............................
........................................................................

 iter      E             dE          RMSdq      gap      omega  full diag
   1    -46.7785474 -0.467785E+02  0.839E-03    5.08       0.0  T
   2    -46.7785474 -0.136744E-07  0.494E-03    5.08       3.4  T
   3    -46.7785474  0.238789E-08  0.473E-04    5.08      35.7  T
   4    -46.7785474 -0.544274E-08  0.151E-04    5.08     111.8  T
     SCC iter.                  ...        0 min,  0.005 sec
     gradient                   ...        0 min,  0.003 sec
 * total energy  :   -46.1585531 Eh     change       -0.1831694E-05 Eh
   gradient norm :     0.0004803 Eh/α   predicted    -0.8324425E-06 ( -54.55%)
   displ. norm   :     0.0297779 α      lambda       -0.1372558E-05
   maximum displ.:     0.0184426 α      in ANC's #1, #4, #3, ...

........................................................................
.............................. CYCLE    7 ..............................
........................................................................

 iter      E             dE          RMSdq      gap      omega  full diag
   1    -46.7784264 -0.467784E+02  0.111E-02    5.08       0.0  T
   2    -46.7784264 -0.118792E-07  0.653E-03    5.08       2.6  T
   3    -46.7784264  0.260001E-07  0.104E-03    5.08      16.3  T
   4    -46.7784264 -0.315846E-07  0.193E-04    5.08      87.5  T
   5    -46.7784264 -0.378691E-09  0.102E-04    5.08     166.4  T
     SCC iter.                  ...        0 min,  0.007 sec
     gradient                   ...        0 min,  0.003 sec
 * total energy  :   -46.1585544 Eh     change       -0.1300663E-05 Eh
   gradient norm :     0.0001981 Eh/α   predicted    -0.6871285E-06 ( -47.17%)
   displ. norm   :     0.0170404 α      lambda       -0.4671441E-06
   maximum displ.:     0.0111127 α      in ANC's #1, #4, #3, ...

........................................................................
.............................. CYCLE    8 ..............................
........................................................................

 iter      E             dE          RMSdq      gap      omega  full diag
   1    -46.7784014 -0.467784E+02  0.682E-03    5.08       0.0  T
   2    -46.7784014 -0.289238E-08  0.401E-03    5.08       4.2  T
   3    -46.7784014  0.945279E-08  0.621E-04    5.08      27.2  T
   4    -46.7784014 -0.114538E-07  0.976E-05    5.08     173.2  T
     SCC iter.                  ...        0 min,  0.005 sec
     gradient                   ...        0 min,  0.003 sec
 * total energy  :   -46.1585546 Eh     change       -0.2269162E-06 Eh
   gradient norm :     0.0002023 Eh/α   predicted    -0.2380335E-06 (   4.90%)
   displ. norm   :     0.0045716 α      lambda       -0.2132244E-06
   maximum displ.:     0.0032420 α      in ANC's #1, #4, #3, ...

........................................................................
.............................. CYCLE    9 ..............................
........................................................................

 iter      E             dE          RMSdq      gap      omega  full diag
   1    -46.7784375 -0.467784E+02  0.192E-03    5.08       0.0  T
   2    -46.7784375 -0.473278E-09  0.114E-03    5.08      14.8  T
   3    -46.7784375  0.124778E-09  0.108E-04    5.08     156.2  T
   4    -46.7784375 -0.286448E-09  0.402E-05    5.08     420.3  T
     SCC iter.                  ...        0 min,  0.005 sec
     gradient                   ...        0 min,  0.003 sec
 * total energy  :   -46.1585547 Eh     change       -0.1522641E-06 Eh
   gradient norm :     0.0000858 Eh/α   predicted    -0.1104561E-06 ( -27.46%)
   displ. norm   :     0.0022152 α      lambda       -0.4840939E-07
   maximum displ.:     0.0015691 α      in ANC's #1, #2, #13, ...

........................................................................
.............................. CYCLE   10 ..............................
........................................................................

 iter      E             dE          RMSdq      gap      omega  full diag
   1    -46.7784340 -0.467784E+02  0.930E-04    5.08       0.0  T
   2    -46.7784340 -0.226770E-09  0.547E-04    5.08      30.9  T
   3    -46.7784340  0.823519E-10  0.731E-05    5.08     231.2  T
     SCC iter.                  ...        0 min,  0.005 sec
     gradient                   ...        0 min,  0.003 sec
 * total energy  :   -46.1585548 Eh     change       -0.4431421E-07 Eh
   gradient norm :     0.0000610 Eh/α   predicted    -0.2634771E-07 ( -40.54%)
   displ. norm   :     0.0028200 α      lambda       -0.3694867E-07
   maximum displ.:     0.0018137 α      in ANC's #1, #2, #9, ...

   *** GEOMETRY OPTIMIZATION CONVERGED AFTER 10 ITERATIONS ***

------------------------------------------------------------------------
 total energy gain   :        -0.0000757 Eh       -0.0475 kcal/mol
 total RMSD          :         0.0259045 a0        0.0137 Å
 total power (kW/mol):        -0.0198729 (step)   -1.2178 (real)
------------------------------------------------------------------------

 ANCopt (total)                0 d,  0 h,  0 min,  0.163 sec
 optimizer setup                ...        0 min,  0.000 sec (  0.087%)
 model hessian                  ...        0 min,  0.051 sec ( 31.461%)
 ANC generation                 ...        0 min,  0.002 sec (  1.106%)
 coordinate transformation      ...        0 min,  0.000 sec (  0.092%)
 single point calculation       ...        0 min,  0.107 sec ( 65.684%)
 optimization log               ...        0 min,  0.001 sec (  0.786%)
 hessian update                 ...        0 min,  0.000 sec (  0.093%)
 rational function              ...        0 min,  0.001 sec (  0.376%)

================
 final structure:
================
$coord
        0.17684164793001       -1.24468145428151        0.17476282338606      c
       -1.80006063864497        0.57671726799191        1.36197304551934      c
       -0.65152823412644        3.22499409701642        1.71795776355140      c
        0.90994084755226        4.16456377864272       -0.52585838396853      c
        2.69573884861126        2.08163014080599       -1.45003771502178      c
        1.11450347909929       -0.16088865002410       -2.36280116688973      c
        2.62144393805581       -1.21323069545249        1.76585769293409      c
        4.12197318197969        0.98447462730189        0.75418481518236      c
        2.71527286592376       -1.82832540722269       -3.72221012901314      o
       -0.86927687035275       -3.93760654881067       -0.07029228915048      c
        6.30338741942367        1.80639801480910        1.64288848472481      c
       -4.35463410533243        0.57332017583748        0.04980389170767      c
       -6.09534843873336       -1.08663493225128        0.75789185396900      c
       -2.17195969348081       -0.18430786491435        3.25382845799319      h
       -1.61785640830749       -4.99393257030904        2.26380591103983      o
       -4.97435521697845        2.49993912399874       -1.93855540434753      c
       -2.15651075742563        4.56787033723533        2.14579555419321      h
        0.58600586298453        3.17199676056492        3.36737369280113      h
       -0.29755488492522        4.75562457011999       -2.08530431040066      h
        2.02001071352621        5.79873291812991        0.06864424918415      h
        3.94667532747396        2.77996813112661       -2.93295688393798      h
       -0.44391218012135        0.42320667762813       -3.58787508338054      h
        3.68878469286491       -2.95416083179139        1.44669690972824      h
        2.26153031353813       -1.03624552316540        3.78725853517938      h
        1.69933008753096       -3.13943380583471       -4.47534161995603      h
        0.57003309395946       -5.15325603538165       -0.94647327913923      h
       -2.56496240052880       -3.95181537982369       -1.24888810072669      h
        7.20462102317738        0.94003833529502        3.25000405588552      h
        7.28040651124047        3.37632624833879        0.79387667435414      h
       -7.93713591752975       -1.14826325599005       -0.11024889570589      h
       -5.74365471522787       -2.47690265874683        2.20196266785927      h
       -0.17121672787733       -4.98327220259133        3.37749205349415      h
       -3.77199932355235        2.30839099776347       -3.59500803787522      h
       -6.92640883695754        2.27231902998953       -2.54081631901126      h
       -4.74692779895516        4.40812453868508       -1.20781354206044      h
$end
 
 Bond Distances (Angstroems)
 ---------------------------
C1-C2=1.5550         C1-C6=1.5422         C1-C7=1.5436         C1-C10=1.5343        C2-C1=1.5550         C2-C3=1.5391         
C2-C12=1.5197        C2-H14=1.0969        C3-C2=1.5391         C3-C4=1.5297         C3-H17=1.0911        C3-H18=1.0916        
C4-C3=1.5297         C4-C5=1.5320         C4-H19=1.0895        C4-H20=1.0917        C5-C4=1.5320         C5-C6=1.5303         
C5-C8=1.5057         C5-H21=1.0911        C6-C1=1.5422         C6-C5=1.5303         C6-O9=1.4190         C6-H22=1.0936        
C7-C1=1.5436         C7-C8=1.5065         C7-H23=1.0937        C7-H24=1.0905        C8-C5=1.5057         C8-C7=1.5065         
C8-C11=1.3202        O9-C6=1.4190         O9-H25=0.9640        C10-C1=1.5343        C10-O15=1.4124       C10-H26=1.0995       
C10-H27=1.0928       C11-C8=1.3202        C11-H28=1.0774       C11-H29=1.0767       C12-C2=1.5197        C12-C13=1.3268       
C12-C16=1.5014       C13-C12=1.3268       C13-H30=1.0780       C13-H31=1.0770       H14-C2=1.0969        O15-C10=1.4124       
O15-H32=0.9661       C16-C12=1.5014       C16-H33=1.0879       C16-H34=1.0877       C16-H35=1.0880       H17-C3=1.0911        
H18-C3=1.0916        H19-C4=1.0895        H20-C4=1.0917        H21-C5=1.0911        H22-C6=1.0936        H23-C7=1.0937        
H24-C7=1.0905        H25-O9=0.9640        H26-C10=1.0995       H27-C10=1.0928       H28-C11=1.0774       H29-C11=1.0767       
H30-C13=1.0780       H31-C13=1.0770       H32-O15=0.9661       H33-C16=1.0879       H34-C16=1.0877       H35-C16=1.0880       
 C  H  Rav=1.0886 sigma=0.0067  Rmin=1.0767  Rmax=1.0995    18
 C  C  Rav=1.4990 sigma=0.0732  Rmin=1.3202  Rmax=1.5550    14
 O  H  Rav=0.9650 sigma=0.0011  Rmin=0.9640  Rmax=0.9661     2
 O  C  Rav=1.4157 sigma=0.0033  Rmin=1.4124  Rmax=1.4190     2
 
 selected bond angles (degree)
 --------------------
C6-C1-C2=109.74                C7-C1-C2=109.68                C7-C1-C6=101.61                C10-C1-C2=111.54               
C10-C1-C6=112.82               C10-C1-C7=111.01               C3-C2-C1=110.38                C12-C2-C1=114.40               
C12-C2-C3=114.10               H14-C2-C1=105.18               H14-C2-C3=107.06               H14-C2-C12=104.89              
C4-C3-C2=114.47                H17-C3-C2=109.28               H17-C3-C4=110.10               H18-C3-C2=108.14               
H18-C3-C4=107.76               H18-C3-H17=106.78              C5-C4-C3=110.31                H19-C4-C3=111.37               
H19-C4-C5=109.06               H20-C4-C3=108.93               H20-C4-C5=109.27               H20-C4-H19=107.84              
C6-C5-C4=108.75                C8-C5-C4=109.83                C8-C5-C6=102.68                H21-C5-C4=111.11               
H21-C5-C6=111.55               H21-C5-C8=112.56               C5-C6-C1=100.92                O9-C6-C1=113.72                
O9-C6-C5=108.41                H22-C6-C1=112.25               H22-C6-C5=112.35               H22-C6-O9=108.99               
C8-C7-C1=104.85                H23-C7-C1=109.84               H23-C7-C8=108.85               H24-C7-C1=112.93               
H24-C7-C8=111.98               H24-C7-H23=108.30              C7-C8-C5=107.98                C11-C8-C5=125.96               
C11-C8-C7=126.06               H25-O9-C6=108.92               O15-C10-C1=113.26              H26-C10-C1=109.22              
H26-C10-O15=109.36             H27-C10-C1=110.54              H27-C10-O15=105.43             H27-C10-H26=108.91             
 
 selected dihedral angles (degree)
 ---------------------------------
C3-C2-C1-C6=302.70            C3-C2-C1-C7= 53.52            C3-C2-C1-C10=176.92           C12-C2-C1-C6= 72.99           
C12-C2-C1-C7=183.81           C12-C2-C1-C10=307.21          H14-C2-C1-C6=187.54           H14-C2-C1-C7=298.36           
H14-C2-C1-C10= 61.76          C4-C3-C2-C1= 43.41            C4-C3-C2-C12=272.96           C4-C3-C2-H14=157.38           
H17-C3-C2-C1=167.42           H17-C3-C2-C12= 36.96          H17-C3-C2-H14=281.38          H18-C3-C2-C1=283.30           
H18-C3-C2-C12=152.84          H18-C3-C2-H14= 37.27          C5-C4-C3-C2=314.14            C5-C4-C3-H17=190.57           
C5-C4-C3-H18= 74.47           H19-C4-C3-C2= 75.38           H19-C4-C3-H17=311.82          H19-C4-C3-H18=195.71          
H20-C4-C3-C2=194.21           H20-C4-C3-H17= 70.64          H20-C4-C3-H18=314.54          C6-C5-C4-C3= 62.21            
C6-C5-C4-H19=299.60           C6-C5-C4-H20=181.94           C8-C5-C4-C3=310.56            C8-C5-C4-H19=187.95           
C8-C5-C4-H20= 70.29           H21-C5-C4-C3=185.37           H21-C5-C4-H19= 62.75          H21-C5-C4-H20=305.09          
C5-C6-C1-C2= 70.77            C5-C6-C1-C7=314.74            C5-C6-C1-C10=195.82           O9-C6-C1-C2=186.63            
O9-C6-C1-C7= 70.59            O9-C6-C1-C10=311.67           H22-C6-C1-C2=310.95           H22-C6-C1-C7=194.91           
H22-C6-C1-C10= 75.99          C1-C6-C5-C4=286.87            C1-C6-C5-C8= 43.20            C1-C6-C5-H21=163.98           
O9-C6-C5-C4=167.13            O9-C6-C5-C8=283.47            O9-C6-C5-H21= 44.25           H22-C6-C5-C4= 46.62           
H22-C6-C5-C8=162.96           H22-C6-C5-H21=283.74          C8-C7-C1-C2=274.20            C8-C7-C1-C6= 30.28            
C8-C7-C1-C10=150.49           H23-C7-C1-C2=157.38           H23-C7-C1-C6=273.47           H23-C7-C1-C10= 33.67          
H24-C7-C1-C2= 36.38           H24-C7-C1-C6=152.46           H24-C7-C1-C10=272.67          C7-C8-C5-C4= 90.77            
C7-C8-C5-C6=335.22            C7-C8-C5-H21=215.13           C11-C8-C5-C4=270.80           C11-C8-C5-C6=155.24           
C11-C8-C5-H21= 35.16          C5-C8-C7-C1=356.38            C5-C8-C7-H23=113.87           C5-C8-C7-H24=233.58           
C11-C8-C7-C1=176.35           C11-C8-C7-H23=293.84          C11-C8-C7-H24= 53.56          H25-O9-C6-C1= 75.45           
H25-O9-C6-C5=186.82           H25-O9-C6-H22=309.40          O15-C10-C1-C2=301.12          O15-C10-C1-C6=177.06          
O15-C10-C1-C7= 63.76          H26-C10-C1-C2=178.98          H26-C10-C1-C6= 54.92          H26-C10-C1-C7=301.62          
H27-C10-C1-C2= 59.17          H27-C10-C1-C6=295.11          H27-C10-C1-C7=181.81          
           -------------------------------------------------
          |                Final Singlepoint                |
           -------------------------------------------------

          ...................................................
          :                      SETUP                      :
          :.................................................:
          :  # basis functions                  80          :
          :  # atomic orbitals                  80          :
          :  # shells                           50          :
          :  # electrons                        84          :
          :  max. iterations                   250          :
          :  Hamiltonian                  GFN2-xTB          :
          :  restarted?                      false          :
          :  GBSA solvation                   true          :
          :  PC potential                    false          :
          :  electronic temp.          300.0000000     K    :
          :  accuracy                    1.0000000          :
          :  -> integral cutoff          0.2500000E+02      :
          :  -> integral neglect         0.1000000E-07      :
          :  -> SCF convergence          0.1000000E-05 Eh   :
          :  -> wf. convergence          0.1000000E-03 e    :
          :  Broyden damping             0.4000000          :
          :  net charge                          0          :
          :  unpaired electrons                  0          :
          ...................................................

 iter      E             dE          RMSdq      gap      omega  full diag
   1    -46.7784340 -0.467784E+02  0.218E-05    5.08       0.0  T
   2    -46.7784340 -0.273559E-11  0.164E-05    5.08    1032.5  T
   3    -46.7784340 -0.622435E-11  0.635E-06    5.08    2660.2  T

   *** convergence criteria satisfied after 3 iterations ***

         #    Occupation            Energy/Eh            Energy/eV
      -------------------------------------------------------------
         1        2.0000           -0.6979784             -18.9930
       ...           ...                  ...                  ...
        36        2.0000           -0.4261980             -11.5974
        37        2.0000           -0.4217366             -11.4760
        38        2.0000           -0.4195194             -11.4157
        39        2.0000           -0.4107417             -11.1769
        40        2.0000           -0.4037696             -10.9871
        41        2.0000           -0.3896236             -10.6022
        42        2.0000           -0.3851662             -10.4809 (HOMO)
        43                         -0.1985038              -5.4016 (LUMO)
        44                         -0.1967297              -5.3533
        45                          0.0123802               0.3369
        46                          0.0150192               0.4087
        47                          0.0386388               1.0514
       ...                                ...                  ...
        80                          0.6523169              17.7504
      -------------------------------------------------------------
                  HL-Gap            0.1866624 Eh            5.0793 eV
             Fermi-level           -0.2918350 Eh           -7.9412 eV

 SCC (total)                   0 d,  0 h,  0 min,  0.009 sec
 SCC setup                      ...        0 min,  0.001 sec (  7.145%)
 Dispersion                     ...        0 min,  0.000 sec (  2.016%)
 classical contributions        ...        0 min,  0.000 sec (  0.447%)
 integral evaluation            ...        0 min,  0.001 sec ( 10.633%)
 iterations                     ...        0 min,  0.004 sec ( 46.295%)
 molecular gradient             ...        0 min,  0.003 sec ( 31.983%)
 printout                       ...        0 min,  0.000 sec (  1.121%)

         :::::::::::::::::::::::::::::::::::::::::::::::::::::
         ::                     SUMMARY                     ::
         :::::::::::::::::::::::::::::::::::::::::::::::::::::
         :: total energy             -46.158554780574 Eh    ::
         :: total w/o Gsasa/hb       -46.146478320871 Eh    ::
         :: gradient norm              0.000061065463 Eh/a0 ::
         :: HOMO-LUMO gap              5.079341895709 eV    ::
         ::.................................................::
         :: SCC energy               -46.777760947789 Eh    ::
         :: -> isotropic ES            0.062864568648 Eh    ::
         :: -> anisotropic ES          0.006858912865 Eh    ::
         :: -> anisotropic XC          0.017243442785 Eh    ::
         :: -> dispersion             -0.036277289954 Eh    ::
         :: -> Gsolv                  -0.020449125068 Eh    ::
         ::    -> Gelec               -0.008372665365 Eh    ::
         ::    -> Gsasa               -0.015967478947 Eh    ::
         ::    -> Ghb                  0.000000000000 Eh    ::
         ::    -> Gshift               0.003891019244 Eh    ::
         :: repulsion energy           0.619206167215 Eh    ::
         :: add. restraining           0.000000000000 Eh    ::
         :: total charge               0.000000000000 e     ::
         :::::::::::::::::::::::::::::::::::::::::::::::::::::

           ------------------------------------------------- 
          |                Numerical Hessian                |
           ------------------------------------------------- 
step length          :   0.00500
SCC accuracy         :   0.30000
Hessian scale factor :   1.00000
frozen atoms in %    :   0.00000    0
RMS gradient         :   0.00006
estimated CPU  time      1.60 min
estimated wall time      0.13 min

writing file <hessian>.

 projected vibrational frequencies (cm⁻¹)
eigval :       -0.00    -0.00     0.00     0.00     0.00     0.00
eigval :       55.08    91.32   109.15   131.98   137.63   160.77
eigval :      170.34   204.30   252.45   280.12   298.63   306.58
eigval :      314.47   322.80   352.90   363.05   398.12   419.92
eigval :      437.03   465.08   504.00   526.59   558.34   607.56
eigval :      675.29   684.85   716.25   736.95   791.37   824.93
eigval :      873.94   887.54   896.02   907.43   910.83   932.41
eigval :      939.38   952.20   967.00   994.85  1018.94  1033.97
eigval :     1040.29  1055.09  1061.84  1076.24  1092.70  1097.86
eigval :     1117.02  1133.72  1156.73  1166.54  1188.33  1205.27
eigval :     1215.66  1243.98  1254.17  1260.78  1275.90  1278.68
eigval :     1295.99  1308.44  1317.51  1325.43  1331.11  1343.67
eigval :     1347.95  1354.88  1400.27  1413.27  1430.18  1453.09
eigval :     1469.81  1471.82  1481.68  1494.54  1503.81  1702.28
eigval :     1741.52  2873.14  2914.13  2933.31  2945.96  2969.61
eigval :     2973.72  2975.69  2977.50  2979.72  2994.98  3004.08
eigval :     3013.22  3024.69  3038.31  3093.47  3098.36  3120.00
eigval :     3122.36  3512.25  3541.60
           -------------------------------------------------
          |                Property Printout                |
           -------------------------------------------------

    * Orbital Energies and Occupations

         #    Occupation            Energy/Eh            Energy/eV
      -------------------------------------------------------------
         1        2.0000           -0.6979784             -18.9930
       ...           ...                  ...                  ...
        30        2.0000           -0.4699277             -12.7874
        31        2.0000           -0.4560954             -12.4110
        32        2.0000           -0.4520964             -12.3022
        33        2.0000           -0.4436348             -12.0719
        34        2.0000           -0.4379699             -11.9178
        35        2.0000           -0.4360465             -11.8654
        36        2.0000           -0.4261980             -11.5974
        37        2.0000           -0.4217366             -11.4760
        38        2.0000           -0.4195194             -11.4157
        39        2.0000           -0.4107417             -11.1769
        40        2.0000           -0.4037696             -10.9871
        41        2.0000           -0.3896236             -10.6022
        42        2.0000           -0.3851661             -10.4809 (HOMO)
        43                         -0.1985038              -5.4016 (LUMO)
        44                         -0.1967297              -5.3533
        45                          0.0123802               0.3369
        46                          0.0150192               0.4087
        47                          0.0386388               1.0514
        48                          0.0529699               1.4414
        49                          0.0690284               1.8784
        50                          0.0734675               1.9992
        51                          0.0845642               2.3011
        52                          0.0909394               2.4746
        53                          0.0960962               2.6149
       ...                                ...                  ...
        80                          0.6523169              17.7504
      -------------------------------------------------------------
                  HL-Gap            0.1866624 Eh            5.0793 eV
             Fermi-level           -0.2918350 Eh           -7.9412 eV

     #   Z          covCN         q      C6AA      α(0)
     1   6 c        3.934    -0.008    20.653     6.458
     2   6 c        3.860    -0.032    21.111     6.534
     3   6 c        3.804    -0.062    21.685     6.630
     4   6 c        3.809    -0.062    21.678     6.628
     5   6 c        3.891    -0.028    21.014     6.517
     6   6 c        3.772     0.114    18.745     6.170
     7   6 c        3.834    -0.068    21.769     6.638
     8   6 c        2.976     0.018    27.604     8.618
     9   8 o        1.655    -0.484    22.551     6.411
    10   6 c        3.677     0.079    19.479     6.323
    11   6 c        2.838    -0.113    30.850     9.102
    12   6 c        2.935     0.008    27.841     8.654
    13   6 c        2.848    -0.111    30.793     9.095
    14   1 h        0.924     0.051     2.312     2.378
    15   8 o        1.655    -0.479    22.436     6.394
    16   6 c        3.760    -0.111    22.663     6.786
    17   1 h        0.924     0.041     2.434     2.440
    18   1 h        0.924     0.040     2.447     2.446
    19   1 h        0.925     0.044     2.393     2.419
    20   1 h        0.924     0.041     2.435     2.441
    21   1 h        0.924     0.046     2.376     2.411
    22   1 h        0.924     0.018     2.764     2.600
    23   1 h        0.924     0.050     2.318     2.381
    24   1 h        0.924     0.047     2.354     2.399
    25   1 h        0.805     0.304     0.709     1.323
    26   1 h        0.923     0.025     2.654     2.548
    27   1 h        0.924     0.045     2.389     2.417
    28   1 h        0.926     0.034     2.537     2.491
    29   1 h        0.926     0.034     2.525     2.485
    30   1 h        0.926     0.029     2.603     2.523
    31   1 h        0.926     0.038     2.473     2.459
    32   1 h        0.805     0.310     0.691     1.306
    33   1 h        0.925     0.044     2.401     2.423
    34   1 h        0.925     0.043     2.405     2.425
    35   1 h        0.925     0.053     2.285     2.364

 Mol. C6AA /au·bohr⁶  :      10392.330717
 Mol. C8AA /au·bohr⁸  :     233589.613603
 Mol. α(0) /au        :        153.634317


Wiberg/Mayer (AO) data.
largest (>0.10) Wiberg bond orders for each atom

 ---------------------------------------------------------------------------
     #   Z sym  total        # sym  WBO       # sym  WBO       # sym  WBO
 ---------------------------------------------------------------------------
     1   6 c    3.989 --     7 c    0.981    10 c    0.980     6 c    0.960
                             2 c    0.956
     2   6 c    3.992 --    12 c    0.996     3 c    0.991    14 h    0.959
                             1 c    0.956
     3   6 c    3.996 --     4 c    1.008     2 c    0.991    18 h    0.976
                            17 h    0.973
     4   6 c    3.996 --     3 c    1.008     5 c    0.979    20 h    0.976
                            19 h    0.972
     5   6 c    3.994 --     8 c    0.995     4 c    0.979     6 c    0.978
                            21 h    0.963
     6   6 c    3.946 --     5 c    0.978     9 o    0.977     1 c    0.960
                            22 h    0.956
     7   6 c    3.997 --     8 c    1.005     1 c    0.981    24 h    0.965
                            23 h    0.958
     8   6 c    3.986 --    11 c    1.938     7 c    1.005     5 c    0.995
     9   8 o    1.939 --     6 c    0.977    25 h    0.891
    10   6 c    3.951 --    15 o    0.992     1 c    0.980    27 h    0.969
                            26 h    0.965
    11   6 c    3.988 --     8 c    1.938    28 h    0.975    29 h    0.975
    12   6 c    3.986 --    13 c    1.928    16 c    1.026     2 c    0.996
    13   6 c    3.989 --    12 c    1.928    30 h    0.975    31 h    0.974
    14   1 h    0.997 --     2 c    0.959
    15   8 o    1.940 --    10 c    0.992    32 h    0.887
    16   6 c    3.996 --    12 c    1.026    34 h    0.983    35 h    0.967
                            33 h    0.963
    17   1 h    0.998 --     3 c    0.973
    18   1 h    0.998 --     3 c    0.976
    19   1 h    0.998 --     4 c    0.972
    20   1 h    0.997 --     4 c    0.976
    21   1 h    0.997 --     5 c    0.963
    22   1 h    0.999 --     6 c    0.956
    23   1 h    0.997 --     7 c    0.958
    24   1 h    0.998 --     7 c    0.965
    25   1 h    0.907 --     9 o    0.891
    26   1 h    0.999 --    10 c    0.965
    27   1 h    0.998 --    10 c    0.969
    28   1 h    0.998 --    11 c    0.975
    29   1 h    0.998 --    11 c    0.975
    30   1 h    0.998 --    13 c    0.975
    31   1 h    0.999 --    13 c    0.974
    32   1 h    0.904 --    15 o    0.887
    33   1 h    0.998 --    16 c    0.963
    34   1 h    0.998 --    16 c    0.983
    35   1 h    0.997 --    16 c    0.967
 ---------------------------------------------------------------------------

Topologies differ in total number of bonds
Writing topology from bond orders to xtbtopo.mol

molecular dipole:
                 x           y           z       tot (Debye)
 q only:       -0.090       0.504       0.050
   full:       -0.079       0.380      -0.034       0.989
molecular quadrupole (traceless):
                xx          xy          yy          xz          yz          zz
 q only:       -6.097      -4.706       2.391       6.318       0.834       3.707
  q+dip:       -6.410      -4.942       1.900       9.984       0.125       4.510
   full:       -7.187      -5.628       2.285       9.020       1.075       4.902

           -------------------------------------------------
          |                Geometry Summary                 |
           -------------------------------------------------

      molecular mass/u    :      208.2971915
   center of mass at/Å    :        0.0005008       0.0000437       0.0004820
  moments of inertia/u·Å² :        0.5933436E+03   0.8858988E+03   0.1083474E+04
rotational constants/cm⁻¹ :        0.2841125E-01   0.1902885E-01   0.1555887E-01

 * 31 selected distances

     #   Z          #   Z                                           value/Å
     2   6 c        3   6 c                                       1.5390984
     3   6 c        4   6 c                                       1.5296507
     4   6 c        5   6 c                                       1.5320385
     1   6 c        6   6 c                                       1.5421725
     5   6 c        6   6 c                                       1.5302589
     1   6 c        7   6 c                                       1.5435886 (max)
     6   6 c        9   8 o                                       1.4190242
     1   6 c       10   6 c                                       1.5342729
     8   6 c       11   6 c                                       1.3201801
    12   6 c       13   6 c                                       1.3268455
     2   6 c       14   1 h                                       1.0968895
    10   6 c       15   8 o                                       1.4124385
     3   6 c       17   1 h                                       1.0910981
     3   6 c       18   1 h                                       1.0915520
     4   6 c       19   1 h                                       1.0895489
     4   6 c       20   1 h                                       1.0917220
     5   6 c       21   1 h                                       1.0911280
     6   6 c       22   1 h                                       1.0935718
     7   6 c       23   1 h                                       1.0937363
     7   6 c       24   1 h                                       1.0905319
     9   8 o       25   1 h                                       0.9639675 (min)
    10   6 c       26   1 h                                       1.0995063
    10   6 c       27   1 h                                       1.0928041
    11   6 c       28   1 h                                       1.0774472
    11   6 c       29   1 h                                       1.0767245
    13   6 c       30   1 h                                       1.0779703
    13   6 c       31   1 h                                       1.0769600
    15   8 o       32   1 h                                       0.9661184
    16   6 c       33   1 h                                       1.0878661
    16   6 c       34   1 h                                       1.0877190
    16   6 c       35   1 h                                       1.0879553

 * 4 distinct bonds (by element types)

   Z      Z             #   av. dist./Å        max./Å        min./Å
   1 H    6 C          18     1.0885962     1.0995063     1.0767245
   6 C    6 C           9     1.4886785     1.5435886     1.3201801
   1 H    8 O           2     0.9650430     0.9661184     0.9639675
   6 C    8 O           2     1.4157313     1.4190242     1.4124385

           -------------------------------------------------
          |               Frequency Printout                |
           -------------------------------------------------
 projected vibrational frequencies (cm⁻¹)
eigval :       -0.00    -0.00     0.00     0.00     0.00     0.00
eigval :       55.08    91.32   109.15   131.98   137.63   160.77
eigval :      170.34   204.30   252.45   280.12   298.63   306.58
eigval :      314.47   322.80   352.90   363.05   398.12   419.92
eigval :      437.03   465.08   504.00   526.59   558.34   607.56
eigval :      675.29   684.85   716.25   736.95   791.37   824.93
eigval :      873.94   887.54   896.02   907.43   910.83   932.41
eigval :      939.38   952.20   967.00   994.85  1018.94  1033.97
eigval :     1040.29  1055.09  1061.84  1076.24  1092.70  1097.86
eigval :     1117.02  1133.72  1156.73  1166.54  1188.33  1205.27
eigval :     1215.66  1243.98  1254.17  1260.78  1275.90  1278.68
eigval :     1295.99  1308.44  1317.51  1325.43  1331.11  1343.67
eigval :     1347.95  1354.88  1400.27  1413.27  1430.18  1453.09
eigval :     1469.81  1471.82  1481.68  1494.54  1503.81  1702.28
eigval :     1741.52  2873.14  2914.13  2933.31  2945.96  2969.61
eigval :     2973.72  2975.69  2977.50  2979.72  2994.98  3004.08
eigval :     3013.22  3024.69  3038.31  3093.47  3098.36  3120.00
eigval :     3122.36  3512.25  3541.60
 reduced masses (amu)
   1: 11.69   2: 11.81   3: 11.18   4: 11.37   5: 11.42   6: 10.55   7:  9.51   8:  9.68
   9: 12.45  10:  9.41  11: 10.68  12:  5.24  13: 10.62  14:  9.46  15: 12.01  16:  8.69
  17:  6.74  18:  8.69  19:  6.38  20:  5.06  21:  6.14  22:  8.39  23:  8.44  24:  9.38
  25: 10.40  26:  9.24  27:  8.77  28:  9.34  29:  8.48  30:  9.96  31:  8.41  32:  5.97
  33:  4.18  34:  5.43  35:  9.52  36:  7.90  37:  8.38  38:  5.00  39:  7.23  40:  6.56
  41:  3.84  42:  6.59  43:  7.17  44:  5.63  45:  5.63  46:  5.30  47:  5.60  48:  5.55
  49:  6.51  50:  9.58  51:  6.01  52: 10.79  53:  6.91  54:  5.73  55:  7.06  56:  4.19
  57:  4.29  58:  3.23  59:  7.89  60:  6.16  61:  5.75  62:  7.15  63:  6.27  64:  4.90
  65:  7.67  66:  7.17  67:  6.65  68:  5.47  69:  3.78  70:  3.67  71:  3.92  72:  4.11
  73:  3.96  74:  4.35  75:  2.97  76:  2.37  77:  2.59  78:  1.89  79:  1.77  80:  1.78
  81:  1.68  82:  1.75  83:  1.86  84: 11.22  85: 11.58  86:  1.74  87:  1.75  88:  1.74
  89:  1.87  90:  1.93  91:  1.79  92:  1.69  93:  1.86  94:  1.63  95:  1.53  96:  1.61
  97:  1.91  98:  1.80  99:  1.40 100:  1.60 101:  1.54 102:  2.07 103:  2.01 104:  1.87
 105:  1.88
 IR intensities (km·mol⁻¹)
   1:  0.01   2:  0.02   3:  0.03   4:  0.02   5:  0.00   6:  0.05   7:  0.77   8:  0.05
   9:  6.46  10:  3.17  11:  1.35  12:  0.68  13:  3.85  14:  7.51  15: 24.53  16: 19.28
  17: 27.48  18:  3.00  19: 40.74  20: 91.52  21: 59.23  22: 20.25  23: 72.63  24: 26.20
  25:  2.80  26:  2.33  27:  3.05  28:  9.03  29:  1.58  30:  5.21  31:  2.11  32:  4.80
  33:  2.75  34:  0.66  35:  1.67  36: 11.32  37:  4.61  38: 21.42  39: 10.28  40:  3.78
  41: 26.08  42:  2.89  43: 16.60  44:  1.61  45:  4.59  46: 13.57  47: 11.04  48: 26.76
  49: 60.45  50: 34.76  51: 34.74  52: 86.85  53: 17.39  54:  9.29  55: 26.40  56:  5.55
  57: 18.70  58: 20.66  59:  7.45  60: 16.06  61: 10.45  62: 22.13  63: 14.86  64: 37.37
  65: 14.41  66:  5.22  67: 25.35  68: 18.86  69: 26.29  70:  5.13  71: 10.60  72: 34.21
  73: 47.37  74:  2.97  75:  1.49  76:  4.53  77:  7.67  78:  0.42  79:  6.21  80:  3.37
  81:  4.75  82:  1.09  83:  1.69  84: 23.21  85: 31.44  86: 79.14  87: 53.70  88: 76.26
  89: 46.12  90: 28.84  91: 29.40  92: 30.97  93:101.63  94: 63.91  95: 80.08  96: 84.33
  97: 42.33  98: 44.79  99: 42.04 100: 60.67 101: 43.47 102: 59.79 103: 54.02 104: 34.19
 105: 27.28
 Raman intensities (Ä⁴*amu⁻¹)
   1:  0.00   2:  0.00   3:  0.00   4:  0.00   5:  0.00   6:  0.00   7:  0.00   8:  0.00
   9:  0.00  10:  0.00  11:  0.00  12:  0.00  13:  0.00  14:  0.00  15:  0.00  16:  0.00
  17:  0.00  18:  0.00  19:  0.00  20:  0.00  21:  0.00  22:  0.00  23:  0.00  24:  0.00
  25:  0.00  26:  0.00  27:  0.00  28:  0.00  29:  0.00  30:  0.00  31:  0.00  32:  0.00
  33:  0.00  34:  0.00  35:  0.00  36:  0.00  37:  0.00  38:  0.00  39:  0.00  40:  0.00
  41:  0.00  42:  0.00  43:  0.00  44:  0.00  45:  0.00  46:  0.00  47:  0.00  48:  0.00
  49:  0.00  50:  0.00  51:  0.00  52:  0.00  53:  0.00  54:  0.00  55:  0.00  56:  0.00
  57:  0.00  58:  0.00  59:  0.00  60:  0.00  61:  0.00  62:  0.00  63:  0.00  64:  0.00
  65:  0.00  66:  0.00  67:  0.00  68:  0.00  69:  0.00  70:  0.00  71:  0.00  72:  0.00
  73:  0.00  74:  0.00  75:  0.00  76:  0.00  77:  0.00  78:  0.00  79:  0.00  80:  0.00
  81:  0.00  82:  0.00  83:  0.00  84:  0.00  85:  0.00  86:  0.00  87:  0.00  88:  0.00
  89:  0.00  90:  0.00  91:  0.00  92:  0.00  93:  0.00  94:  0.00  95:  0.00  96:  0.00
  97:  0.00  98:  0.00  99:  0.00 100:  0.00 101:  0.00 102:  0.00 103:  0.00 104:  0.00
 105:  0.00
 output can be read by thermo (or use thermo option).
 writing <g98.out> molden fake output.
 recommended (thermochemical) frequency scaling factor: 1.0
           -------------------------------------------------
          |             Thermodynamic Functions             |
           -------------------------------------------------

Molecule has no symmetry elements
It seems to be the C1 point group
c1  symmetry found (for desy threshold:  0.10E+00) used in thermo

          ...................................................
          :                      SETUP                      :
          :.................................................:
          :  # frequencies                          99      :
          :  # imaginary freq.                       0      :
          :  linear?                             false      :
          :  only rotor calc.                    false      :
          :  symmetry                               c1      :
          :  rotational number                       1      :
          :  scaling factor                  1.0000000      :
          :  rotor cutoff                   50.0000000 cm⁻¹ :
          :  imag. cutoff                  -50.0000000 cm⁻¹ :
          :.................................................:

    mode    ω/cm⁻¹     T·S(HO)/kcal·mol⁻¹    T·S(FR)/kcal·mol⁻¹   T·S(vib)
   ------------------------------------------------------------------------
       1     55.08    -1.37926 ( 59.56%)    -1.02777 ( 40.44%)    -1.23712
       2     91.32    -1.08274 ( 91.75%)    -0.87804 (  8.25%)    -1.06586
       3    109.15    -0.97909 ( 95.78%)    -0.82521 (  4.22%)    -0.97260
       4    131.98    -0.86969 ( 97.98%)    -0.76896 (  2.02%)    -0.86765
       5    137.63    -0.84574 ( 98.29%)    -0.75656 (  1.71%)    -0.84421
       6    160.77    -0.75752 ( 99.07%)    -0.71052 (  0.93%)    -0.75709
       7    170.34    -0.72501 ( 99.26%)    -0.69339 (  0.74%)    -0.72478
       8    204.30    -0.62433 ( 99.64%)    -0.63954 (  0.36%)    -0.62438
       9    252.45    -0.51086 ( 99.85%)    -0.57686 (  0.15%)    -0.51096
      10    280.12    -0.45705 ( 99.90%)    -0.54605 (  0.10%)    -0.45714
      11    298.63    -0.42473 ( 99.92%)    -0.52709 (  0.08%)    -0.42481
   ------------------------------------------------------------------------

   temp. (K)  partition function   enthalpy   heat capacity  entropy
                                   cal/mol     cal/K/mol   cal/K/mol   J/K/mol
 298.15  VIB  0.183E+05             7681.937     54.273     44.703
         ROT  0.182E+07              888.752      2.981     31.629
         INT  0.334E+11             8570.690     57.254     76.332
         TR   0.291E+28             1481.254      4.968     41.886
         TOT                       10051.9436    62.2224   118.2187   494.6271

       T/K    H(0)-H(T)+PV         H(T)/Eh          T*S/Eh         G(T)/Eh
   ------------------------------------------------------------------------
    298.15    0.160188E-01    0.317709E+00    0.561695E-01    0.261539E+00
   ------------------------------------------------------------------------

         :::::::::::::::::::::::::::::::::::::::::::::::::::::
         ::                  THERMODYNAMIC                  ::
         :::::::::::::::::::::::::::::::::::::::::::::::::::::
         :: total free energy         -45.897015710110 Eh   ::
         ::.................................................::
         :: total energy              -46.158554780617 Eh   ::
         :: zero point energy           0.301689801346 Eh   ::
         :: G(RRHO) w/o ZPVE           -0.040150730839 Eh   ::
         :: G(RRHO) contrib.            0.261539070507 Eh   ::
         :::::::::::::::::::::::::::::::::::::::::::::::::::::

optimized geometry written to: xtbopt.coord


           -------------------------------------------------
          | TOTAL ENERGY              -46.158554780617 Eh   |
          | TOTAL ENTHALPY            -45.840846187445 Eh   |
          | TOTAL FREE ENERGY         -45.897015710110 Eh   |
          | GRADIENT NORM               0.000061070282 Eh/α |
          | HOMO-LUMO GAP               5.079341674893 eV   |
           -------------------------------------------------

------------------------------------------------------------------------
 * finished run on 2026/08/09 at 15:28:21.872     
------------------------------------------------------------------------
 total:
 * wall-time:     0 d,  0 h,  0 min,  1.265 sec
 *  cpu-time:     0 d,  0 h,  0 min, 13.258 sec
 * ratio c/w:    10.482 speedup
 SCF:
 * wall-time:     0 d,  0 h,  0 min,  0.041 sec
 *  cpu-time:     0 d,  0 h,  0 min,  0.449 sec
 * ratio c/w:    11.040 speedup
 ANC optimizer:
 * wall-time:     0 d,  0 h,  0 min,  0.174 sec
 *  cpu-time:     0 d,  0 h,  0 min,  2.079 sec
 * ratio c/w:    11.966 speedup
 analytical hessian:
 * wall-time:     0 d,  0 h,  0 min,  1.010 sec
 *  cpu-time:     0 d,  0 h,  0 min, 10.487 sec
 * ratio c/w:    10.388 speedup

normal termination of xtb
