      -----------------------------------------------------------      
     |                   =====================                   |     
     |                           x T B                           |     
     |                   =====================                   |     
     |                         S. Grimme                         |     
     |          Mulliken Center for Theoretical Chemistry        |     
     |                    University of Bonn                     |     
      -----------------------------------------------------------      

   * xtb version 6.7.1 (edcfbbe) compiled by 'albert@albert-system' on 2024-07-22

   xtb is free software: you can redistribute it and/or modify it under
   the terms of the GNU Lesser General Public License as published by
   the Free Software Foundation, either version 3 of the License, or
   (at your option) any later version.
   
   xtb is distributed in the hope that it will be useful,
   but WITHOUT ANY WARRANTY; without even the implied warranty of
   MERCHANTABILITY or FITNESS FOR A PARTICULAR PURPOSE.  See the
   GNU Lesser General Public License for more details.
   
   Cite this work as:
   * C. Bannwarth, E. Caldeweyher, S. Ehlert, A. Hansen, P. Pracht,
     J. Seibert, S. Spicher, S. Grimme, WIREs Comput. Mol. Sci., 2020, 11,
     e01493. DOI: 10.1002/wcms.1493
   
   for GFN2-xTB:
   * C. Bannwarth, S. Ehlert and S. Grimme., J. Chem. Theory Comput., 2019,
     15, 1652-1671. DOI: 10.1021/acs.jctc.8b01176
   for GFN1-xTB:
   * S. Grimme, C. Bannwarth, P. Shushkov, J. Chem. Theory Comput., 2017,
     13, 1989-2009. DOI: 10.1021/acs.jctc.7b00118
   for GFN0-xTB:
   * P. Pracht, E. Caldeweyher, S. Ehlert, S. Grimme, ChemRxiv, 2019, preprint.
     DOI: 10.26434/chemrxiv.8326202.v1
   for GFN-FF:
   * S. Spicher and S. Grimme, Angew. Chem. Int. Ed., 2020, 59, 15665-15673.
     DOI: 10.1002/anie.202004239
   
   for ALPB and GBSA implicit solvation:
   * S. Ehlert, M. Stahn, S. Spicher, S. Grimme, J. Chem. Theory Comput.,
     2021, 17, 4250-4261. DOI: 10.1021/acs.jctc.1c00471
   
   for ddCOSMO and CPCM-X implicit solvation:
   * M. Stahn, S. Ehlert, S. Grimme, J. Phys. Chem. A,
     2023, XX, XXXX-XXXX. DOI: 10.1021/acs.jpca.3c04382
   
   for DFT-D4:
   * E. Caldeweyher, C. Bannwarth and S. Grimme, J. Chem. Phys., 2017,
     147, 034112. DOI: 10.1063/1.4993215
   * E. Caldeweyher, S. Ehlert, A. Hansen, H. Neugebauer, S. Spicher,
     C. Bannwarth and S. Grimme, J. Chem. Phys., 2019, 150, 154122.
     DOI: 10.1063/1.5090222
   * E. Caldeweyher, J.-M. Mewes, S. Ehlert and S. Grimme, Phys. Chem. Chem. Phys.
     2020, 22, 8499-8512. DOI: 10.1039/D0CP00502A
   
   for sTDA-xTB:
   * S. Grimme and C. Bannwarth, J. Chem. Phys., 2016, 145, 054103.
     DOI: 10.1063/1.4959605
   
   in the mass-spec context:
   * V. Asgeirsson, C. Bauer and S. Grimme, Chem. Sci., 2017, 8, 4879.
     DOI: 10.1039/c7sc00601b
   * J. Koopman and S. Grimme, ACS Omega 2019, 4, 12, 15120-15133.
     DOI: 10.1021/acsomega.9b02011
   
   for metadynamics refer to:
   * S. Grimme, J. Chem. Theory Comput., 2019, 155, 2847-2862
     DOI: 10.1021/acs.jctc.9b00143
   
   for SPH calculations refer to:
   * S. Spicher and S. Grimme, J. Chem. Theory Comput., 2021, 17, 1701-1714
     DOI: 10.1021/acs.jctc.0c01306
   
   for ONIOM refer to:
   * C. Plett, A. Katbashev, S. Ehlert, S. Grimme, M. Bursch,
     Phys. Chem. Chem. Phys., 2023, 25, 17860-17868. DOI: 10.1039/D3CP02178E
   
   for DIPRO refer to:
   * J. Kohn, N. Gildemeister, S. Grimme, D. Fazzi, A. Hansen,
     J. Chem. Phys., 2023, just accepted.
   
   for PTB refer to:
   * S. Grimme, M. Mueller, A. Hansen, J. Chem. Phys., 2023, 158, 124111.
     DOI: 10.1063/5.0137838
   
   with help from (in alphabetical order)
   P. Atkinson, C. Bannwarth, F. Bohle, G. Brandenburg, E. Caldeweyher
   M. Checinski, S. Dohm, S. Ehlert, S. Ehrlich, I. Gerasimov, C. Hölzer
   A. Katbashev, J. Kohn, J. Koopman, C. Lavigne, S. Lehtola, F. März, M. Müller,
   F. Musil, H. Neugebauer, J. Pisarek, C. Plett, P. Pracht, F. Pultar,
   J. Seibert, P. Shushkov, S. Spicher, M. Stahn, M. Steiner, T. Strunk,
   J. Stückrath, T. Rose, and J. Unsleber
   
 * started run on 2026/08/09 at 17:48:09.274     
   ID    Z sym.   atoms
    1    6 c      1-8, 10-13, 16
    2    8 o      9, 15
    3    1 h      14, 17-35

           -------------------------------------------------
          |                Calculation Setup                |
           -------------------------------------------------

          program call               : /home/dinglab/software/xtb_6.7.1/xtb_dist/bin/xtb coord --gfn2 --sp --chrg 0 --norestart --parallel 12 --alpb chcl3 reference -I xcontrol-inp
          hostname                   : localhost
          coordinate file            : coord
          omp threads                :                    12


           -------------------------------------------------
          |                 G F N 2 - x T B                 |
           -------------------------------------------------

        Reference                      10.1021/acs.jctc.8b01176
      * Hamiltonian:
        H0-scaling (s, p, d)           1.850000    2.230000    2.230000
        zeta-weighting                 0.500000
      * Dispersion:
        s8                             2.700000
        a1                             0.520000
        a2                             5.000000
        s9                             5.000000
      * Repulsion:
        kExp                           1.500000    1.000000
        rExp                           1.000000
      * Coulomb:
        alpha                          2.000000
        third order                    shell-resolved
        anisotropic                    true
        a3                             3.000000
        a5                             4.000000
        cn-shift                       1.200000
        cn-exp                         4.000000
        max-rad                        5.000000

      * Solvation model:               ALPB
        Solvent                        chcl3
        Parameter file                 internal GFN2-xTB/ALPB
        Dielectric constant                4.8100E+00
        Reference state                gsolv=reference [X=1]
        Free energy shift                  2.5086E-03 Eh       1.5742E+00 kcal/mol
        Temperature                        2.9815E+02 K
        Density                            1.4900E+00 kg/L
        Solvent mass                       1.1938E+02 g/mol
        Interaction kernel             P16
        Born radius scaling (c1)           1.3274E+00
        Born radii integrator          GBOBC
        Born offset                        0.0000E+00 a0       0.0000E+00 AA
        H-bond correction              false
        Ion screening                  false
        Surface tension                    1.0000E-05 Eh       1.5569E+01 dyn/cm
        Grid points                               974 per atom

          ...................................................
          :                      SETUP                      :
          :.................................................:
          :  # basis functions                  80          :
          :  # atomic orbitals                  80          :
          :  # shells                           50          :
          :  # electrons                        84          :
          :  max. iterations                   250          :
          :  Hamiltonian                  GFN2-xTB          :
          :  restarted?                      false          :
          :  GBSA solvation                   true          :
          :  PC potential                    false          :
          :  electronic temp.          300.0000000     K    :
          :  accuracy                    1.0000000          :
          :  -> integral cutoff          0.2500000E+02      :
          :  -> integral neglect         0.1000000E-07      :
          :  -> SCF convergence          0.1000000E-05 Eh   :
          :  -> wf. convergence          0.1000000E-03 e    :
          :  Broyden damping             0.4000000          :
          :  net charge                          0          :
          :  unpaired electrons                  0          :
          ...................................................

 iter      E             dE          RMSdq      gap      omega  full diag
   1    -46.7357198 -0.467357E+02  0.341E+00    5.17       0.0  T
   2    -46.7771668 -0.414470E-01  0.194E+00    5.04       1.0  T
   3    -46.7719427  0.522409E-02  0.808E-01    5.05       1.0  T
   4    -46.7794944 -0.755172E-02  0.337E-01    4.98       1.0  T
   5    -46.7814697 -0.197528E-02  0.713E-02    5.01       1.0  T
   6    -46.7814986 -0.289481E-04  0.397E-02    5.01       1.0  T
   7    -46.7815027 -0.406448E-05  0.120E-02    5.01       1.4  T
   8    -46.7815042 -0.147580E-05  0.475E-03    5.01       3.6  T
   9    -46.7815046 -0.404377E-06  0.193E-03    5.01       8.8  T
  10    -46.7815046 -0.141472E-07  0.698E-04    5.01      24.2  T
  11    -46.7815046 -0.193315E-08  0.273E-04    5.01      62.0  T

   *** convergence criteria satisfied after 11 iterations ***

         #    Occupation            Energy/Eh            Energy/eV
      -------------------------------------------------------------
         1        2.0000           -0.6996400             -19.0382
       ...           ...                  ...                  ...
        36        2.0000           -0.4284959             -11.6600
        37        2.0000           -0.4223546             -11.4929
        38        2.0000           -0.4177364             -11.3672
        39        2.0000           -0.4140502             -11.2669
        40        2.0000           -0.3994772             -10.8703
        41        2.0000           -0.3923280             -10.6758
        42        2.0000           -0.3886110             -10.5746 (HOMO)
        43                         -0.2046143              -5.5678 (LUMO)
        44                         -0.2020722              -5.4987
        45                          0.0120376               0.3276
        46                          0.0299560               0.8151
        47                          0.0435757               1.1858
       ...                                ...                  ...
        80                          0.6476014              17.6221
      -------------------------------------------------------------
                  HL-Gap            0.1839967 Eh            5.0068 eV
             Fermi-level           -0.2966126 Eh           -8.0712 eV

 SCC (total)                   0 d,  0 h,  0 min,  0.041 sec
 SCC setup                      ...        0 min,  0.001 sec (  2.405%)
 Dispersion                     ...        0 min,  0.001 sec (  1.217%)
 classical contributions        ...        0 min,  0.000 sec (  0.119%)
 integral evaluation            ...        0 min,  0.002 sec (  4.373%)
 iterations                     ...        0 min,  0.034 sec ( 83.344%)
 molecular gradient             ...        0 min,  0.003 sec (  7.986%)
 printout                       ...        0 min,  0.000 sec (  0.437%)

         :::::::::::::::::::::::::::::::::::::::::::::::::::::
         ::                     SUMMARY                     ::
         :::::::::::::::::::::::::::::::::::::::::::::::::::::
         :: total energy             -46.162114211906 Eh    ::
         :: total w/o Gsasa/hb       -46.148858002771 Eh    ::
         :: gradient norm              0.008536126327 Eh/a0 ::
         :: HOMO-LUMO gap              5.006804789841 eV    ::
         ::.................................................::
         :: SCC energy               -46.780859296761 Eh    ::
         :: -> isotropic ES            0.061825361770 Eh    ::
         :: -> anisotropic ES          0.004239688001 Eh    ::
         :: -> anisotropic XC          0.017281583790 Eh    ::
         :: -> dispersion             -0.036527612134 Eh    ::
         :: -> Gsolv                  -0.020890806146 Eh    ::
         ::    -> Gelec               -0.007634597011 Eh    ::
         ::    -> Gsasa               -0.015764857136 Eh    ::
         ::    -> Ghb                  0.000000000000 Eh    ::
         ::    -> Gshift               0.002508648001 Eh    ::
         :: repulsion energy           0.618745084855 Eh    ::
         :: add. restraining           0.000000000000 Eh    ::
         :: total charge               0.000000000000 e     ::
         :::::::::::::::::::::::::::::::::::::::::::::::::::::

           -------------------------------------------------
          |                Property Printout                |
           -------------------------------------------------

    * Orbital Energies and Occupations

         #    Occupation            Energy/Eh            Energy/eV
      -------------------------------------------------------------
         1        2.0000           -0.6996400             -19.0382
       ...           ...                  ...                  ...
        30        2.0000           -0.4704725             -12.8022
        31        2.0000           -0.4555391             -12.3958
        32        2.0000           -0.4550487             -12.3825
        33        2.0000           -0.4484732             -12.2036
        34        2.0000           -0.4403293             -11.9820
        35        2.0000           -0.4373277             -11.9003
        36        2.0000           -0.4284959             -11.6600
        37        2.0000           -0.4223546             -11.4929
        38        2.0000           -0.4177364             -11.3672
        39        2.0000           -0.4140502             -11.2669
        40        2.0000           -0.3994772             -10.8703
        41        2.0000           -0.3923280             -10.6758
        42        2.0000           -0.3886110             -10.5746 (HOMO)
        43                         -0.2046143              -5.5678 (LUMO)
        44                         -0.2020722              -5.4987
        45                          0.0120376               0.3276
        46                          0.0299560               0.8151
        47                          0.0435757               1.1858
        48                          0.0469473               1.2775
        49                          0.0706436               1.9223
        50                          0.0767530               2.0886
        51                          0.0854317               2.3247
        52                          0.0915169               2.4903
        53                          0.0961101               2.6153
       ...                                ...                  ...
        80                          0.6476014              17.6221
      -------------------------------------------------------------
                  HL-Gap            0.1839967 Eh            5.0068 eV
             Fermi-level           -0.2966126 Eh           -8.0712 eV

     #   Z          covCN         q      C6AA      α(0)
     1   6 c        3.930    -0.010    20.691     6.464
     2   6 c        3.855    -0.029    21.062     6.527
     3   6 c        3.803    -0.063    21.707     6.633
     4   6 c        3.807    -0.055    21.563     6.610
     5   6 c        3.887    -0.038    21.204     6.546
     6   6 c        3.781     0.114    18.736     6.166
     7   6 c        3.839    -0.073    21.859     6.651
     8   6 c        2.979     0.009    27.802     8.649
     9   8 o        1.656    -0.491    22.702     6.432
    10   6 c        3.678     0.081    19.448     6.318
    11   6 c        2.838    -0.113    30.841     9.101
    12   6 c        2.935     0.016    27.657     8.625
    13   6 c        2.844    -0.120    31.048     9.132
    14   1 h        0.923     0.052     2.294     2.369
    15   8 o        1.655    -0.475    22.367     6.384
    16   6 c        3.762    -0.120    22.853     6.815
    17   1 h        0.924     0.040     2.454     2.450
    18   1 h        0.924     0.039     2.459     2.452
    19   1 h        0.924     0.039     2.456     2.451
    20   1 h        0.924     0.037     2.495     2.470
    21   1 h        0.924     0.038     2.482     2.464
    22   1 h        0.923     0.026     2.651     2.546
    23   1 h        0.924     0.052     2.293     2.368
    24   1 h        0.924     0.045     2.378     2.412
    25   1 h        0.805     0.322     0.658     1.275
    26   1 h        0.923     0.019     2.742     2.590
    27   1 h        0.924     0.053     2.282     2.362
    28   1 h        0.926     0.036     2.501     2.473
    29   1 h        0.926     0.037     2.493     2.469
    30   1 h        0.926     0.032     2.559     2.502
    31   1 h        0.926     0.036     2.496     2.471
    32   1 h        0.805     0.310     0.692     1.307
    33   1 h        0.925     0.067     2.120     2.277
    34   1 h        0.924     0.048     2.346     2.395
    35   1 h        0.925     0.041     2.442     2.444

 Mol. C6AA /au·bohr⁶  :      10388.660656
 Mol. C8AA /au·bohr⁸  :     233644.204420
 Mol. α(0) /au        :        153.598745


Wiberg/Mayer (AO) data.
largest (>0.10) Wiberg bond orders for each atom

 ---------------------------------------------------------------------------
     #   Z sym  total        # sym  WBO       # sym  WBO       # sym  WBO
 ---------------------------------------------------------------------------
     1   6 c    3.989 --     7 c    0.982    10 c    0.979     2 c    0.959
                             6 c    0.957
     2   6 c    3.993 --    12 c    0.997     3 c    0.989     1 c    0.959
                            14 h    0.957
     3   6 c    3.996 --     4 c    1.009     2 c    0.989    18 h    0.976
                            17 h    0.975
     4   6 c    3.997 --     3 c    1.009     5 c    0.980    20 h    0.976
                            19 h    0.967
     5   6 c    3.995 --     8 c    0.997     4 c    0.980    21 h    0.965
                             6 c    0.962
     6   6 c    3.953 --     9 o    1.004     5 c    0.962    22 h    0.960
                             1 c    0.957
     7   6 c    3.996 --     8 c    1.003     1 c    0.982    23 h    0.965
                            24 h    0.959
     8   6 c    3.986 --    11 c    1.938     7 c    1.003     5 c    0.997
     9   8 o    1.952 --     6 c    1.004    25 h    0.848
    10   6 c    3.949 --    15 o    0.992     1 c    0.979    27 h    0.968
                            26 h    0.967
    11   6 c    3.988 --     8 c    1.938    28 h    0.975    29 h    0.975
    12   6 c    3.985 --    13 c    1.911    16 c    1.025     2 c    0.997
    13   6 c    3.987 --    12 c    1.911    30 h    0.974    31 h    0.962
    14   1 h    0.997 --     2 c    0.957
    15   8 o    1.948 --    10 c    0.992    32 h    0.887
    16   6 c    3.994 --    12 c    1.025    35 h    0.983    33 h    0.969
                            34 h    0.963
    17   1 h    0.998 --     3 c    0.975
    18   1 h    0.998 --     3 c    0.976
    19   1 h    0.998 --     4 c    0.967
    20   1 h    0.998 --     4 c    0.976
    21   1 h    0.998 --     5 c    0.965
    22   1 h    0.999 --     6 c    0.960
    23   1 h    0.997 --     7 c    0.965
    24   1 h    0.997 --     7 c    0.959
    25   1 h    0.896 --     9 o    0.848
    26   1 h    0.999 --    10 c    0.967
    27   1 h    0.997 --    10 c    0.968
    28   1 h    0.998 --    11 c    0.975
    29   1 h    0.998 --    11 c    0.975
    30   1 h    0.998 --    13 c    0.974
    31   1 h    0.999 --    13 c    0.962
    32   1 h    0.904 --    15 o    0.887
    33   1 h    0.996 --    16 c    0.969
    34   1 h    0.998 --    16 c    0.963
    35   1 h    0.998 --    16 c    0.983
 ---------------------------------------------------------------------------

Topologies differ in total number of bonds
Writing topology from bond orders to xtbtopo.mol

molecular dipole:
                 x           y           z       tot (Debye)
 q only:       -0.352       0.201      -0.850
   full:       -0.495       0.205      -0.988       2.856
molecular quadrupole (traceless):
                xx          xy          yy          xz          yz          zz
 q only:       -0.806       3.639       3.572       1.182       1.912      -2.766
  q+dip:       -0.721       5.819       5.300       2.238       3.363      -4.579
   full:       -1.220       5.832       5.258       1.864       2.606      -4.039


           -------------------------------------------------
          | TOTAL ENERGY              -46.162114211906 Eh   |
          | GRADIENT NORM               0.008536126327 Eh/α |
          | HOMO-LUMO GAP               5.006804789841 eV   |
           -------------------------------------------------

------------------------------------------------------------------------
 * finished run on 2026/08/09 at 17:48:09.336     
------------------------------------------------------------------------
 total:
 * wall-time:     0 d,  0 h,  0 min,  0.061 sec
 *  cpu-time:     0 d,  0 h,  0 min,  0.647 sec
 * ratio c/w:    10.685 speedup
 SCF:
 * wall-time:     0 d,  0 h,  0 min,  0.042 sec
 *  cpu-time:     0 d,  0 h,  0 min,  0.462 sec
 * ratio c/w:    11.107 speedup

normal termination of xtb
