      -----------------------------------------------------------      
     |                   =====================                   |     
     |                           x T B                           |     
     |                   =====================                   |     
     |                         S. Grimme                         |     
     |          Mulliken Center for Theoretical Chemistry        |     
     |                    University of Bonn                     |     
      -----------------------------------------------------------      

   * xtb version 6.7.1 (edcfbbe) compiled by 'albert@albert-system' on 2024-07-22

   xtb is free software: you can redistribute it and/or modify it under
   the terms of the GNU Lesser General Public License as published by
   the Free Software Foundation, either version 3 of the License, or
   (at your option) any later version.
   
   xtb is distributed in the hope that it will be useful,
   but WITHOUT ANY WARRANTY; without even the implied warranty of
   MERCHANTABILITY or FITNESS FOR A PARTICULAR PURPOSE.  See the
   GNU Lesser General Public License for more details.
   
   Cite this work as:
   * C. Bannwarth, E. Caldeweyher, S. Ehlert, A. Hansen, P. Pracht,
     J. Seibert, S. Spicher, S. Grimme, WIREs Comput. Mol. Sci., 2020, 11,
     e01493. DOI: 10.1002/wcms.1493
   
   for GFN2-xTB:
   * C. Bannwarth, S. Ehlert and S. Grimme., J. Chem. Theory Comput., 2019,
     15, 1652-1671. DOI: 10.1021/acs.jctc.8b01176
   for GFN1-xTB:
   * S. Grimme, C. Bannwarth, P. Shushkov, J. Chem. Theory Comput., 2017,
     13, 1989-2009. DOI: 10.1021/acs.jctc.7b00118
   for GFN0-xTB:
   * P. Pracht, E. Caldeweyher, S. Ehlert, S. Grimme, ChemRxiv, 2019, preprint.
     DOI: 10.26434/chemrxiv.8326202.v1
   for GFN-FF:
   * S. Spicher and S. Grimme, Angew. Chem. Int. Ed., 2020, 59, 15665-15673.
     DOI: 10.1002/anie.202004239
   
   for ALPB and GBSA implicit solvation:
   * S. Ehlert, M. Stahn, S. Spicher, S. Grimme, J. Chem. Theory Comput.,
     2021, 17, 4250-4261. DOI: 10.1021/acs.jctc.1c00471
   
   for ddCOSMO and CPCM-X implicit solvation:
   * M. Stahn, S. Ehlert, S. Grimme, J. Phys. Chem. A,
     2023, XX, XXXX-XXXX. DOI: 10.1021/acs.jpca.3c04382
   
   for DFT-D4:
   * E. Caldeweyher, C. Bannwarth and S. Grimme, J. Chem. Phys., 2017,
     147, 034112. DOI: 10.1063/1.4993215
   * E. Caldeweyher, S. Ehlert, A. Hansen, H. Neugebauer, S. Spicher,
     C. Bannwarth and S. Grimme, J. Chem. Phys., 2019, 150, 154122.
     DOI: 10.1063/1.5090222
   * E. Caldeweyher, J.-M. Mewes, S. Ehlert and S. Grimme, Phys. Chem. Chem. Phys.
     2020, 22, 8499-8512. DOI: 10.1039/D0CP00502A
   
   for sTDA-xTB:
   * S. Grimme and C. Bannwarth, J. Chem. Phys., 2016, 145, 054103.
     DOI: 10.1063/1.4959605
   
   in the mass-spec context:
   * V. Asgeirsson, C. Bauer and S. Grimme, Chem. Sci., 2017, 8, 4879.
     DOI: 10.1039/c7sc00601b
   * J. Koopman and S. Grimme, ACS Omega 2019, 4, 12, 15120-15133.
     DOI: 10.1021/acsomega.9b02011
   
   for metadynamics refer to:
   * S. Grimme, J. Chem. Theory Comput., 2019, 155, 2847-2862
     DOI: 10.1021/acs.jctc.9b00143
   
   for SPH calculations refer to:
   * S. Spicher and S. Grimme, J. Chem. Theory Comput., 2021, 17, 1701-1714
     DOI: 10.1021/acs.jctc.0c01306
   
   for ONIOM refer to:
   * C. Plett, A. Katbashev, S. Ehlert, S. Grimme, M. Bursch,
     Phys. Chem. Chem. Phys., 2023, 25, 17860-17868. DOI: 10.1039/D3CP02178E
   
   for DIPRO refer to:
   * J. Kohn, N. Gildemeister, S. Grimme, D. Fazzi, A. Hansen,
     J. Chem. Phys., 2023, just accepted.
   
   for PTB refer to:
   * S. Grimme, M. Mueller, A. Hansen, J. Chem. Phys., 2023, 158, 124111.
     DOI: 10.1063/5.0137838
   
   with help from (in alphabetical order)
   P. Atkinson, C. Bannwarth, F. Bohle, G. Brandenburg, E. Caldeweyher
   M. Checinski, S. Dohm, S. Ehlert, S. Ehrlich, I. Gerasimov, C. Hölzer
   A. Katbashev, J. Kohn, J. Koopman, C. Lavigne, S. Lehtola, F. März, M. Müller,
   F. Musil, H. Neugebauer, J. Pisarek, C. Plett, P. Pracht, F. Pultar,
   J. Seibert, P. Shushkov, S. Spicher, M. Stahn, M. Steiner, T. Strunk,
   J. Stückrath, T. Rose, and J. Unsleber
   
 * started run on 2026/08/09 at 16:56:17.185     
   ID    Z sym.   atoms
    1    6 c      1-8, 10-13, 16
    2    8 o      9, 15
    3    1 h      14, 17-35

           -------------------------------------------------
          |                Calculation Setup                |
           -------------------------------------------------

          program call               : /home/dinglab/software/xtb_6.7.1/xtb_dist/bin/xtb coord --opt normal --orca -I opt.inp
          hostname                   : localhost
          coordinate file            : coord
          omp threads                :                    12

           -------------------------------------------------
          |                   Orca driver                   |
           -------------------------------------------------
orca executable           : /home/dinglab/software/orca_6.1.1/orca
orca input file           : inp
orca input line           : 
orca parallel             : true
orca number of threads    : 12
                         * ORCA takes the control...
  ------------------------------------------------------------------------

                                 *****************
                                 * O   R   C   A *
                                 *****************

                                            #,                                       
                                            ###                                      
                                            ####                                     
                                            #####                                    
                                            ######                                   
                                           ########,                                 
                                     ,,################,,,,,                         
                               ,,#################################,,                 
                          ,,##########################################,,             
                       ,#########################################, ''#####,          
                    ,#############################################,,   '####,        
                  ,##################################################,,,,####,       
                ,###########''''           ''''###############################       
              ,#####''   ,,,,##########,,,,          '''####'''          '####       
            ,##' ,,,,###########################,,,                        '##       
           ' ,,###''''                  '''############,,,                           
         ,,##''                                '''############,,,,        ,,,,,,###''
      ,#''                                            '''#######################'''  
     '                                                          ''''####''''         
             ,#######,   #######,   ,#######,      ##                                
            ,#'     '#,  ##    ##  ,#'     '#,    #''#        ,####,    ,#,          
            ##       ##  ##   ,#'  ##            #'  '#       #'       ,# #          
            ##       ##  #######   ##           ,######,      #####,      #          
            '#,     ,#'  ##    ##  '#,     ,#' ,#      #,     #,   #      #          
             '#######'   ##     ##  '#######'  #'      '#     '####' #    #          



                #########################################################
                #                        -***-                          #
                #          Department of theory and spectroscopy        #
                #                                                       #
                #                      Frank Neese                      #
                #                                                       #
                #     Directorship, Architecture, Infrastructure        #
                #                    SHARK, DRIVERS                     #
                #        Core code/Algorithms in most modules           #
                #                                                       #
                #        Max Planck Institute fuer Kohlenforschung      #
                #                Kaiser Wilhelm Platz 1                 #
                #                 D-45470 Muelheim/Ruhr                 #
                #                      Germany                          #
                #                                                       #
                #                  All rights reserved                  #
                #                        -***-                          #
                #########################################################


                         Program Version 6.1.1  -  RELEASE   -
                                (GIT: $487d211c$)
                          ($2025-11-21 10:33:24 +0100$)


 With contributions from (in alphabetic order):
[Max-Planck-Institut fuer Kohlenforschung]                               
  Daniel Aravena         : Magnetic Suceptibility                        
  Michael Atanasov       : Ab Initio Ligand Field Theory (pilot matlab implementation)
  Alexander A. Auer      : GIAO ZORA, VPT2 properties, NMR spectrum      
  Ute Becker             : All parallelization in ORCA, NUMFREQ, NUMCALC 
  Giovanni Bistoni       : ED, misc. LED, open-shell LED, HFLD           
  Dmytro Bykov           : pre 5.0 version of the SCF Hessian            
  Marcos Casanova-Páez   : Triplet and SCS-CIS(D). UHF-(DLPNO)-IP/EA/STEOM-CCSD. UHF-CVS-IP/STEOM-CCSD   
  Vijay G. Chilkuri      : MRCI spin determinant printing, contributions to CSF-ICE 
  Pauline Colinet        : FMM embedding                                 
  Dipayan Datta          : RHF DLPNO-CCSD density                        
  Achintya Kumar Dutta   : EOM-CC, STEOM-CC                              
  Nicolas Foglia         : Exact transition moments, OPA infrastructure, MCD improvements    
  Dmitry Ganyushin       : Spin-Orbit,Spin-Spin,Magnetic field MRCI      
  Miquel Garcia-Rates    : C-PCM and meta-GGA Hessian, CCSD/C-PCM, Gaussian charge scheme 
  Tiago L. C. Gouveia    : GS-ROHF, GS-ROCIS                             
  Yang Guo               : DLPNO-NEVPT2, F12-NEVPT2, CIM, IAO-localization        
  Andreas Hansen         : Spin unrestricted coupled pair/coupled cluster methods 
  Ingolf Harden          : AUTO-CI MPn and infrastructure                
  Benjamin Helmich-Paris : MC-RPA, TRAH-(SCF,CASSCF), AVAS, COSX integrals, SCF dyn. polar., MC-PDFT, srDFT 
  Lee Huntington         : MR-EOM, pCC                                   
  Robert Izsak           : Overlap fitted RIJCOSX, COSX-SCS-MP3, EOM     
  Riya Kayal             : Wick's Theorem for AUTO-CI, AUTO-CI UHF-CCSDT 
  Emily Kempfer          : AUTO-CI RHF CISDT and CCSDT, approximate NEVPT4
  Christian Kollmar      : KDIIS, OOCD, Brueckner-CCSD(T), CCSD density, CASPT2, CASPT2-K, improved NEVPT2 
  Axel Koslowski         : Symmetry handling                             
  Simone Kossmann        : meta-GGA functionals, TD-DFT gradient, OOMP2, (MP2 Hessian; deprecated post 5.0) 
  Lucas Lang             : DCDCAS, Hyperfine gauge corrections, ICE-SOC+SSC
  Marvin Lechner         : AUTO-CI (C++ implementation), FIC-MRCC        
  Spencer Leger          : CASSCF response                               
  Dagmar Lenk            : GEPOL surface, SMD, ORCA-2-JSON               
  Dimitrios Liakos       : Extrapolation schemes; Compound Job, Property file
  Dimitrios Manganas     : Further ROCIS development; embedding schemes. LFT, Crystal Embedding 
  Dimitrios Pantazis     : SARC Basis sets                               
  Anastasios Papadopoulos: AUTO-CI, single reference methods and gradients 
  Taras Petrenko         : pre 6.0 DFT Hessian and TD-DFT gradient,  ECA, NRVS 
  Petra Pikulova         : Analytic Raman intensities                    
  Peter Pinski           : DLPNO-MP2, DLPNO-MP2 Gradient                 
  Shashank Vittal Rao    : ES-AILFT, MagRelax                            
  Christoph Reimann      : Effective Core Potentials                     
  Marius Retegan         : Local ZFS, SOC                                
  Christoph Riplinger    : Optimizer, TS searches, QM/MM, DLPNO-CCSD(T), (RO)-DLPNO pert. Triples 
  Michael Roemelt        : Original ROCIS implementation, recursive CI coupling coefficients
  Masaaki Saitow         : Open-shell DLPNO-CCSD energy and density      
  Barbara Sandhoefer     : DKH picture change effects                    
  Yorick L. A. Schmerwitz: GMF and freeze-and-release deltaSCF, NEB S-IDPP initial path                    
  Kantharuban Sivalingam : CASSCF convergence/infrastructure, NEVPT2, NEVPT3, NEVPT4(SD), FIC-MRCI and CEPA variants
  Bernardo de Souza      : ESD, SOC TD-DFT                               
  Georgi L. Stoychev     : AutoAux, RI-MP2 NMR, DLPNO-MP2 response, X2C  
  Van Anh Tran           : RI-MP2 g-tensors                              
  Willem Van den Heuvel  : Paramagnetic NMR                              
  Zikuan Wang            : NOTCH, Electric field optimization            
  Frank Wennmohs         : Technical directorship and infrastructure     
  Hang Xu                : AUTO-CI-Response properties                   
                                                                         
[FACCTs GmbH]                                                            
  Markus Bursch, Nicolas Foglia, Miquel Garcia-Rates, Ingolf Harden, Hagen Neugebauer, Anastasios Papadopoulos, 
  Christoph Riplinger, Bernardo de Souza, Georgi L. Stoychev                                                    
                                                                 
  APM, various basis sets, CI-OPT, improved COSX, DLPNO-Multilevel,           
  DOCKER, DRACO, updates on ESD, Fragmentator, GOAT, IRC, LR-CPCM, L-BFGS, MBIS, meta-GGA TD-DFT gradient, ML-optimized integration grids, 
  MM, NACMEs, nearIR, NEB, NEB-TS, NL-DFT gradient (VV10), 2- and 3-layer-ONIOM, interface openCOSMO-RS, QMMM,   
  Crystal-QMMM, RESP, rigid body optimization, SF, symmetry and pop. for TD-DFT, various functionals, SOLVATOR                                   
                                                                         
[Other institutions]                                                     
  V. Asgeirsson          : NEB                                           
  Christoph Bannwarth    : sTDA-DFT, sTD-DFT, PBEh-3c, B97-3c, D3        
  Giovanni Bistoni       : ETS/NOCV, ADLD/ADEX, COVALED                  
  Martin Brehm           : Molecular dynamics                            
  Ronald Cardenas        : ETS/NOCV                                      
  Martina Colucci        : COVALED                                       
  Sebastian Ehlert       : rSCAN, r2SCAN, r2SCAN-3c, D4, dhf basis sets  
  Marvin Friede          : D4 for Fr, Ra, Ac-Lr                          
  Lars Goerigk           : TD-DFT with DH, B97 family of functionals     
  Stefan Grimme          : VdW corrections, initial TS optimization, DFT functionals, gCP, sTDA/sTD-DF 
  Waldemar Hujo          : DFT-NL                                        
  H. Jonsson             : NEB                                           
  Holger Kruse           : gCP                                           
  Marcel Mueller         : wB97X-3c, vDZP basis set                      
  Hagen Neugebauer       : wr2SCAN, Native XTB                           
  Gianluca Regni         : ADLD/ADEX                                     
  Tobias Risthaus        : pre 6.0 range-separated hybrid DFT and stability analysis
  Lukas Wittmann         : regularized MP2, r2SCAN double-hybrids, wr2SCAN        
                                                                         
We gratefully acknowledge several colleagues who have allowed us to      
interface, adapt or use parts of their codes:                            
  Ed Valeev, F. Pavosevic, A. Kumar             : LibInt (2-el integral package), F12 methods 
  Garnet Chan, S. Sharma, J. Yang, R. Olivares  : DMRG                   
  Ulf Ekstrom                                   : XCFun DFT Library      
  Mihaly Kallay                                 : mrcc  (arbitrary order and MRCC methods)
  Frank Weinhold                                : gennbo (NPA and NBO analysis)           
  Simon Mueller                                 : openCOSMO-RS                            
  Christopher J. Cramer and Donald G. Truhlar   : smd solvation model                     
  S Lehtola, MJT Oliveira, MAL Marques          : LibXC Library                           
  Liviu Ungur et al                             : ANISO software                          


 Your calculation uses the libint2 library for the computation of 2-el integrals
 For citations please refer to: http://libint.valeyev.net

 Your ORCA version has been built with support for libXC version: 7.0.0
 For citations please refer to: https://libxc.gitlab.io

 This ORCA versions uses:
   CBLAS   interface :  Fast vector & matrix operations
   LAPACKE interface :  Fast linear algebra routines
   SCALAPACK package :  Parallel linear algebra routines
   Shared memory     :  Shared parallel matrices
   BLAS/LAPACK       :  OpenBLAS 0.3.29  USE64BITINT DYNAMIC_ARCH NO_AFFINITY Haswell SINGLE_THREADED
        Core in use  :  Haswell
   Copyright (c) 2011-2014, The OpenBLAS Project


  ***********************************
  * Starting time: Sun Aug  9 16:56:17 2026
  * Host name:     localhost.localdomain
  * Process ID:    2953134
  * Working dir.:  /home/dinglab/calculation/templates/NMR_modules/autohnmr/alpha_diol_screening/CONF42/b3lyp-3c
  ***********************************

NOTE: MaxCore=2500 MB was set to SCF,MP2,MDCI,CIPSI,MRCI,RASCI and CIS
      => If you want to overwrite this, your respective input block should be placed after the MaxCore statement


***************************************
The coordinates will be read from file: inp.xyz
***************************************


Your calculation utilizes the geometrical counterpoise correction gCP
Please cite in your paper:
H.Kruse, S. Grimme J.Chem.Phys., 136, (2012), 154101 
   

Your calculation utilizes the atom-pairwise dispersion correction
with the Becke-Johnson damping scheme (D3BJ)


Warning: RI is on but no J-basis has been assigned. Assigning Def2/J (nothing to worry about!)
================================================================================

----- Orbital basis set information -----
Your calculation utilizes the basis: def2-mSVP

----- AuxJ basis set information -----
Your calculation utilizes the auxiliary basis: def2/J
   H-Rn: F. Weigend, Phys. Chem. Chem. Phys. 8, 1057 (2006).
   Fr-Lr: K. Eichkorn, F. Weigend, O. Treutler, R. Ahlrichs; Theor. Chem. Acc. 97, 119 (1997).

================================================================================
                                        WARNINGS
                       Please study these warnings very carefully!
================================================================================

WARNING: Old DensityContainer found on disk!
         Will remove this file - 
         If you want to keep old densities, please start your calculation with a different basename. 


WARNING: Gradients are needed
  ===> : At least TightSCF should be used for SCF convergence

================================================================================
                                       INPUT FILE
================================================================================
NAME = inp
|  1> ! b3lyp
|  2> ! d3bj ABC
|  3> ! def2-mSVP
|  4> ! GCP(DFT/SV(P))
|  5> ! DEFGRID2
|  6> ! scfconv6
|  7> ! miniprint nopop noautostart
|  8> %MaxCore 2500
|  9> ! ENGRAD
| 10> %pal
| 11>     nprocs 12
| 12> end
| 13> ! CPCM(chloroform)
| 14> * xyzfile 0 1 inp.xyz
| 15> 
| 16>                          ****END OF INPUT****
================================================================================

                     *******************************
                     * Energy+Gradient Calculation *
                     *******************************

---------------------------------
CARTESIAN COORDINATES (ANGSTROEM)
---------------------------------
  C      0.090764   -0.640178    0.112247
  C     -0.963986    0.405364    0.655193
  C     -0.337192    1.832334    0.752351
  C      0.582081    2.224040   -0.426501
  C      1.514836    1.051749   -0.826483
  C      0.650243   -0.145507   -1.261011
  C      1.373797   -0.594884    1.005884
  C      2.241676    0.507217    0.398745
  O      1.524738   -1.096622   -1.891993
  C     -0.494822   -2.054829    0.023877
  C      3.428215    0.924816    0.853453
  C     -2.322079    0.372235   -0.059334
  C     -2.596192    0.990419   -1.221168
  H     -1.168468    0.092621    1.691929
  O     -0.874366   -2.487769    1.339648
  C     -3.418937   -0.369652    0.684144
  H     -1.141003    2.575310    0.869667
  H      0.257985    1.879167    1.678627
  H     -0.006285    2.530016   -1.307521
  H      1.191217    3.096779   -0.139824
  H      2.203126    1.370208   -1.624878
  H     -0.153433    0.144991   -1.956299
  H      1.903027   -1.560629    0.957266
  H      1.142445   -0.413194    2.066706
  H      0.976608   -1.778307   -2.328904
  H      0.272326   -2.732598   -0.392966
  H     -1.361280   -2.066461   -0.665692
  H      3.885528    0.499565    1.750849
  H      3.993684    1.707573    0.340977
  H     -3.596727    0.943825   -1.658590
  H     -1.864361    1.576806   -1.776255
  H     -1.190171   -3.410894    1.272344
  H     -3.104880   -1.389108    0.953969
  H     -3.645724    0.145128    1.634860
  H     -4.347826   -0.425515    0.098446

----------------------------
CARTESIAN COORDINATES (A.U.)
----------------------------
  NO LB      ZA    FRAG     MASS         X           Y           Z
   0 C     6.0000    0    12.011    0.171518   -1.209760    0.212117
   1 C     6.0000    0    12.011   -1.821669    0.766027    1.238135
   2 C     6.0000    0    12.011   -0.637201    3.462610    1.421737
   3 C     6.0000    0    12.011    1.099973    4.202827   -0.805971
   4 C     6.0000    0    12.011    2.862626    1.987517   -1.561826
   5 C     6.0000    0    12.011    1.228782   -0.274969   -2.382966
   6 C     6.0000    0    12.011    2.596101   -1.124169    1.900845
   7 C     6.0000    0    12.011    4.236153    0.958501    0.753520
   8 O     8.0000    0    15.999    2.881338   -2.072316   -3.575349
   9 C     6.0000    0    12.011   -0.935078   -3.883065    0.045120
  10 C     6.0000    0    12.011    6.478387    1.747649    1.612793
  11 C     6.0000    0    12.011   -4.388094    0.703423   -0.112126
  12 C     6.0000    0    12.011   -4.906092    1.871620   -2.307674
  13 H     1.0000    0     1.008   -2.208084    0.175029    3.197282
  14 O     8.0000    0    15.999   -1.652311   -4.701203    2.531568
  15 C     6.0000    0    12.011   -6.460854   -0.698541    1.292844
  16 H     1.0000    0     1.008   -2.156183    4.866631    1.643432
  17 H     1.0000    0     1.008    0.487520    3.551110    3.172146
  18 H     1.0000    0     1.008   -0.011876    4.781037   -2.470856
  19 H     1.0000    0     1.008    2.251073    5.852063   -0.264230
  20 H     1.0000    0     1.008    4.163305    2.589318   -3.070575
  21 H     1.0000    0     1.008   -0.289947    0.273992   -3.696869
  22 H     1.0000    0     1.008    3.596199   -2.949162    1.808971
  23 H     1.0000    0     1.008    2.158907   -0.780824    3.905509
  24 H     1.0000    0     1.008    1.845522   -3.360514   -4.400991
  25 H     1.0000    0     1.008    0.514621   -5.163861   -0.742599
  26 H     1.0000    0     1.008   -2.572446   -3.905045   -1.257976
  27 H     1.0000    0     1.008    7.342583    0.944040    3.308624
  28 H     1.0000    0     1.008    7.546970    3.226846    0.644353
  29 H     1.0000    0     1.008   -6.796829    1.783571   -3.134281
  30 H     1.0000    0     1.008   -3.523131    2.979731   -3.356635
  31 H     1.0000    0     1.008   -2.249097   -6.445655    2.404382
  32 H     1.0000    0     1.008   -5.867372   -2.625033    1.802740
  33 H     1.0000    0     1.008   -6.889421    0.274252    3.089438
  34 H     1.0000    0     1.008   -8.216201   -0.804106    0.186036



           ************************************************************
           *        Program running with 12 parallel MPI-processes    *
           *              working on a common directory               *
           ************************************************************
------------------------------------------------------------------------------
                   ___                                                        
                  /   \      - P O W E R E D   B Y -                         
                 /     \                                                     
                 |  |  |   _    _      __       _____    __    __             
                 |  |  |  | |  | |    /  \     |  _  \  |  |  /  |          
                  \  \/   | |  | |   /    \    | | | |  |  | /  /          
                 / \  \   | |__| |  /  /\  \   | |_| |  |  |/  /          
                |  |  |   |  __  | /  /__\  \  |    /   |      \           
                |  |  |   | |  | | |   __   |  |    \   |  |\   \          
                \     /   | |  | | |  |  |  |  | |\  \  |  | \   \       
                 \___/    |_|  |_| |__|  |__|  |_| \__\ |__|  \__/        
                                                                              
                      - O R C A' S   B I G   F R I E N D -                    
                                      &                                       
                       - I N T E G R A L  F E E D E R -                       
                                                                              
 v1 FN, 2020, v2 2021, v3 2022-2024                                           
------------------------------------------------------------------------------


----------------------
SHARK INTEGRAL PACKAGE
----------------------

Number of atoms                             ...     35
Number of basis functions                   ...    265
Number of shells                            ...    145
Maximum angular momentum                    ...      2
Integral batch strategy                     ... SHARK/LIBINT Hybrid
RI-J (if used) integral strategy            ... SPLIT-RIJ (Revised 2003 algorithm where possible)
Printlevel                                  ...      1
Contraction scheme used                     ... SEGMENTED contraction
Prescreening option                         ... SCHWARTZ
   Thresh                                   ... 1.000e-10
   Tcut                                     ... 1.000e-11
   Tpresel                                  ... 1.000e-11 
Coulomb Range Separation                    ... NOT USED
Exchange Range Separation                   ... NOT USED
Multipole approximations                    ... NOT USED
Finite Nucleus Model                        ... NOT USED
CABS basis                                  ... NOT available
Auxiliary Coulomb fitting basis             ... AVAILABLE
   # of basis functions in Aux-J            ...    955
   # of shells in Aux-J                     ...    325
   Maximum angular momentum in Aux-J        ...      4
Auxiliary J/K fitting basis                 ... NOT available
Auxiliary Correlation fitting basis         ... NOT available
Auxiliary 'external' fitting basis          ... NOT available

Checking pre-screening integrals            ... done (  0.0 sec) Dimension = 145
   => SHARK Basis and OBASIS are compatible. Storing Pre-screening
Shell pair information
Shell pair cut-off parameter TPreSel        ...   1.0e-11
Total number of shell pairs                 ...     10585
Shell pairs after pre-screening             ...      8848
Total number of primitive shell pairs       ...     38205
Primitive shell pairs kept                  ...     20801
          la=0 lb=0:   3906 shell pairs
          la=1 lb=0:   2752 shell pairs
          la=1 lb=1:    456 shell pairs
          la=2 lb=0:   1203 shell pairs
          la=2 lb=1:    425 shell pairs
          la=2 lb=2:    106 shell pairs

Checking whether 4 symmetric matrices of dimension 265 fit in memory
:Max Core in MB      =   2500.00
 MB in use           =     14.31
 MB left             =   2485.69
 MB needed           =      1.08
 Data fit in memory  = YES
Calculating RI/J V-Matrix + Cholesky decomp.... done (  0.0 sec)
Calculating Nuclear repulsion               ... done (  0.0 sec) ENN=   1106.280301940871 Eh

Diagonalization of the overlap matrix:
Smallest eigenvalue                        ... 1.928e-03
Time for diagonalization                   ...    0.013 sec
Threshold for overlap eigenvalues          ... 1.000e-07
Number of eigenvalues below threshold      ... 0
Time for construction of square roots      ...    0.004 sec
Total time needed                          ...    0.018 sec

-------------------
DFT GRID GENERATION
-------------------

General Integration Accuracy     IntAcc      ... 4.388
Radial Grid Type                 RadialGrid  ... OptM3 with GC (2021)
Angular Grid (max. ang.)         AngularGrid ... 4 (Lebedev-302)
Angular grid pruning method      GridPruning ... 4 (adaptive)
Weight generation scheme         WeightScheme... mBecke (2022)
Basis function cutoff            BFCut       ... 1.0000e-10
Integration weight cutoff        WCut        ... 1.0000e-14
Partially contracted basis set               ... off
Rotationally invariant grid construction     ... off
Angular grids for H and He will be reduced by one unit

Total number of grid points                  ...   152330
Total number of batches                      ...     2398
Average number of points per batch           ...       63
Average number of grid points per atom       ...     4352

--------------------
COSX GRID GENERATION
--------------------

GRIDX 1
-------
General Integration Accuracy     IntAcc      ... 3.816
Radial Grid Type                 RadialGrid  ... OptM3 with GC (2021)
Angular Grid (max. ang.)         AngularGrid ... 1 (Lebedev-50)
Angular grid pruning method      GridPruning ... 4 (adaptive)
Weight generation scheme         WeightScheme... mBecke (2022)
Basis function cutoff            BFCut       ... 1.0000e-10
Integration weight cutoff        WCut        ... 1.0000e-14
Partially contracted basis set               ... on
Rotationally invariant grid construction     ... off
Angular grids for H and He will be reduced by one unit

Total number of grid points                  ...    19398
Total number of batches                      ...      172
Average number of points per batch           ...      112
Average number of grid points per atom       ...      554
UseSFitting                                  ... on

GRIDX 2
-------
General Integration Accuracy     IntAcc      ... 4.020
Radial Grid Type                 RadialGrid  ... OptM3 with GC (2021)
Angular Grid (max. ang.)         AngularGrid ... 2 (Lebedev-110)
Angular grid pruning method      GridPruning ... 4 (adaptive)
Weight generation scheme         WeightScheme... mBecke (2022)
Basis function cutoff            BFCut       ... 1.0000e-10
Integration weight cutoff        WCut        ... 1.0000e-14
Partially contracted basis set               ... on
Rotationally invariant grid construction     ... off
Angular grids for H and He will be reduced by one unit

Total number of grid points                  ...    40666
Total number of batches                      ...      335
Average number of points per batch           ...      121
Average number of grid points per atom       ...     1162
UseSFitting                                  ... on

GRIDX 3
-------
General Integration Accuracy     IntAcc      ... 4.338
Radial Grid Type                 RadialGrid  ... OptM3 with GC (2021)
Angular Grid (max. ang.)         AngularGrid ... 3 (Lebedev-194)
Angular grid pruning method      GridPruning ... 4 (adaptive)
Weight generation scheme         WeightScheme... mBecke (2022)
Basis function cutoff            BFCut       ... 1.0000e-10
Integration weight cutoff        WCut        ... 1.0000e-14
Partially contracted basis set               ... on
Rotationally invariant grid construction     ... off
Angular grids for H and He will be reduced by one unit

Total number of grid points                  ...    88394
Total number of batches                      ...      709
Average number of points per batch           ...      124
Average number of grid points per atom       ...     2526
UseSFitting                                  ... on
Grids setup in   1.6 sec
Initializing property integral containers    ... done (  0.0 sec)

SHARK setup successfully completed in   1.8 seconds

Maximum memory used throughout the entire STARTUP-calculation: 40.9 MB


           ************************************************************
           *        Program running with 12 parallel MPI-processes    *
           *              working on a common directory               *
           ************************************************************
Loading Hartree-Fock densities                     ... done
Calculating cut-offs                               ... done
Initializing the effective Hamiltonian             ... done
Setting up the integral package (SHARK)            ... done
Starting the Coulomb interaction                   ... done (   0.1 sec)
Making the grid                                    ... done (   0.2 sec)
Mapping shells                                     ... done
Starting the XC term evaluation                    ... done (   0.1 sec)
  promolecular density results
     # of electrons  =    114.000225157
     EX              =    -89.148380719
     EC              =     -3.803439680
     EX+EC           =    -92.951820398
Transforming the Hamiltonian                       ... done (   0.0 sec)
Diagonalizing the Hamiltonian                      ... done (   0.0 sec)
Back transforming the eigenvectors                 ... done (   0.0 sec)
Now organizing SCF variables                       ... done
             **** ENERGY FILE WAS UPDATED (inp.en.tmp) ****
Finished Guess after   0.6 sec
Maximum memory used throughout the entire GUESS-calculation: 17.6 MB


           ************************************************************
           *        Program running with 12 parallel MPI-processes    *
           *              working on a common directory               *
           ************************************************************
--------------------
CPCM SOLVATION MODEL
--------------------
CPCM parameters:
  Epsilon                                         ...       4.8030
  Refrac                                          ...       1.4459
  Rsolv                                           ...       1.3000
  Surface type                                    ... GAUSSIAN VDW
  Discretization scheme                           ... Constant charge density
    Threshold for H atoms                         ...       5.0000 (charges/Ang^2)
    Threshold for non-H atoms                     ...       5.0000 (charges/Ang^2)
  Epsilon function type                           ...         CPCM
Solvent:                                          ... CHLOROFORM
Radii:
  Scheme                                          ... Element-dependent radii
  Radius for C  used is    3.8550 Bohr (=   2.0400 Ang.)
  Radius for O  used is    3.4469 Bohr (=   1.8240 Ang.)
  Radius for H  used is    2.4944 Bohr (=   1.3200 Ang.)
Calculating surface                               ...        done! (  0.0s)
Cavity surface points                             ...         2594
Cavity Volume                                     ...    1816.8044
Cavity Surface-area                               ...     918.0734
Calculating surface distance matrix               ...        done! (  0.1s)
Performing Cholesky decomposition & store         ...        done! (  0.2s)
Overall time for CPCM initialization              ...                 0.3s

----------------------------------------D-I-I-S--------------------------------------------
Iteration    Energy (Eh)           Delta-E    RMSDP     MaxDP     DIISErr   Damp  Time(sec)
-------------------------------------------------------------------------------------------
               ***  Starting incremental Fock matrix formation  ***
    1    -656.9364521101288119     0.00e+00  9.06e-03  7.37e-02  2.44e-01  0.700   2.1
    2    -657.1306192838105744    -1.94e-01  6.49e-03  4.13e-02  1.05e-01  0.700   1.3
                               ***Turning on AO-DIIS***
    3    -657.2103218596910210    -7.97e-02  2.55e-03  1.61e-02  3.76e-02  0.700   1.3
    4    -657.2570962754484754    -4.68e-02  4.29e-03  2.46e-02  1.85e-02  0.000   1.2
    5    -657.3589015916288645    -1.02e-01  8.44e-04  4.98e-03  5.11e-03  0.000   1.3
                              *** Initializing SOSCF ***
---------------------------------------S-O-S-C-F--------------------------------------
Iteration    Energy (Eh)           Delta-E    RMSDP     MaxDP     MaxGrad    Time(sec)
--------------------------------------------------------------------------------------
    6    -657.3592573293701662    -3.56e-04  2.81e-04  1.79e-03  9.50e-04     1.2
               *** Restarting incremental Fock matrix formation ***
    7    -657.3591868846178841     7.04e-05  1.72e-04  1.39e-03  3.38e-04     2.1
    8    -657.3591816376397219     5.25e-06  9.44e-05  7.43e-04  6.12e-04     1.5
    9    -657.3591907079653538    -9.07e-06  1.43e-05  1.16e-04  3.00e-05     1.4
                  *** Gradient check signals convergence ***

               *****************************************************
               *                     SUCCESS                       *
               *           SCF CONVERGED AFTER   9 CYCLES          *
               *****************************************************

Recomputing exchange energy using gridx3       ... done (    2.942 sec)
Old exchange energy                            :    -18.196789749 Eh
New exchange energy                            :    -18.196867736 Eh
Exchange energy change after final integration :     -0.000077988 Eh
Total energy after final integration           :   -657.359268616 Eh
             **** ENERGY FILE WAS UPDATED (inp.en.tmp) ****

----------------
TOTAL SCF ENERGY
----------------

Total Energy       :       -657.35926861647863 Eh          -17887.65509 eV

Components:
Nuclear Repulsion  :       1106.28030194087091 Eh           30103.41744 eV
Electronic Energy  :      -1763.62621924776272 Eh          -47990.70923 eV
One Electron Energy:      -3090.34409052847468 Eh          -84092.53789 eV
Two Electron Energy:       1326.71787128071196 Eh           36101.82866 eV
CPCM Dielectric    :         -0.01327332183409 Eh              -0.36119 eV

Virial components:
Potential Energy   :      -1309.69018625014837 Eh          -35638.48179 eV
Kinetic Energy     :        652.33091763366974 Eh           17750.82670 eV
Virial Ratio       :          2.00770828247885

DFT components:
N(Alpha)           :       57.000017338539 electrons
N(Beta)            :       57.000017338539 electrons
N(Total)           :      114.000034677078 electrons
E(X)               :      -72.175011096581 Eh       
E(C)               :       -4.481235414502 Eh       
E(XC)              :      -76.656246511084 Eh       

CPCM Solvation Model Properties:
Surface-charge          :         -0.02184624930425
Corrected charge        :         -0.00000000000000
Outlying charge corr.   :          0.00002352144153 Eh               0.00064 eV
Free-energy (cav+disp)  :  This term is not implemented in the current solvation scheme

---------------
SCF CONVERGENCE
---------------

  Last Energy change         ...    9.0703e-06  Tolerance :   1.0000e-06
  Last MAX-Density change    ...    1.1649e-04  Tolerance :   1.0000e-07
  Last RMS-Density change    ...    1.4306e-05  Tolerance :   5.0000e-09
  Last DIIS Error            ...    9.4958e-04  Tolerance :   1.0000e-06
  Last Orbital Gradient      ...    3.0046e-05  Tolerance :   3.3300e-04
  Last Orbital Rotation      ...    1.0048e-04  Tolerance :   3.3300e-04


----------------
ORBITAL ENERGIES
----------------

  NO   OCC          E(Eh)            E(eV) 
   0   2.0000     -19.128823      -520.5217 
   1   2.0000     -19.128152      -520.5035 
   2   2.0000     -10.219387      -278.0837 
   3   2.0000     -10.215744      -277.9845 
   4   2.0000     -10.186030      -277.1760 
   5   2.0000     -10.185372      -277.1581 
   6   2.0000     -10.180060      -277.0135 
   7   2.0000     -10.179932      -277.0100 
   8   2.0000     -10.174892      -276.8729 
   9   2.0000     -10.170767      -276.7606 
  10   2.0000     -10.168259      -276.6924 
  11   2.0000     -10.168109      -276.6883 
  12   2.0000     -10.162809      -276.5441 
  13   2.0000     -10.159516      -276.4545 
  14   2.0000     -10.157178      -276.3909 
  15   2.0000      -1.006662       -27.3927 
  16   2.0000      -1.001928       -27.2638 
  17   2.0000      -0.851864       -23.1804 
  18   2.0000      -0.796781       -21.6815 
  19   2.0000      -0.757653       -20.6168 
  20   2.0000      -0.748174       -20.3588 
  21   2.0000      -0.712320       -19.3832 
  22   2.0000      -0.671071       -18.2608 
  23   2.0000      -0.667668       -18.1682 
  24   2.0000      -0.657307       -17.8862 
  25   2.0000      -0.602470       -16.3940 
  26   2.0000      -0.580565       -15.7980 
  27   2.0000      -0.543328       -14.7847 
  28   2.0000      -0.525473       -14.2989 
  29   2.0000      -0.506158       -13.7733 
  30   2.0000      -0.493345       -13.4246 
  31   2.0000      -0.486493       -13.2382 
  32   2.0000      -0.466304       -12.6888 
  33   2.0000      -0.463094       -12.6014 
  34   2.0000      -0.444084       -12.0841 
  35   2.0000      -0.431817       -11.7503 
  36   2.0000      -0.426038       -11.5931 
  37   2.0000      -0.409636       -11.1468 
  38   2.0000      -0.400442       -10.8966 
  39   2.0000      -0.395058       -10.7501 
  40   2.0000      -0.392103       -10.6697 
  41   2.0000      -0.380116       -10.3435 
  42   2.0000      -0.373274       -10.1573 
  43   2.0000      -0.369965       -10.0672 
  44   2.0000      -0.359680        -9.7874 
  45   2.0000      -0.352667        -9.5966 
  46   2.0000      -0.342927        -9.3315 
  47   2.0000      -0.337232        -9.1766 
  48   2.0000      -0.326621        -8.8878 
  49   2.0000      -0.310823        -8.4579 
  50   2.0000      -0.301722        -8.2103 
  51   2.0000      -0.298779        -8.1302 
  52   2.0000      -0.287611        -7.8263 
  53   2.0000      -0.262477        -7.1424 
  54   2.0000      -0.256075        -6.9682 
  55   2.0000      -0.236605        -6.4383 
  56   2.0000      -0.234597        -6.3837 
  57   0.0000       0.019321         0.5258 
  58   0.0000       0.022157         0.6029 
  59   0.0000       0.087159         2.3717 
  60   0.0000       0.096567         2.6277 
  61   0.0000       0.109785         2.9874 
  62   0.0000       0.126301         3.4368 
  63   0.0000       0.143766         3.9121 
  64   0.0000       0.148667         4.0454 
  65   0.0000       0.154991         4.2175 
  66   0.0000       0.157907         4.2969 
  67   0.0000       0.162392         4.4189 
*Only the first 10 virtual orbitals were printed.
Total SCF time: 0 days 0 hours 0 min 18 sec 
Finished LeanSCF after  18.3 sec

Maximum memory used throughout the entire LEANSCF-calculation: 31.5 MB


-------------------------------------------------------------------------------
                          DFT DISPERSION CORRECTION                            
                                                                               
                              DFTD3 V3.1  Rev 1                                
                          USING Becke-Johnson damping                          
-------------------------------------------------------------------------------
-------------------------   ----------------
Dispersion correction           -0.073541817
-------------------------   ----------------

NOTIFICATION: Different basis set in ORCA and otool_gcp:
ORCA: 265  gCP: 250 
If you are NOT using ECPs, check your basis set inputs!
------------------   -----------------
gCP correction             0.161357091
------------------   -----------------

-------------------------   --------------------
FINAL SINGLE POINT ENERGY      -657.271453341887
-------------------------   --------------------



           ************************************************************
           *        Program running with 12 parallel MPI-processes    *
           *              working on a common directory               *
           ************************************************************
------------------------------------------------------------------------------
                         ORCA SCF GRADIENT CALCULATION
------------------------------------------------------------------------------

Nuc. rep. gradient        (SHARK) ... done (  0.0 sec)
HCore & Overlap gradient  (SHARK) ... done (  0.1 sec)
Split-RIJ-J gradient      (SHARK) ... done (  0.6 sec)
COSX-gradient                     ... done (  6.8 sec)
XC gradient                       ... done (  2.1 sec)
CPCM gradient                     ... done (  0.7 sec)
Dispersion correction             ... done (  0.0 sec)

-------------------
DISPERSION GRADIENT
-------------------

   1   C   :    0.000301444   -0.000536408    0.000111595
   2   C   :   -0.000479132    0.000276917    0.000493993
   3   C   :   -0.000184168    0.000942220    0.000515362
   4   C   :    0.000236313    0.001008012   -0.000195907
   5   C   :    0.000623552    0.000397556   -0.000480299
   6   C   :    0.000570851   -0.000245819   -0.000771257
   7   C   :    0.000630004   -0.000411599    0.000586333
   8   C   :    0.000813708    0.000020157    0.000115766
   9   O   :    0.000317204   -0.000389695   -0.000772536
  10   C   :   -0.000070661   -0.001167516    0.000020742
  11   C   :    0.001187683    0.000161511    0.000387940
  12   C   :   -0.001222618    0.000188030    0.000025008
  13   C   :   -0.001138116    0.000409566   -0.000748450
  14   H   :   -0.000199249    0.000076133    0.000492721
  15   O   :   -0.000100054   -0.000820445    0.000340986
  16   C   :   -0.000928899   -0.000018304    0.000216980
  17   H   :   -0.000090312    0.000471933    0.000270720
  18   H   :   -0.000116161    0.000415805    0.000440924
  19   H   :    0.000064276    0.000521535   -0.000274421
  20   H   :    0.000030944    0.000515964   -0.000064036
  21   H   :    0.000265488    0.000198069   -0.000366711
  22   H   :    0.000052703   -0.000054413   -0.000629356
  23   H   :    0.000306946   -0.000341405    0.000273305
  24   H   :    0.000195423   -0.000170488    0.000530974
  25   H   :    0.000122676   -0.000259882   -0.000436501
  26   H   :   -0.000016590   -0.000479108   -0.000072098
  27   H   :   -0.000126724   -0.000560456   -0.000146837
  28   H   :    0.000307205    0.000047991    0.000147941
  29   H   :    0.000365421    0.000094321    0.000075764
  30   H   :   -0.000216951    0.000105858   -0.000239786
  31   H   :   -0.000379239    0.000223990   -0.000420801
  32   H   :   -0.000055598   -0.000370324    0.000129716
  33   H   :   -0.000423679   -0.000155095    0.000170412
  34   H   :   -0.000339119   -0.000029825    0.000231161
  35   H   :   -0.000304573   -0.000064787    0.000040653

Difference to translation invariance:
           :   -0.0000000000    0.0000000000    0.0000000000

Difference to rotation invariance:
           :    0.0000000000   -0.0000000000    0.0000000000

Norm of the Dispersion gradient    ...    0.0045607022
RMS gradient                       ...    0.0004450790
MAX gradient                       ...    0.0012226183
gCP correction                   ... done

------------------
CARTESIAN GRADIENT
------------------

   1   C   :   -0.000072193    0.000253976    0.000059155
   2   C   :    0.000122965   -0.000064057   -0.000415405
   3   C   :   -0.000119383   -0.000160349    0.000047516
   4   C   :    0.000128059   -0.000222565    0.000027772
   5   C   :   -0.000030924   -0.000025709    0.000082356
   6   C   :    0.000106969   -0.000232502   -0.000059093
   7   C   :   -0.000035866    0.000105028   -0.000275239
   8   C   :   -0.000273055   -0.000041164   -0.000032128
   9   O   :   -0.000233705    0.000140808    0.000280008
  10   C   :   -0.000100124   -0.000050238    0.000430534
  11   C   :   -0.000045159    0.000099335    0.000145112
  12   C   :    0.000132443   -0.000152770    0.000400706
  13   C   :    0.000008170    0.000163408   -0.000161736
  14   H   :    0.000035821   -0.000061547    0.000076313
  15   O   :    0.000213505   -0.000023060   -0.000401437
  16   C   :   -0.000051341   -0.000035987   -0.000209407
  17   H   :   -0.000080527    0.000010177    0.000013586
  18   H   :    0.000014268    0.000074376    0.000053764
  19   H   :   -0.000061838    0.000012038   -0.000058124
  20   H   :   -0.000002790    0.000067294   -0.000039053
  21   H   :    0.000069227    0.000051608   -0.000053139
  22   H   :   -0.000022392   -0.000021361   -0.000020655
  23   H   :    0.000049010   -0.000068073    0.000072330
  24   H   :   -0.000100555   -0.000003481    0.000083766
  25   H   :    0.000101670    0.000028989   -0.000073393
  26   H   :   -0.000048694    0.000019584   -0.000104791
  27   H   :   -0.000058639    0.000028069   -0.000057514
  28   H   :    0.000063174   -0.000130039    0.000073311
  29   H   :    0.000048871    0.000054030   -0.000160234
  30   H   :   -0.000062299   -0.000031231   -0.000002599
  31   H   :    0.000110826    0.000057051   -0.000040185
  32   H   :   -0.000052258    0.000058645    0.000092439
  33   H   :    0.000016060    0.000088782    0.000045591
  34   H   :    0.000067595    0.000014313    0.000012543
  35   H   :    0.000163110   -0.000003380    0.000167329

Difference to translation invariance:
           :    0.0000000000    0.0000000000    0.0000000000

Difference to rotation invariance:
           :   -0.0000489356    0.0002455092   -0.0001519597

Norm of the Cartesian gradient     ...    0.0013387249
RMS gradient                       ...    0.0001306462
MAX gradient                       ...    0.0004305341

-------
TIMINGS
-------

Total SCF gradient time     ....       10.348 sec

Densities                   ....       0.001 sec  (  0.0%)
One electron gradient       ....       0.122 sec  (  1.2%)
RI-J Coulomb gradient       ....       0.588 sec  (  5.7%)
COSX gradient               ....       6.782 sec  ( 65.5%)
XC gradient                 ....       2.078 sec  ( 20.1%)
CPCM gradient               ....       0.705 sec  (  6.8%)
   A-Matrix (El+Nuc)        ....       0.026 sec  (  0.2%)
   Potential                ....       0.680 sec  (  6.6%)

Maximum memory used throughout the entire SCFGRAD-calculation: 37.8 MB


           ************************************************************
           *        Program running with 12 parallel MPI-processes    *
           *              working on a common directory               *
           ************************************************************

------------------------------------------------------------------------------
                              ORCA PROPERTY CALCULATIONS
------------------------------------------------------------------------------

GBWName                                 ... inp.gbw
Number of atoms                         ...     35
Number of basis functions               ...    265
Max core memory                         ...   2500 MB

Electric properties:
Dipole moment                           ... YES
Quadrupole moment                       ...  NO
Static polarizability (Dipole/Dipole)   ...  NO
Static polarizability (Dipole/Quad.)    ...  NO
Static polarizability (Quad./Quad.)     ...  NO
Static polarizability (Velocity)        ...  NO
Static hyperpolarizability              ...  NO

Atomic electric properties:
Dipole moment                           ...  NO
Quadrupole moment                       ...  NO
Static polarizability                   ...  NO

Choice of electric origin               ... Center of mass
Position of electric origin             ...     0.014362    -0.004102     0.008562

General magnetic properties:
Magnetizability                         ...  NO

EPR properties:
g-Tensor (aka g-matrix)                 ...  NO
Zero-Field splitting spin-orbit         ...  NO
Zero-field splitting spin-spin          ...  NO
Hyperfine couplings                     ...  NO (   0 nuclei)
Quadrupole couplings                    ...  NO (   0 nuclei)
Contact density                         ...  NO (   0 nuclei)

NMR properties:
Chemical shifts                         ...  NO (   0 nuclei)
Spin-rotation constants                 ...  NO (   0 nuclei)
Spin-spin couplings                     ...  NO (   0 nuclei,    0 pairs)

Choice of magnetic origin               ... GIAO
Position of magnetic origin             ...     0.000000     0.000000     0.000000

Properties with geometric perturbations:
SCF Hessian                             ...  NO
IR spectrum                             ...  NO
VCD spectrum                            ...  NO
X-ray spectroscopy properties:
SCF XES/XAS/RIXS spectra                ...  NO

SCF SOC stabilization energy            ...  NO
Diagonal Born-Oppenheimer correction    ...  NO

-------------
DIPOLE MOMENT
-------------

Method             : SCF
Type of density    : Electron Density
Multiplicity       :   1
Irrep              :   0
Energy             :  -657.3592686164786301 Eh
Basis              : AO
                                X                 Y                 Z
Electronic contribution:      4.608690219      -3.352260341      -1.640403322
Nuclear contribution   :     -5.531680667       2.600865110       1.280836688
                        -----------------------------------------
Total Dipole Moment    :     -0.922990449      -0.751395232      -0.359566634
                        -----------------------------------------
Magnitude (a.u.)       :      1.243299773
Magnitude (Debye)      :      3.160216877



--------------------
Rotational spectrum 
--------------------
 
Rotational constants in cm-1:             0.028749             0.017888             0.015086 
Rotational constants in MHz :           861.872764           536.279784           452.275361 

Dipole components along the rotational axes: 
x,y,z [a.u.] :    -1.031749    -0.453879    -0.524674 
x,y,z [Debye]:    -2.622497    -1.153669    -1.333615 

 

Dipole moment calculation done in   0.0 sec 

Maximum memory used throughout the entire PROP-calculation: 16.6 MB

--------------------------------
SUGGESTED CITATIONS FOR THIS RUN
--------------------------------

Below you find a list of papers that are relevant to this ORCA run
We neither can nor want to force you to cite these papers, but we appreciate if you do
You receive ORCA, which is the product of decades of hard work by many enthusiastic individuals, for free
The only thing we kindly ask in return is that you cite our papers,
We deeply appreciate it, if you show your appreciation for ORCA by not just citing the generic ORCA reference.

Please note that relegating all ORCA citations to the supporting information does *not* help us.
SI sections are not indexed - citations you put there will not count into any citation statistics
But we need these citations in order to attract the funding resources that allow us to do what we are doing

Therefore, if you are a happy ORCA user, please consider citing a few of the papers listed below in the main body of your paper

In addition to the list printed below, the program has created the file inp.bibtex that contains the list in bibtex format
You can import this file easily into all common literature databanks and citation aid programs

It goes without saying that in many instances, there are alternative algorithms to achieve similar
results as the ones you have gotten from ORCA. It is, of course, also the case that in some instances
ORCA just re-implements algorithms worked out by others. We are fully aware of that and we are also
fully appreciative of our colleagues work. Hence this citation list should not be read as indicating
that the listed papers, which are focused on our own work, are the only ones worth citing. It simply
meant to make it easier for users to cite ORCA specific papers. It is not a substitute for doing your
own literature research and citing the relevant literature in a scientifically appropriate manner.

List of essential papers. We consider these as the minimum necessary citations

  1. Neese, F.
     Software update: the ORCA program system, version 6.0
     WIRES Comput. Molec. Sci. 2025 15(1), e70019
     doi.org/10.1002/wcms.70019

List of papers to cite with high priority. The work reported in these papers was absolutely
necessary for this run to complete.
Our perspective: the developers of density functionals and basis sets usually get cited in chemistry papers
Good! But without the algorithms to do something with them, the functionals or basis sets would not do anything.
Hence, in our opinion, the algorithm design and method developments papers are equally worthy of getting cited

  1. Neese, F.
     An improvement of the resolution of the identity approximation for the formation of the Coulomb matrix
     J. Comp. Chem. 2003 24(14), 1740-1747
     doi.org/10.1002/jcc.10318
  2. Neese, F.; Wennmohs, F.; Hansen, A.; Becker, U.
     Efficient, approximate and parallel Hartree-Fock and hybrid DFT calculations. A 'chain-of-spheres' algorithm for the Hartree-Fock exchange
     Chem. Phys. 2009 356(1-3), 98-109
     doi.org/10.1016/j.chemphys.2008.10.036
  3. Grimme, S.; Antony, J.; Ehrlich, S.; Krieg, H.
     A consistent and accurate ab initio parametrization of density functional dispersion correction (DFT-D) for the 94 elements H-Pu
     J. Chem. Phys. 2010 132 , 154104
     doi.org/10.1063/1.3382344
  4. Grimme, S.; Ehrlich, S.; Goerigk, L.
     Effect of the damping function in dispersion corrected density functional theory
     J. Comput. Chem. 2011 32(7), 1456-1465
     doi.org/10.1002/jcc.21759
  5. Garcia-Rates, M.; Neese, F.
     Effect of the Solute Cavity on the Solvation Energy and its Derivatives within the Framework of the Gaussian Charge Scheme
     J. Comput. Chem. 2020 41 , 922-939
     doi.org/10.1002/jcc.26139
  6. Helmich-Paris, B.; de Souza, B.; Neese, F.; Izsák, R.
     An improved chain of spheres for exchange algorithm
     J. Chem. Phys. 2021 155(10), 104109
     doi.org/10.1063/5.0058766
  7. Neese, F.
     The SHARK Integral Generation and Digestion System
     J. Comp. Chem. 2022 44(3), 381
     doi.org/10.1002/jcc.26942

List of suggested additional citations. These are papers that are important in the 'surrounding' of 
of this run, or papers that preceded the highly important papers. If you like your results we are grateful for a citation.

  1. Izsak, R.; Neese, F.
     An overlap fitted chain of spheres exchange method
     J. Chem. Phys. 2011 135 , 144105
     doi.org/10.1063/1.3646921
  2. Izsak, R.; Hansen, A.; Neese, F.
     The resolution of identity and chain of spheres approximations for the LPNO-CCSD singles Fock term
     Molec. Phys. 2012 110 , 2413-2417
     doi.org/10.1080/00268976.2012.687466
  3. Neese, F.
     The ORCA program system
     WIRES Comput. Molec. Sci. 2012 2(1), 73-78
     doi.org/10.1002/wcms.81
  4. Izsak, R.; Neese, F.; Klopper, W.
     Robust fitting techniques in the chain of spheres approximation to the Fock exchange: The role of the complementary space
     J. Chem. Phys. 2013 139 , 
     doi.org/10.1063/1.4819264
  5. Neese, F.
     Software update: the ORCA program system, version 4.0
     WIRES Comput. Molec. Sci. 2018 8(1), 1-6
     doi.org/10.1002/wcms.1327
  6. Neese, F.; Wennmohs, F.; Becker, U.; Riplinger, C.
     The ORCA quantum chemistry program package
     J. Chem. Phys. 2020 152(22), 224108
     doi.org/10.1063/5.0004608
  7. Neese, F.
     Software update: The ORCA program system—Version 5.0
     WIRES Comput. Molec. Sci. 2022 12(1), e1606
     doi.org/10.1002/wcms.1606

List of optional additional citations

  1. Neese, F.
     Approximate second-order SCF convergence for spin unrestricted wavefunctions
     Chem. Phys. Lett. 2000 325(1-3), 93-98
     doi.org/10.1016/s0009-2614(00)00662-x

Timings for individual modules:

Sum of individual times          ...       32.281 sec (=   0.538 min)
Startup calculation              ...        2.069 sec (=   0.034 min)   6.4 %
SCF iterations                   ...       19.145 sec (=   0.319 min)  59.3 %
Property calculations            ...        0.349 sec (=   0.006 min)   1.1 %
SCF Gradient evaluation          ...       10.719 sec (=   0.179 min)  33.2 %
                             ****ORCA TERMINATED NORMALLY****
TOTAL RUN TIME: 0 days 0 hours 0 minutes 32 seconds 627 msec
  ------------------------------------------------------------------------
          * successful ORCA run, taking over control again...

         :::::::::::::::::::::::::::::::::::::::::::::::::::::
         ::                  ORCA SUMMARY                   ::
         :::::::::::::::::::::::::::::::::::::::::::::::::::::
         :: total energy            -657.271453341887 Eh    ::
         :: gradient norm              0.001338724923 Eh/a0 ::
         :: HOMO-LUMO gap              0.000000000000 eV    ::
         :::::::::::::::::::::::::::::::::::::::::::::::::::::

      ----------------------------------------------------------- 
     |                       L-ANC optimizer                     |
      ----------------------------------------------------------- 
          low memory version by Sebastian Ehlert

          ...................................................
          :                      SETUP                      :
          :.................................................:
          :   energy convergence        0.5000000E-05 Eh    :
          :   grad. convergence         0.1000000E-02 Eh/a0 :
          :   optimization log               true           :
          :   writing optlog all                1     steps :
          :   Hessian reset                     8     steps :
          :   maximium step len.        1.0000000     a0    :
          :   LBFGS images                      8           :
          ...................................................
 * calculating model hessian...
Using Lindh-Hessian (1995)
 Shifting diagonal of input Hessian by   1.000000000000000E-002
 Lowest  eigenvalues of input Hessian
    0.000000    0.000000    0.000000    0.000000    0.000000    0.000000
    0.011131    0.012009    0.012443    0.013642    0.013950    0.015404
    0.016550    0.017840    0.018213    0.019357    0.019573    0.020216
 Highest eigenvalues
    1.394463    1.406307    1.407681    1.423144    1.809310    1.861967
 

........................................................................
.............................. CYCLE    1 ..............................
........................................................................
                         * ORCA takes the control...
  ------------------------------------------------------------------------

                                 *****************
                                 * O   R   C   A *
                                 *****************

                                            #,                                       
                                            ###                                      
                                            ####                                     
                                            #####                                    
                                            ######                                   
                                           ########,                                 
                                     ,,################,,,,,                         
                               ,,#################################,,                 
                          ,,##########################################,,             
                       ,#########################################, ''#####,          
                    ,#############################################,,   '####,        
                  ,##################################################,,,,####,       
                ,###########''''           ''''###############################       
              ,#####''   ,,,,##########,,,,          '''####'''          '####       
            ,##' ,,,,###########################,,,                        '##       
           ' ,,###''''                  '''############,,,                           
         ,,##''                                '''############,,,,        ,,,,,,###''
      ,#''                                            '''#######################'''  
     '                                                          ''''####''''         
             ,#######,   #######,   ,#######,      ##                                
            ,#'     '#,  ##    ##  ,#'     '#,    #''#        ,####,    ,#,          
            ##       ##  ##   ,#'  ##            #'  '#       #'       ,# #          
            ##       ##  #######   ##           ,######,      #####,      #          
            '#,     ,#'  ##    ##  '#,     ,#' ,#      #,     #,   #      #          
             '#######'   ##     ##  '#######'  #'      '#     '####' #    #          



                #########################################################
                #                        -***-                          #
                #          Department of theory and spectroscopy        #
                #                                                       #
                #                      Frank Neese                      #
                #                                                       #
                #     Directorship, Architecture, Infrastructure        #
                #                    SHARK, DRIVERS                     #
                #        Core code/Algorithms in most modules           #
                #                                                       #
                #        Max Planck Institute fuer Kohlenforschung      #
                #                Kaiser Wilhelm Platz 1                 #
                #                 D-45470 Muelheim/Ruhr                 #
                #                      Germany                          #
                #                                                       #
                #                  All rights reserved                  #
                #                        -***-                          #
                #########################################################


                         Program Version 6.1.1  -  RELEASE   -
                                (GIT: $487d211c$)
                          ($2025-11-21 10:33:24 +0100$)


 With contributions from (in alphabetic order):
[Max-Planck-Institut fuer Kohlenforschung]                               
  Daniel Aravena         : Magnetic Suceptibility                        
  Michael Atanasov       : Ab Initio Ligand Field Theory (pilot matlab implementation)
  Alexander A. Auer      : GIAO ZORA, VPT2 properties, NMR spectrum      
  Ute Becker             : All parallelization in ORCA, NUMFREQ, NUMCALC 
  Giovanni Bistoni       : ED, misc. LED, open-shell LED, HFLD           
  Dmytro Bykov           : pre 5.0 version of the SCF Hessian            
  Marcos Casanova-Páez   : Triplet and SCS-CIS(D). UHF-(DLPNO)-IP/EA/STEOM-CCSD. UHF-CVS-IP/STEOM-CCSD   
  Vijay G. Chilkuri      : MRCI spin determinant printing, contributions to CSF-ICE 
  Pauline Colinet        : FMM embedding                                 
  Dipayan Datta          : RHF DLPNO-CCSD density                        
  Achintya Kumar Dutta   : EOM-CC, STEOM-CC                              
  Nicolas Foglia         : Exact transition moments, OPA infrastructure, MCD improvements    
  Dmitry Ganyushin       : Spin-Orbit,Spin-Spin,Magnetic field MRCI      
  Miquel Garcia-Rates    : C-PCM and meta-GGA Hessian, CCSD/C-PCM, Gaussian charge scheme 
  Tiago L. C. Gouveia    : GS-ROHF, GS-ROCIS                             
  Yang Guo               : DLPNO-NEVPT2, F12-NEVPT2, CIM, IAO-localization        
  Andreas Hansen         : Spin unrestricted coupled pair/coupled cluster methods 
  Ingolf Harden          : AUTO-CI MPn and infrastructure                
  Benjamin Helmich-Paris : MC-RPA, TRAH-(SCF,CASSCF), AVAS, COSX integrals, SCF dyn. polar., MC-PDFT, srDFT 
  Lee Huntington         : MR-EOM, pCC                                   
  Robert Izsak           : Overlap fitted RIJCOSX, COSX-SCS-MP3, EOM     
  Riya Kayal             : Wick's Theorem for AUTO-CI, AUTO-CI UHF-CCSDT 
  Emily Kempfer          : AUTO-CI RHF CISDT and CCSDT, approximate NEVPT4
  Christian Kollmar      : KDIIS, OOCD, Brueckner-CCSD(T), CCSD density, CASPT2, CASPT2-K, improved NEVPT2 
  Axel Koslowski         : Symmetry handling                             
  Simone Kossmann        : meta-GGA functionals, TD-DFT gradient, OOMP2, (MP2 Hessian; deprecated post 5.0) 
  Lucas Lang             : DCDCAS, Hyperfine gauge corrections, ICE-SOC+SSC
  Marvin Lechner         : AUTO-CI (C++ implementation), FIC-MRCC        
  Spencer Leger          : CASSCF response                               
  Dagmar Lenk            : GEPOL surface, SMD, ORCA-2-JSON               
  Dimitrios Liakos       : Extrapolation schemes; Compound Job, Property file
  Dimitrios Manganas     : Further ROCIS development; embedding schemes. LFT, Crystal Embedding 
  Dimitrios Pantazis     : SARC Basis sets                               
  Anastasios Papadopoulos: AUTO-CI, single reference methods and gradients 
  Taras Petrenko         : pre 6.0 DFT Hessian and TD-DFT gradient,  ECA, NRVS 
  Petra Pikulova         : Analytic Raman intensities                    
  Peter Pinski           : DLPNO-MP2, DLPNO-MP2 Gradient                 
  Shashank Vittal Rao    : ES-AILFT, MagRelax                            
  Christoph Reimann      : Effective Core Potentials                     
  Marius Retegan         : Local ZFS, SOC                                
  Christoph Riplinger    : Optimizer, TS searches, QM/MM, DLPNO-CCSD(T), (RO)-DLPNO pert. Triples 
  Michael Roemelt        : Original ROCIS implementation, recursive CI coupling coefficients
  Masaaki Saitow         : Open-shell DLPNO-CCSD energy and density      
  Barbara Sandhoefer     : DKH picture change effects                    
  Yorick L. A. Schmerwitz: GMF and freeze-and-release deltaSCF, NEB S-IDPP initial path                    
  Kantharuban Sivalingam : CASSCF convergence/infrastructure, NEVPT2, NEVPT3, NEVPT4(SD), FIC-MRCI and CEPA variants
  Bernardo de Souza      : ESD, SOC TD-DFT                               
  Georgi L. Stoychev     : AutoAux, RI-MP2 NMR, DLPNO-MP2 response, X2C  
  Van Anh Tran           : RI-MP2 g-tensors                              
  Willem Van den Heuvel  : Paramagnetic NMR                              
  Zikuan Wang            : NOTCH, Electric field optimization            
  Frank Wennmohs         : Technical directorship and infrastructure     
  Hang Xu                : AUTO-CI-Response properties                   
                                                                         
[FACCTs GmbH]                                                            
  Markus Bursch, Nicolas Foglia, Miquel Garcia-Rates, Ingolf Harden, Hagen Neugebauer, Anastasios Papadopoulos, 
  Christoph Riplinger, Bernardo de Souza, Georgi L. Stoychev                                                    
                                                                 
  APM, various basis sets, CI-OPT, improved COSX, DLPNO-Multilevel,           
  DOCKER, DRACO, updates on ESD, Fragmentator, GOAT, IRC, LR-CPCM, L-BFGS, MBIS, meta-GGA TD-DFT gradient, ML-optimized integration grids, 
  MM, NACMEs, nearIR, NEB, NEB-TS, NL-DFT gradient (VV10), 2- and 3-layer-ONIOM, interface openCOSMO-RS, QMMM,   
  Crystal-QMMM, RESP, rigid body optimization, SF, symmetry and pop. for TD-DFT, various functionals, SOLVATOR                                   
                                                                         
[Other institutions]                                                     
  V. Asgeirsson          : NEB                                           
  Christoph Bannwarth    : sTDA-DFT, sTD-DFT, PBEh-3c, B97-3c, D3        
  Giovanni Bistoni       : ETS/NOCV, ADLD/ADEX, COVALED                  
  Martin Brehm           : Molecular dynamics                            
  Ronald Cardenas        : ETS/NOCV                                      
  Martina Colucci        : COVALED                                       
  Sebastian Ehlert       : rSCAN, r2SCAN, r2SCAN-3c, D4, dhf basis sets  
  Marvin Friede          : D4 for Fr, Ra, Ac-Lr                          
  Lars Goerigk           : TD-DFT with DH, B97 family of functionals     
  Stefan Grimme          : VdW corrections, initial TS optimization, DFT functionals, gCP, sTDA/sTD-DF 
  Waldemar Hujo          : DFT-NL                                        
  H. Jonsson             : NEB                                           
  Holger Kruse           : gCP                                           
  Marcel Mueller         : wB97X-3c, vDZP basis set                      
  Hagen Neugebauer       : wr2SCAN, Native XTB                           
  Gianluca Regni         : ADLD/ADEX                                     
  Tobias Risthaus        : pre 6.0 range-separated hybrid DFT and stability analysis
  Lukas Wittmann         : regularized MP2, r2SCAN double-hybrids, wr2SCAN        
                                                                         
We gratefully acknowledge several colleagues who have allowed us to      
interface, adapt or use parts of their codes:                            
  Ed Valeev, F. Pavosevic, A. Kumar             : LibInt (2-el integral package), F12 methods 
  Garnet Chan, S. Sharma, J. Yang, R. Olivares  : DMRG                   
  Ulf Ekstrom                                   : XCFun DFT Library      
  Mihaly Kallay                                 : mrcc  (arbitrary order and MRCC methods)
  Frank Weinhold                                : gennbo (NPA and NBO analysis)           
  Simon Mueller                                 : openCOSMO-RS                            
  Christopher J. Cramer and Donald G. Truhlar   : smd solvation model                     
  S Lehtola, MJT Oliveira, MAL Marques          : LibXC Library                           
  Liviu Ungur et al                             : ANISO software                          


 Your calculation uses the libint2 library for the computation of 2-el integrals
 For citations please refer to: http://libint.valeyev.net

 Your ORCA version has been built with support for libXC version: 7.0.0
 For citations please refer to: https://libxc.gitlab.io

 This ORCA versions uses:
   CBLAS   interface :  Fast vector & matrix operations
   LAPACKE interface :  Fast linear algebra routines
   SCALAPACK package :  Parallel linear algebra routines
   Shared memory     :  Shared parallel matrices
   BLAS/LAPACK       :  OpenBLAS 0.3.29  USE64BITINT DYNAMIC_ARCH NO_AFFINITY Haswell SINGLE_THREADED
        Core in use  :  Haswell
   Copyright (c) 2011-2014, The OpenBLAS Project


  ***********************************
  * Starting time: Sun Aug  9 16:56:49 2026
  * Host name:     localhost.localdomain
  * Process ID:    2953886
  * Working dir.:  /home/dinglab/calculation/templates/NMR_modules/autohnmr/alpha_diol_screening/CONF42/b3lyp-3c
  ***********************************

NOTE: MaxCore=2500 MB was set to SCF,MP2,MDCI,CIPSI,MRCI,RASCI and CIS
      => If you want to overwrite this, your respective input block should be placed after the MaxCore statement


***************************************
The coordinates will be read from file: inp.xyz
***************************************


Your calculation utilizes the geometrical counterpoise correction gCP
Please cite in your paper:
H.Kruse, S. Grimme J.Chem.Phys., 136, (2012), 154101 
   

Your calculation utilizes the atom-pairwise dispersion correction
with the Becke-Johnson damping scheme (D3BJ)


Warning: RI is on but no J-basis has been assigned. Assigning Def2/J (nothing to worry about!)
================================================================================

----- Orbital basis set information -----
Your calculation utilizes the basis: def2-mSVP

----- AuxJ basis set information -----
Your calculation utilizes the auxiliary basis: def2/J
   H-Rn: F. Weigend, Phys. Chem. Chem. Phys. 8, 1057 (2006).
   Fr-Lr: K. Eichkorn, F. Weigend, O. Treutler, R. Ahlrichs; Theor. Chem. Acc. 97, 119 (1997).

================================================================================
                                        WARNINGS
                       Please study these warnings very carefully!
================================================================================

WARNING: Old DensityContainer found on disk!
         Will remove this file - 
         If you want to keep old densities, please start your calculation with a different basename. 


WARNING: Gradients are needed
  ===> : At least TightSCF should be used for SCF convergence

================================================================================
                                       INPUT FILE
================================================================================
NAME = inp
|  1> ! b3lyp
|  2> ! d3bj ABC
|  3> ! def2-mSVP
|  4> ! GCP(DFT/SV(P))
|  5> ! DEFGRID2
|  6> ! scfconv6
|  7> ! miniprint nopop noautostart
|  8> %MaxCore 2500
|  9> ! ENGRAD
| 10> %pal
| 11>     nprocs 12
| 12> end
| 13> ! CPCM(chloroform)
| 14> * xyzfile 0 1 inp.xyz
| 15> 
| 16>                          ****END OF INPUT****
================================================================================

                     *******************************
                     * Energy+Gradient Calculation *
                     *******************************

---------------------------------
CARTESIAN COORDINATES (ANGSTROEM)
---------------------------------
  C      0.091015   -0.640086    0.112857
  C     -0.964637    0.405648    0.655919
  C     -0.336483    1.832420    0.752283
  C      0.582866    2.224656   -0.426175
  C      1.515175    1.051927   -0.826628
  C      0.649974   -0.144937   -1.260811
  C      1.374811   -0.594916    1.005877
  C      2.243186    0.506463    0.397670
  O      1.523353   -1.096223   -1.894075
  C     -0.493975   -2.054994    0.024544
  C      3.430141    0.923310    0.851607
  C     -2.322897    0.372001   -0.059398
  C     -2.596910    0.989409   -1.221348
  H     -1.169605    0.093587    1.692590
  O     -0.876884   -2.486847    1.340220
  C     -3.420401   -0.370022    0.683438
  H     -1.139375    2.576143    0.870077
  H      0.258909    1.877901    1.678364
  H     -0.005138    2.531390   -1.307005
  H      1.192582    3.096548   -0.138520
  H      2.202794    1.369996   -1.625501
  H     -0.154199    0.146275   -1.955150
  H      1.903296   -1.560829    0.956057
  H      1.145187   -0.413091    2.066872
  H      0.973750   -1.778705   -2.327987
  H      0.274565   -2.733007   -0.389378
  H     -1.359055   -2.067843   -0.666547
  H      3.885474    0.501274    1.751217
  H      3.993853    1.708850    0.342043
  H     -3.597416    0.943510   -1.658567
  H     -1.865552    1.576281   -1.776130
  H     -1.189889   -3.410963    1.272467
  H     -3.106757   -1.389970    0.952431
  H     -3.648356    0.144225    1.634184
  H     -4.348840   -0.425367    0.096267

----------------------------
CARTESIAN COORDINATES (A.U.)
----------------------------
  NO LB      ZA    FRAG     MASS         X           Y           Z
   0 C     6.0000    0    12.011    0.171993   -1.209587    0.213268
   1 C     6.0000    0    12.011   -1.822900    0.766565    1.239507
   2 C     6.0000    0    12.011   -0.635862    3.462771    1.421609
   3 C     6.0000    0    12.011    1.101457    4.203992   -0.805354
   4 C     6.0000    0    12.011    2.863267    1.987853   -1.562100
   5 C     6.0000    0    12.011    1.228272   -0.273890   -2.382587
   6 C     6.0000    0    12.011    2.598017   -1.124228    1.900832
   7 C     6.0000    0    12.011    4.239008    0.957077    0.751488
   8 O     8.0000    0    15.999    2.878720   -2.071562   -3.579284
   9 C     6.0000    0    12.011   -0.933477   -3.883375    0.046381
  10 C     6.0000    0    12.011    6.482027    1.744804    1.609304
  11 C     6.0000    0    12.011   -4.389640    0.702980   -0.112245
  12 C     6.0000    0    12.011   -4.907448    1.869712   -2.308013
  13 H     1.0000    0     1.008   -2.210233    0.176854    3.198531
  14 O     8.0000    0    15.999   -1.657071   -4.699459    2.532648
  15 C     6.0000    0    12.011   -6.463620   -0.699241    1.291511
  16 H     1.0000    0     1.008   -2.153107    4.868205    1.644208
  17 H     1.0000    0     1.008    0.489267    3.548719    3.171649
  18 H     1.0000    0     1.008   -0.009709    4.783634   -2.469882
  19 H     1.0000    0     1.008    2.253654    5.851628   -0.261765
  20 H     1.0000    0     1.008    4.162678    2.588918   -3.071753
  21 H     1.0000    0     1.008   -0.291394    0.276419   -3.694699
  22 H     1.0000    0     1.008    3.596709   -2.949539    1.806686
  23 H     1.0000    0     1.008    2.164091   -0.780628    3.905822
  24 H     1.0000    0     1.008    1.840120   -3.361265   -4.399258
  25 H     1.0000    0     1.008    0.518852   -5.164636   -0.735818
  26 H     1.0000    0     1.008   -2.568242   -3.907658   -1.259592
  27 H     1.0000    0     1.008    7.342482    0.947270    3.309321
  28 H     1.0000    0     1.008    7.547288    3.229259    0.646368
  29 H     1.0000    0     1.008   -6.798132    1.782975   -3.134237
  30 H     1.0000    0     1.008   -3.525383    2.978739   -3.356400
  31 H     1.0000    0     1.008   -2.248564   -6.445786    2.404614
  32 H     1.0000    0     1.008   -5.870920   -2.626663    1.799833
  33 H     1.0000    0     1.008   -6.894393    0.272545    3.088160
  34 H     1.0000    0     1.008   -8.218116   -0.803828    0.181919



           ************************************************************
           *        Program running with 12 parallel MPI-processes    *
           *              working on a common directory               *
           ************************************************************
------------------------------------------------------------------------------
                   ___                                                        
                  /   \      - P O W E R E D   B Y -                         
                 /     \                                                     
                 |  |  |   _    _      __       _____    __    __             
                 |  |  |  | |  | |    /  \     |  _  \  |  |  /  |          
                  \  \/   | |  | |   /    \    | | | |  |  | /  /          
                 / \  \   | |__| |  /  /\  \   | |_| |  |  |/  /          
                |  |  |   |  __  | /  /__\  \  |    /   |      \           
                |  |  |   | |  | | |   __   |  |    \   |  |\   \          
                \     /   | |  | | |  |  |  |  | |\  \  |  | \   \       
                 \___/    |_|  |_| |__|  |__|  |_| \__\ |__|  \__/        
                                                                              
                      - O R C A' S   B I G   F R I E N D -                    
                                      &                                       
                       - I N T E G R A L  F E E D E R -                       
                                                                              
 v1 FN, 2020, v2 2021, v3 2022-2024                                           
------------------------------------------------------------------------------


----------------------
SHARK INTEGRAL PACKAGE
----------------------

Number of atoms                             ...     35
Number of basis functions                   ...    265
Number of shells                            ...    145
Maximum angular momentum                    ...      2
Integral batch strategy                     ... SHARK/LIBINT Hybrid
RI-J (if used) integral strategy            ... SPLIT-RIJ (Revised 2003 algorithm where possible)
Printlevel                                  ...      1
Contraction scheme used                     ... SEGMENTED contraction
Prescreening option                         ... SCHWARTZ
   Thresh                                   ... 1.000e-10
   Tcut                                     ... 1.000e-11
   Tpresel                                  ... 1.000e-11 
Coulomb Range Separation                    ... NOT USED
Exchange Range Separation                   ... NOT USED
Multipole approximations                    ... NOT USED
Finite Nucleus Model                        ... NOT USED
CABS basis                                  ... NOT available
Auxiliary Coulomb fitting basis             ... AVAILABLE
   # of basis functions in Aux-J            ...    955
   # of shells in Aux-J                     ...    325
   Maximum angular momentum in Aux-J        ...      4
Auxiliary J/K fitting basis                 ... NOT available
Auxiliary Correlation fitting basis         ... NOT available
Auxiliary 'external' fitting basis          ... NOT available

Checking pre-screening integrals            ... done (  0.0 sec) Dimension = 145
   => SHARK Basis and OBASIS are compatible. Storing Pre-screening
Shell pair information
Shell pair cut-off parameter TPreSel        ...   1.0e-11
Total number of shell pairs                 ...     10585
Shell pairs after pre-screening             ...      8848
Total number of primitive shell pairs       ...     38205
Primitive shell pairs kept                  ...     20798
          la=0 lb=0:   3906 shell pairs
          la=1 lb=0:   2752 shell pairs
          la=1 lb=1:    456 shell pairs
          la=2 lb=0:   1203 shell pairs
          la=2 lb=1:    425 shell pairs
          la=2 lb=2:    106 shell pairs

Checking whether 4 symmetric matrices of dimension 265 fit in memory
:Max Core in MB      =   2500.00
 MB in use           =     14.31
 MB left             =   2485.69
 MB needed           =      1.08
 Data fit in memory  = YES
Calculating RI/J V-Matrix + Cholesky decomp.... done (  0.0 sec)
Calculating Nuclear repulsion               ... done (  0.0 sec) ENN=   1106.106373901411 Eh

Diagonalization of the overlap matrix:
Smallest eigenvalue                        ... 1.929e-03
Time for diagonalization                   ...    0.013 sec
Threshold for overlap eigenvalues          ... 1.000e-07
Number of eigenvalues below threshold      ... 0
Time for construction of square roots      ...    0.004 sec
Total time needed                          ...    0.017 sec

-------------------
DFT GRID GENERATION
-------------------

General Integration Accuracy     IntAcc      ... 4.388
Radial Grid Type                 RadialGrid  ... OptM3 with GC (2021)
Angular Grid (max. ang.)         AngularGrid ... 4 (Lebedev-302)
Angular grid pruning method      GridPruning ... 4 (adaptive)
Weight generation scheme         WeightScheme... mBecke (2022)
Basis function cutoff            BFCut       ... 1.0000e-10
Integration weight cutoff        WCut        ... 1.0000e-14
Partially contracted basis set               ... off
Rotationally invariant grid construction     ... off
Angular grids for H and He will be reduced by one unit

Total number of grid points                  ...   152325
Total number of batches                      ...     2398
Average number of points per batch           ...       63
Average number of grid points per atom       ...     4352

--------------------
COSX GRID GENERATION
--------------------

GRIDX 1
-------
General Integration Accuracy     IntAcc      ... 3.816
Radial Grid Type                 RadialGrid  ... OptM3 with GC (2021)
Angular Grid (max. ang.)         AngularGrid ... 1 (Lebedev-50)
Angular grid pruning method      GridPruning ... 4 (adaptive)
Weight generation scheme         WeightScheme... mBecke (2022)
Basis function cutoff            BFCut       ... 1.0000e-10
Integration weight cutoff        WCut        ... 1.0000e-14
Partially contracted basis set               ... on
Rotationally invariant grid construction     ... off
Angular grids for H and He will be reduced by one unit

Total number of grid points                  ...    19398
Total number of batches                      ...      172
Average number of points per batch           ...      112
Average number of grid points per atom       ...      554
UseSFitting                                  ... on

GRIDX 2
-------
General Integration Accuracy     IntAcc      ... 4.020
Radial Grid Type                 RadialGrid  ... OptM3 with GC (2021)
Angular Grid (max. ang.)         AngularGrid ... 2 (Lebedev-110)
Angular grid pruning method      GridPruning ... 4 (adaptive)
Weight generation scheme         WeightScheme... mBecke (2022)
Basis function cutoff            BFCut       ... 1.0000e-10
Integration weight cutoff        WCut        ... 1.0000e-14
Partially contracted basis set               ... on
Rotationally invariant grid construction     ... off
Angular grids for H and He will be reduced by one unit

Total number of grid points                  ...    40668
Total number of batches                      ...      335
Average number of points per batch           ...      121
Average number of grid points per atom       ...     1162
UseSFitting                                  ... on

GRIDX 3
-------
General Integration Accuracy     IntAcc      ... 4.338
Radial Grid Type                 RadialGrid  ... OptM3 with GC (2021)
Angular Grid (max. ang.)         AngularGrid ... 3 (Lebedev-194)
Angular grid pruning method      GridPruning ... 4 (adaptive)
Weight generation scheme         WeightScheme... mBecke (2022)
Basis function cutoff            BFCut       ... 1.0000e-10
Integration weight cutoff        WCut        ... 1.0000e-14
Partially contracted basis set               ... on
Rotationally invariant grid construction     ... off
Angular grids for H and He will be reduced by one unit

Total number of grid points                  ...    88396
Total number of batches                      ...      709
Average number of points per batch           ...      124
Average number of grid points per atom       ...     2526
UseSFitting                                  ... on
Grids setup in   1.5 sec
Initializing property integral containers    ... done (  0.0 sec)

SHARK setup successfully completed in   1.8 seconds

Maximum memory used throughout the entire STARTUP-calculation: 40.9 MB


           ************************************************************
           *        Program running with 12 parallel MPI-processes    *
           *              working on a common directory               *
           ************************************************************
Loading Hartree-Fock densities                     ... done
Calculating cut-offs                               ... done
Initializing the effective Hamiltonian             ... done
Setting up the integral package (SHARK)            ... done
Starting the Coulomb interaction                   ... done (   0.1 sec)
Making the grid                                    ... done (   0.2 sec)
Mapping shells                                     ... done
Starting the XC term evaluation                    ... done (   0.1 sec)
  promolecular density results
     # of electrons  =    114.000333938
     EX              =    -89.147713150
     EC              =     -3.803343727
     EX+EC           =    -92.951056877
Transforming the Hamiltonian                       ... done (   0.0 sec)
Diagonalizing the Hamiltonian                      ... done (   0.0 sec)
Back transforming the eigenvectors                 ... done (   0.0 sec)
Now organizing SCF variables                       ... done
             **** ENERGY FILE WAS UPDATED (inp.en.tmp) ****
Finished Guess after   0.5 sec
Maximum memory used throughout the entire GUESS-calculation: 17.6 MB


           ************************************************************
           *        Program running with 12 parallel MPI-processes    *
           *              working on a common directory               *
           ************************************************************
--------------------
CPCM SOLVATION MODEL
--------------------
CPCM parameters:
  Epsilon                                         ...       4.8030
  Refrac                                          ...       1.4459
  Rsolv                                           ...       1.3000
  Surface type                                    ... GAUSSIAN VDW
  Discretization scheme                           ... Constant charge density
    Threshold for H atoms                         ...       5.0000 (charges/Ang^2)
    Threshold for non-H atoms                     ...       5.0000 (charges/Ang^2)
  Epsilon function type                           ...         CPCM
Solvent:                                          ... CHLOROFORM
Radii:
  Scheme                                          ... Element-dependent radii
  Radius for C  used is    3.8550 Bohr (=   2.0400 Ang.)
  Radius for O  used is    3.4469 Bohr (=   1.8240 Ang.)
  Radius for H  used is    2.4944 Bohr (=   1.3200 Ang.)
Calculating surface                               ...        done! (  0.0s)
Cavity surface points                             ...         2597
Cavity Volume                                     ...    1816.9998
Cavity Surface-area                               ...     918.1903
Calculating surface distance matrix               ...        done! (  0.1s)
Performing Cholesky decomposition & store         ...        done! (  0.2s)
Overall time for CPCM initialization              ...                 0.3s

----------------------------------------D-I-I-S--------------------------------------------
Iteration    Energy (Eh)           Delta-E    RMSDP     MaxDP     DIISErr   Damp  Time(sec)
-------------------------------------------------------------------------------------------
               ***  Starting incremental Fock matrix formation  ***
    1    -656.9365295612274167     0.00e+00  9.05e-03  7.37e-02  2.44e-01  0.700   2.1
    2    -657.1306499089948829    -1.94e-01  6.49e-03  4.13e-02  1.05e-01  0.700   1.2
                               ***Turning on AO-DIIS***
    3    -657.2103450186311875    -7.97e-02  2.55e-03  1.61e-02  3.76e-02  0.700   1.2
    4    -657.2571136765629944    -4.68e-02  4.28e-03  2.45e-02  1.85e-02  0.000   1.1
    5    -657.3589021551640599    -1.02e-01  8.43e-04  4.98e-03  5.11e-03  0.000   1.2
                              *** Initializing SOSCF ***
---------------------------------------S-O-S-C-F--------------------------------------
Iteration    Energy (Eh)           Delta-E    RMSDP     MaxDP     MaxGrad    Time(sec)
--------------------------------------------------------------------------------------
    6    -657.3592576398280016    -3.55e-04  2.81e-04  1.79e-03  9.49e-04     1.1
               *** Restarting incremental Fock matrix formation ***
    7    -657.3591857713272475     7.19e-05  1.72e-04  1.39e-03  3.39e-04     1.9
    8    -657.3591805458415820     5.23e-06  9.43e-05  7.42e-04  6.12e-04     1.3
    9    -657.3591895897593531    -9.04e-06  1.43e-05  1.16e-04  2.98e-05     1.2
                  *** Gradient check signals convergence ***

               *****************************************************
               *                     SUCCESS                       *
               *           SCF CONVERGED AFTER   9 CYCLES          *
               *****************************************************

Recomputing exchange energy using gridx3       ... done (    2.614 sec)
Old exchange energy                            :    -18.196628848 Eh
New exchange energy                            :    -18.196706926 Eh
Exchange energy change after final integration :     -0.000078078 Eh
Total energy after final integration           :   -657.359267590 Eh
             **** ENERGY FILE WAS UPDATED (inp.en.tmp) ****

----------------
TOTAL SCF ENERGY
----------------

Total Energy       :       -657.35926758963160 Eh          -17887.65506 eV

Components:
Nuclear Repulsion  :       1106.10637390141119 Eh           30098.68462 eV
Electronic Energy  :      -1763.45228793792830 Eh          -47985.97631 eV
One Electron Energy:      -3089.99564092494302 Eh          -84083.05609 eV
Two Electron Energy:       1326.54335298701471 Eh           36097.07977 eV
CPCM Dielectric    :         -0.01327547484695 Eh              -0.36124 eV

Virial components:
Potential Energy   :      -1309.68740772283377 Eh          -35638.40619 eV
Kinetic Energy     :        652.32814013320217 Eh           17750.75112 eV
Virial Ratio       :          2.00771257155241

DFT components:
N(Alpha)           :       57.000020346036 electrons
N(Beta)            :       57.000020346036 electrons
N(Total)           :      114.000040692072 electrons
E(X)               :      -72.174469268858 Eh       
E(C)               :       -4.481150264996 Eh       
E(XC)              :      -76.655619533854 Eh       

CPCM Solvation Model Properties:
Surface-charge          :         -0.02184417720448
Corrected charge        :         -0.00000000000000
Outlying charge corr.   :          0.00002351539467 Eh               0.00064 eV
Free-energy (cav+disp)  :  This term is not implemented in the current solvation scheme

---------------
SCF CONVERGENCE
---------------

  Last Energy change         ...    9.0439e-06  Tolerance :   1.0000e-06
  Last MAX-Density change    ...    1.1643e-04  Tolerance :   1.0000e-07
  Last RMS-Density change    ...    1.4262e-05  Tolerance :   5.0000e-09
  Last DIIS Error            ...    9.4856e-04  Tolerance :   1.0000e-06
  Last Orbital Gradient      ...    2.9845e-05  Tolerance :   3.3300e-04
  Last Orbital Rotation      ...    9.9672e-05  Tolerance :   3.3300e-04


----------------
ORBITAL ENERGIES
----------------

  NO   OCC          E(Eh)            E(eV) 
   0   2.0000     -19.128824      -520.5218 
   1   2.0000     -19.128176      -520.5041 
   2   2.0000     -10.219408      -278.0842 
   3   2.0000     -10.215789      -277.9858 
   4   2.0000     -10.186150      -277.1792 
   5   2.0000     -10.185389      -277.1585 
   6   2.0000     -10.180197      -277.0173 
   7   2.0000     -10.179955      -277.0107 
   8   2.0000     -10.174908      -276.8733 
   9   2.0000     -10.170799      -276.7615 
  10   2.0000     -10.168284      -276.6931 
  11   2.0000     -10.168117      -276.6885 
  12   2.0000     -10.162841      -276.5450 
  13   2.0000     -10.159476      -276.4534 
  14   2.0000     -10.157141      -276.3899 
  15   2.0000      -1.006532       -27.3891 
  16   2.0000      -1.001806       -27.2605 
  17   2.0000      -0.851764       -23.1777 
  18   2.0000      -0.796719       -21.6798 
  19   2.0000      -0.757644       -20.6165 
  20   2.0000      -0.748216       -20.3600 
  21   2.0000      -0.712324       -19.3833 
  22   2.0000      -0.671018       -18.2593 
  23   2.0000      -0.667655       -18.1678 
  24   2.0000      -0.657360       -17.8877 
  25   2.0000      -0.602439       -16.3932 
  26   2.0000      -0.580552       -15.7976 
  27   2.0000      -0.543308       -14.7842 
  28   2.0000      -0.525418       -14.2973 
  29   2.0000      -0.506090       -13.7714 
  30   2.0000      -0.493393       -13.4259 
  31   2.0000      -0.486413       -13.2360 
  32   2.0000      -0.466212       -12.6863 
  33   2.0000      -0.463092       -12.6014 
  34   2.0000      -0.444048       -12.0832 
  35   2.0000      -0.431842       -11.7510 
  36   2.0000      -0.426089       -11.5945 
  37   2.0000      -0.409684       -11.1481 
  38   2.0000      -0.400438       -10.8965 
  39   2.0000      -0.395076       -10.7506 
  40   2.0000      -0.392116       -10.6700 
  41   2.0000      -0.380115       -10.3434 
  42   2.0000      -0.373329       -10.1588 
  43   2.0000      -0.369930       -10.0663 
  44   2.0000      -0.359634        -9.7861 
  45   2.0000      -0.352612        -9.5951 
  46   2.0000      -0.342913        -9.3311 
  47   2.0000      -0.337329        -9.1792 
  48   2.0000      -0.326634        -8.8882 
  49   2.0000      -0.310786        -8.4569 
  50   2.0000      -0.301729        -8.2105 
  51   2.0000      -0.298744        -8.1292 
  52   2.0000      -0.287636        -7.8270 
  53   2.0000      -0.262511        -7.1433 
  54   2.0000      -0.256151        -6.9702 
  55   2.0000      -0.236660        -6.4399 
  56   2.0000      -0.234647        -6.3851 
  57   0.0000       0.019338         0.5262 
  58   0.0000       0.022177         0.6035 
  59   0.0000       0.087110         2.3704 
  60   0.0000       0.096550         2.6273 
  61   0.0000       0.109748         2.9864 
  62   0.0000       0.126310         3.4371 
  63   0.0000       0.143817         3.9135 
  64   0.0000       0.148600         4.0436 
  65   0.0000       0.154939         4.2161 
  66   0.0000       0.157885         4.2963 
  67   0.0000       0.162340         4.4175 
*Only the first 10 virtual orbitals were printed.
Total SCF time: 0 days 0 hours 0 min 16 sec 
Finished LeanSCF after  16.5 sec

Maximum memory used throughout the entire LEANSCF-calculation: 31.5 MB


-------------------------------------------------------------------------------
                          DFT DISPERSION CORRECTION                            
                                                                               
                              DFTD3 V3.1  Rev 1                                
                          USING Becke-Johnson damping                          
-------------------------------------------------------------------------------
-------------------------   ----------------
Dispersion correction           -0.073521477
-------------------------   ----------------

NOTIFICATION: Different basis set in ORCA and otool_gcp:
ORCA: 265  gCP: 250 
If you are NOT using ECPs, check your basis set inputs!
------------------   -----------------
gCP correction             0.161331270
------------------   -----------------

-------------------------   --------------------
FINAL SINGLE POINT ENERGY      -657.271457797314
-------------------------   --------------------



           ************************************************************
           *        Program running with 12 parallel MPI-processes    *
           *              working on a common directory               *
           ************************************************************
------------------------------------------------------------------------------
                         ORCA SCF GRADIENT CALCULATION
------------------------------------------------------------------------------

Nuc. rep. gradient        (SHARK) ... done (  0.0 sec)
HCore & Overlap gradient  (SHARK) ... done (  0.1 sec)
Split-RIJ-J gradient      (SHARK) ... done (  0.5 sec)
COSX-gradient                     ... done (  5.7 sec)
XC gradient                       ... done (  1.7 sec)
CPCM gradient                     ... done (  0.6 sec)
Dispersion correction             ... done (  0.0 sec)

-------------------
DISPERSION GRADIENT
-------------------

   1   C   :    0.000300935   -0.000536317    0.000112027
   2   C   :   -0.000479371    0.000277236    0.000494400
   3   C   :   -0.000183984    0.000942109    0.000515558
   4   C   :    0.000235841    0.001008344   -0.000195848
   5   C   :    0.000622977    0.000397562   -0.000480378
   6   C   :    0.000570363   -0.000245583   -0.000771295
   7   C   :    0.000630233   -0.000411676    0.000586045
   8   C   :    0.000814798    0.000019694    0.000115872
   9   O   :    0.000316463   -0.000389294   -0.000773123
  10   C   :   -0.000070040   -0.001167498    0.000021322
  11   C   :    0.001187275    0.000160903    0.000387145
  12   C   :   -0.001222597    0.000188051    0.000024725
  13   C   :   -0.001138063    0.000408760   -0.000748168
  14   H   :   -0.000199229    0.000076574    0.000492740
  15   O   :   -0.000100436   -0.000820188    0.000341093
  16   C   :   -0.000928495   -0.000018081    0.000216302
  17   H   :   -0.000090098    0.000471885    0.000270843
  18   H   :   -0.000116245    0.000415506    0.000440935
  19   H   :    0.000064444    0.000521563   -0.000274075
  20   H   :    0.000030759    0.000515894   -0.000063764
  21   H   :    0.000265241    0.000197940   -0.000366899
  22   H   :    0.000052333   -0.000054029   -0.000629051
  23   H   :    0.000306814   -0.000341469    0.000272982
  24   H   :    0.000195867   -0.000170498    0.000530897
  25   H   :    0.000122211   -0.000259972   -0.000436542
  26   H   :   -0.000016452   -0.000479019   -0.000071220
  27   H   :   -0.000126183   -0.000560634   -0.000146985
  28   H   :    0.000307263    0.000047991    0.000147999
  29   H   :    0.000365553    0.000094388    0.000075771
  30   H   :   -0.000216719    0.000105783   -0.000239597
  31   H   :   -0.000379230    0.000223780   -0.000420783
  32   H   :   -0.000055545   -0.000370031    0.000129686
  33   H   :   -0.000423722   -0.000155163    0.000170112
  34   H   :   -0.000338880   -0.000029794    0.000230868
  35   H   :   -0.000304082   -0.000064713    0.000040409

Difference to translation invariance:
           :   -0.0000000000    0.0000000000    0.0000000000

Difference to rotation invariance:
           :   -0.0000000000   -0.0000000000    0.0000000000

Norm of the Dispersion gradient    ...    0.0045601324
RMS gradient                       ...    0.0004450234
MAX gradient                       ...    0.0012225971
gCP correction                   ... done

------------------
CARTESIAN GRADIENT
------------------

   1   C   :   -0.000015342    0.000136445    0.000006938
   2   C   :   -0.000062361   -0.000028705    0.000052300
   3   C   :    0.000050327   -0.000064128   -0.000049574
   4   C   :    0.000007274    0.000106787   -0.000042691
   5   C   :   -0.000071877    0.000137650    0.000106249
   6   C   :    0.000153063   -0.000119272   -0.000005434
   7   C   :   -0.000035978    0.000035902    0.000002896
   8   C   :    0.000021375   -0.000084691   -0.000018922
   9   O   :   -0.000054446    0.000004591    0.000051405
  10   C   :   -0.000053622   -0.000052973    0.000155711
  11   C   :    0.000193054   -0.000269283   -0.000189408
  12   C   :   -0.000021172   -0.000009617   -0.000004979
  13   C   :    0.000019059   -0.000068436   -0.000041345
  14   H   :   -0.000006095   -0.000020881    0.000009771
  15   O   :    0.000097556    0.000004806   -0.000151613
  16   C   :    0.000036283    0.000052895   -0.000022100
  17   H   :    0.000005683   -0.000019081   -0.000036324
  18   H   :   -0.000014687    0.000004643   -0.000007899
  19   H   :   -0.000027354   -0.000006712    0.000006328
  20   H   :   -0.000003035    0.000002922   -0.000033009
  21   H   :   -0.000007888   -0.000004908    0.000027733
  22   H   :    0.000006775   -0.000016237   -0.000009343
  23   H   :    0.000004512    0.000026764    0.000008688
  24   H   :   -0.000027948   -0.000013737    0.000003622
  25   H   :    0.000052155    0.000014143   -0.000055797
  26   H   :    0.000002361    0.000011307   -0.000074148
  27   H   :   -0.000045430    0.000010616    0.000019377
  28   H   :   -0.000088134    0.000117573    0.000047685
  29   H   :   -0.000094521    0.000057126    0.000086910
  30   H   :    0.000018847    0.000036961    0.000033183
  31   H   :   -0.000033680   -0.000007632    0.000045752
  32   H   :   -0.000047938    0.000011687    0.000020352
  33   H   :    0.000036337   -0.000010200    0.000019516
  34   H   :    0.000019837    0.000031340    0.000032857
  35   H   :   -0.000012990   -0.000007664    0.000005314

Difference to translation invariance:
           :    0.0000000000    0.0000000000    0.0000000000

Difference to rotation invariance:
           :   -0.0000461043    0.0002396605   -0.0001626458

Norm of the Cartesian gradient     ...    0.0006610141
RMS gradient                       ...    0.0000645084
MAX gradient                       ...    0.0002692833

-------
TIMINGS
-------

Total SCF gradient time     ....        8.733 sec

Densities                   ....       0.001 sec  (  0.0%)
One electron gradient       ....       0.108 sec  (  1.2%)
RI-J Coulomb gradient       ....       0.505 sec  (  5.8%)
COSX gradient               ....       5.731 sec  ( 65.6%)
XC gradient                 ....       1.733 sec  ( 19.8%)
CPCM gradient               ....       0.598 sec  (  6.8%)
   A-Matrix (El+Nuc)        ....       0.019 sec  (  0.2%)
   Potential                ....       0.578 sec  (  6.6%)

Maximum memory used throughout the entire SCFGRAD-calculation: 37.8 MB


           ************************************************************
           *        Program running with 12 parallel MPI-processes    *
           *              working on a common directory               *
           ************************************************************

------------------------------------------------------------------------------
                              ORCA PROPERTY CALCULATIONS
------------------------------------------------------------------------------

GBWName                                 ... inp.gbw
Number of atoms                         ...     35
Number of basis functions               ...    265
Max core memory                         ...   2500 MB

Electric properties:
Dipole moment                           ... YES
Quadrupole moment                       ...  NO
Static polarizability (Dipole/Dipole)   ...  NO
Static polarizability (Dipole/Quad.)    ...  NO
Static polarizability (Quad./Quad.)     ...  NO
Static polarizability (Velocity)        ...  NO
Static hyperpolarizability              ...  NO

Atomic electric properties:
Dipole moment                           ...  NO
Quadrupole moment                       ...  NO
Static polarizability                   ...  NO

Choice of electric origin               ... Center of mass
Position of electric origin             ...     0.014177    -0.004146     0.008201

General magnetic properties:
Magnetizability                         ...  NO

EPR properties:
g-Tensor (aka g-matrix)                 ...  NO
Zero-Field splitting spin-orbit         ...  NO
Zero-field splitting spin-spin          ...  NO
Hyperfine couplings                     ...  NO (   0 nuclei)
Quadrupole couplings                    ...  NO (   0 nuclei)
Contact density                         ...  NO (   0 nuclei)

NMR properties:
Chemical shifts                         ...  NO (   0 nuclei)
Spin-rotation constants                 ...  NO (   0 nuclei)
Spin-spin couplings                     ...  NO (   0 nuclei,    0 pairs)

Choice of magnetic origin               ... GIAO
Position of magnetic origin             ...     0.000000     0.000000     0.000000

Properties with geometric perturbations:
SCF Hessian                             ...  NO
IR spectrum                             ...  NO
VCD spectrum                            ...  NO
X-ray spectroscopy properties:
SCF XES/XAS/RIXS spectra                ...  NO

SCF SOC stabilization energy            ...  NO
Diagonal Born-Oppenheimer correction    ...  NO

-------------
DIPOLE MOMENT
-------------

Method             : SCF
Type of density    : Electron Density
Multiplicity       :   1
Irrep              :   0
Energy             :  -657.3592675896315995 Eh
Basis              : AO
                                X                 Y                 Z
Electronic contribution:      4.608040597      -3.350618743      -1.641864733
Nuclear contribution   :     -5.529481651       2.602186475       1.287287796
                        -----------------------------------------
Total Dipole Moment    :     -0.921441054      -0.748432268      -0.354576938
                        -----------------------------------------
Magnitude (a.u.)       :      1.238922629
Magnitude (Debye)      :      3.149091060



--------------------
Rotational spectrum 
--------------------
 
Rotational constants in cm-1:             0.028751             0.017876             0.015080 
Rotational constants in MHz :           861.929378           535.900953           452.075509 

Dipole components along the rotational axes: 
x,y,z [a.u.] :    -1.029936    -0.452111    -0.519381 
x,y,z [Debye]:    -2.617890    -1.149174    -1.320161 

 

Dipole moment calculation done in   0.0 sec 

Maximum memory used throughout the entire PROP-calculation: 16.6 MB

--------------------------------
SUGGESTED CITATIONS FOR THIS RUN
--------------------------------

Below you find a list of papers that are relevant to this ORCA run
We neither can nor want to force you to cite these papers, but we appreciate if you do
You receive ORCA, which is the product of decades of hard work by many enthusiastic individuals, for free
The only thing we kindly ask in return is that you cite our papers,
We deeply appreciate it, if you show your appreciation for ORCA by not just citing the generic ORCA reference.

Please note that relegating all ORCA citations to the supporting information does *not* help us.
SI sections are not indexed - citations you put there will not count into any citation statistics
But we need these citations in order to attract the funding resources that allow us to do what we are doing

Therefore, if you are a happy ORCA user, please consider citing a few of the papers listed below in the main body of your paper

In addition to the list printed below, the program has created the file inp.bibtex that contains the list in bibtex format
You can import this file easily into all common literature databanks and citation aid programs

It goes without saying that in many instances, there are alternative algorithms to achieve similar
results as the ones you have gotten from ORCA. It is, of course, also the case that in some instances
ORCA just re-implements algorithms worked out by others. We are fully aware of that and we are also
fully appreciative of our colleagues work. Hence this citation list should not be read as indicating
that the listed papers, which are focused on our own work, are the only ones worth citing. It simply
meant to make it easier for users to cite ORCA specific papers. It is not a substitute for doing your
own literature research and citing the relevant literature in a scientifically appropriate manner.

List of essential papers. We consider these as the minimum necessary citations

  1. Neese, F.
     Software update: the ORCA program system, version 6.0
     WIRES Comput. Molec. Sci. 2025 15(1), e70019
     doi.org/10.1002/wcms.70019

List of papers to cite with high priority. The work reported in these papers was absolutely
necessary for this run to complete.
Our perspective: the developers of density functionals and basis sets usually get cited in chemistry papers
Good! But without the algorithms to do something with them, the functionals or basis sets would not do anything.
Hence, in our opinion, the algorithm design and method developments papers are equally worthy of getting cited

  1. Neese, F.
     An improvement of the resolution of the identity approximation for the formation of the Coulomb matrix
     J. Comp. Chem. 2003 24(14), 1740-1747
     doi.org/10.1002/jcc.10318
  2. Neese, F.; Wennmohs, F.; Hansen, A.; Becker, U.
     Efficient, approximate and parallel Hartree-Fock and hybrid DFT calculations. A 'chain-of-spheres' algorithm for the Hartree-Fock exchange
     Chem. Phys. 2009 356(1-3), 98-109
     doi.org/10.1016/j.chemphys.2008.10.036
  3. Grimme, S.; Antony, J.; Ehrlich, S.; Krieg, H.
     A consistent and accurate ab initio parametrization of density functional dispersion correction (DFT-D) for the 94 elements H-Pu
     J. Chem. Phys. 2010 132 , 154104
     doi.org/10.1063/1.3382344
  4. Grimme, S.; Ehrlich, S.; Goerigk, L.
     Effect of the damping function in dispersion corrected density functional theory
     J. Comput. Chem. 2011 32(7), 1456-1465
     doi.org/10.1002/jcc.21759
  5. Garcia-Rates, M.; Neese, F.
     Effect of the Solute Cavity on the Solvation Energy and its Derivatives within the Framework of the Gaussian Charge Scheme
     J. Comput. Chem. 2020 41 , 922-939
     doi.org/10.1002/jcc.26139
  6. Helmich-Paris, B.; de Souza, B.; Neese, F.; Izsák, R.
     An improved chain of spheres for exchange algorithm
     J. Chem. Phys. 2021 155(10), 104109
     doi.org/10.1063/5.0058766
  7. Neese, F.
     The SHARK Integral Generation and Digestion System
     J. Comp. Chem. 2022 44(3), 381
     doi.org/10.1002/jcc.26942

List of suggested additional citations. These are papers that are important in the 'surrounding' of 
of this run, or papers that preceded the highly important papers. If you like your results we are grateful for a citation.

  1. Izsak, R.; Neese, F.
     An overlap fitted chain of spheres exchange method
     J. Chem. Phys. 2011 135 , 144105
     doi.org/10.1063/1.3646921
  2. Izsak, R.; Hansen, A.; Neese, F.
     The resolution of identity and chain of spheres approximations for the LPNO-CCSD singles Fock term
     Molec. Phys. 2012 110 , 2413-2417
     doi.org/10.1080/00268976.2012.687466
  3. Neese, F.
     The ORCA program system
     WIRES Comput. Molec. Sci. 2012 2(1), 73-78
     doi.org/10.1002/wcms.81
  4. Izsak, R.; Neese, F.; Klopper, W.
     Robust fitting techniques in the chain of spheres approximation to the Fock exchange: The role of the complementary space
     J. Chem. Phys. 2013 139 , 
     doi.org/10.1063/1.4819264
  5. Neese, F.
     Software update: the ORCA program system, version 4.0
     WIRES Comput. Molec. Sci. 2018 8(1), 1-6
     doi.org/10.1002/wcms.1327
  6. Neese, F.; Wennmohs, F.; Becker, U.; Riplinger, C.
     The ORCA quantum chemistry program package
     J. Chem. Phys. 2020 152(22), 224108
     doi.org/10.1063/5.0004608
  7. Neese, F.
     Software update: The ORCA program system—Version 5.0
     WIRES Comput. Molec. Sci. 2022 12(1), e1606
     doi.org/10.1002/wcms.1606

List of optional additional citations

  1. Neese, F.
     Approximate second-order SCF convergence for spin unrestricted wavefunctions
     Chem. Phys. Lett. 2000 325(1-3), 93-98
     doi.org/10.1016/s0009-2614(00)00662-x

Timings for individual modules:

Sum of individual times          ...       28.545 sec (=   0.476 min)
Startup calculation              ...        1.998 sec (=   0.033 min)   7.0 %
SCF iterations                   ...       17.296 sec (=   0.288 min)  60.6 %
Property calculations            ...        0.254 sec (=   0.004 min)   0.9 %
SCF Gradient evaluation          ...        8.996 sec (=   0.150 min)  31.5 %
                             ****ORCA TERMINATED NORMALLY****
TOTAL RUN TIME: 0 days 0 hours 0 minutes 28 seconds 821 msec
  ------------------------------------------------------------------------
          * successful ORCA run, taking over control again...
av. E:   -657.2714578 ->   -657.2714578
av. G:      0.0013387 ->      0.0013387
 * total energy  :  -657.2714578 Eh     change       -0.4455427E-05 Eh
   gradient norm :     0.0006609 Eh/a0  converged?    E=T G=T D=F
   step length   :     0.0216313 a0

   *** GEOMETRY OPTIMIZATION CONVERGED AFTER 1 CYCLES ***

------------------------------------------------------------------------
 total energy gain   :        -0.0000045 Eh       -0.0028 kcal/mol
 total RMSD          :         0.0036564 a0        0.0019 Å
 total power (kW/mol):        -0.0116977 (step)   -0.0004 (real)
------------------------------------------------------------------------

 L-ANCopt (total)              0 d,  0 h,  0 min, 28.957 sec
 setup                          ...        0 min,  0.000 sec (  0.001%)
 model hessian                  ...        0 min,  0.103 sec (  0.357%)
 ANC generation                 ...        0 min,  0.004 sec (  0.015%)
 coordinate transformation      ...        0 min,  0.000 sec (  0.000%)
 Rational function              ...        0 min,  0.000 sec (  0.000%)
 singlepoint calculation        ...        0 min, 28.848 sec ( 99.625%)
 optimization log               ...        0 min,  0.000 sec (  0.001%)
                                ...        0 min,  0.000 sec (  0.000%)

================
 final structure:
================
$coord
        0.17199345747224       -1.20958684618370        0.21326807638324      c
       -1.82290006191224        0.76656455483578        1.23950686799679      c
       -0.63586152562247        3.46277125997557        1.42160946481897      c
        1.10145729013731        4.20399148873897       -0.80535411629349      c
        2.86326663410328        1.98785335458301       -1.56209997473234      c
        1.22827213146977       -0.27389029976057       -2.38258668550892      c
        2.59801696690545       -1.12422839807983        1.90083162979857      c
        4.23900796898111        0.95707712436650        0.75148822054376      c
        2.87871987233331       -2.07156184632266       -3.57928355579007      o
       -0.93347685786575       -3.88337524692225        0.04638075160389      c
        6.48202745106854        1.74480393343343        1.60930377393738      c
       -4.38963963977878        0.70298047168171       -0.11224524071907      c
       -4.90744806753731        1.86971179425412       -2.30801317161523      c
       -2.21023287885307        0.17685398332171        3.19853081488003      h
       -1.65707096842787       -4.69945905795947        2.53264803604056      o
       -6.46362045027956       -0.69924082890910        1.29151075735329      c
       -2.15310691522533        4.86820465142276        1.64420809347381      h
        0.48926712137789        3.54871880578511        3.17164906932962      h
       -0.00970891060046        4.78363356343125       -2.46988209982556      h
        2.25365413728704        5.85162788259585       -0.26176513620339      h
        4.16267757723648        2.58891800849171       -3.07175259541576      h
       -0.29139441207567        0.27641887540704       -3.69469874082751      h
        3.59670892916863       -2.94953893250396        1.80668598261608      h
        2.16409065874918       -0.78062826182967        3.90582165816054      h
        1.84012010250285       -3.36126473516288       -4.39925769639590      h
        0.51885185049801       -5.16463560240994       -0.73581802408278      h
       -2.56824192059885       -3.90765777304464       -1.25959181721352      h
        7.34248172341207        0.94726967428228        3.30932097031634      h
        7.54728816690680        3.22925882869378        0.64636811841412      h
       -6.79813148411565        1.78297523515487       -3.13423684713492      h
       -3.52538328018314        2.97873880061912       -3.35640009480056      h
       -2.24856408622082       -6.44578614954152        2.40461381201970      h
       -5.87091949659956       -2.62666323334229        1.79983303560333      h
       -6.89439316364256        0.27254513260315        3.08815986369692      h
       -8.21811573332993       -0.80382800699794        0.18191860602485      h
$end
 
 Bond Distances (Angstroems)
 ---------------------------
C1-C2=1.5820         C1-C6=1.5635         C1-C7=1.5645         C1-C10=1.5336        C2-C1=1.5820         C2-C3=1.5619         
C2-C12=1.5355        C2-H14=1.1019        C3-C2=1.5619         C3-C4=1.5453         C3-H17=1.1007        C3-H18=1.1019        
C4-C3=1.5453         C4-C5=1.5508         C4-H19=1.1026        C4-H20=1.1021        C5-C4=1.5508         C5-C6=1.5393         
C5-C8=1.5253         C5-H21=1.1010        C6-C1=1.5635         C6-C5=1.5393         C6-O9=1.4383         C6-H22=1.1016        
C7-C1=1.5645         C7-C8=1.5287         C7-H23=1.1022        C7-H24=1.1007        C8-C5=1.5253         C8-C7=1.5287         
C8-C11=1.3374        O9-C6=1.4383         O9-H25=0.9778        C10-C1=1.5336        C10-O15=1.4367       C10-H26=1.1053       
C10-H27=1.1073       C11-C8=1.3374        C11-H28=1.0930       C11-H29=1.0929       C12-C2=1.5355        C12-C13=1.3440       
C12-C16=1.5189       C13-C12=1.3440       C13-H30=1.0928       C13-H31=1.0895       H14-C2=1.1019        O15-C10=1.4367       
O15-H32=0.9780       C16-C12=1.5189       C16-H33=1.1005       C16-H34=1.1047       C16-H35=1.0999       H17-C3=1.1007        
H18-C3=1.1019        H19-C4=1.1026        H20-C4=1.1021        H21-C5=1.1010        H22-C6=1.1016        H23-C7=1.1022        
H24-C7=1.1007        H25-O9=0.9778        H26-C10=1.1053       H27-C10=1.1073       H28-C11=1.0930       H29-C11=1.0929       
H30-C13=1.0928       H31-C13=1.0895       H32-O15=0.9780       H33-C16=1.1005       H34-C16=1.1047       H35-C16=1.0999       
 C  H  Rav=1.1000 sigma=0.0047  Rmin=1.0895  Rmax=1.1073    18
 C  C  Rav=1.5165 sigma=0.0737  Rmin=1.3374  Rmax=1.5820    14
 O  H  Rav=0.9779 sigma=0.0001  Rmin=0.9778  Rmax=0.9780     2
 O  C  Rav=1.4375 sigma=0.0008  Rmin=1.4367  Rmax=1.4383     2
 
 selected bond angles (degree)
 --------------------
C6-C1-C2=109.32                C7-C1-C2=109.42                C7-C1-C6=101.48                C10-C1-C2=112.03               
C10-C1-C6=112.21               C10-C1-C7=111.87               C3-C2-C1=110.89                C12-C2-C1=114.57               
C12-C2-C3=113.86               H14-C2-C1=105.06               H14-C2-C3=105.99               H14-C2-C12=105.52              
C4-C3-C2=115.09                H17-C3-C2=109.30               H17-C3-C4=110.12               H18-C3-C2=107.87               
H18-C3-C4=108.00               H18-C3-H17=106.04              C5-C4-C3=111.26                H19-C4-C3=111.26               
H19-C4-C5=108.95               H20-C4-C3=109.32               H20-C4-C5=109.45               H20-C4-H19=106.47              
C6-C5-C4=108.84                C8-C5-C4=110.49                C8-C5-C6=102.51                H21-C5-C4=110.14               
H21-C5-C6=111.78               H21-C5-C8=112.81               C5-C6-C1=101.50                O9-C6-C1=113.23                
O9-C6-C5=107.29                H22-C6-C1=112.12               H22-C6-C5=112.49               H22-C6-O9=109.91               
C8-C7-C1=105.06                H23-C7-C1=110.02               H23-C7-C8=109.94               H24-C7-C1=112.57               
H24-C7-C8=112.52               H24-C7-H23=106.76              C7-C8-C5=107.81                C11-C8-C5=125.77               
C11-C8-C7=126.42               H25-O9-C6=108.40               O15-C10-C1=109.04              H26-C10-C1=108.80              
H26-C10-O15=110.11             H27-C10-C1=110.16              H27-C10-O15=111.09             H27-C10-H26=107.60             
 
 selected dihedral angles (degree)
 ---------------------------------
C3-C2-C1-C6=304.30            C3-C2-C1-C7= 54.62            C3-C2-C1-C10=179.28           C12-C2-C1-C6= 74.89           
C12-C2-C1-C7=185.21           C12-C2-C1-C10=309.87          H14-C2-C1-C6=190.22           H14-C2-C1-C7=300.53           
H14-C2-C1-C10= 65.19          C4-C3-C2-C1= 40.62            C4-C3-C2-C12=269.65           C4-C3-C2-H14=154.12           
H17-C3-C2-C1=165.12           H17-C3-C2-C12= 34.16          H17-C3-C2-H14=278.62          H18-C3-C2-C1=279.99           
H18-C3-C2-C12=149.02          H18-C3-C2-H14= 33.49          C5-C4-C3-C2=317.15            C5-C4-C3-H17=193.08           
C5-C4-C3-H18= 77.71           H19-C4-C3-C2= 78.84           H19-C4-C3-H17=314.77          H19-C4-C3-H18=199.40          
H20-C4-C3-C2=196.14           H20-C4-C3-H17= 72.07          H20-C4-C3-H18=316.70          C6-C5-C4-C3= 60.54            
C6-C5-C4-H19=297.52           C6-C5-C4-H20=181.47           C8-C5-C4-C3=308.71            C8-C5-C4-H19=185.69           
C8-C5-C4-H20= 69.64           H21-C5-C4-C3=183.41           H21-C5-C4-H19= 60.39          H21-C5-C4-H20=304.34          
C5-C6-C1-C2= 70.96            C5-C6-C1-C7=315.45            C5-C6-C1-C10=195.88           O9-C6-C1-C2=185.63            
O9-C6-C1-C7= 70.11            O9-C6-C1-C10=310.54           H22-C6-C1-C2=310.69           H22-C6-C1-C7=195.18           
H22-C6-C1-C10= 75.61          C1-C6-C5-C4=286.71            C1-C6-C5-C8= 43.75            C1-C6-C5-H21=164.83           
O9-C6-C5-C4=167.71            O9-C6-C5-C8=284.75            O9-C6-C5-H21= 45.83           H22-C6-C5-C4= 46.72           
H22-C6-C5-C8=163.76           H22-C6-C5-H21=284.84          C8-C7-C1-C2=272.96            C8-C7-C1-C6= 28.40            
C8-C7-C1-C10=148.20           H23-C7-C1-C2=154.67           H23-C7-C1-C6=270.11           H23-C7-C1-C10= 29.91          
H24-C7-C1-C2= 35.73           H24-C7-C1-C6=151.17           H24-C7-C1-C10=270.98          C7-C8-C5-C4= 89.58            
C7-C8-C5-C6=333.73            C7-C8-C5-H21=213.36           C11-C8-C5-C4=269.58           C11-C8-C5-C6=153.73           
C11-C8-C5-H21= 33.36          C5-C8-C7-C1=358.32            C5-C8-C7-H23=116.67           C5-C8-C7-H24=235.52           
C11-C8-C7-C1=178.32           C11-C8-C7-H23=296.67          C11-C8-C7-H24= 55.52          H25-O9-C6-C1= 79.65           
H25-O9-C6-C5=190.80           H25-O9-C6-H22=313.40          O15-C10-C1-C2=298.33          O15-C10-C1-C6=174.92          
O15-C10-C1-C7= 61.63          H26-C10-C1-C2=178.21          H26-C10-C1-C6= 54.81          H26-C10-C1-C7=301.51          
H27-C10-C1-C2= 60.49          H27-C10-C1-C6=297.08          H27-C10-C1-C7=183.78          
           -------------------------------------------------
          |                Final Singlepoint                |
           -------------------------------------------------
                         * ORCA takes the control...
  ------------------------------------------------------------------------

                                 *****************
                                 * O   R   C   A *
                                 *****************

                                            #,                                       
                                            ###                                      
                                            ####                                     
                                            #####                                    
                                            ######                                   
                                           ########,                                 
                                     ,,################,,,,,                         
                               ,,#################################,,                 
                          ,,##########################################,,             
                       ,#########################################, ''#####,          
                    ,#############################################,,   '####,        
                  ,##################################################,,,,####,       
                ,###########''''           ''''###############################       
              ,#####''   ,,,,##########,,,,          '''####'''          '####       
            ,##' ,,,,###########################,,,                        '##       
           ' ,,###''''                  '''############,,,                           
         ,,##''                                '''############,,,,        ,,,,,,###''
      ,#''                                            '''#######################'''  
     '                                                          ''''####''''         
             ,#######,   #######,   ,#######,      ##                                
            ,#'     '#,  ##    ##  ,#'     '#,    #''#        ,####,    ,#,          
            ##       ##  ##   ,#'  ##            #'  '#       #'       ,# #          
            ##       ##  #######   ##           ,######,      #####,      #          
            '#,     ,#'  ##    ##  '#,     ,#' ,#      #,     #,   #      #          
             '#######'   ##     ##  '#######'  #'      '#     '####' #    #          



                #########################################################
                #                        -***-                          #
                #          Department of theory and spectroscopy        #
                #                                                       #
                #                      Frank Neese                      #
                #                                                       #
                #     Directorship, Architecture, Infrastructure        #
                #                    SHARK, DRIVERS                     #
                #        Core code/Algorithms in most modules           #
                #                                                       #
                #        Max Planck Institute fuer Kohlenforschung      #
                #                Kaiser Wilhelm Platz 1                 #
                #                 D-45470 Muelheim/Ruhr                 #
                #                      Germany                          #
                #                                                       #
                #                  All rights reserved                  #
                #                        -***-                          #
                #########################################################


                         Program Version 6.1.1  -  RELEASE   -
                                (GIT: $487d211c$)
                          ($2025-11-21 10:33:24 +0100$)


 With contributions from (in alphabetic order):
[Max-Planck-Institut fuer Kohlenforschung]                               
  Daniel Aravena         : Magnetic Suceptibility                        
  Michael Atanasov       : Ab Initio Ligand Field Theory (pilot matlab implementation)
  Alexander A. Auer      : GIAO ZORA, VPT2 properties, NMR spectrum      
  Ute Becker             : All parallelization in ORCA, NUMFREQ, NUMCALC 
  Giovanni Bistoni       : ED, misc. LED, open-shell LED, HFLD           
  Dmytro Bykov           : pre 5.0 version of the SCF Hessian            
  Marcos Casanova-Páez   : Triplet and SCS-CIS(D). UHF-(DLPNO)-IP/EA/STEOM-CCSD. UHF-CVS-IP/STEOM-CCSD   
  Vijay G. Chilkuri      : MRCI spin determinant printing, contributions to CSF-ICE 
  Pauline Colinet        : FMM embedding                                 
  Dipayan Datta          : RHF DLPNO-CCSD density                        
  Achintya Kumar Dutta   : EOM-CC, STEOM-CC                              
  Nicolas Foglia         : Exact transition moments, OPA infrastructure, MCD improvements    
  Dmitry Ganyushin       : Spin-Orbit,Spin-Spin,Magnetic field MRCI      
  Miquel Garcia-Rates    : C-PCM and meta-GGA Hessian, CCSD/C-PCM, Gaussian charge scheme 
  Tiago L. C. Gouveia    : GS-ROHF, GS-ROCIS                             
  Yang Guo               : DLPNO-NEVPT2, F12-NEVPT2, CIM, IAO-localization        
  Andreas Hansen         : Spin unrestricted coupled pair/coupled cluster methods 
  Ingolf Harden          : AUTO-CI MPn and infrastructure                
  Benjamin Helmich-Paris : MC-RPA, TRAH-(SCF,CASSCF), AVAS, COSX integrals, SCF dyn. polar., MC-PDFT, srDFT 
  Lee Huntington         : MR-EOM, pCC                                   
  Robert Izsak           : Overlap fitted RIJCOSX, COSX-SCS-MP3, EOM     
  Riya Kayal             : Wick's Theorem for AUTO-CI, AUTO-CI UHF-CCSDT 
  Emily Kempfer          : AUTO-CI RHF CISDT and CCSDT, approximate NEVPT4
  Christian Kollmar      : KDIIS, OOCD, Brueckner-CCSD(T), CCSD density, CASPT2, CASPT2-K, improved NEVPT2 
  Axel Koslowski         : Symmetry handling                             
  Simone Kossmann        : meta-GGA functionals, TD-DFT gradient, OOMP2, (MP2 Hessian; deprecated post 5.0) 
  Lucas Lang             : DCDCAS, Hyperfine gauge corrections, ICE-SOC+SSC
  Marvin Lechner         : AUTO-CI (C++ implementation), FIC-MRCC        
  Spencer Leger          : CASSCF response                               
  Dagmar Lenk            : GEPOL surface, SMD, ORCA-2-JSON               
  Dimitrios Liakos       : Extrapolation schemes; Compound Job, Property file
  Dimitrios Manganas     : Further ROCIS development; embedding schemes. LFT, Crystal Embedding 
  Dimitrios Pantazis     : SARC Basis sets                               
  Anastasios Papadopoulos: AUTO-CI, single reference methods and gradients 
  Taras Petrenko         : pre 6.0 DFT Hessian and TD-DFT gradient,  ECA, NRVS 
  Petra Pikulova         : Analytic Raman intensities                    
  Peter Pinski           : DLPNO-MP2, DLPNO-MP2 Gradient                 
  Shashank Vittal Rao    : ES-AILFT, MagRelax                            
  Christoph Reimann      : Effective Core Potentials                     
  Marius Retegan         : Local ZFS, SOC                                
  Christoph Riplinger    : Optimizer, TS searches, QM/MM, DLPNO-CCSD(T), (RO)-DLPNO pert. Triples 
  Michael Roemelt        : Original ROCIS implementation, recursive CI coupling coefficients
  Masaaki Saitow         : Open-shell DLPNO-CCSD energy and density      
  Barbara Sandhoefer     : DKH picture change effects                    
  Yorick L. A. Schmerwitz: GMF and freeze-and-release deltaSCF, NEB S-IDPP initial path                    
  Kantharuban Sivalingam : CASSCF convergence/infrastructure, NEVPT2, NEVPT3, NEVPT4(SD), FIC-MRCI and CEPA variants
  Bernardo de Souza      : ESD, SOC TD-DFT                               
  Georgi L. Stoychev     : AutoAux, RI-MP2 NMR, DLPNO-MP2 response, X2C  
  Van Anh Tran           : RI-MP2 g-tensors                              
  Willem Van den Heuvel  : Paramagnetic NMR                              
  Zikuan Wang            : NOTCH, Electric field optimization            
  Frank Wennmohs         : Technical directorship and infrastructure     
  Hang Xu                : AUTO-CI-Response properties                   
                                                                         
[FACCTs GmbH]                                                            
  Markus Bursch, Nicolas Foglia, Miquel Garcia-Rates, Ingolf Harden, Hagen Neugebauer, Anastasios Papadopoulos, 
  Christoph Riplinger, Bernardo de Souza, Georgi L. Stoychev                                                    
                                                                 
  APM, various basis sets, CI-OPT, improved COSX, DLPNO-Multilevel,           
  DOCKER, DRACO, updates on ESD, Fragmentator, GOAT, IRC, LR-CPCM, L-BFGS, MBIS, meta-GGA TD-DFT gradient, ML-optimized integration grids, 
  MM, NACMEs, nearIR, NEB, NEB-TS, NL-DFT gradient (VV10), 2- and 3-layer-ONIOM, interface openCOSMO-RS, QMMM,   
  Crystal-QMMM, RESP, rigid body optimization, SF, symmetry and pop. for TD-DFT, various functionals, SOLVATOR                                   
                                                                         
[Other institutions]                                                     
  V. Asgeirsson          : NEB                                           
  Christoph Bannwarth    : sTDA-DFT, sTD-DFT, PBEh-3c, B97-3c, D3        
  Giovanni Bistoni       : ETS/NOCV, ADLD/ADEX, COVALED                  
  Martin Brehm           : Molecular dynamics                            
  Ronald Cardenas        : ETS/NOCV                                      
  Martina Colucci        : COVALED                                       
  Sebastian Ehlert       : rSCAN, r2SCAN, r2SCAN-3c, D4, dhf basis sets  
  Marvin Friede          : D4 for Fr, Ra, Ac-Lr                          
  Lars Goerigk           : TD-DFT with DH, B97 family of functionals     
  Stefan Grimme          : VdW corrections, initial TS optimization, DFT functionals, gCP, sTDA/sTD-DF 
  Waldemar Hujo          : DFT-NL                                        
  H. Jonsson             : NEB                                           
  Holger Kruse           : gCP                                           
  Marcel Mueller         : wB97X-3c, vDZP basis set                      
  Hagen Neugebauer       : wr2SCAN, Native XTB                           
  Gianluca Regni         : ADLD/ADEX                                     
  Tobias Risthaus        : pre 6.0 range-separated hybrid DFT and stability analysis
  Lukas Wittmann         : regularized MP2, r2SCAN double-hybrids, wr2SCAN        
                                                                         
We gratefully acknowledge several colleagues who have allowed us to      
interface, adapt or use parts of their codes:                            
  Ed Valeev, F. Pavosevic, A. Kumar             : LibInt (2-el integral package), F12 methods 
  Garnet Chan, S. Sharma, J. Yang, R. Olivares  : DMRG                   
  Ulf Ekstrom                                   : XCFun DFT Library      
  Mihaly Kallay                                 : mrcc  (arbitrary order and MRCC methods)
  Frank Weinhold                                : gennbo (NPA and NBO analysis)           
  Simon Mueller                                 : openCOSMO-RS                            
  Christopher J. Cramer and Donald G. Truhlar   : smd solvation model                     
  S Lehtola, MJT Oliveira, MAL Marques          : LibXC Library                           
  Liviu Ungur et al                             : ANISO software                          


 Your calculation uses the libint2 library for the computation of 2-el integrals
 For citations please refer to: http://libint.valeyev.net

 Your ORCA version has been built with support for libXC version: 7.0.0
 For citations please refer to: https://libxc.gitlab.io

 This ORCA versions uses:
   CBLAS   interface :  Fast vector & matrix operations
   LAPACKE interface :  Fast linear algebra routines
   SCALAPACK package :  Parallel linear algebra routines
   Shared memory     :  Shared parallel matrices
   BLAS/LAPACK       :  OpenBLAS 0.3.29  USE64BITINT DYNAMIC_ARCH NO_AFFINITY Haswell SINGLE_THREADED
        Core in use  :  Haswell
   Copyright (c) 2011-2014, The OpenBLAS Project


  ***********************************
  * Starting time: Sun Aug  9 16:57:18 2026
  * Host name:     localhost.localdomain
  * Process ID:    2954298
  * Working dir.:  /home/dinglab/calculation/templates/NMR_modules/autohnmr/alpha_diol_screening/CONF42/b3lyp-3c
  ***********************************

NOTE: MaxCore=2500 MB was set to SCF,MP2,MDCI,CIPSI,MRCI,RASCI and CIS
      => If you want to overwrite this, your respective input block should be placed after the MaxCore statement


***************************************
The coordinates will be read from file: inp.xyz
***************************************


Your calculation utilizes the geometrical counterpoise correction gCP
Please cite in your paper:
H.Kruse, S. Grimme J.Chem.Phys., 136, (2012), 154101 
   

Your calculation utilizes the atom-pairwise dispersion correction
with the Becke-Johnson damping scheme (D3BJ)


Warning: RI is on but no J-basis has been assigned. Assigning Def2/J (nothing to worry about!)
================================================================================

----- Orbital basis set information -----
Your calculation utilizes the basis: def2-mSVP

----- AuxJ basis set information -----
Your calculation utilizes the auxiliary basis: def2/J
   H-Rn: F. Weigend, Phys. Chem. Chem. Phys. 8, 1057 (2006).
   Fr-Lr: K. Eichkorn, F. Weigend, O. Treutler, R. Ahlrichs; Theor. Chem. Acc. 97, 119 (1997).

================================================================================
                                        WARNINGS
                       Please study these warnings very carefully!
================================================================================

WARNING: Old DensityContainer found on disk!
         Will remove this file - 
         If you want to keep old densities, please start your calculation with a different basename. 


WARNING: Gradients are needed
  ===> : At least TightSCF should be used for SCF convergence

================================================================================
                                       INPUT FILE
================================================================================
NAME = inp
|  1> ! b3lyp
|  2> ! d3bj ABC
|  3> ! def2-mSVP
|  4> ! GCP(DFT/SV(P))
|  5> ! DEFGRID2
|  6> ! scfconv6
|  7> ! miniprint nopop noautostart
|  8> %MaxCore 2500
|  9> ! ENGRAD
| 10> %pal
| 11>     nprocs 12
| 12> end
| 13> ! CPCM(chloroform)
| 14> * xyzfile 0 1 inp.xyz
| 15> 
| 16>                          ****END OF INPUT****
================================================================================

                     *******************************
                     * Energy+Gradient Calculation *
                     *******************************

---------------------------------
CARTESIAN COORDINATES (ANGSTROEM)
---------------------------------
  C      0.091015   -0.640086    0.112857
  C     -0.964637    0.405648    0.655919
  C     -0.336483    1.832420    0.752283
  C      0.582866    2.224656   -0.426175
  C      1.515175    1.051927   -0.826628
  C      0.649974   -0.144937   -1.260811
  C      1.374811   -0.594916    1.005877
  C      2.243186    0.506463    0.397670
  O      1.523353   -1.096223   -1.894075
  C     -0.493975   -2.054994    0.024544
  C      3.430141    0.923310    0.851607
  C     -2.322897    0.372001   -0.059398
  C     -2.596910    0.989409   -1.221348
  H     -1.169605    0.093587    1.692590
  O     -0.876884   -2.486847    1.340220
  C     -3.420401   -0.370022    0.683438
  H     -1.139375    2.576143    0.870077
  H      0.258909    1.877901    1.678364
  H     -0.005138    2.531390   -1.307005
  H      1.192582    3.096548   -0.138520
  H      2.202794    1.369996   -1.625501
  H     -0.154199    0.146275   -1.955150
  H      1.903296   -1.560829    0.956057
  H      1.145187   -0.413091    2.066872
  H      0.973750   -1.778705   -2.327987
  H      0.274565   -2.733007   -0.389378
  H     -1.359055   -2.067843   -0.666547
  H      3.885474    0.501274    1.751217
  H      3.993853    1.708850    0.342043
  H     -3.597416    0.943510   -1.658567
  H     -1.865552    1.576281   -1.776130
  H     -1.189889   -3.410963    1.272467
  H     -3.106757   -1.389970    0.952431
  H     -3.648356    0.144225    1.634184
  H     -4.348840   -0.425367    0.096267

----------------------------
CARTESIAN COORDINATES (A.U.)
----------------------------
  NO LB      ZA    FRAG     MASS         X           Y           Z
   0 C     6.0000    0    12.011    0.171993   -1.209587    0.213268
   1 C     6.0000    0    12.011   -1.822900    0.766565    1.239507
   2 C     6.0000    0    12.011   -0.635862    3.462771    1.421609
   3 C     6.0000    0    12.011    1.101457    4.203992   -0.805354
   4 C     6.0000    0    12.011    2.863267    1.987853   -1.562100
   5 C     6.0000    0    12.011    1.228272   -0.273890   -2.382587
   6 C     6.0000    0    12.011    2.598017   -1.124228    1.900832
   7 C     6.0000    0    12.011    4.239008    0.957077    0.751488
   8 O     8.0000    0    15.999    2.878720   -2.071562   -3.579284
   9 C     6.0000    0    12.011   -0.933477   -3.883375    0.046381
  10 C     6.0000    0    12.011    6.482027    1.744804    1.609304
  11 C     6.0000    0    12.011   -4.389640    0.702980   -0.112245
  12 C     6.0000    0    12.011   -4.907448    1.869712   -2.308013
  13 H     1.0000    0     1.008   -2.210233    0.176854    3.198531
  14 O     8.0000    0    15.999   -1.657071   -4.699459    2.532648
  15 C     6.0000    0    12.011   -6.463620   -0.699241    1.291511
  16 H     1.0000    0     1.008   -2.153107    4.868205    1.644208
  17 H     1.0000    0     1.008    0.489267    3.548719    3.171649
  18 H     1.0000    0     1.008   -0.009709    4.783634   -2.469882
  19 H     1.0000    0     1.008    2.253654    5.851628   -0.261765
  20 H     1.0000    0     1.008    4.162678    2.588918   -3.071753
  21 H     1.0000    0     1.008   -0.291394    0.276419   -3.694699
  22 H     1.0000    0     1.008    3.596709   -2.949539    1.806686
  23 H     1.0000    0     1.008    2.164091   -0.780628    3.905822
  24 H     1.0000    0     1.008    1.840120   -3.361265   -4.399258
  25 H     1.0000    0     1.008    0.518852   -5.164636   -0.735818
  26 H     1.0000    0     1.008   -2.568242   -3.907658   -1.259592
  27 H     1.0000    0     1.008    7.342482    0.947270    3.309321
  28 H     1.0000    0     1.008    7.547288    3.229259    0.646368
  29 H     1.0000    0     1.008   -6.798132    1.782975   -3.134237
  30 H     1.0000    0     1.008   -3.525383    2.978739   -3.356400
  31 H     1.0000    0     1.008   -2.248564   -6.445786    2.404614
  32 H     1.0000    0     1.008   -5.870920   -2.626663    1.799833
  33 H     1.0000    0     1.008   -6.894393    0.272545    3.088160
  34 H     1.0000    0     1.008   -8.218116   -0.803828    0.181919



           ************************************************************
           *        Program running with 12 parallel MPI-processes    *
           *              working on a common directory               *
           ************************************************************
------------------------------------------------------------------------------
                   ___                                                        
                  /   \      - P O W E R E D   B Y -                         
                 /     \                                                     
                 |  |  |   _    _      __       _____    __    __             
                 |  |  |  | |  | |    /  \     |  _  \  |  |  /  |          
                  \  \/   | |  | |   /    \    | | | |  |  | /  /          
                 / \  \   | |__| |  /  /\  \   | |_| |  |  |/  /          
                |  |  |   |  __  | /  /__\  \  |    /   |      \           
                |  |  |   | |  | | |   __   |  |    \   |  |\   \          
                \     /   | |  | | |  |  |  |  | |\  \  |  | \   \       
                 \___/    |_|  |_| |__|  |__|  |_| \__\ |__|  \__/        
                                                                              
                      - O R C A' S   B I G   F R I E N D -                    
                                      &                                       
                       - I N T E G R A L  F E E D E R -                       
                                                                              
 v1 FN, 2020, v2 2021, v3 2022-2024                                           
------------------------------------------------------------------------------


----------------------
SHARK INTEGRAL PACKAGE
----------------------

Number of atoms                             ...     35
Number of basis functions                   ...    265
Number of shells                            ...    145
Maximum angular momentum                    ...      2
Integral batch strategy                     ... SHARK/LIBINT Hybrid
RI-J (if used) integral strategy            ... SPLIT-RIJ (Revised 2003 algorithm where possible)
Printlevel                                  ...      1
Contraction scheme used                     ... SEGMENTED contraction
Prescreening option                         ... SCHWARTZ
   Thresh                                   ... 1.000e-10
   Tcut                                     ... 1.000e-11
   Tpresel                                  ... 1.000e-11 
Coulomb Range Separation                    ... NOT USED
Exchange Range Separation                   ... NOT USED
Multipole approximations                    ... NOT USED
Finite Nucleus Model                        ... NOT USED
CABS basis                                  ... NOT available
Auxiliary Coulomb fitting basis             ... AVAILABLE
   # of basis functions in Aux-J            ...    955
   # of shells in Aux-J                     ...    325
   Maximum angular momentum in Aux-J        ...      4
Auxiliary J/K fitting basis                 ... NOT available
Auxiliary Correlation fitting basis         ... NOT available
Auxiliary 'external' fitting basis          ... NOT available

Checking pre-screening integrals            ... done (  0.0 sec) Dimension = 145
   => SHARK Basis and OBASIS are compatible. Storing Pre-screening
Shell pair information
Shell pair cut-off parameter TPreSel        ...   1.0e-11
Total number of shell pairs                 ...     10585
Shell pairs after pre-screening             ...      8848
Total number of primitive shell pairs       ...     38205
Primitive shell pairs kept                  ...     20798
          la=0 lb=0:   3906 shell pairs
          la=1 lb=0:   2752 shell pairs
          la=1 lb=1:    456 shell pairs
          la=2 lb=0:   1203 shell pairs
          la=2 lb=1:    425 shell pairs
          la=2 lb=2:    106 shell pairs

Checking whether 4 symmetric matrices of dimension 265 fit in memory
:Max Core in MB      =   2500.00
 MB in use           =     14.31
 MB left             =   2485.69
 MB needed           =      1.08
 Data fit in memory  = YES
Calculating RI/J V-Matrix + Cholesky decomp.... done (  0.0 sec)
Calculating Nuclear repulsion               ... done (  0.0 sec) ENN=   1106.106373901411 Eh

Diagonalization of the overlap matrix:
Smallest eigenvalue                        ... 1.929e-03
Time for diagonalization                   ...    0.012 sec
Threshold for overlap eigenvalues          ... 1.000e-07
Number of eigenvalues below threshold      ... 0
Time for construction of square roots      ...    0.003 sec
Total time needed                          ...    0.016 sec

-------------------
DFT GRID GENERATION
-------------------

General Integration Accuracy     IntAcc      ... 4.388
Radial Grid Type                 RadialGrid  ... OptM3 with GC (2021)
Angular Grid (max. ang.)         AngularGrid ... 4 (Lebedev-302)
Angular grid pruning method      GridPruning ... 4 (adaptive)
Weight generation scheme         WeightScheme... mBecke (2022)
Basis function cutoff            BFCut       ... 1.0000e-10
Integration weight cutoff        WCut        ... 1.0000e-14
Partially contracted basis set               ... off
Rotationally invariant grid construction     ... off
Angular grids for H and He will be reduced by one unit

Total number of grid points                  ...   152325
Total number of batches                      ...     2398
Average number of points per batch           ...       63
Average number of grid points per atom       ...     4352

--------------------
COSX GRID GENERATION
--------------------

GRIDX 1
-------
General Integration Accuracy     IntAcc      ... 3.816
Radial Grid Type                 RadialGrid  ... OptM3 with GC (2021)
Angular Grid (max. ang.)         AngularGrid ... 1 (Lebedev-50)
Angular grid pruning method      GridPruning ... 4 (adaptive)
Weight generation scheme         WeightScheme... mBecke (2022)
Basis function cutoff            BFCut       ... 1.0000e-10
Integration weight cutoff        WCut        ... 1.0000e-14
Partially contracted basis set               ... on
Rotationally invariant grid construction     ... off
Angular grids for H and He will be reduced by one unit

Total number of grid points                  ...    19398
Total number of batches                      ...      172
Average number of points per batch           ...      112
Average number of grid points per atom       ...      554
UseSFitting                                  ... on

GRIDX 2
-------
General Integration Accuracy     IntAcc      ... 4.020
Radial Grid Type                 RadialGrid  ... OptM3 with GC (2021)
Angular Grid (max. ang.)         AngularGrid ... 2 (Lebedev-110)
Angular grid pruning method      GridPruning ... 4 (adaptive)
Weight generation scheme         WeightScheme... mBecke (2022)
Basis function cutoff            BFCut       ... 1.0000e-10
Integration weight cutoff        WCut        ... 1.0000e-14
Partially contracted basis set               ... on
Rotationally invariant grid construction     ... off
Angular grids for H and He will be reduced by one unit

Total number of grid points                  ...    40668
Total number of batches                      ...      335
Average number of points per batch           ...      121
Average number of grid points per atom       ...     1162
UseSFitting                                  ... on

GRIDX 3
-------
General Integration Accuracy     IntAcc      ... 4.338
Radial Grid Type                 RadialGrid  ... OptM3 with GC (2021)
Angular Grid (max. ang.)         AngularGrid ... 3 (Lebedev-194)
Angular grid pruning method      GridPruning ... 4 (adaptive)
Weight generation scheme         WeightScheme... mBecke (2022)
Basis function cutoff            BFCut       ... 1.0000e-10
Integration weight cutoff        WCut        ... 1.0000e-14
Partially contracted basis set               ... on
Rotationally invariant grid construction     ... off
Angular grids for H and He will be reduced by one unit

Total number of grid points                  ...    88396
Total number of batches                      ...      709
Average number of points per batch           ...      124
Average number of grid points per atom       ...     2526
UseSFitting                                  ... on
Grids setup in   1.4 sec
Initializing property integral containers    ... done (  0.0 sec)

SHARK setup successfully completed in   1.5 seconds

Maximum memory used throughout the entire STARTUP-calculation: 40.9 MB


           ************************************************************
           *        Program running with 12 parallel MPI-processes    *
           *              working on a common directory               *
           ************************************************************
Loading Hartree-Fock densities                     ... done
Calculating cut-offs                               ... done
Initializing the effective Hamiltonian             ... done
Setting up the integral package (SHARK)            ... done
Starting the Coulomb interaction                   ... done (   0.1 sec)
Making the grid                                    ... done (   0.2 sec)
Mapping shells                                     ... done
Starting the XC term evaluation                    ... done (   0.0 sec)
  promolecular density results
     # of electrons  =    114.000333938
     EX              =    -89.147713150
     EC              =     -3.803343727
     EX+EC           =    -92.951056877
Transforming the Hamiltonian                       ... done (   0.0 sec)
Diagonalizing the Hamiltonian                      ... done (   0.0 sec)
Back transforming the eigenvectors                 ... done (   0.0 sec)
Now organizing SCF variables                       ... done
             **** ENERGY FILE WAS UPDATED (inp.en.tmp) ****
Finished Guess after   0.4 sec
Maximum memory used throughout the entire GUESS-calculation: 17.6 MB


           ************************************************************
           *        Program running with 12 parallel MPI-processes    *
           *              working on a common directory               *
           ************************************************************
--------------------
CPCM SOLVATION MODEL
--------------------
CPCM parameters:
  Epsilon                                         ...       4.8030
  Refrac                                          ...       1.4459
  Rsolv                                           ...       1.3000
  Surface type                                    ... GAUSSIAN VDW
  Discretization scheme                           ... Constant charge density
    Threshold for H atoms                         ...       5.0000 (charges/Ang^2)
    Threshold for non-H atoms                     ...       5.0000 (charges/Ang^2)
  Epsilon function type                           ...         CPCM
Solvent:                                          ... CHLOROFORM
Radii:
  Scheme                                          ... Element-dependent radii
  Radius for C  used is    3.8550 Bohr (=   2.0400 Ang.)
  Radius for O  used is    3.4469 Bohr (=   1.8240 Ang.)
  Radius for H  used is    2.4944 Bohr (=   1.3200 Ang.)
Calculating surface                               ...        done! (  0.0s)
Cavity surface points                             ...         2597
Cavity Volume                                     ...    1816.9998
Cavity Surface-area                               ...     918.1903
Calculating surface distance matrix               ...        done! (  0.1s)
Performing Cholesky decomposition & store         ...        done! (  0.2s)
Overall time for CPCM initialization              ...                 0.2s

----------------------------------------D-I-I-S--------------------------------------------
Iteration    Energy (Eh)           Delta-E    RMSDP     MaxDP     DIISErr   Damp  Time(sec)
-------------------------------------------------------------------------------------------
               ***  Starting incremental Fock matrix formation  ***
    1    -656.9365295612274167     0.00e+00  9.05e-03  7.37e-02  2.44e-01  0.700   1.9
    2    -657.1306499089948829    -1.94e-01  6.49e-03  4.13e-02  1.05e-01  0.700   1.2
                               ***Turning on AO-DIIS***
    3    -657.2103450186311875    -7.97e-02  2.55e-03  1.61e-02  3.76e-02  0.700   1.1
    4    -657.2571136765629944    -4.68e-02  4.28e-03  2.45e-02  1.85e-02  0.000   1.1
    5    -657.3589021551640599    -1.02e-01  8.43e-04  4.98e-03  5.11e-03  0.000   1.1
                              *** Initializing SOSCF ***
---------------------------------------S-O-S-C-F--------------------------------------
Iteration    Energy (Eh)           Delta-E    RMSDP     MaxDP     MaxGrad    Time(sec)
--------------------------------------------------------------------------------------
    6    -657.3592576398280016    -3.55e-04  2.81e-04  1.79e-03  9.49e-04     1.0
               *** Restarting incremental Fock matrix formation ***
    7    -657.3591857713272475     7.19e-05  1.72e-04  1.39e-03  3.39e-04     1.9
    8    -657.3591805458415820     5.23e-06  9.43e-05  7.42e-04  6.12e-04     1.3
    9    -657.3591895897593531    -9.04e-06  1.43e-05  1.16e-04  2.98e-05     1.2
                  *** Gradient check signals convergence ***

               *****************************************************
               *                     SUCCESS                       *
               *           SCF CONVERGED AFTER   9 CYCLES          *
               *****************************************************

Recomputing exchange energy using gridx3       ... done (    2.524 sec)
Old exchange energy                            :    -18.196628848 Eh
New exchange energy                            :    -18.196706926 Eh
Exchange energy change after final integration :     -0.000078078 Eh
Total energy after final integration           :   -657.359267590 Eh
             **** ENERGY FILE WAS UPDATED (inp.en.tmp) ****

----------------
TOTAL SCF ENERGY
----------------

Total Energy       :       -657.35926758963160 Eh          -17887.65506 eV

Components:
Nuclear Repulsion  :       1106.10637390141119 Eh           30098.68462 eV
Electronic Energy  :      -1763.45228793792830 Eh          -47985.97631 eV
One Electron Energy:      -3089.99564092494302 Eh          -84083.05609 eV
Two Electron Energy:       1326.54335298701471 Eh           36097.07977 eV
CPCM Dielectric    :         -0.01327547484695 Eh              -0.36124 eV

Virial components:
Potential Energy   :      -1309.68740772283377 Eh          -35638.40619 eV
Kinetic Energy     :        652.32814013320217 Eh           17750.75112 eV
Virial Ratio       :          2.00771257155241

DFT components:
N(Alpha)           :       57.000020346036 electrons
N(Beta)            :       57.000020346036 electrons
N(Total)           :      114.000040692072 electrons
E(X)               :      -72.174469268858 Eh       
E(C)               :       -4.481150264996 Eh       
E(XC)              :      -76.655619533854 Eh       

CPCM Solvation Model Properties:
Surface-charge          :         -0.02184417720448
Corrected charge        :         -0.00000000000000
Outlying charge corr.   :          0.00002351539467 Eh               0.00064 eV
Free-energy (cav+disp)  :  This term is not implemented in the current solvation scheme

---------------
SCF CONVERGENCE
---------------

  Last Energy change         ...    9.0439e-06  Tolerance :   1.0000e-06
  Last MAX-Density change    ...    1.1643e-04  Tolerance :   1.0000e-07
  Last RMS-Density change    ...    1.4262e-05  Tolerance :   5.0000e-09
  Last DIIS Error            ...    9.4856e-04  Tolerance :   1.0000e-06
  Last Orbital Gradient      ...    2.9845e-05  Tolerance :   3.3300e-04
  Last Orbital Rotation      ...    9.9672e-05  Tolerance :   3.3300e-04


----------------
ORBITAL ENERGIES
----------------

  NO   OCC          E(Eh)            E(eV) 
   0   2.0000     -19.128824      -520.5218 
   1   2.0000     -19.128176      -520.5041 
   2   2.0000     -10.219408      -278.0842 
   3   2.0000     -10.215789      -277.9858 
   4   2.0000     -10.186150      -277.1792 
   5   2.0000     -10.185389      -277.1585 
   6   2.0000     -10.180197      -277.0173 
   7   2.0000     -10.179955      -277.0107 
   8   2.0000     -10.174908      -276.8733 
   9   2.0000     -10.170799      -276.7615 
  10   2.0000     -10.168284      -276.6931 
  11   2.0000     -10.168117      -276.6885 
  12   2.0000     -10.162841      -276.5450 
  13   2.0000     -10.159476      -276.4534 
  14   2.0000     -10.157141      -276.3899 
  15   2.0000      -1.006532       -27.3891 
  16   2.0000      -1.001806       -27.2605 
  17   2.0000      -0.851764       -23.1777 
  18   2.0000      -0.796719       -21.6798 
  19   2.0000      -0.757644       -20.6165 
  20   2.0000      -0.748216       -20.3600 
  21   2.0000      -0.712324       -19.3833 
  22   2.0000      -0.671018       -18.2593 
  23   2.0000      -0.667655       -18.1678 
  24   2.0000      -0.657360       -17.8877 
  25   2.0000      -0.602439       -16.3932 
  26   2.0000      -0.580552       -15.7976 
  27   2.0000      -0.543308       -14.7842 
  28   2.0000      -0.525418       -14.2973 
  29   2.0000      -0.506090       -13.7714 
  30   2.0000      -0.493393       -13.4259 
  31   2.0000      -0.486413       -13.2360 
  32   2.0000      -0.466212       -12.6863 
  33   2.0000      -0.463092       -12.6014 
  34   2.0000      -0.444048       -12.0832 
  35   2.0000      -0.431842       -11.7510 
  36   2.0000      -0.426089       -11.5945 
  37   2.0000      -0.409684       -11.1481 
  38   2.0000      -0.400438       -10.8965 
  39   2.0000      -0.395076       -10.7506 
  40   2.0000      -0.392116       -10.6700 
  41   2.0000      -0.380115       -10.3434 
  42   2.0000      -0.373329       -10.1588 
  43   2.0000      -0.369930       -10.0663 
  44   2.0000      -0.359634        -9.7861 
  45   2.0000      -0.352612        -9.5951 
  46   2.0000      -0.342913        -9.3311 
  47   2.0000      -0.337329        -9.1792 
  48   2.0000      -0.326634        -8.8882 
  49   2.0000      -0.310786        -8.4569 
  50   2.0000      -0.301729        -8.2105 
  51   2.0000      -0.298744        -8.1292 
  52   2.0000      -0.287636        -7.8270 
  53   2.0000      -0.262511        -7.1433 
  54   2.0000      -0.256151        -6.9702 
  55   2.0000      -0.236660        -6.4399 
  56   2.0000      -0.234647        -6.3851 
  57   0.0000       0.019338         0.5262 
  58   0.0000       0.022177         0.6035 
  59   0.0000       0.087110         2.3704 
  60   0.0000       0.096550         2.6273 
  61   0.0000       0.109748         2.9864 
  62   0.0000       0.126310         3.4371 
  63   0.0000       0.143817         3.9135 
  64   0.0000       0.148600         4.0436 
  65   0.0000       0.154939         4.2161 
  66   0.0000       0.157885         4.2963 
  67   0.0000       0.162340         4.4175 
*Only the first 10 virtual orbitals were printed.
Total SCF time: 0 days 0 hours 0 min 15 sec 
Finished LeanSCF after  15.8 sec

Maximum memory used throughout the entire LEANSCF-calculation: 31.5 MB


-------------------------------------------------------------------------------
                          DFT DISPERSION CORRECTION                            
                                                                               
                              DFTD3 V3.1  Rev 1                                
                          USING Becke-Johnson damping                          
-------------------------------------------------------------------------------
-------------------------   ----------------
Dispersion correction           -0.073521477
-------------------------   ----------------

NOTIFICATION: Different basis set in ORCA and otool_gcp:
ORCA: 265  gCP: 250 
If you are NOT using ECPs, check your basis set inputs!
------------------   -----------------
gCP correction             0.161331270
------------------   -----------------

-------------------------   --------------------
FINAL SINGLE POINT ENERGY      -657.271457797314
-------------------------   --------------------



           ************************************************************
           *        Program running with 12 parallel MPI-processes    *
           *              working on a common directory               *
           ************************************************************
------------------------------------------------------------------------------
                         ORCA SCF GRADIENT CALCULATION
------------------------------------------------------------------------------

Nuc. rep. gradient        (SHARK) ... done (  0.0 sec)
HCore & Overlap gradient  (SHARK) ... done (  0.1 sec)
Split-RIJ-J gradient      (SHARK) ... done (  0.5 sec)
COSX-gradient                     ... done (  5.9 sec)
XC gradient                       ... done (  1.8 sec)
CPCM gradient                     ... done (  0.6 sec)
Dispersion correction             ... done (  0.0 sec)

-------------------
DISPERSION GRADIENT
-------------------

   1   C   :    0.000300935   -0.000536317    0.000112027
   2   C   :   -0.000479371    0.000277236    0.000494400
   3   C   :   -0.000183984    0.000942109    0.000515558
   4   C   :    0.000235841    0.001008344   -0.000195848
   5   C   :    0.000622977    0.000397562   -0.000480378
   6   C   :    0.000570363   -0.000245583   -0.000771295
   7   C   :    0.000630233   -0.000411676    0.000586045
   8   C   :    0.000814798    0.000019694    0.000115872
   9   O   :    0.000316463   -0.000389294   -0.000773123
  10   C   :   -0.000070040   -0.001167498    0.000021322
  11   C   :    0.001187275    0.000160903    0.000387145
  12   C   :   -0.001222597    0.000188051    0.000024725
  13   C   :   -0.001138063    0.000408760   -0.000748168
  14   H   :   -0.000199229    0.000076574    0.000492740
  15   O   :   -0.000100436   -0.000820188    0.000341093
  16   C   :   -0.000928495   -0.000018081    0.000216302
  17   H   :   -0.000090098    0.000471885    0.000270843
  18   H   :   -0.000116245    0.000415506    0.000440935
  19   H   :    0.000064444    0.000521563   -0.000274075
  20   H   :    0.000030759    0.000515894   -0.000063764
  21   H   :    0.000265241    0.000197940   -0.000366899
  22   H   :    0.000052333   -0.000054029   -0.000629051
  23   H   :    0.000306814   -0.000341469    0.000272982
  24   H   :    0.000195867   -0.000170498    0.000530897
  25   H   :    0.000122211   -0.000259972   -0.000436542
  26   H   :   -0.000016452   -0.000479019   -0.000071220
  27   H   :   -0.000126183   -0.000560634   -0.000146985
  28   H   :    0.000307263    0.000047991    0.000147999
  29   H   :    0.000365553    0.000094388    0.000075771
  30   H   :   -0.000216719    0.000105783   -0.000239597
  31   H   :   -0.000379230    0.000223780   -0.000420783
  32   H   :   -0.000055545   -0.000370031    0.000129686
  33   H   :   -0.000423722   -0.000155163    0.000170112
  34   H   :   -0.000338880   -0.000029794    0.000230868
  35   H   :   -0.000304082   -0.000064713    0.000040409

Difference to translation invariance:
           :   -0.0000000000    0.0000000000    0.0000000000

Difference to rotation invariance:
           :   -0.0000000000   -0.0000000000    0.0000000000

Norm of the Dispersion gradient    ...    0.0045601324
RMS gradient                       ...    0.0004450234
MAX gradient                       ...    0.0012225971
gCP correction                   ... done

------------------
CARTESIAN GRADIENT
------------------

   1   C   :   -0.000015342    0.000136445    0.000006938
   2   C   :   -0.000062361   -0.000028705    0.000052300
   3   C   :    0.000050327   -0.000064128   -0.000049574
   4   C   :    0.000007274    0.000106787   -0.000042691
   5   C   :   -0.000071877    0.000137650    0.000106249
   6   C   :    0.000153063   -0.000119272   -0.000005434
   7   C   :   -0.000035978    0.000035902    0.000002896
   8   C   :    0.000021375   -0.000084691   -0.000018922
   9   O   :   -0.000054446    0.000004591    0.000051405
  10   C   :   -0.000053622   -0.000052973    0.000155711
  11   C   :    0.000193054   -0.000269283   -0.000189408
  12   C   :   -0.000021172   -0.000009617   -0.000004979
  13   C   :    0.000019059   -0.000068436   -0.000041345
  14   H   :   -0.000006095   -0.000020881    0.000009771
  15   O   :    0.000097556    0.000004806   -0.000151613
  16   C   :    0.000036283    0.000052895   -0.000022100
  17   H   :    0.000005683   -0.000019081   -0.000036324
  18   H   :   -0.000014687    0.000004643   -0.000007899
  19   H   :   -0.000027354   -0.000006712    0.000006328
  20   H   :   -0.000003035    0.000002922   -0.000033009
  21   H   :   -0.000007888   -0.000004908    0.000027733
  22   H   :    0.000006775   -0.000016237   -0.000009343
  23   H   :    0.000004512    0.000026764    0.000008688
  24   H   :   -0.000027948   -0.000013737    0.000003622
  25   H   :    0.000052155    0.000014143   -0.000055797
  26   H   :    0.000002361    0.000011307   -0.000074148
  27   H   :   -0.000045430    0.000010616    0.000019377
  28   H   :   -0.000088134    0.000117573    0.000047685
  29   H   :   -0.000094521    0.000057126    0.000086910
  30   H   :    0.000018847    0.000036961    0.000033183
  31   H   :   -0.000033680   -0.000007632    0.000045752
  32   H   :   -0.000047938    0.000011687    0.000020352
  33   H   :    0.000036337   -0.000010200    0.000019516
  34   H   :    0.000019837    0.000031340    0.000032857
  35   H   :   -0.000012990   -0.000007664    0.000005314

Difference to translation invariance:
           :    0.0000000000    0.0000000000    0.0000000000

Difference to rotation invariance:
           :   -0.0000461043    0.0002396605   -0.0001626458

Norm of the Cartesian gradient     ...    0.0006610141
RMS gradient                       ...    0.0000645084
MAX gradient                       ...    0.0002692833

-------
TIMINGS
-------

Total SCF gradient time     ....        8.890 sec

Densities                   ....       0.001 sec  (  0.0%)
One electron gradient       ....       0.110 sec  (  1.2%)
RI-J Coulomb gradient       ....       0.520 sec  (  5.8%)
COSX gradient               ....       5.852 sec  ( 65.8%)
XC gradient                 ....       1.751 sec  ( 19.7%)
CPCM gradient               ....       0.600 sec  (  6.7%)
   A-Matrix (El+Nuc)        ....       0.020 sec  (  0.2%)
   Potential                ....       0.580 sec  (  6.5%)

Maximum memory used throughout the entire SCFGRAD-calculation: 37.8 MB


           ************************************************************
           *        Program running with 12 parallel MPI-processes    *
           *              working on a common directory               *
           ************************************************************

------------------------------------------------------------------------------
                              ORCA PROPERTY CALCULATIONS
------------------------------------------------------------------------------

GBWName                                 ... inp.gbw
Number of atoms                         ...     35
Number of basis functions               ...    265
Max core memory                         ...   2500 MB

Electric properties:
Dipole moment                           ... YES
Quadrupole moment                       ...  NO
Static polarizability (Dipole/Dipole)   ...  NO
Static polarizability (Dipole/Quad.)    ...  NO
Static polarizability (Quad./Quad.)     ...  NO
Static polarizability (Velocity)        ...  NO
Static hyperpolarizability              ...  NO

Atomic electric properties:
Dipole moment                           ...  NO
Quadrupole moment                       ...  NO
Static polarizability                   ...  NO

Choice of electric origin               ... Center of mass
Position of electric origin             ...     0.014177    -0.004146     0.008201

General magnetic properties:
Magnetizability                         ...  NO

EPR properties:
g-Tensor (aka g-matrix)                 ...  NO
Zero-Field splitting spin-orbit         ...  NO
Zero-field splitting spin-spin          ...  NO
Hyperfine couplings                     ...  NO (   0 nuclei)
Quadrupole couplings                    ...  NO (   0 nuclei)
Contact density                         ...  NO (   0 nuclei)

NMR properties:
Chemical shifts                         ...  NO (   0 nuclei)
Spin-rotation constants                 ...  NO (   0 nuclei)
Spin-spin couplings                     ...  NO (   0 nuclei,    0 pairs)

Choice of magnetic origin               ... GIAO
Position of magnetic origin             ...     0.000000     0.000000     0.000000

Properties with geometric perturbations:
SCF Hessian                             ...  NO
IR spectrum                             ...  NO
VCD spectrum                            ...  NO
X-ray spectroscopy properties:
SCF XES/XAS/RIXS spectra                ...  NO

SCF SOC stabilization energy            ...  NO
Diagonal Born-Oppenheimer correction    ...  NO

-------------
DIPOLE MOMENT
-------------

Method             : SCF
Type of density    : Electron Density
Multiplicity       :   1
Irrep              :   0
Energy             :  -657.3592675896315995 Eh
Basis              : AO
                                X                 Y                 Z
Electronic contribution:      4.608040597      -3.350618743      -1.641864733
Nuclear contribution   :     -5.529481651       2.602186475       1.287287796
                        -----------------------------------------
Total Dipole Moment    :     -0.921441054      -0.748432268      -0.354576938
                        -----------------------------------------
Magnitude (a.u.)       :      1.238922629
Magnitude (Debye)      :      3.149091060



--------------------
Rotational spectrum 
--------------------
 
Rotational constants in cm-1:             0.028751             0.017876             0.015080 
Rotational constants in MHz :           861.929378           535.900953           452.075509 

Dipole components along the rotational axes: 
x,y,z [a.u.] :    -1.029936    -0.452111    -0.519381 
x,y,z [Debye]:    -2.617890    -1.149174    -1.320161 

 

Dipole moment calculation done in   0.0 sec 

Maximum memory used throughout the entire PROP-calculation: 16.6 MB

--------------------------------
SUGGESTED CITATIONS FOR THIS RUN
--------------------------------

Below you find a list of papers that are relevant to this ORCA run
We neither can nor want to force you to cite these papers, but we appreciate if you do
You receive ORCA, which is the product of decades of hard work by many enthusiastic individuals, for free
The only thing we kindly ask in return is that you cite our papers,
We deeply appreciate it, if you show your appreciation for ORCA by not just citing the generic ORCA reference.

Please note that relegating all ORCA citations to the supporting information does *not* help us.
SI sections are not indexed - citations you put there will not count into any citation statistics
But we need these citations in order to attract the funding resources that allow us to do what we are doing

Therefore, if you are a happy ORCA user, please consider citing a few of the papers listed below in the main body of your paper

In addition to the list printed below, the program has created the file inp.bibtex that contains the list in bibtex format
You can import this file easily into all common literature databanks and citation aid programs

It goes without saying that in many instances, there are alternative algorithms to achieve similar
results as the ones you have gotten from ORCA. It is, of course, also the case that in some instances
ORCA just re-implements algorithms worked out by others. We are fully aware of that and we are also
fully appreciative of our colleagues work. Hence this citation list should not be read as indicating
that the listed papers, which are focused on our own work, are the only ones worth citing. It simply
meant to make it easier for users to cite ORCA specific papers. It is not a substitute for doing your
own literature research and citing the relevant literature in a scientifically appropriate manner.

List of essential papers. We consider these as the minimum necessary citations

  1. Neese, F.
     Software update: the ORCA program system, version 6.0
     WIRES Comput. Molec. Sci. 2025 15(1), e70019
     doi.org/10.1002/wcms.70019

List of papers to cite with high priority. The work reported in these papers was absolutely
necessary for this run to complete.
Our perspective: the developers of density functionals and basis sets usually get cited in chemistry papers
Good! But without the algorithms to do something with them, the functionals or basis sets would not do anything.
Hence, in our opinion, the algorithm design and method developments papers are equally worthy of getting cited

  1. Neese, F.
     An improvement of the resolution of the identity approximation for the formation of the Coulomb matrix
     J. Comp. Chem. 2003 24(14), 1740-1747
     doi.org/10.1002/jcc.10318
  2. Neese, F.; Wennmohs, F.; Hansen, A.; Becker, U.
     Efficient, approximate and parallel Hartree-Fock and hybrid DFT calculations. A 'chain-of-spheres' algorithm for the Hartree-Fock exchange
     Chem. Phys. 2009 356(1-3), 98-109
     doi.org/10.1016/j.chemphys.2008.10.036
  3. Grimme, S.; Antony, J.; Ehrlich, S.; Krieg, H.
     A consistent and accurate ab initio parametrization of density functional dispersion correction (DFT-D) for the 94 elements H-Pu
     J. Chem. Phys. 2010 132 , 154104
     doi.org/10.1063/1.3382344
  4. Grimme, S.; Ehrlich, S.; Goerigk, L.
     Effect of the damping function in dispersion corrected density functional theory
     J. Comput. Chem. 2011 32(7), 1456-1465
     doi.org/10.1002/jcc.21759
  5. Garcia-Rates, M.; Neese, F.
     Effect of the Solute Cavity on the Solvation Energy and its Derivatives within the Framework of the Gaussian Charge Scheme
     J. Comput. Chem. 2020 41 , 922-939
     doi.org/10.1002/jcc.26139
  6. Helmich-Paris, B.; de Souza, B.; Neese, F.; Izsák, R.
     An improved chain of spheres for exchange algorithm
     J. Chem. Phys. 2021 155(10), 104109
     doi.org/10.1063/5.0058766
  7. Neese, F.
     The SHARK Integral Generation and Digestion System
     J. Comp. Chem. 2022 44(3), 381
     doi.org/10.1002/jcc.26942

List of suggested additional citations. These are papers that are important in the 'surrounding' of 
of this run, or papers that preceded the highly important papers. If you like your results we are grateful for a citation.

  1. Izsak, R.; Neese, F.
     An overlap fitted chain of spheres exchange method
     J. Chem. Phys. 2011 135 , 144105
     doi.org/10.1063/1.3646921
  2. Izsak, R.; Hansen, A.; Neese, F.
     The resolution of identity and chain of spheres approximations for the LPNO-CCSD singles Fock term
     Molec. Phys. 2012 110 , 2413-2417
     doi.org/10.1080/00268976.2012.687466
  3. Neese, F.
     The ORCA program system
     WIRES Comput. Molec. Sci. 2012 2(1), 73-78
     doi.org/10.1002/wcms.81
  4. Izsak, R.; Neese, F.; Klopper, W.
     Robust fitting techniques in the chain of spheres approximation to the Fock exchange: The role of the complementary space
     J. Chem. Phys. 2013 139 , 
     doi.org/10.1063/1.4819264
  5. Neese, F.
     Software update: the ORCA program system, version 4.0
     WIRES Comput. Molec. Sci. 2018 8(1), 1-6
     doi.org/10.1002/wcms.1327
  6. Neese, F.; Wennmohs, F.; Becker, U.; Riplinger, C.
     The ORCA quantum chemistry program package
     J. Chem. Phys. 2020 152(22), 224108
     doi.org/10.1063/5.0004608
  7. Neese, F.
     Software update: The ORCA program system—Version 5.0
     WIRES Comput. Molec. Sci. 2022 12(1), e1606
     doi.org/10.1002/wcms.1606

List of optional additional citations

  1. Neese, F.
     Approximate second-order SCF convergence for spin unrestricted wavefunctions
     Chem. Phys. Lett. 2000 325(1-3), 93-98
     doi.org/10.1016/s0009-2614(00)00662-x

Timings for individual modules:

Sum of individual times          ...       27.645 sec (=   0.461 min)
Startup calculation              ...        1.725 sec (=   0.029 min)   6.2 %
SCF iterations                   ...       16.525 sec (=   0.275 min)  59.8 %
Property calculations            ...        0.244 sec (=   0.004 min)   0.9 %
SCF Gradient evaluation          ...        9.151 sec (=   0.153 min)  33.1 %
                             ****ORCA TERMINATED NORMALLY****
TOTAL RUN TIME: 0 days 0 hours 0 minutes 27 seconds 909 msec
  ------------------------------------------------------------------------
          * successful ORCA run, taking over control again...

         :::::::::::::::::::::::::::::::::::::::::::::::::::::
         ::                  ORCA SUMMARY                   ::
         :::::::::::::::::::::::::::::::::::::::::::::::::::::
         :: total energy            -657.271457797314 Eh    ::
         :: gradient norm              0.000661014142 Eh/a0 ::
         :: HOMO-LUMO gap              0.000000000000 eV    ::
         :::::::::::::::::::::::::::::::::::::::::::::::::::::

           -------------------------------------------------
          |                Property Printout                |
           -------------------------------------------------
           -------------------------------------------------
          |                Geometry Summary                 |
           -------------------------------------------------

      molecular mass/u    :      208.2971915
   center of mass at/Å    :        0.0075056      -0.0022073       0.0043376
  moments of inertia/u·Å² :        0.5863270E+03   0.9430262E+03   0.1117886E+04
rotational constants/cm⁻¹ :        0.2875125E-01   0.1787610E-01   0.1507992E-01

 * 26 selected distances

     #   Z          #   Z                                           value/Å
     5   6 c        6   6 c                                       1.5393411 (max)
     6   6 c        9   8 o                                       1.4383194
     1   6 c       10   6 c                                       1.5336156
     8   6 c       11   6 c                                       1.3374161
    12   6 c       13   6 c                                       1.3440253
     2   6 c       14   1 h                                       1.1018533
    10   6 c       15   8 o                                       1.4367047
     3   6 c       17   1 h                                       1.1007430
     3   6 c       18   1 h                                       1.1019016
     4   6 c       19   1 h                                       1.1025861
     4   6 c       20   1 h                                       1.1021318
     5   6 c       21   1 h                                       1.1009938
     6   6 c       22   1 h                                       1.1016378
     7   6 c       23   1 h                                       1.1021643
     7   6 c       24   1 h                                       1.1006808
     9   8 o       25   1 h                                       0.9778160 (min)
    10   6 c       26   1 h                                       1.1052994
    10   6 c       27   1 h                                       1.1073103
    11   6 c       28   1 h                                       1.0930426
    11   6 c       29   1 h                                       1.0929313
    13   6 c       30   1 h                                       1.0928315
    13   6 c       31   1 h                                       1.0895346
    15   8 o       32   1 h                                       0.9780357
    16   6 c       33   1 h                                       1.1004652
    16   6 c       34   1 h                                       1.1046860
    16   6 c       35   1 h                                       1.0999235

 * 4 distinct bonds (by element types)

   Z      Z             #   av. dist./Å        max./Å        min./Å
   1 H    6 C          18     1.1000398     1.1073103     1.0895346
   6 C    6 C           4     1.4385995     1.5393411     1.3374161
   1 H    8 O           2     0.9779259     0.9780357     0.9778160
   6 C    8 O           2     1.4375120     1.4383194     1.4367047


optimized geometry written to: xtbopt.coord


           -------------------------------------------------
          | TOTAL ENERGY             -657.271457797314 Eh   |
          | GRADIENT NORM               0.000661014142 Eh/α |
           -------------------------------------------------

------------------------------------------------------------------------
 * finished run on 2026/08/09 at 16:57:46.761     
------------------------------------------------------------------------
 total:
 * wall-time:     0 d,  0 h,  1 min, 29.575 sec
 *  cpu-time:     0 d,  0 h,  0 min,  4.569 sec
 * ratio c/w:     0.051 speedup
 SCF:
 * wall-time:     0 d,  0 h,  0 min, 32.654 sec
 *  cpu-time:     0 d,  0 h,  0 min,  2.220 sec
 * ratio c/w:     0.068 speedup
 ANC optimizer:
 * wall-time:     0 d,  0 h,  0 min, 56.892 sec
 *  cpu-time:     0 d,  0 h,  0 min,  2.333 sec
 * ratio c/w:     0.041 speedup

normal termination of xtb
