 Entering Gaussian System
 *********************************************
 Gaussian 98:
 frequency output generated by the xtb code
 *********************************************
                         Standard orientation:
 --------------------------------------------------------------------
  Center     Atomic     Atomic              Coordinates (Angstroms)
  Number     Number      Type              X           Y           Z
 --------------------------------------------------------------------
    1          6             0        0.112690   -0.561471    0.449177
    2          6             0       -0.915723    0.558842    0.745511
    3          6             0       -0.341215    1.958941    0.430969
    4          6             0        0.578622    2.040743   -0.788804
    5          6             0        1.535112    0.843912   -0.824694
    6          6             0        0.684287   -0.416979   -0.972553
    7          6             0        1.370144   -0.318284    1.308696
    8          6             0        2.194674    0.661069    0.517905
    9          8             0        1.440059   -1.580493   -1.291630
   10          6             0       -0.494486   -1.955284    0.698202
   11          6             0        3.306987    1.250960    0.916398
   12          6             0       -2.297546    0.336557    0.166500
   13          6             0       -3.306598    0.064546    0.982932
   14          1             0       -1.061991    0.526065    1.831809
   15          8             0       -1.186865   -2.475157   -0.415856
   16          6             0       -2.541726    0.452414   -1.308029
   17          1             0       -1.169125    2.661122    0.315071
   18          1             0        0.236449    2.281946    1.299019
   19          1             0        0.006473    2.061278   -1.718110
   20          1             0        1.153014    2.967622   -0.733905
   21          1             0        2.258837    0.962042   -1.636354
   22          1             0       -0.093541   -0.285750   -1.731313
   23          1             0        1.929495   -1.250657    1.416701
   24          1             0        1.131683    0.045368    2.307451
   25          1             0        2.030794   -1.367661   -2.024034
   26          1             0       -1.227417   -1.907396    1.506081
   27          1             0        0.302034   -2.652649    0.987209
   28          1             0        3.717645    1.082590    1.897751
   29          1             0        3.850853    1.927431    0.278517
   30          1             0       -4.308262   -0.085790    0.615803
   31          1             0       -3.179787   -0.032468    2.048726
   32          1             0       -0.525249   -2.616059   -1.107447
   33          1             0       -3.603485    0.591909   -1.499196
   34          1             0       -1.998652    1.287544   -1.741023
   35          1             0       -2.236044   -0.467813   -1.804512
 --------------------------------------------------------------------
     1 basis functions        1 primitive gaussians
     1 alpha electrons        1 beta electrons
 
 Harmonic frequencies (cm**-1), IR intensities (km*mol⁻¹),
 Raman scattering activities (A**4/amu), Raman depolarization ratios,
 reduced masses (AMU), force constants (mDyne/A) and normal coordinates:
                      1                      2                      3
                        a                      a                      a 
 Frequencies --    40.9367                76.0534                87.1555
 Red. masses --    10.1445                10.2243                10.7809
 Frc consts  --     0.0000                 0.0000                 0.0000
 IR Inten    --     0.4316                 1.4645                 1.6259
 Raman Activ --     0.0000                 0.0000                 0.0000
 Depolar     --     0.0000                 0.0000                 0.0000
 Atom AN      X      Y      Z        X      Y      Z        X      Y      Z
   1   6     0.03   0.02   0.04    -0.05   0.07   0.07    -0.07   0.02   0.03
   2   6    -0.01   0.01  -0.02    -0.11   0.02   0.04     0.01   0.11   0.00
   3   6    -0.00   0.00  -0.03    -0.09   0.03   0.14     0.06   0.06  -0.11
   4   6     0.02  -0.01  -0.01    -0.08   0.09   0.16     0.05  -0.05  -0.13
   5   6     0.02  -0.01  -0.01    -0.09   0.08   0.02     0.00  -0.09  -0.03
   6   6     0.00  -0.01   0.03    -0.08   0.08   0.05    -0.06  -0.05   0.03
   7   6     0.02   0.07   0.04    -0.06   0.16   0.07    -0.04  -0.02   0.01
   8   6     0.04   0.01  -0.02     0.06  -0.05  -0.08    -0.05  -0.02   0.01
   9   8    -0.03  -0.03   0.03    -0.06   0.11   0.06    -0.12  -0.12   0.09
  10   6     0.07   0.02   0.08     0.03   0.04   0.10    -0.16   0.05   0.03
  11   6     0.07  -0.02  -0.06     0.34  -0.42  -0.31    -0.11   0.06   0.04
  12   6     0.03  -0.08  -0.09    -0.06   0.00  -0.09    -0.01   0.10   0.07
  13   6     0.09  -0.57  -0.18    -0.13  -0.02  -0.18     0.08  -0.20   0.08
  14   1    -0.02   0.01  -0.01    -0.06  -0.01   0.01     0.02   0.05   0.00
  15   8    -0.31   0.17   0.27     0.31  -0.16   0.04     0.49  -0.24  -0.24
  16   6    -0.01   0.37  -0.05     0.04  -0.01  -0.11    -0.11   0.38   0.11
  17   1     0.00   0.00  -0.01    -0.02   0.01   0.05     0.03   0.03  -0.04
  18   1    -0.00   0.00  -0.01    -0.03  -0.01   0.05     0.03   0.03  -0.04
  19   1     0.01   0.00  -0.01    -0.02   0.05   0.05     0.01  -0.03  -0.04
  20   1     0.01  -0.00   0.00    -0.02   0.02   0.07     0.02  -0.02  -0.06
  21   1     0.00  -0.01  -0.01    -0.05   0.04  -0.01     0.01  -0.05  -0.00
  22   1    -0.00  -0.00   0.01    -0.03   0.01   0.02    -0.02  -0.02   0.01
  23   1     0.00   0.02   0.03    -0.04   0.04   0.09    -0.02  -0.01  -0.01
  24   1     0.00   0.04   0.00    -0.03   0.11  -0.01    -0.00  -0.01   0.01
  25   1    -0.00  -0.01   0.01    -0.02   0.03   0.01    -0.05  -0.06   0.00
  26   1     0.09  -0.01   0.09    -0.03   0.01  -0.01    -0.17   0.06  -0.10
  27   1     0.04  -0.01  -0.06     0.01   0.04   0.09    -0.09   0.04   0.17
  28   1     0.02   0.00  -0.02     0.14  -0.16  -0.11    -0.04   0.04   0.02
  29   1     0.02  -0.02  -0.03     0.12  -0.17  -0.12    -0.03   0.02   0.01
  30   1     0.04  -0.20  -0.07    -0.03  -0.01  -0.08     0.02  -0.07   0.03
  31   1     0.03  -0.26  -0.06    -0.06  -0.01  -0.05     0.05  -0.11   0.02
  32   1    -0.14   0.04   0.01     0.12  -0.02   0.04     0.22  -0.06   0.03
  33   1    -0.01   0.10   0.01     0.02   0.01  -0.05    -0.04   0.08   0.06
  34   1    -0.02   0.16   0.06     0.03  -0.02  -0.03    -0.07   0.15   0.07
  35   1     0.01   0.16  -0.11     0.00  -0.01  -0.02    -0.00   0.15  -0.03
                      4                      5                      6
                        a                      a                      a 
 Frequencies --   113.9256               132.6406               166.1870
 Red. masses --    10.6873                10.7243                10.5012
 Frc consts  --     0.0000                 0.0000                 0.0000
 IR Inten    --     0.9113                 0.7407                 2.8563
 Raman Activ --     0.0000                 0.0000                 0.0000
 Depolar     --     0.0000                 0.0000                 0.0000
 Atom AN      X      Y      Z        X      Y      Z        X      Y      Z
   1   6     0.03  -0.10   0.03     0.01  -0.07  -0.05     0.03  -0.02  -0.08
   2   6     0.03  -0.11   0.06    -0.04  -0.12   0.00    -0.05  -0.06  -0.15
   3   6     0.09  -0.10   0.24    -0.04  -0.11   0.08    -0.10  -0.04  -0.21
   4   6    -0.05  -0.01   0.14    -0.21  -0.09  -0.03     0.08  -0.01  -0.08
   5   6    -0.09  -0.03  -0.04    -0.08   0.01  -0.05     0.13   0.03   0.06
   6   6    -0.09  -0.04  -0.02     0.12  -0.12  -0.01     0.08   0.06  -0.06
   7   6     0.10  -0.08  -0.07    -0.01   0.02  -0.03    -0.10   0.10   0.07
   8   6    -0.03   0.02  -0.06    -0.04   0.02  -0.07     0.02   0.01   0.12
   9   8    -0.15  -0.03  -0.19     0.49  -0.02   0.35    -0.01   0.08  -0.33
  10   6     0.10  -0.11   0.15     0.06  -0.10  -0.10     0.26  -0.10   0.02
  11   6    -0.18   0.29  -0.04     0.01  -0.02  -0.16     0.07  -0.16   0.24
  12   6     0.06   0.08  -0.11    -0.08   0.07   0.02    -0.12   0.01  -0.02
  13   6    -0.08   0.22  -0.24    -0.10   0.21   0.04    -0.06   0.17   0.11
  14   1    -0.02  -0.06   0.01    -0.01  -0.06   0.00    -0.00  -0.01  -0.04
  15   8     0.08  -0.29   0.27    -0.06  -0.01  -0.08     0.06  -0.28   0.26
  16   6     0.18   0.24  -0.13    -0.10   0.30   0.05    -0.27   0.16   0.02
  17   1     0.04  -0.01   0.13    -0.01  -0.02   0.07    -0.04  -0.03  -0.11
  18   1     0.06  -0.08   0.06     0.03  -0.06   0.01    -0.07   0.02  -0.04
  19   1    -0.04   0.03   0.06    -0.09  -0.07   0.01     0.06  -0.02  -0.05
  20   1    -0.00  -0.01   0.05    -0.09  -0.01  -0.05     0.00   0.01  -0.00
  21   1    -0.04  -0.00  -0.02    -0.03   0.03  -0.02     0.06   0.01   0.04
  22   1    -0.05  -0.00   0.02     0.06  -0.11  -0.04     0.02   0.06  -0.01
  23   1     0.05  -0.02  -0.06     0.01   0.01   0.00    -0.03   0.04   0.08
  24   1     0.05  -0.05  -0.00    -0.01   0.02  -0.02    -0.08   0.06  -0.00
  25   1    -0.08  -0.00  -0.08     0.21   0.02   0.17    -0.02   0.04  -0.09
  26   1     0.04  -0.02   0.05     0.04  -0.05  -0.00     0.13  -0.05   0.06
  27   1     0.04  -0.01   0.05     0.03  -0.03  -0.07     0.12   0.01  -0.05
  28   1    -0.05   0.12  -0.01     0.03  -0.01  -0.06    -0.02  -0.07   0.08
  29   1    -0.09   0.11  -0.02    -0.01  -0.01  -0.06     0.07  -0.06   0.10
  30   1    -0.02   0.12  -0.11    -0.04   0.12   0.02    -0.04   0.09   0.07
  31   1    -0.06   0.03  -0.07    -0.02   0.03   0.01     0.02   0.04   0.03
  32   1     0.01  -0.06   0.05    -0.04  -0.02  -0.03    -0.03  -0.03   0.01
  33   1     0.06   0.11  -0.05    -0.04  -0.01   0.02    -0.10  -0.05   0.03
  34   1     0.09   0.06  -0.01    -0.11   0.18   0.08    -0.17   0.13   0.04
  35   1     0.02   0.07  -0.06     0.07   0.16  -0.05     0.01   0.11  -0.05
                      7                      8                      9
                        a                      a                      a 
 Frequencies --   197.9642               202.0911               242.4953
 Red. masses --    10.9953                 2.2938                 3.3093
 Frc consts  --     0.0000                 0.0000                 0.0000
 IR Inten    --     1.6765                 0.1543               163.2572
 Raman Activ --     0.0000                 0.0000                 0.0000
 Depolar     --     0.0000                 0.0000                 0.0000
 Atom AN      X      Y      Z        X      Y      Z        X      Y      Z
   1   6    -0.07   0.01  -0.14     0.00  -0.03  -0.01    -0.04   0.02   0.00
   2   6     0.06   0.11  -0.05    -0.02  -0.04  -0.02    -0.03   0.03   0.00
   3   6     0.03   0.13   0.00    -0.09  -0.01  -0.10     0.08  -0.00   0.04
   4   6    -0.01   0.16  -0.01     0.07   0.03   0.01     0.12  -0.01   0.07
   5   6    -0.07   0.12  -0.03    -0.01  -0.02  -0.01     0.03  -0.09  -0.01
   6   6     0.00   0.06  -0.11     0.01  -0.03  -0.01    -0.04  -0.00  -0.02
   7   6    -0.01  -0.22  -0.20    -0.03   0.03   0.02    -0.05   0.07   0.04
   8   6    -0.08  -0.04  -0.04    -0.01  -0.01  -0.01     0.02  -0.03  -0.01
   9   8     0.32   0.24  -0.01     0.13   0.02   0.06    -0.23  -0.08  -0.20
  10   6    -0.25   0.10   0.12     0.09  -0.07  -0.04     0.03  -0.01  -0.01
  11   6    -0.06  -0.17   0.09    -0.02   0.01  -0.02    -0.03   0.09  -0.05
  12   6     0.06   0.06  -0.00    -0.04   0.02   0.04    -0.03   0.02   0.00
  13   6     0.12  -0.10   0.03    -0.03  -0.00   0.05    -0.01  -0.03   0.01
  14   1     0.03   0.02  -0.01     0.01  -0.00  -0.00    -0.01   0.01   0.00
  15   8    -0.14  -0.36   0.28     0.02  -0.07  -0.00     0.04  -0.03  -0.00
  16   6     0.05  -0.05  -0.00    -0.08   0.14   0.05    -0.03  -0.04  -0.00
  17   1     0.00   0.04   0.02    -0.04  -0.03  -0.08     0.04   0.02   0.01
  18   1     0.02   0.03  -0.00    -0.07   0.04  -0.02     0.02  -0.02   0.02
  19   1    -0.01   0.06  -0.00     0.06   0.06  -0.02     0.04   0.03   0.02
  20   1     0.01   0.04  -0.00     0.04  -0.01   0.05     0.06  -0.02   0.05
  21   1    -0.01   0.04  -0.00     0.00  -0.01  -0.00    -0.00  -0.03  -0.01
  22   1     0.02  -0.02  -0.06    -0.01  -0.03  -0.00    -0.01   0.02  -0.01
  23   1    -0.00  -0.07  -0.15    -0.01   0.01   0.03    -0.03   0.02   0.06
  24   1     0.03  -0.14  -0.02    -0.02   0.03  -0.00    -0.03   0.05  -0.01
  25   1     0.17   0.12   0.09     0.05   0.02   0.03     0.63   0.24   0.58
  26   1    -0.11   0.13  -0.00     0.05  -0.05   0.01     0.01  -0.02   0.00
  27   1    -0.10   0.04   0.15     0.05  -0.01  -0.04     0.02   0.01  -0.01
  28   1    -0.03  -0.12   0.02    -0.01   0.01  -0.00    -0.01   0.07  -0.01
  29   1    -0.01  -0.01   0.08    -0.00  -0.00  -0.01    -0.02   0.01  -0.04
  30   1     0.04  -0.07   0.02    -0.01   0.03   0.01    -0.00  -0.02   0.00
  31   1     0.05  -0.02   0.01     0.00  -0.04   0.01    -0.00  -0.00   0.00
  32   1    -0.03  -0.12   0.08    -0.01   0.01  -0.02    -0.00   0.06  -0.03
  33   1     0.01  -0.01  -0.00     0.04   0.57   0.05    -0.01  -0.04  -0.00
  34   1     0.02  -0.03  -0.02     0.38  -0.28  -0.08    -0.02  -0.00  -0.01
  35   1     0.00  -0.03   0.02    -0.51  -0.16   0.08     0.01  -0.01   0.01
                     10                     11                     12
                        a                      a                      a 
 Frequencies --   255.9927               273.5278               275.2062
 Red. masses --     8.9765                 9.4025                 8.3900
 Frc consts  --     0.0000                 0.0000                 0.0000
 IR Inten    --     9.8318                 4.0844                 4.1300
 Raman Activ --     0.0000                 0.0000                 0.0000
 Depolar     --     0.0000                 0.0000                 0.0000
 Atom AN      X      Y      Z        X      Y      Z        X      Y      Z
   1   6    -0.07   0.08  -0.14     0.09  -0.06   0.07    -0.05   0.05  -0.10
   2   6    -0.06   0.07  -0.11    -0.04  -0.12  -0.11    -0.07  -0.01   0.01
   3   6     0.34  -0.01   0.28    -0.09  -0.09   0.00    -0.23   0.06  -0.14
   4   6     0.18   0.07   0.16     0.15  -0.02   0.18     0.30   0.17   0.23
   5   6     0.09  -0.01  -0.10     0.07  -0.07   0.09     0.08   0.00  -0.03
   6   6     0.03   0.02  -0.09     0.08  -0.07   0.05    -0.01   0.06  -0.06
   7   6    -0.12   0.15  -0.06     0.16  -0.11   0.04     0.06  -0.09  -0.16
   8   6     0.04  -0.01  -0.08     0.14  -0.07   0.04     0.11  -0.07  -0.08
   9   8     0.01  -0.08   0.24     0.21   0.06  -0.20    -0.10  -0.08   0.32
  10   6     0.07   0.02  -0.10    -0.25   0.12   0.20     0.05  -0.02  -0.11
  11   6    -0.04   0.08   0.03     0.08   0.18  -0.15     0.01   0.13  -0.10
  12   6    -0.09   0.10  -0.11    -0.09  -0.11  -0.12    -0.10  -0.06   0.10
  13   6     0.06  -0.09   0.03    -0.06   0.04  -0.03    -0.16   0.00   0.04
  14   1    -0.04  -0.02  -0.04    -0.03  -0.04  -0.03     0.01   0.00   0.01
  15   8    -0.03  -0.14   0.03     0.02   0.21   0.02    -0.06  -0.18   0.01
  16   6    -0.36  -0.13  -0.09    -0.38  -0.01  -0.08     0.12   0.03   0.08
  17   1     0.17   0.09   0.19    -0.03  -0.04  -0.05    -0.10  -0.05  -0.19
  18   1     0.17  -0.15   0.09    -0.08  -0.02   0.04    -0.21   0.12   0.02
  19   1     0.00   0.07   0.08     0.08   0.05   0.03     0.18   0.21   0.01
  20   1     0.08   0.00   0.06     0.07  -0.02   0.12     0.16  -0.00   0.23
  21   1     0.02   0.00  -0.03     0.01  -0.01   0.02     0.01   0.01  -0.02
  22   1     0.03  -0.00  -0.05     0.00  -0.01   0.04     0.03   0.02  -0.05
  23   1    -0.05   0.04   0.04     0.03  -0.04  -0.02    -0.00  -0.04  -0.10
  24   1    -0.06   0.09  -0.04     0.06  -0.05   0.02     0.05  -0.06  -0.03
  25   1    -0.11  -0.13  -0.06     0.00   0.06  -0.07    -0.05  -0.12   0.03
  26   1     0.05  -0.01   0.00    -0.16   0.14  -0.03     0.05  -0.02  -0.00
  27   1     0.05   0.03  -0.05    -0.16  -0.01   0.19     0.04   0.01  -0.06
  28   1    -0.05   0.05   0.03     0.08   0.12  -0.06     0.02   0.07  -0.03
  29   1     0.01   0.00   0.01    -0.05   0.06  -0.10    -0.03   0.05  -0.05
  30   1     0.01  -0.08   0.05    -0.03   0.05   0.02    -0.04   0.01  -0.01
  31   1     0.06  -0.01   0.00     0.00   0.01  -0.01    -0.07   0.00   0.01
  32   1    -0.03  -0.04  -0.01     0.06   0.01   0.07    -0.04  -0.05  -0.02
  33   1    -0.11  -0.05   0.03    -0.12  -0.01   0.05     0.03  -0.09  -0.04
  34   1    -0.12  -0.06  -0.10    -0.14   0.02  -0.03    -0.02   0.08   0.09
  35   1    -0.13  -0.07   0.01    -0.12   0.02  -0.07     0.15   0.06   0.00
                     13                     14                     15
                        a                      a                      a 
 Frequencies --   293.6005               319.7643               352.1168
 Red. masses --     9.0547                 9.6618                 8.9983
 Frc consts  --     0.0000                 0.0000                 0.0000
 IR Inten    --     5.5384                 0.2165                 0.5797
 Raman Activ --     0.0000                 0.0000                 0.0000
 Depolar     --     0.0000                 0.0000                 0.0000
 Atom AN      X      Y      Z        X      Y      Z        X      Y      Z
   1   6     0.06   0.10  -0.00    -0.00   0.08  -0.15    -0.08   0.02   0.11
   2   6    -0.05  -0.01   0.01    -0.11  -0.05   0.08    -0.08   0.14   0.09
   3   6    -0.06  -0.02   0.01     0.03  -0.12   0.08     0.25   0.02  -0.10
   4   6    -0.16  -0.04  -0.06    -0.00  -0.15   0.02     0.13  -0.06  -0.22
   5   6     0.04   0.09  -0.05     0.16  -0.04  -0.14     0.10  -0.03   0.10
   6   6     0.01   0.08  -0.01     0.14  -0.04  -0.17    -0.04   0.10   0.13
   7   6     0.28  -0.20  -0.26    -0.06   0.22  -0.10     0.06  -0.19   0.04
   8   6     0.14   0.04  -0.08     0.13   0.03  -0.13     0.02  -0.04   0.14
   9   8    -0.23  -0.12   0.21     0.13  -0.10  -0.21     0.08   0.27  -0.01
  10   6     0.14   0.10   0.07    -0.12   0.20   0.05     0.06  -0.10  -0.05
  11   6     0.10  -0.10   0.27     0.04   0.02   0.16     0.07   0.08  -0.14
  12   6    -0.06  -0.03  -0.06    -0.18  -0.03   0.23    -0.17   0.13   0.14
  13   6    -0.12   0.02  -0.11    -0.36  -0.10  -0.01    -0.36  -0.10  -0.15
  14   1    -0.02  -0.01   0.00     0.01  -0.05   0.03    -0.01   0.09   0.03
  15   8     0.16   0.17   0.08    -0.00   0.08   0.05    -0.03  -0.12  -0.01
  16   6    -0.22  -0.00  -0.05     0.19   0.01   0.19    -0.08  -0.06   0.11
  17   1    -0.01   0.00   0.03     0.04   0.01   0.03     0.12   0.07   0.02
  18   1     0.01  -0.02  -0.01     0.03  -0.06   0.02     0.15  -0.05  -0.06
  19   1    -0.07  -0.08  -0.00    -0.02  -0.05   0.01     0.02  -0.09  -0.06
  20   1    -0.10   0.02  -0.07    -0.03  -0.03  -0.00     0.01   0.00  -0.12
  21   1    -0.01   0.05  -0.03     0.03   0.03  -0.05     0.06  -0.07   0.05
  22   1     0.01   0.03  -0.01     0.06  -0.01  -0.07    -0.01   0.04   0.04
  23   1     0.07  -0.08  -0.26    -0.04   0.06   0.05     0.01  -0.07  -0.11
  24   1     0.18  -0.19  -0.00    -0.04   0.12  -0.06     0.07  -0.14   0.06
  25   1     0.08  -0.06   0.15     0.01  -0.03  -0.07    -0.04   0.11  -0.04
  26   1     0.05   0.03   0.03    -0.08   0.13  -0.03     0.05  -0.09   0.02
  27   1     0.04   0.03   0.01    -0.08   0.04   0.10     0.06  -0.01  -0.08
  28   1    -0.04  -0.14   0.09    -0.09   0.00   0.09     0.11   0.08  -0.07
  29   1     0.08   0.04   0.19     0.09  -0.01   0.09    -0.06   0.02  -0.11
  30   1    -0.03   0.02  -0.05    -0.08  -0.02  -0.08    -0.06  -0.06  -0.15
  31   1    -0.06  -0.01  -0.03    -0.18  -0.05   0.01    -0.20  -0.05  -0.03
  32   1     0.04   0.08   0.01     0.03  -0.04   0.05    -0.04   0.03  -0.04
  33   1    -0.06   0.05   0.03     0.08   0.04  -0.04    -0.02  -0.04   0.00
  34   1    -0.04  -0.03  -0.04     0.13  -0.02   0.10    -0.02  -0.03   0.00
  35   1    -0.12  -0.02  -0.03     0.07  -0.01   0.09    -0.01  -0.04   0.08
                     16                     17                     18
                        a                      a                      a 
 Frequencies --   357.8367               411.7102               439.0964
 Red. masses --    10.6375                10.4301                 8.8078
 Frc consts  --     0.0000                 0.0000                 0.0000
 IR Inten    --     4.0659                 1.5955                 1.9952
 Raman Activ --     0.0000                 0.0000                 0.0000
 Depolar     --     0.0000                 0.0000                 0.0000
 Atom AN      X      Y      Z        X      Y      Z        X      Y      Z
   1   6    -0.04  -0.02   0.10     0.04  -0.12   0.15     0.05   0.00   0.14
   2   6    -0.02   0.05   0.01     0.03  -0.21  -0.00     0.09   0.15   0.18
   3   6     0.06   0.03  -0.05     0.16  -0.27  -0.14    -0.14   0.22   0.06
   4   6     0.17   0.08   0.02     0.12   0.11  -0.17    -0.08  -0.09   0.09
   5   6    -0.18  -0.15  -0.18     0.01   0.08  -0.15    -0.04  -0.09  -0.06
   6   6    -0.20  -0.11   0.01    -0.16   0.15   0.14    -0.05  -0.09   0.10
   7   6    -0.05  -0.05  -0.03     0.11   0.17   0.00     0.17   0.10   0.04
   8   6    -0.12  -0.22  -0.23     0.10   0.11  -0.17     0.28  -0.15  -0.22
   9   8     0.23   0.16  -0.02    -0.12   0.31   0.19     0.08   0.02  -0.08
  10   6     0.20  -0.03   0.17    -0.18  -0.13   0.02    -0.05  -0.09  -0.12
  11   6    -0.29  -0.15   0.09     0.06   0.01   0.12     0.04   0.08   0.15
  12   6    -0.03   0.02   0.02     0.05  -0.28  -0.02     0.13   0.22   0.03
  13   6    -0.06  -0.01  -0.01    -0.02   0.06   0.02     0.02  -0.01  -0.20
  14   1    -0.01   0.04   0.00    -0.01  -0.00  -0.00     0.01   0.03   0.05
  15   8     0.23   0.36   0.05    -0.14  -0.10  -0.10    -0.15  -0.19  -0.12
  16   6    -0.00  -0.03   0.01     0.01   0.01   0.01    -0.16  -0.04   0.04
  17   1     0.02   0.01  -0.03     0.05  -0.05   0.04    -0.08  -0.01  -0.11
  18   1     0.00   0.01  -0.00     0.09  -0.13  -0.05    -0.11   0.19   0.02
  19   1     0.07   0.15  -0.00     0.06   0.09  -0.06    -0.05  -0.07   0.04
  20   1     0.13  -0.04   0.09     0.03   0.03   0.03    -0.02  -0.02  -0.04
  21   1    -0.07  -0.09  -0.08    -0.02  -0.06  -0.08    -0.08  -0.01  -0.08
  22   1    -0.08  -0.09   0.02    -0.08   0.03   0.07    -0.05  -0.05   0.06
  23   1    -0.03  -0.02   0.02     0.05   0.07   0.08     0.01   0.02   0.14
  24   1     0.02   0.04  -0.02     0.03   0.13  -0.03     0.06   0.18  -0.04
  25   1    -0.02   0.10  -0.06    -0.01   0.09   0.07    -0.00   0.06  -0.02
  26   1     0.09  -0.08   0.08    -0.10   0.01  -0.04    -0.01  -0.06  -0.03
  27   1     0.09  -0.00  -0.03    -0.10  -0.07   0.06    -0.00  -0.02  -0.06
  28   1    -0.18  -0.08   0.06    -0.07  -0.06   0.06    -0.08  -0.01   0.08
  29   1    -0.02  -0.03   0.10     0.10   0.01   0.12     0.07   0.05   0.12
  30   1    -0.01  -0.02  -0.02    -0.01   0.07   0.01     0.04  -0.02  -0.13
  31   1    -0.03   0.01  -0.00    -0.01   0.03   0.01    -0.07  -0.03  -0.05
  32   1     0.06   0.13   0.01    -0.01  -0.08   0.01    -0.04  -0.17  -0.01
  33   1    -0.01  -0.07  -0.01     0.00   0.03   0.03    -0.07  -0.07   0.09
  34   1    -0.04   0.02   0.01     0.01   0.04   0.07    -0.12  -0.02  -0.10
  35   1     0.05   0.01   0.00    -0.01   0.05  -0.08    -0.06  -0.04   0.05
                     19                     20                     21
                        a                      a                      a 
 Frequencies --   464.4340               493.2536               495.6171
 Red. masses --     9.8537                 2.6963                 8.5768
 Frc consts  --     0.0000                 0.0000                 0.0000
 IR Inten    --     6.6230               192.4174                 6.8375
 Raman Activ --     0.0000                 0.0000                 0.0000
 Depolar     --     0.0000                 0.0000                 0.0000
 Atom AN      X      Y      Z        X      Y      Z        X      Y      Z
   1   6    -0.11   0.13  -0.03     0.04   0.06  -0.04     0.10   0.03  -0.16
   2   6    -0.16   0.00   0.00    -0.00  -0.02  -0.02     0.23  -0.07   0.08
   3   6    -0.09  -0.09   0.02     0.01  -0.03  -0.01     0.03   0.00   0.00
   4   6    -0.09  -0.29   0.03     0.00  -0.02  -0.01    -0.02   0.02  -0.03
   5   6     0.14  -0.10   0.03     0.00  -0.01   0.03     0.07   0.07   0.01
   6   6    -0.09   0.17  -0.01    -0.04   0.05  -0.03     0.04   0.16  -0.17
   7   6    -0.05  -0.08  -0.03    -0.02  -0.07   0.04    -0.13  -0.09   0.09
   8   6     0.28  -0.40  -0.09    -0.04  -0.09   0.05    -0.06  -0.28   0.01
   9   8    -0.03   0.32   0.11    -0.07   0.07   0.02    -0.09   0.08   0.13
  10   6     0.02   0.11  -0.02     0.15   0.07  -0.06     0.02   0.16  -0.03
  11   6    -0.03   0.11   0.02    -0.06  -0.02  -0.03    -0.18  -0.04  -0.08
  12   6    -0.09  -0.02  -0.11    -0.01  -0.04  -0.01     0.30  -0.26   0.09
  13   6     0.14   0.01   0.18    -0.01   0.00   0.01    -0.03   0.08  -0.23
  14   1    -0.06  -0.01  -0.00    -0.00  -0.01  -0.01     0.08  -0.04   0.02
  15   8     0.04  -0.03   0.05    -0.00   0.22  -0.02     0.05   0.00   0.09
  16   6     0.13   0.04  -0.16    -0.00   0.01  -0.00    -0.12  -0.03   0.20
  17   1    -0.00  -0.00  -0.02     0.01   0.00   0.01    -0.03  -0.04  -0.01
  18   1    -0.02  -0.02   0.00     0.01  -0.02  -0.00    -0.00   0.05  -0.01
  19   1    -0.04  -0.21   0.01     0.00  -0.02  -0.01    -0.02  -0.06  -0.00
  20   1    -0.11  -0.03  -0.09    -0.01   0.00  -0.01    -0.05   0.03  -0.05
  21   1     0.00  -0.01  -0.02     0.02  -0.00   0.02     0.05   0.05   0.04
  22   1    -0.00   0.07  -0.02    -0.03  -0.01   0.01     0.02   0.06  -0.06
  23   1    -0.11  -0.07   0.08    -0.02  -0.02   0.02    -0.07  -0.03   0.19
  24   1    -0.00   0.07  -0.04    -0.02  -0.02   0.01    -0.13   0.10  -0.04
  25   1    -0.04   0.08  -0.00     0.03   0.04   0.04     0.01  -0.07   0.03
  26   1     0.02   0.01   0.01     0.07   0.04   0.01     0.00   0.11  -0.02
  27   1     0.03   0.05  -0.02     0.04   0.02  -0.04    -0.01   0.04   0.04
  28   1     0.01   0.10   0.01     0.01   0.01  -0.02     0.01   0.03  -0.04
  29   1    -0.07   0.06  -0.02    -0.05  -0.00  -0.03    -0.13   0.01  -0.06
  30   1     0.00  -0.03   0.18    -0.01   0.01   0.01     0.04   0.08  -0.21
  31   1     0.17   0.04   0.04     0.00  -0.01   0.00    -0.17   0.01  -0.05
  32   1    -0.01   0.11  -0.03     0.10  -0.87   0.28    -0.01   0.13  -0.03
  33   1     0.05   0.04  -0.10     0.00   0.02  -0.01    -0.06   0.02   0.20
  34   1     0.08   0.01   0.00     0.02  -0.00   0.01    -0.09   0.02   0.04
  35   1     0.04   0.01  -0.04    -0.00  -0.00   0.00    -0.11   0.03  -0.06
                     22                     23                     24
                        a                      a                      a 
 Frequencies --   545.3286               554.7233               637.7209
 Red. masses --     9.1674                 8.5101                10.1396
 Frc consts  --     0.0000                 0.0000                 0.0000
 IR Inten    --    11.4353                 3.4105                13.2620
 Raman Activ --     0.0000                 0.0000                 0.0000
 Depolar     --     0.0000                 0.0000                 0.0000
 Atom AN      X      Y      Z        X      Y      Z        X      Y      Z
   1   6     0.00  -0.15  -0.09    -0.13   0.14  -0.02     0.24   0.21   0.17
   2   6     0.08  -0.23   0.06    -0.01   0.03   0.21    -0.03  -0.05   0.09
   3   6    -0.05  -0.31  -0.07    -0.02  -0.06   0.08    -0.03  -0.17  -0.01
   4   6     0.03  -0.09   0.01     0.12  -0.35   0.12     0.01  -0.05  -0.01
   5   6     0.09   0.03  -0.03     0.08  -0.24  -0.06     0.04   0.00  -0.15
   6   6    -0.03   0.12  -0.08    -0.13  -0.01  -0.01     0.15   0.05   0.13
   7   6    -0.07   0.02  -0.07    -0.11   0.14  -0.14     0.23  -0.03   0.28
   8   6    -0.06   0.07   0.02    -0.18   0.31   0.08    -0.24  -0.03  -0.08
   9   8    -0.09   0.15   0.12     0.06   0.17   0.01    -0.00  -0.03  -0.04
  10   6    -0.01  -0.09   0.11     0.00   0.11  -0.06     0.05   0.38  -0.26
  11   6    -0.00  -0.01  -0.03     0.05  -0.05  -0.03    -0.25  -0.15  -0.09
  12   6     0.02   0.58   0.05     0.20  -0.17  -0.03    -0.09   0.09  -0.02
  13   6     0.11  -0.09  -0.09     0.11   0.08  -0.08    -0.02  -0.03   0.04
  14   1     0.04  -0.09   0.02    -0.02  -0.01   0.06    -0.03  -0.01   0.02
  15   8     0.04   0.12   0.04    -0.00  -0.03  -0.00    -0.06  -0.19   0.02
  16   6    -0.02  -0.00   0.03    -0.04  -0.01   0.02    -0.01   0.01  -0.08
  17   1    -0.06  -0.16  -0.09    -0.01  -0.04  -0.12     0.00  -0.03  -0.00
  18   1    -0.08   0.01  -0.01    -0.09   0.08   0.04     0.00  -0.05  -0.01
  19   1     0.03  -0.01  -0.01     0.01  -0.09   0.05     0.03   0.07  -0.02
  20   1    -0.03  -0.00   0.06     0.05  -0.11   0.02     0.01  -0.03   0.09
  21   1     0.04   0.00   0.00     0.02  -0.09  -0.02     0.04   0.01  -0.01
  22   1     0.01   0.06  -0.04    -0.02   0.00  -0.02    -0.03  -0.01   0.10
  23   1     0.01   0.03   0.00     0.03   0.05  -0.27     0.08  -0.00   0.01
  24   1    -0.06  -0.00  -0.03     0.02  -0.17   0.04     0.14  -0.02   0.10
  25   1    -0.00  -0.01   0.03    -0.03   0.09  -0.02     0.00   0.00  -0.00
  26   1    -0.03   0.03   0.01     0.02  -0.01   0.00     0.01   0.14  -0.08
  27   1    -0.04  -0.05   0.07     0.04   0.07  -0.04    -0.00   0.10  -0.02
  28   1    -0.01   0.02  -0.00    -0.11   0.11   0.06    -0.11  -0.07  -0.01
  29   1     0.01  -0.03  -0.03     0.16  -0.19  -0.07    -0.04  -0.05  -0.00
  30   1     0.02   0.09  -0.04     0.05  -0.01  -0.05    -0.04   0.09   0.06
  31   1     0.04  -0.21  -0.05    -0.01   0.08  -0.01     0.06  -0.11  -0.00
  32   1     0.03   0.02   0.03    -0.01  -0.02  -0.01    -0.08   0.04  -0.08
  33   1    -0.02  -0.13  -0.01    -0.03   0.02   0.11     0.00  -0.03  -0.06
  34   1    -0.07  -0.07  -0.20    -0.05   0.03   0.01    -0.00  -0.02  -0.06
  35   1     0.05  -0.10   0.23    -0.07   0.03  -0.09     0.03  -0.02   0.04
                     25                     26                     27
                        a                      a                      a 
 Frequencies --   672.3322               695.8986               712.4401
 Red. masses --     9.0392                 6.3081                 5.3821
 Frc consts  --     0.0000                 0.0000                 0.0000
 IR Inten    --     6.8965                 2.7805                 3.0325
 Raman Activ --     0.0000                 0.0000                 0.0000
 Depolar     --     0.0000                 0.0000                 0.0000
 Atom AN      X      Y      Z        X      Y      Z        X      Y      Z
   1   6    -0.04  -0.09   0.16     0.22  -0.13  -0.08     0.17  -0.11  -0.10
   2   6    -0.07   0.05   0.19     0.17  -0.02  -0.32     0.10  -0.01  -0.07
   3   6     0.02   0.08   0.08     0.05   0.31   0.11     0.10   0.09   0.10
   4   6     0.06   0.04   0.02     0.01  -0.01   0.08     0.13  -0.23   0.11
   5   6     0.35   0.22  -0.17    -0.03  -0.09  -0.00    -0.03  -0.10   0.01
   6   6     0.32   0.18   0.05    -0.07   0.02  -0.06    -0.06   0.01  -0.09
   7   6    -0.04  -0.00  -0.01     0.11  -0.02   0.09     0.16   0.02  -0.00
   8   6    -0.14  -0.06  -0.17    -0.04   0.00   0.01    -0.18   0.20   0.02
   9   8    -0.03  -0.05  -0.05    -0.09   0.15   0.11    -0.07   0.14   0.09
  10   6    -0.07  -0.31   0.18     0.03  -0.07   0.01     0.04  -0.02  -0.02
  11   6    -0.22  -0.10  -0.12    -0.03  -0.03  -0.01    -0.05  -0.06  -0.05
  12   6    -0.05  -0.02  -0.04    -0.13  -0.07   0.01    -0.13   0.05   0.01
  13   6    -0.02   0.00   0.03    -0.14  -0.04   0.08    -0.11  -0.04   0.06
  14   1    -0.04   0.03   0.05     0.06  -0.04  -0.09     0.04  -0.05  -0.02
  15   8    -0.02   0.05  -0.03    -0.01   0.01  -0.00    -0.01   0.01   0.01
  16   6    -0.03   0.01  -0.10     0.02  -0.00  -0.02    -0.02   0.01  -0.09
  17   1    -0.02  -0.02  -0.09    -0.01   0.05  -0.03     0.00  -0.04  -0.15
  18   1    -0.07   0.12   0.04    -0.06   0.10   0.07    -0.10   0.15   0.06
  19   1    -0.05  -0.11   0.04    -0.09  -0.14   0.08    -0.04  -0.12   0.08
  20   1    -0.09   0.08  -0.09    -0.00   0.01  -0.17     0.05  -0.07  -0.08
  21   1     0.12   0.11  -0.02    -0.03  -0.02  -0.02     0.02  -0.05   0.03
  22   1     0.09   0.08   0.02    -0.05   0.00   0.01    -0.02   0.02  -0.02
  23   1     0.02   0.01  -0.05     0.10   0.03   0.01     0.09   0.05   0.13
  24   1     0.07   0.00   0.01    -0.02  -0.05   0.03    -0.04   0.10  -0.05
  25   1     0.03  -0.07   0.00    -0.01   0.00   0.03    -0.01  -0.00   0.02
  26   1    -0.03  -0.10   0.04    -0.02   0.07  -0.03    -0.02   0.08  -0.04
  27   1    -0.03  -0.11   0.03    -0.05  -0.06   0.06    -0.04  -0.04   0.06
  28   1    -0.15   0.07   0.02    -0.22   0.26   0.13     0.14  -0.34  -0.14
  29   1     0.01  -0.13  -0.08     0.20  -0.29  -0.12    -0.19   0.28   0.16
  30   1     0.01  -0.16   0.04    -0.08   0.21   0.05     0.01  -0.26   0.01
  31   1     0.01   0.16   0.02    -0.00  -0.22  -0.00    -0.06   0.25   0.05
  32   1     0.04  -0.05   0.05    -0.02   0.03  -0.02    -0.02   0.02  -0.02
  33   1    -0.00   0.04  -0.02     0.02  -0.01  -0.11     0.01   0.04  -0.08
  34   1     0.01   0.01   0.01     0.05  -0.01   0.02     0.03   0.02   0.04
  35   1    -0.02   0.02  -0.07     0.05  -0.01   0.05     0.01   0.02  -0.05
                     28                     29                     30
                        a                      a                      a 
 Frequencies --   722.4657               785.3204               823.5082
 Red. masses --     3.1448                 9.6838                 7.8220
 Frc consts  --     0.0000                 0.0000                 0.0000
 IR Inten    --     0.4119                 1.9810                15.8338
 Raman Activ --     0.0000                 0.0000                 0.0000
 Depolar     --     0.0000                 0.0000                 0.0000
 Atom AN      X      Y      Z        X      Y      Z        X      Y      Z
   1   6    -0.12   0.05   0.05    -0.05   0.03   0.05     0.07   0.02   0.00
   2   6    -0.04   0.04   0.09    -0.01   0.03  -0.58    -0.17   0.21  -0.02
   3   6     0.07   0.15   0.07    -0.07  -0.04  -0.05    -0.22   0.11  -0.08
   4   6     0.12  -0.07   0.03    -0.02  -0.14   0.20    -0.12  -0.27   0.04
   5   6     0.10   0.02  -0.01     0.07   0.02   0.09     0.04  -0.11  -0.04
   6   6     0.05   0.01   0.06     0.18  -0.00   0.34     0.04   0.11  -0.37
   7   6    -0.07   0.05  -0.12    -0.06   0.12  -0.09     0.23  -0.02   0.17
   8   6    -0.07   0.07  -0.05    -0.04  -0.03  -0.15    -0.07   0.05   0.04
   9   8     0.02  -0.03  -0.04    -0.07   0.05  -0.01    -0.03   0.12   0.05
  10   6    -0.05  -0.06   0.06    -0.02  -0.00   0.01    -0.04  -0.23   0.14
  11   6    -0.04  -0.02  -0.04    -0.13  -0.03  -0.07    -0.01  -0.04  -0.03
  12   6     0.02  -0.20  -0.04     0.10   0.05   0.02     0.06  -0.03  -0.03
  13   6    -0.01   0.03   0.02     0.10   0.03  -0.07     0.07   0.05  -0.05
  14   1    -0.03   0.03   0.02    -0.01   0.01  -0.16    -0.06   0.10  -0.01
  15   8     0.00   0.00  -0.02    -0.00  -0.01  -0.02    -0.04   0.00  -0.05
  16   6     0.01  -0.02  -0.03     0.05  -0.01   0.32     0.02  -0.01   0.11
  17   1     0.03   0.03  -0.07     0.03   0.06   0.03     0.09   0.23   0.17
  18   1    -0.03   0.08   0.04    -0.03  -0.15   0.04     0.15  -0.19  -0.07
  19   1    -0.02  -0.08   0.04    -0.01  -0.10   0.05     0.12   0.13  -0.08
  20   1     0.02  -0.01  -0.08    -0.04  -0.02   0.02     0.08  -0.15   0.22
  21   1     0.04  -0.01   0.01    -0.03   0.03  -0.01     0.05   0.09   0.05
  22   1     0.04   0.02  -0.00     0.03   0.04   0.12     0.06   0.07  -0.14
  23   1    -0.04   0.01  -0.02    -0.04   0.01  -0.14     0.10   0.02   0.09
  24   1     0.01   0.05  -0.04     0.10  -0.02   0.02     0.04   0.03   0.03
  25   1    -0.00   0.01  -0.01    -0.03   0.07   0.01     0.03  -0.11   0.00
  26   1     0.00  -0.08   0.04     0.01  -0.04   0.02    -0.02  -0.06   0.03
  27   1     0.02   0.01  -0.03     0.02   0.02  -0.03    -0.03  -0.09   0.03
  28   1     0.14  -0.25  -0.12    -0.03  -0.12  -0.04    -0.04  -0.02   0.01
  29   1    -0.17   0.23   0.11    -0.05   0.05   0.03    -0.00   0.03   0.04
  30   1    -0.11   0.51   0.09     0.08  -0.04  -0.14     0.02   0.04  -0.02
  31   1     0.11  -0.51  -0.06    -0.07   0.04  -0.01     0.03  -0.07  -0.02
  32   1     0.02  -0.01   0.02     0.00  -0.00  -0.00     0.03  -0.00   0.02
  33   1    -0.00  -0.04  -0.02     0.02  -0.00   0.08    -0.00  -0.01   0.06
  34   1    -0.00  -0.02  -0.05     0.03  -0.01   0.08    -0.00  -0.00   0.02
  35   1     0.01  -0.03   0.03     0.02  -0.01   0.11    -0.01  -0.01   0.03
                     31                     32                     33
                        a                      a                      a 
 Frequencies --   875.5231               884.3821               892.1820
 Red. masses --     8.2989                 7.0377                 5.2798
 Frc consts  --     0.0000                 0.0000                 0.0000
 IR Inten    --     0.0589                 8.8365                14.3031
 Raman Activ --     0.0000                 0.0000                 0.0000
 Depolar     --     0.0000                 0.0000                 0.0000
 Atom AN      X      Y      Z        X      Y      Z        X      Y      Z
   1   6     0.08  -0.11  -0.09    -0.08   0.09   0.04     0.06  -0.03  -0.01
   2   6     0.07   0.03   0.21     0.02   0.01  -0.02     0.01  -0.01  -0.01
   3   6    -0.05   0.10  -0.09     0.16  -0.17  -0.11    -0.08   0.12   0.09
   4   6    -0.03  -0.12  -0.02     0.09   0.03   0.12    -0.07  -0.06  -0.08
   5   6    -0.10  -0.03   0.43    -0.16   0.10   0.30     0.08  -0.06  -0.29
   6   6     0.16  -0.00   0.25    -0.15   0.03  -0.26     0.09   0.00   0.06
   7   6     0.01   0.09  -0.39     0.20   0.16   0.07    -0.18  -0.06   0.11
   8   6    -0.03  -0.04  -0.10     0.02  -0.11  -0.06     0.08  -0.04   0.01
   9   8    -0.05   0.02   0.00     0.07  -0.08  -0.02    -0.05   0.07   0.02
  10   6     0.12  -0.02  -0.08    -0.10   0.03   0.08     0.07  -0.07  -0.03
  11   6    -0.17   0.02  -0.05    -0.23   0.19   0.04    -0.11   0.31   0.18
  12   6    -0.01  -0.00   0.04    -0.00  -0.02  -0.00    -0.00   0.03   0.00
  13   6    -0.05  -0.03   0.04    -0.01   0.04   0.01     0.02  -0.11  -0.01
  14   1     0.07   0.02   0.06    -0.00   0.05  -0.01     0.00  -0.04  -0.00
  15   8     0.01   0.03   0.04    -0.02  -0.04  -0.06     0.01   0.02   0.03
  16   6    -0.03  -0.00  -0.16     0.00   0.00   0.00    -0.00  -0.01   0.00
  17   1     0.03   0.10   0.12     0.02  -0.09  -0.12    -0.01   0.04   0.04
  18   1     0.15  -0.04  -0.11    -0.04   0.01   0.00     0.00   0.02   0.01
  19   1     0.17   0.02  -0.11    -0.00  -0.16   0.04    -0.03   0.13  -0.01
  20   1     0.08  -0.09   0.10    -0.07   0.07  -0.08     0.07  -0.07   0.06
  21   1    -0.03   0.02   0.12     0.00   0.09   0.13    -0.01  -0.05  -0.12
  22   1     0.08   0.09   0.04     0.02   0.00  -0.14    -0.02  -0.01   0.06
  23   1     0.03   0.06   0.03     0.06   0.04  -0.05    -0.05  -0.03  -0.07
  24   1    -0.06   0.13  -0.16     0.17   0.04   0.05    -0.06  -0.13   0.07
  25   1    -0.02   0.04   0.00     0.04  -0.09  -0.01    -0.01   0.02   0.01
  26   1    -0.04   0.14  -0.09     0.03  -0.11   0.08    -0.03   0.07  -0.05
  27   1    -0.06  -0.05   0.11     0.05   0.05  -0.09    -0.05  -0.06   0.08
  28   1    -0.08  -0.07  -0.02     0.08  -0.29  -0.11     0.36  -0.38  -0.19
  29   1     0.09  -0.16  -0.07     0.22  -0.29  -0.10     0.21  -0.29  -0.15
  30   1    -0.03   0.04   0.03     0.01  -0.05  -0.01    -0.03   0.15   0.01
  31   1    -0.01   0.01   0.01     0.01  -0.05  -0.01    -0.03   0.13   0.02
  32   1    -0.07  -0.02  -0.05     0.06   0.01   0.04    -0.04  -0.01  -0.03
  33   1    -0.01   0.01  -0.03     0.00   0.00  -0.00     0.00   0.01  -0.00
  34   1    -0.01   0.00  -0.04    -0.00   0.00  -0.01     0.01   0.00   0.02
  35   1    -0.02   0.01  -0.06     0.00  -0.00   0.01     0.00   0.01  -0.01
                     34                     35                     36
                        a                      a                      a 
 Frequencies --   895.4309               917.7046               930.8461
 Red. masses --     3.9861                 6.8056                 6.7508
 Frc consts  --     0.0000                 0.0000                 0.0000
 IR Inten    --    29.6571                22.2739                 4.5046
 Raman Activ --     0.0000                 0.0000                 0.0000
 Depolar     --     0.0000                 0.0000                 0.0000
 Atom AN      X      Y      Z        X      Y      Z        X      Y      Z
   1   6     0.04  -0.04  -0.02    -0.07   0.01  -0.01    -0.06  -0.11  -0.03
   2   6    -0.00   0.02   0.00     0.32   0.10  -0.07    -0.25   0.01   0.02
   3   6    -0.00   0.00   0.02     0.11  -0.08  -0.05    -0.05   0.00   0.03
   4   6    -0.03  -0.02  -0.01    -0.17  -0.20   0.07     0.12   0.05  -0.01
   5   6     0.01  -0.00  -0.09    -0.07   0.04  -0.07     0.07   0.04  -0.01
   6   6     0.04  -0.01   0.07     0.19   0.04   0.09    -0.02  -0.02   0.12
   7   6    -0.06  -0.06  -0.01    -0.05  -0.20   0.03     0.13  -0.43  -0.09
   8   6     0.02   0.01   0.01     0.00   0.09  -0.03    -0.08   0.21  -0.02
   9   8    -0.02   0.02   0.01    -0.06   0.07   0.00     0.01  -0.04  -0.01
  10   6     0.05  -0.01  -0.04    -0.24   0.12   0.10    -0.06   0.14  -0.05
  11   6    -0.01   0.07   0.04     0.06   0.06  -0.03     0.01   0.14  -0.09
  12   6     0.01  -0.11  -0.01    -0.02  -0.02   0.10    -0.00   0.01  -0.10
  13   6    -0.10   0.45   0.07    -0.07  -0.03   0.14     0.04   0.01  -0.14
  14   1    -0.00   0.00  -0.00     0.12   0.05  -0.01    -0.12   0.00  -0.00
  15   8     0.01   0.01   0.02     0.02  -0.04  -0.05     0.04   0.01   0.04
  16   6     0.01   0.03  -0.02    -0.07   0.00  -0.22     0.05  -0.01   0.22
  17   1    -0.01  -0.01  -0.01    -0.01  -0.08  -0.04     0.04   0.06  -0.03
  18   1    -0.01   0.01   0.00     0.03   0.07  -0.05    -0.04  -0.05   0.05
  19   1    -0.02   0.04   0.00     0.00   0.15  -0.00    -0.02  -0.08   0.03
  20   1     0.01  -0.02   0.03     0.05  -0.12   0.19    -0.03   0.06  -0.08
  21   1    -0.02  -0.02  -0.04    -0.08   0.10  -0.06     0.03  -0.06  -0.00
  22   1    -0.01  -0.00   0.04     0.06   0.05   0.02     0.01  -0.00   0.01
  23   1    -0.01  -0.01   0.01    -0.01  -0.04   0.13     0.08  -0.03   0.36
  24   1    -0.06  -0.02  -0.01    -0.10   0.02  -0.04    -0.23   0.14  -0.17
  25   1    -0.01   0.02   0.00    -0.00  -0.01   0.00    -0.02   0.05  -0.00
  26   1    -0.02   0.05  -0.04     0.12  -0.21   0.20     0.05  -0.03   0.05
  27   1    -0.03  -0.03   0.05     0.13   0.13  -0.25     0.05   0.08  -0.09
  28   1     0.08  -0.06  -0.03    -0.06  -0.00   0.02    -0.11  -0.11   0.00
  29   1     0.05  -0.06  -0.03     0.11  -0.01   0.04     0.26  -0.12   0.03
  30   1     0.11  -0.59  -0.06     0.01   0.03  -0.07    -0.03   0.01   0.09
  31   1     0.10  -0.55  -0.06    -0.15  -0.04   0.05     0.14   0.06  -0.05
  32   1    -0.02  -0.00  -0.02     0.16   0.03   0.13     0.05   0.01   0.04
  33   1    -0.00  -0.03  -0.01    -0.00   0.02  -0.14     0.00  -0.01   0.11
  34   1    -0.01  -0.02  -0.06     0.02   0.00  -0.01    -0.00  -0.01   0.03
  35   1     0.01  -0.02   0.06     0.02   0.02  -0.07    -0.01  -0.01   0.06
                     37                     38                     39
                        a                      a                      a 
 Frequencies --   940.5853               950.4636               970.6090
 Red. masses --     6.9929                 6.0003                 5.5133
 Frc consts  --     0.0000                 0.0000                 0.0000
 IR Inten    --    10.2364                 8.7502                 5.6981
 Raman Activ --     0.0000                 0.0000                 0.0000
 Depolar     --     0.0000                 0.0000                 0.0000
 Atom AN      X      Y      Z        X      Y      Z        X      Y      Z
   1   6    -0.01  -0.02   0.05    -0.07   0.00  -0.08    -0.02  -0.01   0.03
   2   6    -0.06   0.20   0.02     0.02  -0.20   0.05    -0.08   0.05  -0.01
   3   6     0.24  -0.15  -0.20    -0.09   0.13   0.11    -0.18  -0.03  -0.02
   4   6    -0.04  -0.14   0.22     0.06   0.09  -0.17     0.10   0.09   0.06
   5   6    -0.21   0.19  -0.00    -0.03  -0.15   0.17     0.19  -0.00  -0.02
   6   6     0.03   0.07  -0.02     0.12   0.04  -0.03    -0.20  -0.04  -0.03
   7   6    -0.19  -0.14   0.15    -0.15   0.02   0.28     0.01  -0.09   0.01
   8   6     0.06   0.04  -0.07     0.08  -0.03  -0.14    -0.03   0.06  -0.01
   9   8     0.02  -0.06  -0.02    -0.03   0.06   0.00     0.06  -0.07  -0.00
  10   6     0.19  -0.12  -0.12    -0.04   0.00  -0.01     0.05  -0.02  -0.05
  11   6     0.12   0.09  -0.12     0.06   0.14  -0.30    -0.00   0.05  -0.07
  12   6     0.01  -0.03  -0.00     0.00   0.01  -0.00     0.08   0.03   0.13
  13   6    -0.00  -0.03  -0.01    -0.01   0.02  -0.01     0.20   0.00   0.30
  14   1    -0.04   0.20   0.00     0.03  -0.16   0.01    -0.05   0.04  -0.00
  15   8     0.02   0.06   0.09     0.02   0.02   0.02     0.01   0.02   0.03
  16   6     0.02  -0.02   0.01    -0.01   0.01  -0.01    -0.08  -0.00  -0.25
  17   1     0.10  -0.02  -0.22    -0.07  -0.01   0.11     0.01   0.07   0.09
  18   1    -0.03   0.03  -0.02     0.02   0.02   0.01     0.01  -0.14   0.01
  19   1    -0.05  -0.03   0.09     0.06  -0.01  -0.07     0.03  -0.14   0.01
  20   1    -0.04  -0.02   0.06     0.09  -0.02  -0.09    -0.13   0.12  -0.05
  21   1    -0.14   0.18  -0.06     0.04  -0.10   0.07     0.10  -0.04   0.03
  22   1    -0.01  -0.03   0.00     0.09   0.09  -0.06    -0.07  -0.05   0.01
  23   1    -0.08  -0.06  -0.01    -0.08  -0.05  -0.13     0.02  -0.00   0.06
  24   1    -0.09  -0.11   0.06     0.03  -0.16   0.15    -0.06   0.00  -0.02
  25   1     0.01  -0.05  -0.01     0.01  -0.05  -0.00    -0.01   0.05  -0.00
  26   1    -0.10   0.16  -0.17     0.01  -0.02   0.02    -0.03   0.04  -0.05
  27   1    -0.10  -0.11   0.20     0.01   0.01  -0.02    -0.02  -0.02   0.05
  28   1    -0.16  -0.03   0.04    -0.33  -0.23   0.03    -0.06  -0.09  -0.01
  29   1     0.15   0.09   0.14     0.26   0.18   0.29     0.08   0.01   0.05
  30   1    -0.02   0.10   0.02     0.00  -0.06   0.01     0.20   0.09  -0.38
  31   1     0.01  -0.01  -0.00     0.02   0.01  -0.01    -0.42  -0.11   0.12
  32   1    -0.13  -0.03  -0.10     0.02  -0.00   0.03    -0.05  -0.01  -0.04
  33   1     0.00   0.01   0.03    -0.00  -0.00   0.01     0.00   0.02  -0.19
  34   1    -0.01   0.01   0.02    -0.00  -0.01  -0.02     0.03   0.01   0.01
  35   1    -0.02   0.01  -0.04     0.00  -0.01   0.02     0.03   0.02  -0.07
                     40                     41                     42
                        a                      a                      a 
 Frequencies --   999.8794              1027.6053              1033.9838
 Red. masses --     5.7537                 5.5288                 5.0866
 Frc consts  --     0.0000                 0.0000                 0.0000
 IR Inten    --     2.7038                 5.4276                 9.5316
 Raman Activ --     0.0000                 0.0000                 0.0000
 Depolar     --     0.0000                 0.0000                 0.0000
 Atom AN      X      Y      Z        X      Y      Z        X      Y      Z
   1   6    -0.12   0.03   0.03     0.01   0.04   0.05     0.11   0.05   0.07
   2   6    -0.21  -0.06   0.01     0.25   0.15  -0.00     0.08   0.00   0.07
   3   6     0.16  -0.02   0.15    -0.00  -0.08   0.07    -0.00   0.03  -0.03
   4   6    -0.04  -0.01  -0.21    -0.13   0.01  -0.01     0.01  -0.04   0.04
   5   6    -0.24  -0.06   0.06     0.25  -0.01   0.03     0.03   0.05   0.00
   6   6     0.21   0.10   0.01    -0.19  -0.09  -0.03    -0.09   0.00  -0.02
   7   6     0.12  -0.02  -0.04    -0.03   0.02  -0.05    -0.10  -0.01  -0.05
   8   6     0.00  -0.01   0.02    -0.01  -0.02   0.02     0.01  -0.01  -0.00
   9   8    -0.03   0.04  -0.03     0.03  -0.04   0.02     0.03  -0.04  -0.00
  10   6     0.03  -0.03  -0.04     0.03  -0.03  -0.01     0.06   0.04   0.10
  11   6     0.01  -0.03   0.06    -0.01   0.04  -0.08     0.01   0.02  -0.02
  12   6    -0.00  -0.01  -0.11    -0.07   0.10  -0.10     0.04  -0.30  -0.08
  13   6     0.23   0.04   0.03    -0.00   0.04  -0.17     0.03  -0.01  -0.07
  14   1    -0.18  -0.06  -0.02     0.03   0.07  -0.01    -0.01   0.03   0.01
  15   8     0.02   0.03   0.04     0.01   0.01   0.01    -0.06  -0.06  -0.10
  16   6    -0.19  -0.03   0.13    -0.21  -0.20   0.15    -0.20   0.34   0.08
  17   1    -0.03  -0.11  -0.14    -0.10  -0.13   0.08     0.01   0.02   0.02
  18   1    -0.10   0.16   0.07     0.04   0.10  -0.05     0.05  -0.01  -0.03
  19   1    -0.07   0.15  -0.01     0.08   0.06  -0.07     0.04  -0.03  -0.01
  20   1     0.17  -0.12  -0.04    -0.12   0.05   0.15    -0.02   0.01   0.02
  21   1    -0.07  -0.09  -0.00     0.19   0.03   0.13     0.01   0.07   0.01
  22   1     0.17   0.12  -0.11    -0.07  -0.05   0.01    -0.05  -0.04   0.02
  23   1    -0.02  -0.03   0.05    -0.01   0.00  -0.01    -0.03  -0.00  -0.02
  24   1     0.09   0.10  -0.04    -0.03  -0.00  -0.02    -0.09  -0.04  -0.01
  25   1     0.02  -0.09  -0.01    -0.03   0.11   0.01    -0.00   0.02   0.00
  26   1    -0.04   0.01  -0.05    -0.03  -0.01  -0.04     0.02   0.03   0.03
  27   1    -0.02  -0.01   0.05    -0.00  -0.01   0.03    -0.01  -0.02   0.00
  28   1     0.02   0.09   0.02    -0.07  -0.07  -0.01    -0.02  -0.02  -0.00
  29   1    -0.02  -0.05  -0.05     0.06   0.02   0.05     0.02   0.02   0.02
  30   1     0.14   0.06  -0.22    -0.04   0.00   0.08     0.00  -0.03   0.01
  31   1    -0.14  -0.04   0.02     0.18  -0.06  -0.07     0.02   0.20  -0.00
  32   1    -0.04  -0.02  -0.03    -0.05  -0.01  -0.04     0.01   0.02  -0.01
  33   1     0.01   0.04  -0.26     0.02   0.10  -0.26    -0.01  -0.15  -0.34
  34   1     0.14  -0.03   0.24     0.17   0.02   0.45     0.08  -0.12  -0.21
  35   1     0.12   0.01   0.11     0.10   0.07  -0.08     0.18  -0.13   0.55
                     43                     44                     45
                        a                      a                      a 
 Frequencies --  1043.3485              1054.3686              1068.5883
 Red. masses --     6.5813                10.3057                 6.9878
 Frc consts  --     0.0000                 0.0000                 0.0000
 IR Inten    --    48.2578                73.8751                38.9869
 Raman Activ --     0.0000                 0.0000                 0.0000
 Depolar     --     0.0000                 0.0000                 0.0000
 Atom AN      X      Y      Z        X      Y      Z        X      Y      Z
   1   6     0.23  -0.07  -0.03    -0.16  -0.19   0.05     0.01   0.11   0.05
   2   6    -0.12  -0.18   0.18     0.11  -0.15   0.05    -0.06  -0.20  -0.14
   3   6    -0.06   0.13  -0.10    -0.07   0.14  -0.09     0.10   0.16   0.16
   4   6     0.20  -0.11   0.05     0.09  -0.09   0.09    -0.03  -0.26  -0.20
   5   6    -0.16   0.19  -0.02     0.01   0.11  -0.05     0.05   0.28   0.03
   6   6     0.02   0.04   0.01    -0.07   0.06  -0.02    -0.28   0.17   0.03
   7   6    -0.14   0.03   0.02     0.01   0.02   0.11     0.00  -0.04  -0.05
   8   6     0.04  -0.03  -0.05     0.00   0.04  -0.07    -0.01  -0.01   0.04
   9   8    -0.00  -0.01  -0.00     0.03  -0.04  -0.01     0.13  -0.21  -0.01
  10   6     0.01   0.13   0.16    -0.28  -0.06  -0.44    -0.01  -0.04  -0.01
  11   6     0.01  -0.01   0.04     0.00  -0.03   0.07     0.01   0.02  -0.04
  12   6    -0.02   0.15  -0.05     0.01  -0.01  -0.00    -0.02   0.02  -0.02
  13   6     0.10   0.04  -0.05     0.00   0.01  -0.05     0.01  -0.00   0.07
  14   1    -0.04  -0.12   0.04     0.06  -0.05   0.02    -0.04  -0.21  -0.04
  15   8    -0.10  -0.10  -0.17     0.25   0.17   0.41     0.00   0.00   0.02
  16   6    -0.10  -0.16   0.06    -0.09   0.02   0.01     0.11   0.01   0.01
  17   1     0.11   0.18  -0.02     0.03   0.10   0.07     0.02   0.01  -0.08
  18   1     0.06  -0.06  -0.04     0.08  -0.05  -0.05    -0.01   0.14   0.02
  19   1     0.12  -0.17  -0.04     0.10  -0.11  -0.03     0.10   0.13  -0.11
  20   1     0.05  -0.02  -0.10     0.02  -0.02  -0.03     0.15  -0.17   0.10
  21   1    -0.17   0.16  -0.10    -0.12   0.12  -0.10     0.17   0.27   0.17
  22   1    -0.12  -0.09   0.12     0.02   0.01  -0.04    -0.20  -0.10   0.13
  23   1     0.03   0.03  -0.07     0.08   0.05  -0.01    -0.13  -0.08   0.02
  24   1    -0.14  -0.14   0.03     0.09   0.01   0.05     0.09   0.10  -0.03
  25   1     0.03  -0.07   0.00     0.01  -0.04  -0.01    -0.02   0.09   0.00
  26   1     0.13   0.06   0.15    -0.10  -0.17  -0.12    -0.02  -0.02  -0.02
  27   1     0.00  -0.02  -0.09     0.04   0.11  -0.08    -0.01  -0.02   0.01
  28   1     0.04   0.03  -0.00     0.08   0.04  -0.01    -0.06   0.02   0.02
  29   1    -0.05   0.02  -0.01    -0.07  -0.00  -0.04     0.07  -0.02   0.02
  30   1     0.05  -0.02  -0.05    -0.01  -0.03   0.02     0.02  -0.02  -0.04
  31   1     0.03  -0.07  -0.02     0.05   0.03  -0.02    -0.07  -0.01   0.02
  32   1     0.14   0.06   0.10    -0.06  -0.03  -0.00    -0.01   0.00  -0.00
  33   1     0.01   0.07  -0.12     0.00  -0.00  -0.13    -0.00  -0.03   0.12
  34   1     0.09   0.03   0.28     0.05  -0.02   0.05    -0.06   0.01  -0.08
  35   1     0.04   0.05  -0.11     0.05  -0.01   0.07    -0.05  -0.01  -0.02
                     46                     47                     48
                        a                      a                      a 
 Frequencies --  1075.9123              1093.8476              1104.0695
 Red. masses --     9.4991                 6.5543                 6.8425
 Frc consts  --     0.0000                 0.0000                 0.0000
 IR Inten    --    70.3396                27.5242                25.8518
 Raman Activ --     0.0000                 0.0000                 0.0000
 Depolar     --     0.0000                 0.0000                 0.0000
 Atom AN      X      Y      Z        X      Y      Z        X      Y      Z
   1   6    -0.04  -0.05  -0.02     0.06   0.20   0.37     0.28  -0.22   0.30
   2   6    -0.14  -0.05   0.08     0.18  -0.09  -0.06    -0.11   0.08  -0.04
   3   6     0.09   0.04  -0.04    -0.15  -0.02   0.00     0.05  -0.03   0.07
   4   6    -0.00   0.04  -0.01     0.17   0.01   0.03    -0.09   0.03  -0.06
   5   6     0.02   0.11  -0.02    -0.13  -0.06  -0.02     0.00  -0.09   0.08
   6   6     0.23  -0.62  -0.15     0.14  -0.01  -0.19     0.03   0.06  -0.14
   7   6     0.01   0.02   0.02    -0.14  -0.16  -0.18    -0.15   0.12  -0.20
   8   6     0.01  -0.03  -0.01    -0.07   0.14   0.04     0.08  -0.12  -0.02
   9   8    -0.26   0.31   0.10    -0.03   0.12  -0.03     0.01   0.10  -0.02
  10   6    -0.03   0.05  -0.03     0.05   0.02   0.06    -0.16   0.09  -0.20
  11   6     0.02   0.01  -0.00     0.06   0.03   0.02     0.01   0.02  -0.02
  12   6     0.01  -0.02  -0.02    -0.00   0.06   0.04    -0.03   0.00  -0.04
  13   6     0.05   0.01   0.02    -0.05  -0.00  -0.02     0.02  -0.01   0.05
  14   1    -0.03  -0.06   0.02     0.02   0.06  -0.01    -0.18   0.18  -0.03
  15   8     0.04   0.02   0.03    -0.01  -0.02  -0.02     0.07   0.01   0.13
  16   6     0.00   0.02   0.01    -0.00  -0.03  -0.02     0.07   0.01   0.04
  17   1     0.06   0.04  -0.09    -0.10  -0.05   0.18    -0.02  -0.05  -0.04
  18   1    -0.01   0.03   0.00     0.01  -0.10   0.01    -0.05   0.05   0.04
  19   1    -0.01   0.03   0.00     0.03  -0.14   0.01    -0.05   0.09   0.01
  20   1     0.00   0.01   0.01     0.11  -0.03  -0.17     0.01  -0.02   0.04
  21   1     0.16   0.33   0.18    -0.02   0.05   0.02     0.16  -0.07   0.16
  22   1    -0.03  -0.20   0.02    -0.08  -0.06   0.06    -0.17  -0.04   0.15
  23   1    -0.01  -0.01  -0.01    -0.31  -0.19   0.06     0.14   0.13  -0.09
  24   1     0.07   0.02   0.02     0.15   0.20  -0.09    -0.24  -0.15  -0.04
  25   1    -0.09   0.19   0.03     0.09  -0.26  -0.01     0.13  -0.31   0.00
  26   1    -0.03  -0.06  -0.02    -0.11  -0.12  -0.08     0.03  -0.07   0.02
  27   1     0.02   0.04  -0.01    -0.00   0.00   0.04    -0.00   0.01  -0.14
  28   1    -0.00   0.02   0.01     0.02   0.03   0.01    -0.02  -0.03  -0.00
  29   1     0.02  -0.00   0.01     0.06  -0.03  -0.01    -0.00   0.04   0.03
  30   1     0.03   0.01  -0.04    -0.02  -0.04   0.04     0.02   0.01  -0.03
  31   1    -0.03   0.00   0.01     0.03   0.00  -0.01    -0.06  -0.00   0.02
  32   1    -0.06  -0.01  -0.05    -0.13  -0.06  -0.11     0.06   0.02   0.07
  33   1    -0.00  -0.02   0.01     0.00   0.01  -0.01     0.00  -0.02   0.07
  34   1    -0.00  -0.01  -0.02     0.00   0.01   0.03    -0.03   0.01  -0.04
  35   1     0.01  -0.00   0.02    -0.00   0.01  -0.04    -0.02  -0.01   0.00
                     49                     50                     51
                        a                      a                      a 
 Frequencies --  1124.9841              1136.1563              1147.7206
 Red. masses --     7.8092                 5.9794                 4.6511
 Frc consts  --     0.0000                 0.0000                 0.0000
 IR Inten    --     4.3678                 7.7130                 7.7412
 Raman Activ --     0.0000                 0.0000                 0.0000
 Depolar     --     0.0000                 0.0000                 0.0000
 Atom AN      X      Y      Z        X      Y      Z        X      Y      Z
   1   6    -0.28  -0.33   0.27     0.08   0.26  -0.11     0.11   0.25   0.09
   2   6     0.04  -0.13  -0.09     0.02   0.25  -0.06     0.03  -0.27   0.04
   3   6     0.03   0.12   0.03    -0.12  -0.20   0.24     0.06   0.10  -0.22
   4   6    -0.03  -0.05  -0.00     0.22  -0.06  -0.17    -0.12   0.06   0.10
   5   6     0.13   0.04   0.01    -0.13   0.14   0.02     0.01  -0.10  -0.03
   6   6    -0.09  -0.02  -0.07     0.07  -0.04   0.03    -0.01   0.08   0.02
   7   6    -0.07  -0.05   0.06     0.09   0.02   0.04     0.05   0.04  -0.09
   8   6     0.03   0.02  -0.13     0.05  -0.05  -0.06     0.03  -0.09   0.06
   9   8     0.02  -0.01  -0.00    -0.04  -0.01   0.01     0.03  -0.07   0.01
  10   6     0.24   0.33   0.16    -0.07  -0.15   0.06    -0.04  -0.01   0.16
  11   6     0.01  -0.01   0.04    -0.03  -0.03   0.02    -0.02   0.01  -0.04
  12   6    -0.03   0.02  -0.03    -0.02  -0.03  -0.02     0.01   0.06   0.03
  13   6    -0.01  -0.01   0.03    -0.02  -0.01   0.02     0.00   0.01  -0.02
  14   1    -0.09   0.13  -0.03    -0.06  -0.01  -0.03     0.03  -0.12   0.01
  15   8    -0.07  -0.06  -0.17     0.03   0.04   0.04     0.02   0.01  -0.02
  16   6     0.05  -0.01   0.01     0.04   0.01   0.01    -0.02  -0.03  -0.01
  17   1    -0.12  -0.10   0.12    -0.17  -0.20   0.14     0.16   0.19  -0.14
  18   1     0.05   0.08  -0.04    -0.03   0.02   0.03    -0.02  -0.10   0.01
  19   1     0.09  -0.01  -0.06     0.20  -0.14  -0.14    -0.24   0.13   0.16
  20   1     0.08  -0.06  -0.01     0.09  -0.04  -0.09     0.03  -0.02  -0.03
  21   1    -0.06   0.17  -0.06    -0.12   0.11  -0.07     0.06  -0.02   0.05
  22   1     0.15   0.13  -0.18     0.00  -0.08   0.01     0.07   0.07  -0.06
  23   1     0.24   0.14   0.00     0.19   0.10   0.03     0.10   0.06   0.02
  24   1    -0.06  -0.06   0.02    -0.35  -0.21  -0.00    -0.30  -0.14  -0.05
  25   1     0.00  -0.01  -0.00    -0.04   0.10   0.00    -0.04   0.11  -0.00
  26   1    -0.03   0.04  -0.04    -0.13  -0.19  -0.08    -0.21  -0.32  -0.12
  27   1     0.08   0.14   0.09     0.05   0.05   0.05     0.10   0.14   0.06
  28   1     0.06   0.02  -0.01     0.01   0.01  -0.00    -0.04  -0.04  -0.00
  29   1    -0.05   0.02  -0.01    -0.05   0.00  -0.02     0.01   0.01   0.02
  30   1     0.00  -0.01  -0.01    -0.01   0.02   0.01     0.00  -0.04   0.00
  31   1    -0.04  -0.01   0.01    -0.02  -0.00   0.01     0.02   0.00  -0.01
  32   1    -0.15  -0.08  -0.15    -0.10  -0.04  -0.09    -0.22  -0.11  -0.19
  33   1    -0.00   0.00   0.08    -0.00  -0.02   0.05     0.00   0.03  -0.03
  34   1    -0.02   0.01  -0.02    -0.02   0.00  -0.04     0.01   0.00   0.03
  35   1    -0.02  -0.00  -0.02    -0.02  -0.01   0.01     0.01   0.02  -0.03
                     52                     53                     54
                        a                      a                      a 
 Frequencies --  1157.3461              1178.6912              1202.7024
 Red. masses --     2.3306                 5.3543                 5.9891
 Frc consts  --     0.0000                 0.0000                 0.0000
 IR Inten    --    27.2313                 4.4620                13.4672
 Raman Activ --     0.0000                 0.0000                 0.0000
 Depolar     --     0.0000                 0.0000                 0.0000
 Atom AN      X      Y      Z        X      Y      Z        X      Y      Z
   1   6    -0.08  -0.05  -0.09    -0.24  -0.22  -0.17    -0.20   0.09  -0.25
   2   6    -0.02   0.06  -0.03     0.05   0.19   0.02    -0.10  -0.10   0.06
   3   6     0.06   0.03   0.10    -0.19  -0.12   0.04     0.15   0.07  -0.19
   4   6    -0.03  -0.06  -0.04     0.12  -0.08  -0.10    -0.12   0.12   0.18
   5   6    -0.00   0.10   0.05    -0.11   0.15  -0.06     0.12  -0.23  -0.06
   6   6     0.04  -0.06   0.01     0.03   0.10   0.08     0.07   0.09   0.07
   7   6     0.00  -0.03   0.04     0.01   0.02   0.04     0.15   0.03  -0.01
   8   6    -0.00   0.01  -0.01     0.04  -0.09   0.00    -0.04  -0.06   0.20
   9   8    -0.01   0.13  -0.05     0.02  -0.00  -0.02     0.03   0.05  -0.03
  10   6     0.05   0.07   0.14     0.07   0.07   0.08     0.01  -0.07   0.03
  11   6    -0.00  -0.00  -0.00     0.03   0.02   0.00    -0.02   0.02  -0.06
  12   6     0.00  -0.03  -0.01     0.11  -0.02   0.14    -0.07  -0.02  -0.09
  13   6     0.00   0.00   0.00    -0.03   0.00  -0.07     0.06   0.01   0.02
  14   1     0.06  -0.27  -0.01     0.17   0.03   0.03    -0.01   0.04   0.02
  15   8     0.00   0.01  -0.05    -0.02   0.01  -0.06    -0.02   0.02  -0.01
  16   6     0.01   0.01   0.00    -0.08   0.00  -0.06     0.03   0.01   0.05
  17   1     0.13   0.12  -0.17     0.05   0.08  -0.01    -0.19  -0.21   0.19
  18   1     0.04   0.11  -0.03    -0.14  -0.21   0.13     0.14   0.13  -0.15
  19   1     0.22  -0.04  -0.15    -0.23   0.09   0.14    -0.01  -0.04   0.04
  20   1    -0.33   0.17   0.27     0.21  -0.13  -0.15     0.10  -0.04  -0.09
  21   1    -0.07  -0.31  -0.10     0.24  -0.02   0.22    -0.09   0.21  -0.07
  22   1    -0.13  -0.08   0.14    -0.16  -0.09   0.18    -0.29  -0.13   0.31
  23   1     0.03   0.01   0.01     0.17   0.10   0.01     0.12   0.06   0.03
  24   1     0.08   0.04   0.01     0.11   0.02   0.03     0.00   0.03  -0.02
  25   1     0.15  -0.37  -0.01     0.06  -0.14   0.00     0.08  -0.20  -0.01
  26   1    -0.12  -0.17  -0.07    -0.01   0.02  -0.01    -0.02   0.01  -0.02
  27   1     0.09   0.13   0.07     0.08   0.11   0.07     0.05   0.06   0.07
  28   1    -0.01  -0.00   0.00     0.00   0.03   0.01    -0.04  -0.07  -0.01
  29   1     0.00  -0.00  -0.00     0.03   0.01   0.03     0.03   0.02   0.04
  30   1    -0.00   0.01  -0.00    -0.03   0.01   0.05     0.04   0.01  -0.06
  31   1    -0.00  -0.00   0.00     0.09   0.01  -0.03    -0.03  -0.00   0.01
  32   1    -0.17  -0.08  -0.15    -0.07  -0.02  -0.07    -0.00   0.01  -0.00
  33   1    -0.00  -0.02   0.00     0.00   0.01  -0.14     0.00  -0.03   0.01
  34   1    -0.00  -0.00  -0.01     0.03  -0.01   0.02    -0.00   0.00   0.00
  35   1    -0.00  -0.01   0.01     0.03   0.01  -0.01    -0.01  -0.01   0.02
                     55                     56                     57
                        a                      a                      a 
 Frequencies --  1237.6865              1251.2453              1253.8205
 Red. masses --     6.7390                 6.3551                 8.2210
 Frc consts  --     0.0000                 0.0000                 0.0000
 IR Inten    --     3.6114                50.0218                18.0607
 Raman Activ --     0.0000                 0.0000                 0.0000
 Depolar     --     0.0000                 0.0000                 0.0000
 Atom AN      X      Y      Z        X      Y      Z        X      Y      Z
   1   6     0.22  -0.26  -0.04    -0.17   0.21   0.12    -0.21   0.03   0.12
   2   6    -0.08   0.16   0.02     0.02  -0.06  -0.06     0.13  -0.19  -0.02
   3   6    -0.04  -0.09   0.07    -0.00  -0.00   0.04    -0.05   0.12  -0.00
   4   6     0.01   0.02  -0.12    -0.04   0.01  -0.14     0.11  -0.18   0.04
   5   6     0.17   0.05   0.02     0.26   0.07   0.13    -0.14   0.32  -0.21
   6   6    -0.04   0.00  -0.07    -0.18  -0.28   0.09     0.10  -0.02   0.01
   7   6    -0.03   0.11  -0.13     0.15   0.03  -0.02     0.18   0.16  -0.13
   8   6    -0.06  -0.17   0.43     0.00  -0.00   0.04    -0.00  -0.23   0.38
   9   8    -0.00  -0.04   0.04     0.02   0.16  -0.07    -0.07   0.03  -0.03
  10   6    -0.06   0.12   0.06     0.07  -0.08  -0.10     0.04  -0.02  -0.07
  11   6    -0.02   0.05  -0.15    -0.06  -0.02  -0.04    -0.00   0.05  -0.11
  12   6     0.03  -0.01   0.03     0.13   0.02   0.17    -0.03   0.02  -0.04
  13   6    -0.00   0.00  -0.01    -0.05  -0.00  -0.05    -0.01  -0.00   0.02
  14   1    -0.01   0.03   0.00     0.06  -0.06  -0.01    -0.09   0.19  -0.01
  15   8     0.05  -0.00  -0.00    -0.05  -0.01   0.01    -0.02  -0.00   0.00
  16   6    -0.01   0.00  -0.01    -0.05  -0.01  -0.07     0.01  -0.00   0.01
  17   1     0.03   0.02  -0.03     0.07   0.06  -0.08    -0.04   0.00   0.08
  18   1    -0.08  -0.04   0.07    -0.13  -0.11   0.13     0.07   0.02  -0.05
  19   1    -0.05   0.07  -0.00    -0.07   0.12   0.00    -0.01  -0.01   0.03
  20   1     0.07  -0.04  -0.05     0.08  -0.05  -0.02    -0.08   0.02   0.08
  21   1    -0.35   0.11  -0.33    -0.19   0.19  -0.17     0.05  -0.31  -0.03
  22   1    -0.01   0.05  -0.01     0.04   0.10  -0.04     0.11  -0.26  -0.14
  23   1    -0.07  -0.01  -0.06    -0.02  -0.02   0.04     0.01   0.02   0.00
  24   1     0.21   0.12  -0.01    -0.22  -0.09  -0.03    -0.11  -0.04  -0.04
  25   1    -0.06   0.13   0.01     0.15  -0.37  -0.01    -0.01   0.01  -0.00
  26   1    -0.04  -0.14   0.00     0.04   0.14  -0.01     0.04   0.11   0.00
  27   1     0.03   0.04  -0.06    -0.07  -0.09   0.02    -0.03  -0.03   0.01
  28   1    -0.15  -0.12   0.00    -0.07  -0.05  -0.00    -0.12  -0.07   0.02
  29   1     0.08   0.03   0.07    -0.04  -0.01  -0.03     0.08   0.02   0.06
  30   1    -0.00   0.01   0.01    -0.03  -0.02   0.06    -0.00  -0.02   0.00
  31   1     0.01  -0.00  -0.00     0.06   0.01  -0.02    -0.03   0.00   0.01
  32   1    -0.11  -0.06  -0.11     0.13   0.06   0.12     0.07   0.04   0.06
  33   1     0.00   0.00  -0.01     0.00   0.02  -0.07    -0.00  -0.00   0.04
  34   1     0.00  -0.00  -0.00     0.01  -0.01  -0.01     0.01  -0.01  -0.01
  35   1     0.00   0.00  -0.00     0.02   0.02  -0.03     0.01   0.01  -0.01
                     58                     59                     60
                        a                      a                      a 
 Frequencies --  1262.9814              1275.6503              1286.9263
 Red. masses --     5.4921                 6.7102                 6.7874
 Frc consts  --     0.0000                 0.0000                 0.0000
 IR Inten    --    13.7984                 4.1574                12.7678
 Raman Activ --     0.0000                 0.0000                 0.0000
 Depolar     --     0.0000                 0.0000                 0.0000
 Atom AN      X      Y      Z        X      Y      Z        X      Y      Z
   1   6     0.11  -0.17  -0.21    -0.14  -0.21  -0.00    -0.05  -0.11   0.08
   2   6    -0.06   0.03   0.08    -0.10  -0.05  -0.08     0.22   0.25   0.08
   3   6    -0.00   0.03  -0.08     0.04   0.03   0.11    -0.12  -0.10  -0.03
   4   6     0.00  -0.09   0.08     0.00   0.06  -0.04     0.15   0.01  -0.01
   5   6     0.12   0.26   0.07    -0.16  -0.27  -0.17    -0.13  -0.11  -0.20
   6   6    -0.14  -0.14   0.08     0.10   0.18   0.03    -0.10  -0.03   0.17
   7   6     0.20   0.13   0.10     0.29   0.19  -0.02     0.07   0.10  -0.05
   8   6     0.02   0.10  -0.15    -0.02   0.00   0.06    -0.02  -0.08   0.13
   9   8     0.01   0.04  -0.02     0.02  -0.05   0.01     0.03   0.04  -0.03
  10   6    -0.06   0.11   0.08     0.00   0.10   0.03     0.04   0.04  -0.02
  11   6    -0.06  -0.05   0.03    -0.00  -0.01   0.01     0.02   0.02  -0.02
  12   6    -0.07  -0.01  -0.09     0.19   0.01   0.23    -0.24  -0.03  -0.32
  13   6     0.04   0.00   0.02    -0.05  -0.00  -0.06     0.05   0.00   0.08
  14   1    -0.02   0.14   0.02    -0.02   0.14  -0.01     0.04  -0.38   0.00
  15   8     0.08   0.00   0.00     0.04  -0.00  -0.01    -0.01  -0.01  -0.00
  16   6     0.02   0.00   0.03    -0.06   0.00  -0.09     0.07   0.00   0.10
  17   1    -0.12  -0.11   0.13     0.04   0.03  -0.07     0.05   0.07  -0.00
  18   1     0.08   0.04  -0.08    -0.06   0.00   0.08     0.08   0.01  -0.09
  19   1    -0.14   0.07   0.11     0.20  -0.11  -0.14    -0.09   0.01   0.07
  20   1     0.14  -0.11  -0.06    -0.16   0.11   0.07    -0.09   0.09  -0.03
  21   1     0.06  -0.22   0.00     0.06   0.26   0.10     0.09   0.29   0.11
  22   1     0.01   0.08  -0.01    -0.03   0.03   0.06     0.13   0.23  -0.08
  23   1    -0.42  -0.26  -0.01    -0.32  -0.19   0.01    -0.08  -0.04  -0.01
  24   1    -0.14  -0.14   0.04    -0.21  -0.15  -0.00    -0.05  -0.03  -0.01
  25   1     0.06  -0.13   0.00    -0.03   0.05  -0.00     0.07  -0.16  -0.01
  26   1    -0.02  -0.12   0.02     0.02  -0.01   0.02     0.01   0.02  -0.00
  27   1    -0.02  -0.03  -0.09    -0.02  -0.02  -0.04    -0.02  -0.03  -0.01
  28   1    -0.02   0.02   0.01     0.00  -0.02  -0.00    -0.00  -0.01  -0.00
  29   1    -0.07  -0.04  -0.07    -0.01  -0.01  -0.01     0.04   0.01   0.04
  30   1     0.02   0.01  -0.04    -0.03  -0.01   0.06     0.03   0.02  -0.05
  31   1    -0.02  -0.00   0.01     0.08   0.01  -0.02    -0.12  -0.03   0.03
  32   1    -0.14  -0.08  -0.13    -0.06  -0.04  -0.06     0.01  -0.01   0.01
  33   1     0.00   0.00   0.03     0.00   0.01  -0.09    -0.00  -0.01   0.14
  34   1    -0.00   0.00   0.00     0.01  -0.01  -0.01    -0.01   0.01   0.02
  35   1    -0.00  -0.01   0.01     0.01   0.01  -0.03    -0.02  -0.02   0.05
                     61                     62                     63
                        a                      a                      a 
 Frequencies --  1305.5701              1319.3836              1324.1125
 Red. masses --     6.2753                 4.9906                 3.2948
 Frc consts  --     0.0000                 0.0000                 0.0000
 IR Inten    --    18.5772                42.6822                65.7098
 Raman Activ --     0.0000                 0.0000                 0.0000
 Depolar     --     0.0000                 0.0000                 0.0000
 Atom AN      X      Y      Z        X      Y      Z        X      Y      Z
   1   6     0.11  -0.04   0.13     0.15   0.15  -0.15     0.05  -0.12  -0.02
   2   6    -0.35   0.17  -0.13    -0.11  -0.18  -0.02    -0.02   0.02   0.01
   3   6     0.08   0.02  -0.12     0.00   0.09   0.05    -0.01   0.03  -0.01
   4   6     0.04  -0.03   0.13     0.20  -0.14  -0.07     0.08  -0.05  -0.03
   5   6    -0.06   0.08  -0.11    -0.16   0.05  -0.13    -0.02   0.03   0.02
   6   6    -0.06  -0.01   0.05    -0.10  -0.20   0.11     0.03  -0.05  -0.07
   7   6    -0.04  -0.02  -0.05    -0.10  -0.05  -0.00     0.03   0.04   0.00
   8   6    -0.01  -0.06   0.07    -0.01  -0.07   0.07     0.00   0.02  -0.01
   9   8    -0.01   0.01  -0.01     0.07   0.00   0.01     0.02  -0.03   0.03
  10   6     0.03   0.08  -0.01    -0.11  -0.10   0.03     0.21  -0.00  -0.10
  11   6     0.01   0.02  -0.02     0.02   0.02  -0.01    -0.01  -0.01   0.00
  12   6     0.26  -0.01   0.32     0.05   0.02   0.09     0.02  -0.00   0.02
  13   6    -0.05   0.00  -0.08     0.00   0.00  -0.02    -0.01  -0.00  -0.00
  14   1     0.07  -0.43  -0.02    -0.01   0.33   0.01    -0.08   0.03  -0.01
  15   8    -0.01  -0.02   0.02     0.05   0.02  -0.02    -0.28  -0.00   0.00
  16   6    -0.07  -0.01  -0.09    -0.01  -0.01  -0.03     0.00   0.00   0.00
  17   1    -0.19  -0.21   0.16    -0.08  -0.06   0.09    -0.04  -0.03   0.05
  18   1     0.18   0.15  -0.19     0.03   0.06  -0.02     0.01   0.01  -0.01
  19   1    -0.04  -0.02   0.06    -0.06   0.07   0.05    -0.07   0.05   0.05
  20   1     0.02  -0.01  -0.02    -0.23   0.13   0.09    -0.07   0.04   0.03
  21   1     0.09  -0.06   0.05     0.05   0.10   0.07    -0.02  -0.02  -0.01
  22   1     0.12   0.02  -0.13     0.01   0.53   0.09    -0.07   0.18   0.09
  23   1     0.07   0.04  -0.01     0.12   0.07  -0.02    -0.14  -0.08   0.00
  24   1     0.01   0.02  -0.02     0.12   0.08  -0.00    -0.00  -0.03   0.01
  25   1     0.01  -0.03  -0.00     0.05  -0.10   0.00    -0.03   0.09   0.01
  26   1    -0.03  -0.08  -0.03     0.06   0.07   0.08    -0.25  -0.25  -0.29
  27   1    -0.09  -0.12  -0.06     0.07   0.09   0.02     0.21   0.29   0.25
  28   1     0.00   0.01   0.00     0.02   0.03  -0.00    -0.02  -0.01   0.00
  29   1     0.04   0.01   0.03     0.06   0.01   0.05    -0.01  -0.01  -0.02
  30   1    -0.04   0.01   0.06     0.01  -0.01  -0.02    -0.00   0.00   0.00
  31   1     0.12   0.01  -0.03     0.05   0.02  -0.01     0.01   0.00   0.00
  32   1     0.03   0.01   0.03    -0.09  -0.05  -0.09     0.37   0.18   0.37
  33   1     0.01   0.03  -0.12     0.01   0.03  -0.03     0.00   0.00  -0.02
  34   1     0.01  -0.02  -0.04    -0.02   0.01  -0.00    -0.01   0.00  -0.00
  35   1     0.03   0.03  -0.06     0.01  -0.00   0.00    -0.01  -0.00  -0.00
                     64                     65                     66
                        a                      a                      a 
 Frequencies --  1332.6643              1342.1868              1344.3548
 Red. masses --     4.6830                 3.1439                 3.9607
 Frc consts  --     0.0000                 0.0000                 0.0000
 IR Inten    --    13.4692                 6.7896                 8.1572
 Raman Activ --     0.0000                 0.0000                 0.0000
 Depolar     --     0.0000                 0.0000                 0.0000
 Atom AN      X      Y      Z        X      Y      Z        X      Y      Z
   1   6     0.19   0.00  -0.07    -0.14   0.03   0.12    -0.13   0.03   0.07
   2   6    -0.12  -0.06  -0.02    -0.12  -0.04  -0.03     0.11   0.02  -0.04
   3   6     0.01  -0.11   0.12     0.01   0.00   0.06    -0.08  -0.14   0.06
   4   6    -0.22   0.14   0.14     0.03  -0.04  -0.03    -0.17   0.12   0.18
   5   6    -0.00   0.02  -0.19    -0.03   0.04   0.02    -0.02   0.14  -0.09
   6   6    -0.16  -0.04   0.23     0.09  -0.02  -0.16     0.07  -0.15  -0.18
   7   6    -0.05   0.00  -0.02     0.03   0.01  -0.03     0.06   0.03  -0.02
   8   6    -0.04  -0.06   0.08     0.01  -0.01   0.01    -0.01  -0.05   0.07
   9   8    -0.01   0.07  -0.05     0.02  -0.05   0.04     0.05  -0.06   0.06
  10   6     0.01  -0.03  -0.00     0.11   0.14   0.01    -0.00  -0.02  -0.03
  11   6     0.02   0.02  -0.02    -0.00  -0.00  -0.00    -0.00   0.01  -0.02
  12   6    -0.06  -0.01  -0.01    -0.19  -0.04  -0.07     0.07   0.00   0.04
  13   6     0.03   0.01  -0.01     0.08   0.01  -0.00    -0.03  -0.00  -0.01
  14   1     0.30   0.23   0.04     0.63   0.09   0.08    -0.22  -0.10  -0.04
  15   8    -0.06   0.00  -0.01     0.00  -0.03   0.05     0.02   0.00  -0.00
  16   6    -0.01   0.00  -0.03     0.03   0.00   0.01     0.00  -0.00  -0.00
  17   1     0.11   0.07  -0.13    -0.01  -0.01   0.02     0.13   0.11  -0.17
  18   1     0.02   0.07  -0.02    -0.02   0.03   0.02     0.15   0.11  -0.16
  19   1     0.28  -0.18  -0.18     0.00   0.01  -0.00     0.17  -0.11  -0.10
  20   1     0.22  -0.12  -0.15    -0.03   0.01   0.02     0.23  -0.12  -0.21
  21   1     0.14   0.01   0.08    -0.03  -0.07  -0.03     0.05  -0.21  -0.02
  22   1     0.21  -0.07  -0.22    -0.13   0.19   0.15    -0.17   0.46   0.24
  23   1    -0.01   0.00  -0.00     0.06   0.04   0.06     0.00   0.00  -0.00
  24   1     0.07   0.03   0.00    -0.07  -0.06   0.00    -0.05  -0.01  -0.01
  25   1     0.07  -0.17  -0.01    -0.04   0.11   0.01    -0.04   0.11   0.01
  26   1    -0.07  -0.07  -0.07    -0.09  -0.12  -0.09     0.06   0.08   0.05
  27   1     0.11   0.14   0.06    -0.21  -0.30  -0.16    -0.02  -0.02   0.02
  28   1     0.03   0.02  -0.01    -0.02  -0.01   0.00    -0.01   0.00   0.00
  29   1     0.06   0.02   0.06    -0.01  -0.00  -0.01     0.02   0.01   0.02
  30   1     0.04   0.02  -0.09     0.10   0.05  -0.22    -0.04  -0.01   0.08
  31   1     0.05   0.01  -0.01     0.13   0.03  -0.03    -0.04  -0.01   0.01
  32   1     0.07   0.03   0.07     0.05   0.01   0.05    -0.01  -0.01  -0.02
  33   1    -0.01   0.00   0.06    -0.00  -0.01   0.03     0.01   0.00  -0.05
  34   1     0.01   0.00   0.02    -0.03   0.03   0.03    -0.02   0.02   0.00
  35   1     0.01  -0.01   0.03    -0.03  -0.03   0.04    -0.02  -0.01   0.00
                     67                     68                     69
                        a                      a                      a 
 Frequencies --  1355.2633              1359.1185              1388.5455
 Red. masses --     3.6200                 3.8216                 3.2856
 Frc consts  --     0.0000                 0.0000                 0.0000
 IR Inten    --    10.7305                 7.7999                 5.4678
 Raman Activ --     0.0000                 0.0000                 0.0000
 Depolar     --     0.0000                 0.0000                 0.0000
 Atom AN      X      Y      Z        X      Y      Z        X      Y      Z
   1   6     0.02  -0.03   0.19     0.04  -0.04   0.16     0.01  -0.00  -0.01
   2   6    -0.12  -0.00  -0.10    -0.07   0.11   0.07     0.05   0.01   0.04
   3   6    -0.15  -0.12   0.14     0.22   0.15  -0.19     0.03   0.03  -0.02
   4   6     0.12   0.01  -0.05    -0.12  -0.04   0.05    -0.03   0.01   0.01
   5   6     0.04  -0.04   0.11    -0.03   0.08  -0.06    -0.01   0.01  -0.03
   6   6     0.05   0.05  -0.11     0.02  -0.04  -0.09    -0.01  -0.01   0.01
   7   6     0.04   0.02  -0.02     0.03   0.04  -0.06    -0.00   0.01  -0.00
   8   6     0.03   0.05  -0.04    -0.00  -0.02   0.04    -0.01  -0.01   0.01
   9   8    -0.02  -0.01   0.01     0.01  -0.02   0.02     0.00   0.00  -0.00
  10   6    -0.12  -0.18  -0.07    -0.10  -0.14  -0.06     0.00   0.00   0.00
  11   6    -0.01  -0.01   0.01     0.00   0.01  -0.01    -0.00   0.00  -0.00
  12   6    -0.04  -0.02   0.04    -0.06  -0.01  -0.05    -0.11  -0.01  -0.05
  13   6     0.02   0.01  -0.01     0.03   0.00   0.00    -0.00  -0.00   0.03
  14   1     0.29  -0.01   0.02     0.19  -0.22   0.04    -0.02  -0.01   0.00
  15   8     0.01   0.03  -0.06     0.01   0.02  -0.05     0.00   0.00  -0.00
  16   6     0.00   0.00   0.03     0.01  -0.00  -0.04     0.04  -0.00   0.43
  17   1     0.07   0.08  -0.07    -0.15  -0.17   0.15    -0.02  -0.02  -0.01
  18   1     0.25   0.26  -0.26    -0.29  -0.28   0.30    -0.04  -0.08   0.06
  19   1    -0.17   0.09   0.11     0.15  -0.09  -0.10     0.06  -0.04  -0.04
  20   1    -0.01   0.03  -0.01     0.01  -0.03   0.03     0.01  -0.01   0.02
  21   1    -0.08   0.02  -0.05     0.03  -0.12  -0.00     0.01  -0.01   0.00
  22   1    -0.03  -0.12  -0.01    -0.03   0.14   0.04     0.02   0.04  -0.02
  23   1    -0.10  -0.06   0.03    -0.07  -0.03   0.05    -0.00   0.00   0.00
  24   1    -0.08  -0.06   0.00    -0.04  -0.07   0.01     0.01  -0.00   0.00
  25   1    -0.03   0.06   0.00    -0.02   0.06   0.00     0.00  -0.01  -0.00
  26   1     0.18   0.25   0.15     0.15   0.20   0.13     0.01  -0.01   0.01
  27   1     0.22   0.33   0.20     0.18   0.27   0.17    -0.01  -0.00   0.01
  28   1    -0.05  -0.04   0.01    -0.02  -0.01   0.00     0.02   0.02  -0.01
  29   1    -0.06  -0.02  -0.06     0.01  -0.00   0.00     0.02   0.01   0.02
  30   1     0.04   0.02  -0.10     0.02   0.01  -0.04     0.06   0.03  -0.15
  31   1     0.10   0.02  -0.02     0.00  -0.00  -0.00     0.12   0.02  -0.01
  32   1    -0.06  -0.01  -0.07    -0.05  -0.02  -0.06    -0.00  -0.01   0.00
  33   1     0.01  -0.00  -0.04    -0.01  -0.00   0.06     0.08  -0.05  -0.43
  34   1    -0.01  -0.02  -0.05     0.00   0.03   0.06    -0.09  -0.20  -0.46
  35   1    -0.01   0.02  -0.04    -0.01  -0.04   0.07    -0.09   0.24  -0.46
                     70                     71                     72
                        a                      a                      a 
 Frequencies --  1412.8103              1433.4560              1452.1199
 Red. masses --     2.3998                 2.4080                 1.9140
 Frc consts  --     0.0000                 0.0000                 0.0000
 IR Inten    --     4.6349                 5.7547                 5.5106
 Raman Activ --     0.0000                 0.0000                 0.0000
 Depolar     --     0.0000                 0.0000                 0.0000
 Atom AN      X      Y      Z        X      Y      Z        X      Y      Z
   1   6    -0.01  -0.00   0.02     0.00   0.01   0.03     0.01   0.02  -0.01
   2   6    -0.00   0.00  -0.01    -0.13  -0.03  -0.02     0.03   0.00  -0.00
   3   6    -0.01  -0.00   0.00     0.00  -0.00   0.03    -0.01   0.02   0.02
   4   6     0.01  -0.00  -0.03     0.01  -0.02   0.01     0.00   0.01   0.01
   5   6     0.07   0.01   0.10    -0.00   0.00   0.01     0.01  -0.01   0.00
   6   6     0.02   0.01  -0.03     0.00  -0.00  -0.02    -0.01  -0.00   0.01
   7   6     0.08   0.06  -0.02    -0.01   0.02  -0.05    -0.08   0.09  -0.21
   8   6    -0.22  -0.11  -0.09    -0.00   0.00  -0.01    -0.01   0.01  -0.01
   9   8    -0.00  -0.00   0.00     0.00  -0.01   0.01     0.00   0.00  -0.00
  10   6    -0.00  -0.01  -0.01     0.00  -0.02   0.03    -0.00  -0.07   0.11
  11   6    -0.14  -0.08  -0.05    -0.00  -0.00  -0.00     0.00   0.00   0.00
  12   6    -0.00  -0.00   0.01     0.17   0.06  -0.20    -0.02  -0.01   0.04
  13   6     0.00   0.00  -0.00     0.09   0.03  -0.06    -0.03  -0.01   0.02
  14   1     0.01  -0.01   0.00     0.29   0.06   0.04    -0.12  -0.03  -0.02
  15   8    -0.00   0.00  -0.00     0.00  -0.00   0.01     0.01  -0.00   0.02
  16   6     0.00  -0.00  -0.02    -0.07   0.03   0.12     0.01  -0.01  -0.02
  17   1     0.00   0.01   0.01    -0.01  -0.01   0.00    -0.02  -0.04  -0.07
  18   1     0.01   0.02  -0.01     0.01   0.02  -0.01     0.07  -0.05  -0.03
  19   1    -0.05   0.01   0.03     0.01   0.04  -0.01    -0.01   0.01   0.01
  20   1    -0.00  -0.00   0.03    -0.02   0.02  -0.04     0.00   0.00  -0.00
  21   1    -0.07  -0.02  -0.06    -0.01  -0.00  -0.00    -0.00   0.01  -0.00
  22   1    -0.02  -0.03   0.02    -0.02   0.03   0.02     0.01  -0.01  -0.01
  23   1    -0.05  -0.02   0.01    -0.01   0.01   0.12    -0.03   0.05   0.56
  24   1    -0.05  -0.05  -0.00     0.04  -0.10   0.04     0.30  -0.44   0.23
  25   1    -0.01   0.02   0.00    -0.00   0.01   0.00     0.00  -0.01  -0.00
  26   1     0.01   0.01   0.01    -0.05   0.05  -0.05    -0.17   0.22  -0.16
  27   1     0.01   0.01   0.02     0.04   0.01  -0.08     0.12   0.02  -0.30
  28   1     0.49   0.40  -0.14     0.01   0.01  -0.00    -0.01  -0.01   0.00
  29   1     0.44   0.09   0.47     0.01   0.00   0.01    -0.01  -0.00  -0.01
  30   1     0.00   0.00  -0.01    -0.18  -0.10   0.51     0.03   0.02  -0.09
  31   1     0.01   0.00  -0.00    -0.56  -0.12   0.06     0.11   0.02  -0.01
  32   1     0.00   0.00   0.00     0.00   0.00   0.01    -0.00  -0.00   0.00
  33   1    -0.00   0.00   0.01    -0.01  -0.09  -0.02     0.01   0.04   0.00
  34   1    -0.00   0.01   0.02     0.16  -0.15  -0.07    -0.04   0.03   0.01
  35   1    -0.00  -0.01   0.02     0.07   0.11  -0.13    -0.01  -0.02   0.03
                     73                     74                     75
                        a                      a                      a 
 Frequencies --  1462.9807              1472.6698              1485.7569
 Red. masses --     1.8258                 1.8044                 1.7717
 Frc consts  --     0.0000                 0.0000                 0.0000
 IR Inten    --     0.7287                 2.1892                 1.3355
 Raman Activ --     0.0000                 0.0000                 0.0000
 Depolar     --     0.0000                 0.0000                 0.0000
 Atom AN      X      Y      Z        X      Y      Z        X      Y      Z
   1   6    -0.00   0.03  -0.04     0.00   0.01   0.00     0.00   0.01  -0.00
   2   6     0.01  -0.02  -0.00    -0.02  -0.02  -0.01     0.01  -0.02  -0.01
   3   6    -0.01   0.02   0.02     0.01  -0.05  -0.04     0.04  -0.15  -0.12
   4   6     0.00  -0.01   0.01     0.00   0.12  -0.13     0.00  -0.01  -0.00
   5   6     0.00  -0.01   0.00    -0.00   0.01  -0.02    -0.01   0.01  -0.01
   6   6    -0.01   0.01   0.02    -0.01  -0.01   0.01    -0.00  -0.01   0.01
   7   6    -0.05   0.05  -0.11    -0.00   0.01  -0.02    -0.01   0.01  -0.02
   8   6    -0.00   0.01  -0.01     0.00  -0.00   0.01     0.00  -0.00  -0.00
   9   8     0.00   0.00  -0.00    -0.00   0.00  -0.00    -0.00   0.00  -0.00
  10   6     0.01   0.13  -0.18     0.00   0.01  -0.01    -0.00  -0.00   0.00
  11   6     0.00   0.00   0.00     0.01   0.00   0.00     0.00   0.00   0.00
  12   6     0.00   0.01  -0.01     0.03  -0.01  -0.04     0.02   0.02   0.05
  13   6     0.00  -0.00  -0.00     0.05   0.01  -0.04    -0.01   0.00  -0.01
  14   1    -0.02   0.03  -0.00     0.04   0.02   0.00    -0.05  -0.01  -0.01
  15   8    -0.02  -0.00  -0.03    -0.00  -0.00  -0.00     0.00   0.00  -0.00
  16   6    -0.01   0.01  -0.00     0.10  -0.12   0.07     0.06   0.15  -0.02
  17   1    -0.01  -0.02  -0.05     0.06   0.10   0.15     0.15   0.24   0.38
  18   1     0.04  -0.04  -0.01    -0.10   0.16   0.01    -0.29   0.37   0.05
  19   1     0.01   0.03  -0.00    -0.15  -0.38   0.08    -0.01  -0.01   0.00
  20   1    -0.01   0.01  -0.03     0.15  -0.11   0.38     0.00  -0.01   0.00
  21   1    -0.00   0.01   0.00     0.00   0.01  -0.00     0.01  -0.00   0.00
  22   1     0.01  -0.02  -0.01     0.01   0.00  -0.01     0.02   0.02  -0.02
  23   1     0.01   0.04   0.32     0.00   0.01   0.04    -0.00   0.01   0.07
  24   1     0.17  -0.24   0.13     0.02  -0.04   0.02     0.04  -0.06   0.03
  25   1     0.00  -0.01  -0.00     0.00  -0.01  -0.00     0.00  -0.01  -0.00
  26   1     0.30  -0.41   0.29     0.02  -0.02   0.02    -0.00   0.00   0.00
  27   1    -0.27  -0.09   0.52    -0.02  -0.01   0.03    -0.00  -0.00  -0.00
  28   1    -0.01  -0.01   0.00    -0.01  -0.01   0.00    -0.00  -0.00   0.00
  29   1    -0.01  -0.00  -0.01    -0.01   0.00  -0.01    -0.00  -0.00  -0.00
  30   1    -0.01  -0.01   0.02    -0.04  -0.03   0.14     0.01   0.00  -0.02
  31   1    -0.02  -0.00   0.00    -0.14  -0.02   0.01     0.03   0.01  -0.01
  32   1    -0.01  -0.00  -0.01    -0.00   0.00  -0.00    -0.00  -0.00  -0.00
  33   1    -0.01  -0.02   0.02     0.10   0.33  -0.25    -0.04  -0.47  -0.09
  34   1     0.02  -0.01   0.01    -0.41   0.25  -0.03     0.17  -0.01   0.17
  35   1     0.01   0.01  -0.00    -0.09  -0.11   0.14    -0.40  -0.08  -0.08
                     76                     77                     78
                        a                      a                      a 
 Frequencies --  1491.2109              1496.5886              1706.9704
 Red. masses --     1.6758                 1.8742                11.2212
 Frc consts  --     0.0000                 0.0000                 0.0000
 IR Inten    --     3.4494                 2.5983                28.7092
 Raman Activ --     0.0000                 0.0000                 0.0000
 Depolar     --     0.0000                 0.0000                 0.0000
 Atom AN      X      Y      Z        X      Y      Z        X      Y      Z
   1   6    -0.01   0.00  -0.01     0.00   0.00  -0.00     0.01  -0.00   0.00
   2   6     0.02  -0.00  -0.01     0.01  -0.00   0.00     0.07   0.02  -0.01
   3   6     0.03  -0.10  -0.08    -0.03   0.10   0.07     0.01   0.00  -0.00
   4   6    -0.00   0.04  -0.05     0.01   0.15  -0.15    -0.00  -0.00   0.00
   5   6    -0.00   0.01  -0.00    -0.00   0.01  -0.02     0.00   0.00   0.00
   6   6    -0.00  -0.01  -0.02    -0.01  -0.02  -0.00    -0.00   0.00   0.00
   7   6    -0.00   0.01  -0.01     0.00  -0.00   0.00    -0.00   0.00  -0.00
   8   6     0.00  -0.00  -0.00    -0.01  -0.01   0.01    -0.01  -0.00  -0.00
   9   8     0.01  -0.01   0.01     0.01  -0.00   0.00    -0.00   0.00  -0.00
  10   6     0.00   0.00  -0.00    -0.00   0.00   0.00     0.00  -0.00   0.00
  11   6     0.00   0.00   0.00     0.01   0.00   0.00     0.00   0.00   0.00
  12   6    -0.01  -0.00   0.00    -0.01   0.02   0.01    -0.53  -0.15   0.47
  13   6    -0.05  -0.02   0.04    -0.01  -0.00   0.01     0.48   0.13  -0.38
  14   1    -0.05  -0.01  -0.01    -0.00   0.01   0.00    -0.08  -0.02  -0.01
  15   8    -0.00  -0.00  -0.00     0.00  -0.00   0.00     0.00   0.00   0.00
  16   6    -0.17  -0.04  -0.03    -0.03   0.12  -0.04     0.02   0.01  -0.07
  17   1     0.11   0.17   0.27    -0.09  -0.13  -0.23     0.00  -0.00   0.00
  18   1    -0.20   0.26   0.04     0.18  -0.20  -0.05    -0.00   0.00   0.00
  19   1    -0.05  -0.16   0.02    -0.20  -0.44   0.11     0.00   0.00  -0.00
  20   1     0.06  -0.05   0.14     0.17  -0.13   0.44    -0.00   0.00  -0.00
  21   1     0.00  -0.01  -0.00     0.00   0.01  -0.01     0.00  -0.00  -0.00
  22   1    -0.04   0.04   0.05    -0.00   0.07   0.01     0.00  -0.00  -0.00
  23   1    -0.00   0.00   0.05     0.00  -0.00  -0.02    -0.00  -0.00   0.00
  24   1     0.02  -0.04   0.02    -0.01   0.02  -0.01     0.00  -0.00   0.00
  25   1    -0.00   0.01  -0.00     0.00  -0.00  -0.00     0.00  -0.00   0.00
  26   1     0.00  -0.00   0.00    -0.00  -0.00  -0.00    -0.01   0.00  -0.01
  27   1    -0.01  -0.01   0.00    -0.00  -0.00  -0.00     0.00   0.00  -0.00
  28   1    -0.00  -0.00   0.00    -0.01  -0.01   0.00    -0.00  -0.00   0.00
  29   1    -0.00   0.00  -0.00    -0.01   0.00  -0.01    -0.00   0.00  -0.00
  30   1     0.02   0.02  -0.09     0.01   0.00  -0.04     0.05  -0.01   0.15
  31   1     0.09   0.02  -0.00     0.04   0.01  -0.00    -0.13  -0.02  -0.09
  32   1     0.00   0.00  -0.00     0.00  -0.00   0.00     0.00  -0.00   0.00
  33   1    -0.04   0.21   0.32    -0.07  -0.34   0.11    -0.01  -0.01   0.06
  34   1     0.22  -0.25  -0.20     0.30  -0.13   0.10     0.00  -0.03  -0.07
  35   1     0.53   0.21  -0.06    -0.09   0.03  -0.09     0.01   0.03  -0.04
                     79                     80                     81
                        a                      a                      a 
 Frequencies --  1739.1137              2893.7175              2912.7850
 Red. masses --    11.5807                 1.7478                 1.7537
 Frc consts  --     0.0000                 0.0000                 0.0000
 IR Inten    --    31.2322                75.6518                64.4055
 Raman Activ --     0.0000                 0.0000                 0.0000
 Depolar     --     0.0000                 0.0000                 0.0000
 Atom AN      X      Y      Z        X      Y      Z        X      Y      Z
   1   6    -0.01  -0.01   0.00    -0.01   0.01  -0.00     0.00  -0.00  -0.01
   2   6     0.00   0.00   0.00     0.00   0.00  -0.00     0.03   0.01  -0.26
   3   6     0.00   0.00   0.00     0.00   0.00   0.00     0.02   0.01   0.01
   4   6    -0.01   0.01  -0.00     0.00   0.00   0.00     0.00   0.00   0.00
   5   6    -0.05  -0.02  -0.06     0.00  -0.00  -0.00    -0.00  -0.00   0.00
   6   6    -0.01  -0.00  -0.01     0.00   0.00   0.00     0.00  -0.00   0.00
   7   6    -0.06  -0.05   0.01     0.00  -0.01   0.00    -0.00   0.00   0.01
   8   6     0.63   0.34   0.22     0.00  -0.00  -0.00     0.00   0.00  -0.00
   9   8     0.00   0.00   0.00     0.00  -0.00   0.00     0.00  -0.00  -0.00
  10   6     0.00   0.00  -0.00    -0.19   0.17  -0.04    -0.00   0.00   0.01
  11   6    -0.52  -0.28  -0.19    -0.00  -0.00   0.00     0.00  -0.00   0.00
  12   6    -0.00  -0.00   0.00     0.00  -0.00   0.00    -0.00   0.00  -0.01
  13   6     0.00   0.00  -0.00     0.00   0.00  -0.00     0.00  -0.00   0.01
  14   1    -0.00  -0.00  -0.00    -0.00  -0.00   0.00    -0.13  -0.03   0.95
  15   8     0.00  -0.00   0.00    -0.01  -0.00  -0.01    -0.00   0.00   0.00
  16   6     0.00   0.00  -0.00     0.00   0.00   0.00    -0.00   0.00   0.00
  17   1     0.00   0.00  -0.00    -0.00   0.00  -0.00     0.00   0.00   0.00
  18   1     0.00   0.00  -0.00    -0.00  -0.00  -0.00    -0.05  -0.02  -0.07
  19   1     0.00  -0.01  -0.00    -0.00  -0.00  -0.00    -0.00  -0.00  -0.00
  20   1     0.00  -0.00   0.01    -0.00  -0.00  -0.00    -0.00  -0.00  -0.00
  21   1     0.03   0.01   0.02    -0.00  -0.00   0.00     0.01   0.00  -0.01
  22   1    -0.00  -0.00  -0.00    -0.01   0.00  -0.01    -0.01   0.00  -0.01
  23   1     0.00   0.00   0.01    -0.01   0.03  -0.00     0.00  -0.00   0.00
  24   1     0.02   0.01   0.01     0.00  -0.00  -0.00     0.01  -0.01  -0.02
  25   1     0.00  -0.00  -0.00     0.00  -0.00  -0.00     0.00  -0.00  -0.00
  26   1     0.00  -0.00   0.00     0.02   0.02  -0.06     0.02  -0.00  -0.02
  27   1    -0.00   0.00  -0.00     0.71  -0.61   0.24    -0.00   0.00   0.00
  28   1     0.03   0.07  -0.11    -0.00   0.00  -0.00    -0.00   0.00  -0.00
  29   1     0.01  -0.05   0.12    -0.00   0.00  -0.00     0.00  -0.00  -0.00
  30   1     0.00   0.00   0.00    -0.00  -0.00  -0.00    -0.00  -0.00  -0.00
  31   1    -0.00  -0.00  -0.00     0.00  -0.00   0.00    -0.00   0.00  -0.01
  32   1    -0.00  -0.00  -0.00    -0.00  -0.01   0.00     0.00   0.00  -0.00
  33   1    -0.00   0.00   0.00    -0.00   0.00   0.00     0.01  -0.00  -0.00
  34   1    -0.00  -0.00  -0.00    -0.00  -0.00   0.00     0.00   0.00  -0.00
  35   1     0.00   0.00  -0.00     0.00  -0.00  -0.00     0.00  -0.00  -0.00
                     82                     83                     84
                        a                      a                      a 
 Frequencies --  2933.9387              2937.6979              2957.9194
 Red. masses --     1.7351                 1.7654                 1.8587
 Frc consts  --     0.0000                 0.0000                 0.0000
 IR Inten    --    60.6047                89.8775                40.8608
 Raman Activ --     0.0000                 0.0000                 0.0000
 Depolar     --     0.0000                 0.0000                 0.0000
 Atom AN      X      Y      Z        X      Y      Z        X      Y      Z
   1   6     0.00   0.00   0.00     0.00  -0.00   0.00     0.01  -0.01  -0.00
   2   6    -0.00  -0.00   0.00    -0.00  -0.00   0.01     0.00   0.00  -0.00
   3   6    -0.00  -0.00   0.00    -0.00   0.00  -0.00     0.00   0.00   0.01
   4   6    -0.01  -0.01  -0.01    -0.01   0.01  -0.01     0.00   0.00  -0.00
   5   6     0.09   0.01  -0.09    -0.15  -0.03   0.17     0.00   0.00  -0.00
   6   6     0.16  -0.02   0.16     0.08  -0.01   0.09     0.00  -0.00   0.00
   7   6    -0.00   0.01   0.00    -0.00   0.00  -0.00     0.14  -0.23  -0.04
   8   6     0.00   0.00  -0.00    -0.00  -0.00   0.00    -0.00  -0.01   0.00
   9   8     0.01  -0.01   0.00     0.01  -0.01  -0.00    -0.00   0.00  -0.00
  10   6     0.00  -0.00   0.00     0.00  -0.00  -0.00     0.01  -0.00  -0.00
  11   6    -0.00  -0.00   0.00     0.00   0.00  -0.00     0.00   0.00  -0.00
  12   6    -0.00   0.00   0.00    -0.00   0.00   0.00    -0.00  -0.00  -0.00
  13   6     0.00   0.00   0.00    -0.00  -0.00  -0.00     0.00   0.00   0.00
  14   1     0.00   0.00  -0.00     0.00   0.00  -0.02    -0.00  -0.00   0.01
  15   8     0.00   0.00  -0.00     0.00   0.00  -0.00     0.00   0.00   0.00
  16   6     0.00  -0.00  -0.00     0.00  -0.00   0.00     0.00  -0.00   0.00
  17   1    -0.00   0.00  -0.00    -0.00  -0.00   0.00     0.00  -0.00   0.00
  18   1    -0.00  -0.00  -0.00     0.01   0.00   0.01    -0.02  -0.01  -0.03
  19   1     0.02  -0.00   0.03     0.04   0.00   0.06     0.00   0.00   0.00
  20   1     0.03   0.04   0.00    -0.03  -0.04  -0.01    -0.00  -0.00  -0.00
  21   1    -0.31  -0.05   0.35     0.56   0.10  -0.62    -0.01  -0.00   0.01
  22   1    -0.61   0.10  -0.58    -0.34   0.06  -0.32    -0.01   0.00  -0.01
  23   1     0.01  -0.02   0.00     0.00  -0.00   0.00    -0.47   0.79  -0.09
  24   1     0.00  -0.00  -0.00    -0.00   0.00   0.01    -0.04   0.05   0.23
  25   1     0.00   0.00  -0.00     0.00  -0.00  -0.00    -0.00   0.00   0.00
  26   1    -0.00  -0.00   0.00    -0.00  -0.00   0.00    -0.01  -0.00   0.01
  27   1    -0.01   0.01  -0.00    -0.00   0.00  -0.00    -0.02   0.02  -0.01
  28   1     0.00  -0.00   0.00     0.00   0.00  -0.00     0.00  -0.00   0.00
  29   1     0.00   0.00  -0.00    -0.00  -0.00   0.01    -0.00   0.00  -0.00
  30   1    -0.00  -0.00  -0.00     0.00   0.00   0.00    -0.00  -0.00  -0.00
  31   1    -0.00   0.00  -0.00     0.00   0.00  -0.00    -0.00  -0.00  -0.00
  32   1    -0.00  -0.00   0.00    -0.00  -0.00   0.00     0.00   0.00   0.00
  33   1    -0.01   0.00  -0.00    -0.01   0.00  -0.00    -0.00   0.00  -0.00
  34   1     0.01   0.00  -0.00     0.00   0.00  -0.00     0.00   0.00  -0.00
  35   1     0.00   0.01   0.00     0.00   0.00   0.00     0.00   0.00   0.00
                     85                     86                     87
                        a                      a                      a 
 Frequencies --  2962.2254              2973.8462              2982.5682
 Red. masses --     1.9458                 1.9857                 1.5178
 Frc consts  --     0.0000                 0.0000                 0.0000
 IR Inten    --    18.5466                89.5884                77.6709
 Raman Activ --     0.0000                 0.0000                 0.0000
 Depolar     --     0.0000                 0.0000                 0.0000
 Atom AN      X      Y      Z        X      Y      Z        X      Y      Z
   1   6     0.00  -0.00  -0.00     0.00  -0.00  -0.00     0.00   0.00  -0.00
   2   6    -0.00  -0.00  -0.01    -0.00   0.00  -0.01     0.00   0.00   0.01
   3   6    -0.11   0.02  -0.09    -0.21   0.07  -0.12     0.03   0.05   0.08
   4   6     0.16   0.11   0.15    -0.10  -0.09  -0.07     0.00  -0.13   0.13
   5   6     0.01   0.00   0.00    -0.00  -0.00   0.00    -0.01  -0.01   0.02
   6   6     0.01  -0.00   0.01    -0.00   0.00  -0.01     0.01   0.00   0.01
   7   6     0.00  -0.00   0.00     0.00  -0.00   0.01    -0.00   0.00  -0.01
   8   6     0.00  -0.00  -0.00    -0.00  -0.00   0.00    -0.00  -0.00  -0.00
   9   8     0.00  -0.00  -0.00    -0.00   0.00   0.00     0.00  -0.00  -0.00
  10   6     0.00  -0.00   0.00    -0.00   0.00   0.00     0.01   0.00  -0.02
  11   6    -0.00  -0.00   0.00     0.00   0.00  -0.00     0.00   0.00  -0.00
  12   6     0.00  -0.00  -0.00     0.00  -0.00  -0.00    -0.00   0.00   0.00
  13   6     0.00  -0.00   0.00     0.00  -0.00   0.00    -0.00  -0.00  -0.00
  14   1    -0.00  -0.00   0.03    -0.01  -0.00   0.05     0.00   0.00  -0.04
  15   8     0.00   0.00  -0.00     0.00   0.00   0.00    -0.00  -0.00  -0.00
  16   6     0.01   0.00  -0.00    -0.00  -0.00   0.00     0.00   0.00  -0.00
  17   1     0.21  -0.19   0.02     0.50  -0.43   0.07     0.12  -0.09   0.03
  18   1     0.21   0.12   0.33     0.24   0.15   0.37    -0.22  -0.10  -0.31
  19   1    -0.34   0.02  -0.56     0.13  -0.02   0.22    -0.35  -0.02  -0.53
  20   1    -0.25  -0.42  -0.01     0.22   0.36   0.02     0.33   0.50   0.06
  21   1    -0.00  -0.00   0.00     0.01   0.00  -0.01     0.05   0.01  -0.05
  22   1    -0.04   0.00  -0.04     0.02  -0.00   0.02    -0.02   0.00  -0.02
  23   1    -0.01   0.01  -0.00    -0.01   0.02  -0.00     0.01  -0.02   0.00
  24   1     0.00  -0.00  -0.00     0.01  -0.01  -0.03    -0.01   0.01   0.02
  25   1     0.00  -0.00  -0.00    -0.00  -0.00  -0.00     0.00  -0.00  -0.00
  26   1     0.00  -0.00  -0.00     0.01  -0.00  -0.01    -0.05   0.00   0.06
  27   1    -0.00   0.00  -0.00     0.00  -0.00   0.00     0.01  -0.00  -0.00
  28   1    -0.00   0.00   0.00     0.00  -0.00   0.00     0.00   0.00   0.00
  29   1     0.00   0.00  -0.00    -0.00  -0.00   0.00    -0.00  -0.00   0.00
  30   1    -0.00   0.00   0.00    -0.00   0.00  -0.00     0.00   0.00   0.00
  31   1    -0.00   0.00  -0.00    -0.00   0.00  -0.00     0.00  -0.00   0.00
  32   1    -0.00  -0.00   0.00    -0.00   0.00  -0.00     0.00  -0.00  -0.00
  33   1    -0.01   0.00  -0.00     0.00  -0.00   0.00    -0.01   0.00  -0.00
  34   1    -0.01  -0.01   0.00     0.01   0.01  -0.00    -0.00  -0.01   0.00
  35   1    -0.00   0.00   0.00     0.00  -0.01  -0.00     0.00  -0.01  -0.00
                     88                     89                     90
                        a                      a                      a 
 Frequencies --  2982.8147              2990.8986              2995.4645
 Red. masses --     1.6863                 1.5101                 1.6225
 Frc consts  --     0.0000                 0.0000                 0.0000
 IR Inten    --    47.3095                73.0705                72.3531
 Raman Activ --     0.0000                 0.0000                 0.0000
 Depolar     --     0.0000                 0.0000                 0.0000
 Atom AN      X      Y      Z        X      Y      Z        X      Y      Z
   1   6     0.01   0.00  -0.01     0.00   0.00   0.00     0.00  -0.00  -0.01
   2   6     0.00  -0.00  -0.01    -0.00   0.00   0.02     0.00  -0.00  -0.01
   3   6    -0.00   0.00  -0.00    -0.04   0.15   0.11    -0.01  -0.01  -0.01
   4   6     0.00   0.01  -0.01     0.03   0.09  -0.03    -0.01  -0.00  -0.01
   5   6     0.00   0.00  -0.00     0.01   0.00  -0.01     0.00  -0.00  -0.00
   6   6    -0.00  -0.00  -0.00    -0.00  -0.00  -0.00    -0.00  -0.00  -0.00
   7   6    -0.00   0.00   0.03    -0.00   0.00  -0.01     0.02  -0.03  -0.23
   8   6    -0.00   0.00   0.00     0.00   0.00  -0.00     0.00   0.00  -0.01
   9   8    -0.00   0.00   0.00     0.00   0.00  -0.00    -0.00  -0.00   0.00
  10   6     0.16  -0.00  -0.18    -0.01  -0.00   0.01     0.02   0.00  -0.02
  11   6     0.00  -0.00   0.00    -0.00  -0.00   0.00     0.00  -0.00   0.00
  12   6    -0.00  -0.00  -0.00    -0.00   0.00  -0.00    -0.00   0.00  -0.00
  13   6     0.00  -0.00   0.00    -0.00   0.00  -0.00     0.00  -0.00   0.00
  14   1    -0.00   0.00   0.02     0.01   0.00  -0.06    -0.01   0.00   0.03
  15   8    -0.00  -0.00  -0.01     0.00   0.00   0.00    -0.00  -0.00  -0.00
  16   6    -0.00  -0.00  -0.00     0.00  -0.01  -0.00    -0.00   0.00  -0.00
  17   1     0.01  -0.01   0.00     0.48  -0.38   0.09    -0.01   0.00  -0.00
  18   1     0.01   0.00   0.01    -0.35  -0.15  -0.49     0.04   0.02   0.06
  19   1     0.03   0.00   0.05     0.10   0.01   0.14     0.01  -0.00   0.02
  20   1    -0.03  -0.05  -0.01    -0.20  -0.31  -0.03     0.01   0.01  -0.00
  21   1    -0.01  -0.00   0.01    -0.02  -0.00   0.02    -0.00  -0.00   0.00
  22   1     0.01  -0.00   0.00     0.00  -0.00   0.00     0.01  -0.00   0.00
  23   1    -0.01   0.02   0.00     0.02  -0.03   0.00     0.13  -0.22  -0.01
  24   1     0.02  -0.04  -0.09    -0.01   0.02   0.04    -0.22   0.33   0.84
  25   1    -0.00   0.00  -0.00    -0.00  -0.00   0.00     0.00   0.00  -0.00
  26   1    -0.65   0.06   0.70     0.02  -0.00  -0.02    -0.07   0.01   0.08
  27   1     0.07  -0.04  -0.01    -0.00   0.00   0.00     0.02  -0.01   0.00
  28   1    -0.00  -0.00   0.00    -0.00   0.00  -0.00    -0.00   0.00  -0.01
  29   1     0.00   0.00  -0.00     0.00   0.00  -0.00     0.00  -0.00   0.00
  30   1    -0.00   0.00  -0.00     0.00  -0.00  -0.00    -0.00  -0.00   0.00
  31   1     0.00  -0.00  -0.00     0.00  -0.00   0.01    -0.00   0.00  -0.00
  32   1     0.01  -0.00  -0.01    -0.00  -0.00   0.00     0.00   0.00  -0.00
  33   1     0.00  -0.00   0.00     0.00  -0.00  -0.00     0.00  -0.00   0.00
  34   1     0.00   0.00  -0.00     0.00  -0.00   0.00     0.00  -0.00   0.00
  35   1    -0.00   0.01   0.00    -0.01   0.03   0.01    -0.00   0.00   0.00
                     91                     92                     93
                        a                      a                      a 
 Frequencies --  3005.1662              3032.7657              3044.8252
 Red. masses --     1.8154                 1.7433                 1.5687
 Frc consts  --     0.0000                 0.0000                 0.0000
 IR Inten    --    29.0935                48.4015                33.5284
 Raman Activ --     0.0000                 0.0000                 0.0000
 Depolar     --     0.0000                 0.0000                 0.0000
 Atom AN      X      Y      Z        X      Y      Z        X      Y      Z
   1   6    -0.00   0.00  -0.00    -0.00  -0.00   0.00     0.00  -0.00   0.00
   2   6     0.00  -0.00  -0.00     0.00   0.00   0.00    -0.00   0.00   0.00
   3   6     0.00  -0.00  -0.00     0.00  -0.00  -0.00     0.00   0.00   0.00
   4   6    -0.00  -0.00   0.00     0.00  -0.00   0.00     0.00   0.00   0.00
   5   6    -0.00  -0.00   0.00    -0.00  -0.00   0.00     0.00   0.00  -0.00
   6   6    -0.00   0.00  -0.00     0.00  -0.00   0.00    -0.00   0.00  -0.00
   7   6     0.00  -0.00   0.00    -0.00   0.00   0.00    -0.00   0.00  -0.00
   8   6    -0.00  -0.00  -0.00     0.00   0.00   0.00     0.00  -0.00  -0.00
   9   8     0.00  -0.00   0.00     0.00   0.00  -0.00    -0.00   0.00  -0.00
  10   6    -0.00   0.00   0.00    -0.00   0.00   0.00    -0.00  -0.00   0.00
  11   6     0.00   0.00   0.00    -0.00  -0.00  -0.00     0.00   0.00   0.00
  12   6     0.00  -0.00  -0.01    -0.01  -0.00  -0.00    -0.00  -0.00   0.01
  13   6    -0.00  -0.00   0.00     0.01   0.00   0.01     0.00  -0.00   0.00
  14   1    -0.00  -0.00   0.01     0.00  -0.00  -0.01    -0.00  -0.00  -0.00
  15   8     0.00  -0.00   0.00     0.00  -0.00  -0.00    -0.00   0.00   0.00
  16   6     0.11  -0.23  -0.09    -0.25  -0.05  -0.04    -0.08  -0.18   0.11
  17   1    -0.01   0.01  -0.00    -0.00   0.00  -0.00    -0.00   0.00  -0.00
  18   1     0.01   0.01   0.02     0.00   0.00   0.00    -0.00  -0.00  -0.01
  19   1    -0.00  -0.00  -0.01    -0.01   0.00  -0.01    -0.01   0.00  -0.01
  20   1     0.01   0.02   0.00     0.00   0.00   0.00    -0.00  -0.01   0.00
  21   1     0.00   0.00  -0.00     0.00   0.00  -0.00    -0.00  -0.00   0.00
  22   1     0.00   0.00   0.01    -0.01   0.00  -0.01     0.01  -0.00   0.00
  23   1    -0.00   0.00  -0.00    -0.00   0.00   0.00     0.00  -0.00   0.00
  24   1     0.00  -0.00  -0.00     0.00  -0.00  -0.00    -0.00   0.00   0.00
  25   1    -0.00   0.00   0.00     0.00  -0.00   0.00     0.00   0.00   0.00
  26   1     0.00  -0.00  -0.01     0.00  -0.00  -0.00     0.00   0.00  -0.00
  27   1     0.00  -0.00   0.00     0.00  -0.00   0.00     0.00   0.00   0.00
  28   1    -0.00   0.00  -0.00     0.00  -0.00   0.00    -0.00   0.00  -0.00
  29   1    -0.00  -0.00   0.00     0.00   0.00  -0.00    -0.00  -0.00   0.00
  30   1    -0.00  -0.00  -0.00    -0.03  -0.00  -0.01     0.00   0.00   0.00
  31   1     0.00   0.00   0.00    -0.00   0.00  -0.01    -0.00   0.00  -0.02
  32   1    -0.00   0.00   0.00    -0.00  -0.00   0.00     0.00  -0.00  -0.00
  33   1    -0.18  -0.01  -0.04     0.91  -0.13   0.14    -0.20  -0.00  -0.02
  34   1     0.05   0.01  -0.03     0.07   0.15  -0.08     0.49   0.73  -0.36
  35   1    -0.27   0.80   0.42    -0.09   0.15   0.08     0.01  -0.10  -0.03
                     94                     95                     96
                        a                      a                      a 
 Frequencies --  3093.4557              3098.8876              3112.1657
 Red. masses --     1.5425                 1.5151                 2.0613
 Frc consts  --     0.0000                 0.0000                 0.0000
 IR Inten    --    50.1359                41.1160                87.6617
 Raman Activ --     0.0000                 0.0000                 0.0000
 Depolar     --     0.0000                 0.0000                 0.0000
 Atom AN      X      Y      Z        X      Y      Z        X      Y      Z
   1   6     0.00   0.00  -0.00    -0.00  -0.00   0.00     0.00   0.00   0.00
   2   6    -0.00  -0.00  -0.00     0.00  -0.00  -0.00    -0.00  -0.00   0.00
   3   6     0.00  -0.00  -0.00    -0.00  -0.00  -0.00     0.00   0.00   0.00
   4   6    -0.00  -0.00   0.00    -0.00  -0.00  -0.00     0.00  -0.00   0.00
   5   6    -0.00  -0.00   0.00    -0.00  -0.00   0.00    -0.00  -0.00   0.00
   6   6     0.00  -0.00   0.00    -0.00   0.00  -0.00    -0.00   0.00   0.00
   7   6    -0.00  -0.00  -0.00     0.00   0.00  -0.00    -0.00   0.00   0.00
   8   6    -0.00  -0.00  -0.00     0.01   0.01   0.00    -0.00   0.00  -0.00
   9   8     0.00  -0.00   0.00     0.00  -0.00  -0.00     0.00   0.00  -0.00
  10   6     0.00  -0.00  -0.00     0.00   0.00  -0.00    -0.00   0.00   0.00
  11   6     0.00   0.00   0.00    -0.18  -0.10  -0.05    -0.00   0.00  -0.00
  12   6    -0.01  -0.00   0.01    -0.00   0.00   0.00     0.01  -0.00   0.01
  13   6     0.12   0.04  -0.18     0.00   0.00  -0.00     0.22   0.02   0.22
  14   1     0.00   0.00   0.01    -0.00  -0.00   0.00    -0.00  -0.00  -0.01
  15   8    -0.00  -0.00   0.00    -0.00  -0.00  -0.00    -0.00   0.00  -0.00
  16   6     0.00  -0.00   0.00     0.00  -0.00   0.00     0.01   0.00  -0.00
  17   1    -0.00   0.00  -0.00     0.00  -0.00   0.00     0.00  -0.00   0.00
  18   1     0.00   0.00   0.00    -0.00  -0.00   0.00    -0.00  -0.00  -0.00
  19   1    -0.00  -0.00  -0.00     0.00   0.00   0.00    -0.00   0.00  -0.00
  20   1     0.00   0.00   0.00     0.00   0.00  -0.00     0.00   0.00  -0.00
  21   1     0.00   0.00  -0.00     0.00   0.00  -0.01     0.00   0.00  -0.00
  22   1    -0.00   0.00  -0.00    -0.00  -0.00  -0.00     0.00  -0.00   0.00
  23   1     0.00  -0.00   0.00     0.00  -0.00   0.00     0.00  -0.00   0.00
  24   1    -0.00   0.00   0.00    -0.00   0.00   0.01    -0.00  -0.00  -0.00
  25   1     0.00   0.00  -0.00    -0.00   0.00   0.00    -0.00  -0.00   0.00
  26   1    -0.00  -0.00   0.00    -0.00   0.00   0.00     0.00   0.00  -0.00
  27   1    -0.00   0.00   0.00     0.00  -0.00   0.00     0.00  -0.00  -0.00
  28   1    -0.00   0.00  -0.01     0.23  -0.12   0.60     0.00  -0.00   0.01
  29   1    -0.00  -0.00   0.00     0.35   0.45  -0.45    -0.00  -0.00   0.00
  30   1    -0.50  -0.07  -0.21    -0.00  -0.00  -0.00    -0.74  -0.11  -0.26
  31   1     0.12  -0.07   0.79     0.00  -0.00   0.01    -0.04   0.05  -0.52
  32   1     0.00  -0.00  -0.00     0.00   0.00  -0.00    -0.00   0.00   0.00
  33   1    -0.01   0.00  -0.00    -0.00   0.00  -0.00    -0.03   0.00  -0.01
  34   1     0.01   0.01  -0.01     0.00   0.00  -0.00    -0.01  -0.01   0.01
  35   1     0.00  -0.00  -0.00     0.00  -0.00  -0.00     0.00  -0.00  -0.00
                     97                     98                     99
                        a                      a                      a 
 Frequencies --  3119.2376              3488.1608              3528.6810
 Red. masses --     2.0917                 1.8780                 1.8731
 Frc consts  --     0.0000                 0.0000                 0.0000
 IR Inten    --    63.2434                68.3474                21.5411
 Raman Activ --     0.0000                 0.0000                 0.0000
 Depolar     --     0.0000                 0.0000                 0.0000
 Atom AN      X      Y      Z        X      Y      Z        X      Y      Z
   1   6    -0.00  -0.00   0.00    -0.00   0.00  -0.00    -0.00   0.00  -0.00
   2   6    -0.00   0.00   0.00    -0.00  -0.00   0.00     0.00  -0.00   0.00
   3   6    -0.00  -0.00  -0.00     0.00   0.00   0.00     0.00   0.00   0.00
   4   6    -0.00  -0.00  -0.00     0.00   0.00   0.00    -0.00  -0.00   0.00
   5   6    -0.00   0.00  -0.00     0.00   0.00  -0.00     0.00   0.00  -0.00
   6   6     0.00  -0.00   0.00     0.00  -0.00   0.00    -0.00   0.00   0.00
   7   6    -0.00   0.00   0.00    -0.00  -0.00   0.00     0.00  -0.00   0.00
   8   6    -0.00  -0.01   0.01    -0.00  -0.00  -0.00    -0.00  -0.00   0.00
   9   8     0.00   0.00  -0.00    -0.01  -0.00   0.01    -0.15  -0.06   0.18
  10   6    -0.00  -0.00   0.00    -0.00   0.00   0.01     0.00  -0.00  -0.00
  11   6    -0.01  -0.14   0.28     0.00   0.00   0.00    -0.00  -0.00   0.00
  12   6     0.00   0.00   0.00    -0.00  -0.00   0.00     0.00  -0.00   0.00
  13   6     0.00   0.00   0.00    -0.00  -0.00   0.00     0.00   0.00   0.00
  14   1     0.00   0.00  -0.00     0.00  -0.00  -0.00    -0.00   0.00  -0.00
  15   8    -0.00  -0.00  -0.00    -0.17   0.04   0.17     0.01  -0.00  -0.01
  16   6    -0.00   0.00  -0.00    -0.00  -0.00  -0.00     0.00  -0.00  -0.00
  17   1    -0.00   0.00  -0.00     0.00  -0.00  -0.00     0.00  -0.00  -0.00
  18   1     0.00   0.00   0.00    -0.00  -0.00  -0.00    -0.00  -0.00  -0.00
  19   1    -0.00  -0.00  -0.00    -0.00   0.00  -0.00     0.00   0.00   0.00
  20   1     0.00   0.00   0.00    -0.00  -0.00  -0.00    -0.00  -0.00  -0.00
  21   1     0.00   0.00  -0.01    -0.00  -0.00   0.00     0.00   0.00   0.00
  22   1    -0.00   0.00  -0.00    -0.00  -0.00  -0.00     0.00  -0.00   0.00
  23   1    -0.00   0.01   0.00     0.00   0.00  -0.00    -0.00   0.00  -0.00
  24   1     0.00  -0.00  -0.01     0.00  -0.00  -0.00     0.00  -0.00  -0.00
  25   1    -0.00  -0.00   0.00     0.04   0.01  -0.05     0.60   0.21  -0.73
  26   1     0.00  -0.00  -0.00     0.01  -0.00  -0.01    -0.00   0.00   0.00
  27   1    -0.00   0.00  -0.00     0.00   0.00  -0.00    -0.00   0.00  -0.00
  28   1    -0.28   0.10  -0.64    -0.00   0.00  -0.00    -0.00   0.00  -0.00
  29   1     0.33   0.40  -0.36    -0.00  -0.00   0.00     0.00   0.00  -0.00
  30   1    -0.01  -0.00  -0.00     0.00   0.00   0.00    -0.00  -0.00  -0.00
  31   1    -0.00   0.00  -0.00    -0.00   0.00  -0.00    -0.00   0.00  -0.00
  32   1    -0.00  -0.00   0.00     0.65  -0.15  -0.70    -0.04   0.01   0.05
  33   1     0.00  -0.00  -0.00     0.00  -0.00  -0.00     0.00   0.00  -0.00
  34   1    -0.00  -0.00   0.00    -0.00  -0.00  -0.00    -0.00   0.00   0.00
  35   1     0.00  -0.00  -0.00    -0.00   0.00  -0.00    -0.00  -0.00   0.00
