%mem=36GB
%nprocs=18
# wB97XD/6-31G* nmr g09default scf=noincore
scrf(solvent=chloroform)

Template file

  0  1
C      0.09557500    0.57834100    2.57664100
C      1.59181400    0.84051900    2.37748700
C     -2.30215900   -3.22404600   -0.17843200
C     -3.31193400   -2.76249300    0.66275300
C     -3.23227100   -1.48859100    1.19832900
C     -2.15425900   -0.64530200    0.89523100
C     -1.14423400   -1.09100200    0.01942600
C     -1.23694500   -2.38845100   -0.48615700
N     -2.12136500    0.63765000    1.44776300
C     -0.81517300    1.27032400    1.54300500
C     -0.21738400    1.27738900    0.11268600
C      0.02390800   -0.18632100   -0.36483100
C      1.18293800    1.87991100    0.16847200
C      1.97498900    0.76718900    0.88227200
C      1.39246400   -0.55944200    0.31736100
C      3.44947500    0.92704200    0.70822300
C      4.21871000    0.03525200    0.09867200
C      3.68753600   -1.24393700   -0.45929700
N      2.21973700   -1.22425000   -0.76981200
C      1.88550600   -0.42777100   -1.99516300
C      0.37948700   -0.23785100   -1.89211500
O      1.79780600   -2.52386500   -0.95113500
H      1.30504300   -1.32439300    1.08009500
C     -1.16475300    2.12591900   -0.72172100
O     -1.17536200    3.33686200   -0.66817900
O     -2.00247200    1.41873200   -1.48421700
C     -2.98934100    2.16449400   -2.22211500
H     -0.21394700    0.89032500    3.57613100
H     -0.09247900   -0.49510700    2.52133800
H      1.86841700    1.82945400    2.75125600
H      2.17054900    0.10797000    2.94423200
H     -2.33954300   -4.22674000   -0.58474300
H     -4.15295000   -3.39792900    0.91266600
H     -4.00659900   -1.12727000    1.86600700
H     -0.41853600   -2.74823100   -1.09546400
H     -2.69403000    0.74117000    2.27289100
H     -0.96706600    2.31201000    1.82796700
H      1.21271300    2.82088300    0.71562100
H      1.56424500    2.07326200   -0.83337500
H      3.88208700    1.83959000    1.10572500
H      5.28593300    0.19759700    0.00125800
H      4.18234200   -1.52780700   -1.38698200
H      3.80755300   -2.07389000    0.23707300
H      2.43399100    0.51296000   -1.96395300
H      2.20438100   -1.01372900   -2.85163600
H     -0.13538100   -1.07042600   -2.35832700
H      0.07194200    0.66501500   -2.41096600
H     -3.62450600    2.72446000   -1.53724400
H     -2.50696800    2.85146400   -2.91601800
H     -3.56888800    1.42043800   -2.75956600


