      -----------------------------------------------------------      
     |                   =====================                   |     
     |                           x T B                           |     
     |                   =====================                   |     
     |                         S. Grimme                         |     
     |          Mulliken Center for Theoretical Chemistry        |     
     |                    University of Bonn                     |     
      -----------------------------------------------------------      

   * xtb version 6.7.1 (edcfbbe) compiled by 'albert@albert-system' on 2024-07-22

   xtb is free software: you can redistribute it and/or modify it under
   the terms of the GNU Lesser General Public License as published by
   the Free Software Foundation, either version 3 of the License, or
   (at your option) any later version.
   
   xtb is distributed in the hope that it will be useful,
   but WITHOUT ANY WARRANTY; without even the implied warranty of
   MERCHANTABILITY or FITNESS FOR A PARTICULAR PURPOSE.  See the
   GNU Lesser General Public License for more details.
   
   Cite this work as:
   * C. Bannwarth, E. Caldeweyher, S. Ehlert, A. Hansen, P. Pracht,
     J. Seibert, S. Spicher, S. Grimme, WIREs Comput. Mol. Sci., 2020, 11,
     e01493. DOI: 10.1002/wcms.1493
   
   for GFN2-xTB:
   * C. Bannwarth, S. Ehlert and S. Grimme., J. Chem. Theory Comput., 2019,
     15, 1652-1671. DOI: 10.1021/acs.jctc.8b01176
   for GFN1-xTB:
   * S. Grimme, C. Bannwarth, P. Shushkov, J. Chem. Theory Comput., 2017,
     13, 1989-2009. DOI: 10.1021/acs.jctc.7b00118
   for GFN0-xTB:
   * P. Pracht, E. Caldeweyher, S. Ehlert, S. Grimme, ChemRxiv, 2019, preprint.
     DOI: 10.26434/chemrxiv.8326202.v1
   for GFN-FF:
   * S. Spicher and S. Grimme, Angew. Chem. Int. Ed., 2020, 59, 15665-15673.
     DOI: 10.1002/anie.202004239
   
   for ALPB and GBSA implicit solvation:
   * S. Ehlert, M. Stahn, S. Spicher, S. Grimme, J. Chem. Theory Comput.,
     2021, 17, 4250-4261. DOI: 10.1021/acs.jctc.1c00471
   
   for ddCOSMO and CPCM-X implicit solvation:
   * M. Stahn, S. Ehlert, S. Grimme, J. Phys. Chem. A,
     2023, XX, XXXX-XXXX. DOI: 10.1021/acs.jpca.3c04382
   
   for DFT-D4:
   * E. Caldeweyher, C. Bannwarth and S. Grimme, J. Chem. Phys., 2017,
     147, 034112. DOI: 10.1063/1.4993215
   * E. Caldeweyher, S. Ehlert, A. Hansen, H. Neugebauer, S. Spicher,
     C. Bannwarth and S. Grimme, J. Chem. Phys., 2019, 150, 154122.
     DOI: 10.1063/1.5090222
   * E. Caldeweyher, J.-M. Mewes, S. Ehlert and S. Grimme, Phys. Chem. Chem. Phys.
     2020, 22, 8499-8512. DOI: 10.1039/D0CP00502A
   
   for sTDA-xTB:
   * S. Grimme and C. Bannwarth, J. Chem. Phys., 2016, 145, 054103.
     DOI: 10.1063/1.4959605
   
   in the mass-spec context:
   * V. Asgeirsson, C. Bauer and S. Grimme, Chem. Sci., 2017, 8, 4879.
     DOI: 10.1039/c7sc00601b
   * J. Koopman and S. Grimme, ACS Omega 2019, 4, 12, 15120-15133.
     DOI: 10.1021/acsomega.9b02011
   
   for metadynamics refer to:
   * S. Grimme, J. Chem. Theory Comput., 2019, 155, 2847-2862
     DOI: 10.1021/acs.jctc.9b00143
   
   for SPH calculations refer to:
   * S. Spicher and S. Grimme, J. Chem. Theory Comput., 2021, 17, 1701-1714
     DOI: 10.1021/acs.jctc.0c01306
   
   for ONIOM refer to:
   * C. Plett, A. Katbashev, S. Ehlert, S. Grimme, M. Bursch,
     Phys. Chem. Chem. Phys., 2023, 25, 17860-17868. DOI: 10.1039/D3CP02178E
   
   for DIPRO refer to:
   * J. Kohn, N. Gildemeister, S. Grimme, D. Fazzi, A. Hansen,
     J. Chem. Phys., 2023, just accepted.
   
   for PTB refer to:
   * S. Grimme, M. Mueller, A. Hansen, J. Chem. Phys., 2023, 158, 124111.
     DOI: 10.1063/5.0137838
   
   with help from (in alphabetical order)
   P. Atkinson, C. Bannwarth, F. Bohle, G. Brandenburg, E. Caldeweyher
   M. Checinski, S. Dohm, S. Ehlert, S. Ehrlich, I. Gerasimov, C. Hölzer
   A. Katbashev, J. Kohn, J. Koopman, C. Lavigne, S. Lehtola, F. März, M. Müller,
   F. Musil, H. Neugebauer, J. Pisarek, C. Plett, P. Pracht, F. Pultar,
   J. Seibert, P. Shushkov, S. Spicher, M. Stahn, M. Steiner, T. Strunk,
   J. Stückrath, T. Rose, and J. Unsleber
   
 * started run on 2026/08/09 at 16:30:40.863     
   ID    Z sym.   atoms
    1    6 c      1-8, 10-13, 16
    2    8 o      9, 15
    3    1 h      14, 17-35

           -------------------------------------------------
          |                Calculation Setup                |
           -------------------------------------------------

          program call               : /home/dinglab/software/xtb_6.7.1/xtb_dist/bin/xtb coord --opt normal --orca -I opt.inp
          hostname                   : localhost
          coordinate file            : coord
          omp threads                :                    12

           -------------------------------------------------
          |                   Orca driver                   |
           -------------------------------------------------
orca executable           : /home/dinglab/software/orca_6.1.1/orca
orca input file           : inp
orca input line           : 
orca parallel             : true
orca number of threads    : 12
                         * ORCA takes the control...
  ------------------------------------------------------------------------

                                 *****************
                                 * O   R   C   A *
                                 *****************

                                            #,                                       
                                            ###                                      
                                            ####                                     
                                            #####                                    
                                            ######                                   
                                           ########,                                 
                                     ,,################,,,,,                         
                               ,,#################################,,                 
                          ,,##########################################,,             
                       ,#########################################, ''#####,          
                    ,#############################################,,   '####,        
                  ,##################################################,,,,####,       
                ,###########''''           ''''###############################       
              ,#####''   ,,,,##########,,,,          '''####'''          '####       
            ,##' ,,,,###########################,,,                        '##       
           ' ,,###''''                  '''############,,,                           
         ,,##''                                '''############,,,,        ,,,,,,###''
      ,#''                                            '''#######################'''  
     '                                                          ''''####''''         
             ,#######,   #######,   ,#######,      ##                                
            ,#'     '#,  ##    ##  ,#'     '#,    #''#        ,####,    ,#,          
            ##       ##  ##   ,#'  ##            #'  '#       #'       ,# #          
            ##       ##  #######   ##           ,######,      #####,      #          
            '#,     ,#'  ##    ##  '#,     ,#' ,#      #,     #,   #      #          
             '#######'   ##     ##  '#######'  #'      '#     '####' #    #          



                #########################################################
                #                        -***-                          #
                #          Department of theory and spectroscopy        #
                #                                                       #
                #                      Frank Neese                      #
                #                                                       #
                #     Directorship, Architecture, Infrastructure        #
                #                    SHARK, DRIVERS                     #
                #        Core code/Algorithms in most modules           #
                #                                                       #
                #        Max Planck Institute fuer Kohlenforschung      #
                #                Kaiser Wilhelm Platz 1                 #
                #                 D-45470 Muelheim/Ruhr                 #
                #                      Germany                          #
                #                                                       #
                #                  All rights reserved                  #
                #                        -***-                          #
                #########################################################


                         Program Version 6.1.1  -  RELEASE   -
                                (GIT: $487d211c$)
                          ($2025-11-21 10:33:24 +0100$)


 With contributions from (in alphabetic order):
[Max-Planck-Institut fuer Kohlenforschung]                               
  Daniel Aravena         : Magnetic Suceptibility                        
  Michael Atanasov       : Ab Initio Ligand Field Theory (pilot matlab implementation)
  Alexander A. Auer      : GIAO ZORA, VPT2 properties, NMR spectrum      
  Ute Becker             : All parallelization in ORCA, NUMFREQ, NUMCALC 
  Giovanni Bistoni       : ED, misc. LED, open-shell LED, HFLD           
  Dmytro Bykov           : pre 5.0 version of the SCF Hessian            
  Marcos Casanova-Páez   : Triplet and SCS-CIS(D). UHF-(DLPNO)-IP/EA/STEOM-CCSD. UHF-CVS-IP/STEOM-CCSD   
  Vijay G. Chilkuri      : MRCI spin determinant printing, contributions to CSF-ICE 
  Pauline Colinet        : FMM embedding                                 
  Dipayan Datta          : RHF DLPNO-CCSD density                        
  Achintya Kumar Dutta   : EOM-CC, STEOM-CC                              
  Nicolas Foglia         : Exact transition moments, OPA infrastructure, MCD improvements    
  Dmitry Ganyushin       : Spin-Orbit,Spin-Spin,Magnetic field MRCI      
  Miquel Garcia-Rates    : C-PCM and meta-GGA Hessian, CCSD/C-PCM, Gaussian charge scheme 
  Tiago L. C. Gouveia    : GS-ROHF, GS-ROCIS                             
  Yang Guo               : DLPNO-NEVPT2, F12-NEVPT2, CIM, IAO-localization        
  Andreas Hansen         : Spin unrestricted coupled pair/coupled cluster methods 
  Ingolf Harden          : AUTO-CI MPn and infrastructure                
  Benjamin Helmich-Paris : MC-RPA, TRAH-(SCF,CASSCF), AVAS, COSX integrals, SCF dyn. polar., MC-PDFT, srDFT 
  Lee Huntington         : MR-EOM, pCC                                   
  Robert Izsak           : Overlap fitted RIJCOSX, COSX-SCS-MP3, EOM     
  Riya Kayal             : Wick's Theorem for AUTO-CI, AUTO-CI UHF-CCSDT 
  Emily Kempfer          : AUTO-CI RHF CISDT and CCSDT, approximate NEVPT4
  Christian Kollmar      : KDIIS, OOCD, Brueckner-CCSD(T), CCSD density, CASPT2, CASPT2-K, improved NEVPT2 
  Axel Koslowski         : Symmetry handling                             
  Simone Kossmann        : meta-GGA functionals, TD-DFT gradient, OOMP2, (MP2 Hessian; deprecated post 5.0) 
  Lucas Lang             : DCDCAS, Hyperfine gauge corrections, ICE-SOC+SSC
  Marvin Lechner         : AUTO-CI (C++ implementation), FIC-MRCC        
  Spencer Leger          : CASSCF response                               
  Dagmar Lenk            : GEPOL surface, SMD, ORCA-2-JSON               
  Dimitrios Liakos       : Extrapolation schemes; Compound Job, Property file
  Dimitrios Manganas     : Further ROCIS development; embedding schemes. LFT, Crystal Embedding 
  Dimitrios Pantazis     : SARC Basis sets                               
  Anastasios Papadopoulos: AUTO-CI, single reference methods and gradients 
  Taras Petrenko         : pre 6.0 DFT Hessian and TD-DFT gradient,  ECA, NRVS 
  Petra Pikulova         : Analytic Raman intensities                    
  Peter Pinski           : DLPNO-MP2, DLPNO-MP2 Gradient                 
  Shashank Vittal Rao    : ES-AILFT, MagRelax                            
  Christoph Reimann      : Effective Core Potentials                     
  Marius Retegan         : Local ZFS, SOC                                
  Christoph Riplinger    : Optimizer, TS searches, QM/MM, DLPNO-CCSD(T), (RO)-DLPNO pert. Triples 
  Michael Roemelt        : Original ROCIS implementation, recursive CI coupling coefficients
  Masaaki Saitow         : Open-shell DLPNO-CCSD energy and density      
  Barbara Sandhoefer     : DKH picture change effects                    
  Yorick L. A. Schmerwitz: GMF and freeze-and-release deltaSCF, NEB S-IDPP initial path                    
  Kantharuban Sivalingam : CASSCF convergence/infrastructure, NEVPT2, NEVPT3, NEVPT4(SD), FIC-MRCI and CEPA variants
  Bernardo de Souza      : ESD, SOC TD-DFT                               
  Georgi L. Stoychev     : AutoAux, RI-MP2 NMR, DLPNO-MP2 response, X2C  
  Van Anh Tran           : RI-MP2 g-tensors                              
  Willem Van den Heuvel  : Paramagnetic NMR                              
  Zikuan Wang            : NOTCH, Electric field optimization            
  Frank Wennmohs         : Technical directorship and infrastructure     
  Hang Xu                : AUTO-CI-Response properties                   
                                                                         
[FACCTs GmbH]                                                            
  Markus Bursch, Nicolas Foglia, Miquel Garcia-Rates, Ingolf Harden, Hagen Neugebauer, Anastasios Papadopoulos, 
  Christoph Riplinger, Bernardo de Souza, Georgi L. Stoychev                                                    
                                                                 
  APM, various basis sets, CI-OPT, improved COSX, DLPNO-Multilevel,           
  DOCKER, DRACO, updates on ESD, Fragmentator, GOAT, IRC, LR-CPCM, L-BFGS, MBIS, meta-GGA TD-DFT gradient, ML-optimized integration grids, 
  MM, NACMEs, nearIR, NEB, NEB-TS, NL-DFT gradient (VV10), 2- and 3-layer-ONIOM, interface openCOSMO-RS, QMMM,   
  Crystal-QMMM, RESP, rigid body optimization, SF, symmetry and pop. for TD-DFT, various functionals, SOLVATOR                                   
                                                                         
[Other institutions]                                                     
  V. Asgeirsson          : NEB                                           
  Christoph Bannwarth    : sTDA-DFT, sTD-DFT, PBEh-3c, B97-3c, D3        
  Giovanni Bistoni       : ETS/NOCV, ADLD/ADEX, COVALED                  
  Martin Brehm           : Molecular dynamics                            
  Ronald Cardenas        : ETS/NOCV                                      
  Martina Colucci        : COVALED                                       
  Sebastian Ehlert       : rSCAN, r2SCAN, r2SCAN-3c, D4, dhf basis sets  
  Marvin Friede          : D4 for Fr, Ra, Ac-Lr                          
  Lars Goerigk           : TD-DFT with DH, B97 family of functionals     
  Stefan Grimme          : VdW corrections, initial TS optimization, DFT functionals, gCP, sTDA/sTD-DF 
  Waldemar Hujo          : DFT-NL                                        
  H. Jonsson             : NEB                                           
  Holger Kruse           : gCP                                           
  Marcel Mueller         : wB97X-3c, vDZP basis set                      
  Hagen Neugebauer       : wr2SCAN, Native XTB                           
  Gianluca Regni         : ADLD/ADEX                                     
  Tobias Risthaus        : pre 6.0 range-separated hybrid DFT and stability analysis
  Lukas Wittmann         : regularized MP2, r2SCAN double-hybrids, wr2SCAN        
                                                                         
We gratefully acknowledge several colleagues who have allowed us to      
interface, adapt or use parts of their codes:                            
  Ed Valeev, F. Pavosevic, A. Kumar             : LibInt (2-el integral package), F12 methods 
  Garnet Chan, S. Sharma, J. Yang, R. Olivares  : DMRG                   
  Ulf Ekstrom                                   : XCFun DFT Library      
  Mihaly Kallay                                 : mrcc  (arbitrary order and MRCC methods)
  Frank Weinhold                                : gennbo (NPA and NBO analysis)           
  Simon Mueller                                 : openCOSMO-RS                            
  Christopher J. Cramer and Donald G. Truhlar   : smd solvation model                     
  S Lehtola, MJT Oliveira, MAL Marques          : LibXC Library                           
  Liviu Ungur et al                             : ANISO software                          


 Your calculation uses the libint2 library for the computation of 2-el integrals
 For citations please refer to: http://libint.valeyev.net

 Your ORCA version has been built with support for libXC version: 7.0.0
 For citations please refer to: https://libxc.gitlab.io

 This ORCA versions uses:
   CBLAS   interface :  Fast vector & matrix operations
   LAPACKE interface :  Fast linear algebra routines
   SCALAPACK package :  Parallel linear algebra routines
   Shared memory     :  Shared parallel matrices
   BLAS/LAPACK       :  OpenBLAS 0.3.29  USE64BITINT DYNAMIC_ARCH NO_AFFINITY Haswell SINGLE_THREADED
        Core in use  :  Haswell
   Copyright (c) 2011-2014, The OpenBLAS Project


  ***********************************
  * Starting time: Sun Aug  9 16:30:40 2026
  * Host name:     localhost.localdomain
  * Process ID:    2918204
  * Working dir.:  /home/dinglab/calculation/templates/NMR_modules/autohnmr/alpha_diol_screening/CONF4/b3lyp-3c
  ***********************************

NOTE: MaxCore=2500 MB was set to SCF,MP2,MDCI,CIPSI,MRCI,RASCI and CIS
      => If you want to overwrite this, your respective input block should be placed after the MaxCore statement


***************************************
The coordinates will be read from file: inp.xyz
***************************************


Your calculation utilizes the geometrical counterpoise correction gCP
Please cite in your paper:
H.Kruse, S. Grimme J.Chem.Phys., 136, (2012), 154101 
   

Your calculation utilizes the atom-pairwise dispersion correction
with the Becke-Johnson damping scheme (D3BJ)


Warning: RI is on but no J-basis has been assigned. Assigning Def2/J (nothing to worry about!)
================================================================================

----- Orbital basis set information -----
Your calculation utilizes the basis: def2-mSVP

----- AuxJ basis set information -----
Your calculation utilizes the auxiliary basis: def2/J
   H-Rn: F. Weigend, Phys. Chem. Chem. Phys. 8, 1057 (2006).
   Fr-Lr: K. Eichkorn, F. Weigend, O. Treutler, R. Ahlrichs; Theor. Chem. Acc. 97, 119 (1997).

================================================================================
                                        WARNINGS
                       Please study these warnings very carefully!
================================================================================

WARNING: Old DensityContainer found on disk!
         Will remove this file - 
         If you want to keep old densities, please start your calculation with a different basename. 


WARNING: Gradients are needed
  ===> : At least TightSCF should be used for SCF convergence

================================================================================
                                       INPUT FILE
================================================================================
NAME = inp
|  1> ! b3lyp
|  2> ! d3bj ABC
|  3> ! def2-mSVP
|  4> ! GCP(DFT/SV(P))
|  5> ! DEFGRID2
|  6> ! scfconv6
|  7> ! miniprint nopop noautostart
|  8> %MaxCore 2500
|  9> ! ENGRAD
| 10> %pal
| 11>     nprocs 12
| 12> end
| 13> ! CPCM(chloroform)
| 14> * xyzfile 0 1 inp.xyz
| 15> 
| 16>                          ****END OF INPUT****
================================================================================

                     *******************************
                     * Energy+Gradient Calculation *
                     *******************************

---------------------------------
CARTESIAN COORDINATES (ANGSTROEM)
---------------------------------
  C      0.122674   -0.569526    0.425012
  C     -0.975453    0.526704    0.721544
  C     -0.364454    1.957799    0.563542
  C      0.584203    2.141183   -0.644911
  C      1.541428    0.930865   -0.813161
  C      0.687232   -0.339601   -1.010008
  C      1.372464   -0.281264    1.326831
  C      2.266736    0.641052    0.495256
  O      1.437557   -1.458601   -1.513823
  C     -0.366003   -2.019573    0.647216
  C      3.478183    1.091095    0.842886
  C     -2.311750    0.345791   -0.012371
  C     -2.593128    0.870786   -1.216971
  H     -1.210370    0.411981    1.795362
  O     -1.227550   -2.523425   -0.375942
  C     -3.387393   -0.397519    0.758785
  H     -1.177673    2.698094    0.517804
  H      0.202764    2.189384    1.479452
  H      0.017304    2.270735   -1.580833
  H      1.175223    3.061226   -0.507835
  H      2.228719    1.108458   -1.655450
  H     -0.111663   -0.191538   -1.749156
  H      1.906842   -1.216403    1.569030
  H      1.094068    0.167024    2.293977
  H      2.238269   -1.578934   -0.960925
  H     -0.931863   -2.081919    1.591110
  H      0.515003   -2.678026    0.762923
  H      3.929795    0.842368    1.806976
  H      4.064026    1.729712    0.176821
  H     -3.580120    0.740808   -1.667348
  H     -1.879337    1.450717   -1.801586
  H     -0.675739   -2.626329   -1.177261
  H     -4.338161   -0.421824    0.204304
  H     -3.094057   -1.437196    0.968580
  H     -3.571265    0.090025    1.732447

----------------------------
CARTESIAN COORDINATES (A.U.)
----------------------------
  NO LB      ZA    FRAG     MASS         X           Y           Z
   0 C     6.0000    0    12.011    0.231820   -1.076249    0.803156
   1 C     6.0000    0    12.011   -1.843339    0.995327    1.363521
   2 C     6.0000    0    12.011   -0.688718    3.699703    1.064940
   3 C     6.0000    0    12.011    1.103984    4.046249   -1.218705
   4 C     6.0000    0    12.011    2.912876    1.759080   -1.536651
   5 C     6.0000    0    12.011    1.298681   -0.641752   -1.908639
   6 C     6.0000    0    12.011    2.593582   -0.531512    2.507348
   7 C     6.0000    0    12.011    4.283511    1.211413    0.935898
   8 O     8.0000    0    15.999    2.716588   -2.756356   -2.860712
   9 C     6.0000    0    12.011   -0.691646   -3.816439    1.223061
  10 C     6.0000    0    12.011    6.572813    2.061870    1.592823
  11 C     6.0000    0    12.011   -4.368574    0.653451   -0.023377
  12 C     6.0000    0    12.011   -4.900301    1.645547   -2.299742
  13 H     1.0000    0     1.008   -2.287268    0.778531    3.392742
  14 O     8.0000    0    15.999   -2.319733   -4.768582   -0.710428
  15 C     6.0000    0    12.011   -6.401245   -0.751201    1.433896
  16 H     1.0000    0     1.008   -2.225480    5.098658    0.978507
  17 H     1.0000    0     1.008    0.383169    4.137337    2.795759
  18 H     1.0000    0     1.008    0.032700    4.291067   -2.987341
  19 H     1.0000    0     1.008    2.220849    5.784879   -0.959668
  20 H     1.0000    0     1.008    4.211669    2.094681   -3.128346
  21 H     1.0000    0     1.008   -0.211013   -0.361955   -3.305426
  22 H     1.0000    0     1.008    3.603409   -2.298668    2.965037
  23 H     1.0000    0     1.008    2.067490    0.315630    4.334989
  24 H     1.0000    0     1.008    4.229716   -2.983752   -1.815884
  25 H     1.0000    0     1.008   -1.760966   -3.934256    3.006762
  26 H     1.0000    0     1.008    0.973215   -5.060735    1.441716
  27 H     1.0000    0     1.008    7.426236    1.591844    3.414690
  28 H     1.0000    0     1.008    7.679896    3.268682    0.334143
  29 H     1.0000    0     1.008   -6.765447    1.399925   -3.150830
  30 H     1.0000    0     1.008   -3.551432    2.741457   -3.404504
  31 H     1.0000    0     1.008   -1.276961   -4.963043   -2.224700
  32 H     1.0000    0     1.008   -8.197936   -0.797131    0.386079
  33 H     1.0000    0     1.008   -5.846921   -2.715906    1.830352
  34 H     1.0000    0     1.008   -6.748713    0.170123    3.273851



           ************************************************************
           *        Program running with 12 parallel MPI-processes    *
           *              working on a common directory               *
           ************************************************************
------------------------------------------------------------------------------
                   ___                                                        
                  /   \      - P O W E R E D   B Y -                         
                 /     \                                                     
                 |  |  |   _    _      __       _____    __    __             
                 |  |  |  | |  | |    /  \     |  _  \  |  |  /  |          
                  \  \/   | |  | |   /    \    | | | |  |  | /  /          
                 / \  \   | |__| |  /  /\  \   | |_| |  |  |/  /          
                |  |  |   |  __  | /  /__\  \  |    /   |      \           
                |  |  |   | |  | | |   __   |  |    \   |  |\   \          
                \     /   | |  | | |  |  |  |  | |\  \  |  | \   \       
                 \___/    |_|  |_| |__|  |__|  |_| \__\ |__|  \__/        
                                                                              
                      - O R C A' S   B I G   F R I E N D -                    
                                      &                                       
                       - I N T E G R A L  F E E D E R -                       
                                                                              
 v1 FN, 2020, v2 2021, v3 2022-2024                                           
------------------------------------------------------------------------------


----------------------
SHARK INTEGRAL PACKAGE
----------------------

Number of atoms                             ...     35
Number of basis functions                   ...    265
Number of shells                            ...    145
Maximum angular momentum                    ...      2
Integral batch strategy                     ... SHARK/LIBINT Hybrid
RI-J (if used) integral strategy            ... SPLIT-RIJ (Revised 2003 algorithm where possible)
Printlevel                                  ...      1
Contraction scheme used                     ... SEGMENTED contraction
Prescreening option                         ... SCHWARTZ
   Thresh                                   ... 1.000e-10
   Tcut                                     ... 1.000e-11
   Tpresel                                  ... 1.000e-11 
Coulomb Range Separation                    ... NOT USED
Exchange Range Separation                   ... NOT USED
Multipole approximations                    ... NOT USED
Finite Nucleus Model                        ... NOT USED
CABS basis                                  ... NOT available
Auxiliary Coulomb fitting basis             ... AVAILABLE
   # of basis functions in Aux-J            ...    955
   # of shells in Aux-J                     ...    325
   Maximum angular momentum in Aux-J        ...      4
Auxiliary J/K fitting basis                 ... NOT available
Auxiliary Correlation fitting basis         ... NOT available
Auxiliary 'external' fitting basis          ... NOT available

Checking pre-screening integrals            ... done (  0.0 sec) Dimension = 145
   => SHARK Basis and OBASIS are compatible. Storing Pre-screening
Shell pair information
Shell pair cut-off parameter TPreSel        ...   1.0e-11
Total number of shell pairs                 ...     10585
Shell pairs after pre-screening             ...      8875
Total number of primitive shell pairs       ...     38205
Primitive shell pairs kept                  ...     20873
          la=0 lb=0:   3911 shell pairs
          la=1 lb=0:   2756 shell pairs
          la=1 lb=1:    457 shell pairs
          la=2 lb=0:   1218 shell pairs
          la=2 lb=1:    427 shell pairs
          la=2 lb=2:    106 shell pairs

Checking whether 4 symmetric matrices of dimension 265 fit in memory
:Max Core in MB      =   2500.00
 MB in use           =     14.34
 MB left             =   2485.66
 MB needed           =      1.08
 Data fit in memory  = YES
Calculating RI/J V-Matrix + Cholesky decomp.... done (  0.0 sec)
Calculating Nuclear repulsion               ... done (  0.0 sec) ENN=   1110.255717500308 Eh

Diagonalization of the overlap matrix:
Smallest eigenvalue                        ... 1.938e-03
Time for diagonalization                   ...    0.013 sec
Threshold for overlap eigenvalues          ... 1.000e-07
Number of eigenvalues below threshold      ... 0
Time for construction of square roots      ...    0.004 sec
Total time needed                          ...    0.018 sec

-------------------
DFT GRID GENERATION
-------------------

General Integration Accuracy     IntAcc      ... 4.388
Radial Grid Type                 RadialGrid  ... OptM3 with GC (2021)
Angular Grid (max. ang.)         AngularGrid ... 4 (Lebedev-302)
Angular grid pruning method      GridPruning ... 4 (adaptive)
Weight generation scheme         WeightScheme... mBecke (2022)
Basis function cutoff            BFCut       ... 1.0000e-10
Integration weight cutoff        WCut        ... 1.0000e-14
Partially contracted basis set               ... off
Rotationally invariant grid construction     ... off
Angular grids for H and He will be reduced by one unit

Total number of grid points                  ...   152277
Total number of batches                      ...     2400
Average number of points per batch           ...       63
Average number of grid points per atom       ...     4351

--------------------
COSX GRID GENERATION
--------------------

GRIDX 1
-------
General Integration Accuracy     IntAcc      ... 3.816
Radial Grid Type                 RadialGrid  ... OptM3 with GC (2021)
Angular Grid (max. ang.)         AngularGrid ... 1 (Lebedev-50)
Angular grid pruning method      GridPruning ... 4 (adaptive)
Weight generation scheme         WeightScheme... mBecke (2022)
Basis function cutoff            BFCut       ... 1.0000e-10
Integration weight cutoff        WCut        ... 1.0000e-14
Partially contracted basis set               ... on
Rotationally invariant grid construction     ... off
Angular grids for H and He will be reduced by one unit

Total number of grid points                  ...    19391
Total number of batches                      ...      173
Average number of points per batch           ...      112
Average number of grid points per atom       ...      554
UseSFitting                                  ... on

GRIDX 2
-------
General Integration Accuracy     IntAcc      ... 4.020
Radial Grid Type                 RadialGrid  ... OptM3 with GC (2021)
Angular Grid (max. ang.)         AngularGrid ... 2 (Lebedev-110)
Angular grid pruning method      GridPruning ... 4 (adaptive)
Weight generation scheme         WeightScheme... mBecke (2022)
Basis function cutoff            BFCut       ... 1.0000e-10
Integration weight cutoff        WCut        ... 1.0000e-14
Partially contracted basis set               ... on
Rotationally invariant grid construction     ... off
Angular grids for H and He will be reduced by one unit

Total number of grid points                  ...    40636
Total number of batches                      ...      336
Average number of points per batch           ...      120
Average number of grid points per atom       ...     1161
UseSFitting                                  ... on

GRIDX 3
-------
General Integration Accuracy     IntAcc      ... 4.338
Radial Grid Type                 RadialGrid  ... OptM3 with GC (2021)
Angular Grid (max. ang.)         AngularGrid ... 3 (Lebedev-194)
Angular grid pruning method      GridPruning ... 4 (adaptive)
Weight generation scheme         WeightScheme... mBecke (2022)
Basis function cutoff            BFCut       ... 1.0000e-10
Integration weight cutoff        WCut        ... 1.0000e-14
Partially contracted basis set               ... on
Rotationally invariant grid construction     ... off
Angular grids for H and He will be reduced by one unit

Total number of grid points                  ...    88262
Total number of batches                      ...      710
Average number of points per batch           ...      124
Average number of grid points per atom       ...     2522
UseSFitting                                  ... on
Grids setup in   1.7 sec
Initializing property integral containers    ... done (  0.0 sec)

SHARK setup successfully completed in   1.9 seconds

Maximum memory used throughout the entire STARTUP-calculation: 40.7 MB


           ************************************************************
           *        Program running with 12 parallel MPI-processes    *
           *              working on a common directory               *
           ************************************************************
Loading Hartree-Fock densities                     ... done
Calculating cut-offs                               ... done
Initializing the effective Hamiltonian             ... done
Setting up the integral package (SHARK)            ... done
Starting the Coulomb interaction                   ... done (   0.1 sec)
Making the grid                                    ... done (   0.2 sec)
Mapping shells                                     ... done
Starting the XC term evaluation                    ... done (   0.1 sec)
  promolecular density results
     # of electrons  =    113.986425588
     EX              =    -89.144347021
     EC              =     -3.804297698
     EX+EC           =    -92.948644719
Transforming the Hamiltonian                       ... done (   0.0 sec)
Diagonalizing the Hamiltonian                      ... done (   0.0 sec)
Back transforming the eigenvectors                 ... done (   0.0 sec)
Now organizing SCF variables                       ... done
             **** ENERGY FILE WAS UPDATED (inp.en.tmp) ****
Finished Guess after   0.6 sec
Maximum memory used throughout the entire GUESS-calculation: 17.7 MB


           ************************************************************
           *        Program running with 12 parallel MPI-processes    *
           *              working on a common directory               *
           ************************************************************
--------------------
CPCM SOLVATION MODEL
--------------------
CPCM parameters:
  Epsilon                                         ...       4.8030
  Refrac                                          ...       1.4459
  Rsolv                                           ...       1.3000
  Surface type                                    ... GAUSSIAN VDW
  Discretization scheme                           ... Constant charge density
    Threshold for H atoms                         ...       5.0000 (charges/Ang^2)
    Threshold for non-H atoms                     ...       5.0000 (charges/Ang^2)
  Epsilon function type                           ...         CPCM
Solvent:                                          ... CHLOROFORM
Radii:
  Scheme                                          ... Element-dependent radii
  Radius for C  used is    3.8550 Bohr (=   2.0400 Ang.)
  Radius for O  used is    3.4469 Bohr (=   1.8240 Ang.)
  Radius for H  used is    2.4944 Bohr (=   1.3200 Ang.)
Calculating surface                               ...        done! (  0.0s)
Cavity surface points                             ...         2563
Cavity Volume                                     ...    1809.3205
Cavity Surface-area                               ...     907.5426
Calculating surface distance matrix               ...        done! (  0.1s)
Performing Cholesky decomposition & store         ...        done! (  0.2s)
Overall time for CPCM initialization              ...                 0.3s

----------------------------------------D-I-I-S--------------------------------------------
Iteration    Energy (Eh)           Delta-E    RMSDP     MaxDP     DIISErr   Damp  Time(sec)
-------------------------------------------------------------------------------------------
               ***  Starting incremental Fock matrix formation  ***
    1    -656.9459127108020766     0.00e+00  8.76e-03  7.13e-02  2.34e-01  0.700   2.3
    2    -657.1353861936045178    -1.89e-01  6.32e-03  3.99e-02  1.02e-01  0.700   1.3
                               ***Turning on AO-DIIS***
    3    -657.2142462991851062    -7.89e-02  2.53e-03  1.59e-02  3.77e-02  0.700   1.3
    4    -657.2603604493508556    -4.61e-02  4.27e-03  2.39e-02  1.87e-02  0.000   1.2
    5    -657.3603492627007654    -1.00e-01  8.08e-04  4.66e-03  4.99e-03  0.000   1.3
                              *** Initializing SOSCF ***
---------------------------------------S-O-S-C-F--------------------------------------
Iteration    Energy (Eh)           Delta-E    RMSDP     MaxDP     MaxGrad    Time(sec)
--------------------------------------------------------------------------------------
    6    -657.3606846092077376    -3.35e-04  2.71e-04  1.76e-03  1.01e-03     1.2
               *** Restarting incremental Fock matrix formation ***
    7    -657.3606551964471691     2.94e-05  1.70e-04  1.43e-03  3.47e-04     2.2
    8    -657.3606499084455663     5.29e-06  9.26e-05  8.43e-04  6.60e-04     1.5
    9    -657.3606588666607422    -8.96e-06  1.47e-05  1.35e-04  3.23e-05     1.4
                  *** Gradient check signals convergence ***

               *****************************************************
               *                     SUCCESS                       *
               *           SCF CONVERGED AFTER   9 CYCLES          *
               *****************************************************

Recomputing exchange energy using gridx3       ... done (    2.959 sec)
Old exchange energy                            :    -18.195250754 Eh
New exchange energy                            :    -18.195316160 Eh
Exchange energy change after final integration :     -0.000065406 Eh
Total energy after final integration           :   -657.360724196 Eh
             **** ENERGY FILE WAS UPDATED (inp.en.tmp) ****

----------------
TOTAL SCF ENERGY
----------------

Total Energy       :       -657.36072419632353 Eh          -17887.69470 eV

Components:
Nuclear Repulsion  :       1110.25571750030826 Eh           30211.59400 eV
Electronic Energy  :      -1767.60552822523005 Eh          -48098.99173 eV
One Electron Energy:      -3097.65872109614156 Eh          -84291.57910 eV
Two Electron Energy:       1330.05319287091152 Eh           36192.58737 eV
CPCM Dielectric    :         -0.01084806566773 Eh              -0.29519 eV

Virial components:
Potential Energy   :      -1309.67795187060142 Eh          -35638.14888 eV
Kinetic Energy     :        652.31722767427789 Eh           17750.45418 eV
Virial Ratio       :          2.00773166230797

DFT components:
N(Alpha)           :       56.999987280695 electrons
N(Beta)            :       56.999987280695 electrons
N(Total)           :      113.999974561390 electrons
E(X)               :      -72.170771459687 Eh       
E(C)               :       -4.481711851469 Eh       
E(XC)              :      -76.652483311156 Eh       

CPCM Solvation Model Properties:
Surface-charge          :         -0.02207973331057
Corrected charge        :         -0.00000000000000
Outlying charge corr.   :          0.00002413258181 Eh               0.00066 eV
Free-energy (cav+disp)  :  This term is not implemented in the current solvation scheme

---------------
SCF CONVERGENCE
---------------

  Last Energy change         ...    8.9582e-06  Tolerance :   1.0000e-06
  Last MAX-Density change    ...    1.3456e-04  Tolerance :   1.0000e-07
  Last RMS-Density change    ...    1.4715e-05  Tolerance :   5.0000e-09
  Last DIIS Error            ...    1.0115e-03  Tolerance :   1.0000e-06
  Last Orbital Gradient      ...    3.2321e-05  Tolerance :   3.3300e-04
  Last Orbital Rotation      ...    1.0801e-04  Tolerance :   3.3300e-04


----------------
ORBITAL ENERGIES
----------------

  NO   OCC          E(Eh)            E(eV) 
   0   2.0000     -19.134786      -520.6840 
   1   2.0000     -19.122531      -520.3505 
   2   2.0000     -10.220870      -278.1240 
   3   2.0000     -10.214296      -277.9451 
   4   2.0000     -10.187211      -277.2081 
   5   2.0000     -10.186894      -277.1995 
   6   2.0000     -10.184160      -277.1251 
   7   2.0000     -10.183588      -277.1095 
   8   2.0000     -10.179080      -276.9868 
   9   2.0000     -10.176633      -276.9203 
  10   2.0000     -10.173635      -276.8387 
  11   2.0000     -10.170228      -276.7460 
  12   2.0000     -10.165110      -276.6067 
  13   2.0000     -10.161843      -276.5178 
  14   2.0000     -10.156841      -276.3817 
  15   2.0000      -1.012436       -27.5498 
  16   2.0000      -0.997212       -27.1355 
  17   2.0000      -0.854888       -23.2627 
  18   2.0000      -0.797304       -21.6958 
  19   2.0000      -0.759509       -20.6673 
  20   2.0000      -0.751319       -20.4444 
  21   2.0000      -0.713931       -19.4271 
  22   2.0000      -0.670291       -18.2396 
  23   2.0000      -0.664950       -18.0942 
  24   2.0000      -0.662724       -18.0336 
  25   2.0000      -0.613885       -16.7047 
  26   2.0000      -0.583387       -15.8748 
  27   2.0000      -0.555071       -15.1042 
  28   2.0000      -0.522515       -14.2184 
  29   2.0000      -0.509579       -13.8663 
  30   2.0000      -0.502865       -13.6836 
  31   2.0000      -0.478958       -13.0331 
  32   2.0000      -0.461353       -12.5541 
  33   2.0000      -0.454962       -12.3801 
  34   2.0000      -0.437727       -11.9111 
  35   2.0000      -0.430413       -11.7121 
  36   2.0000      -0.425105       -11.5677 
  37   2.0000      -0.415830       -11.3153 
  38   2.0000      -0.402580       -10.9547 
  39   2.0000      -0.400971       -10.9110 
  40   2.0000      -0.390766       -10.6333 
  41   2.0000      -0.387697       -10.5498 
  42   2.0000      -0.379095       -10.3157 
  43   2.0000      -0.373531       -10.1643 
  44   2.0000      -0.369953       -10.0669 
  45   2.0000      -0.352174        -9.5832 
  46   2.0000      -0.347172        -9.4470 
  47   2.0000      -0.329580        -8.9683 
  48   2.0000      -0.325186        -8.8488 
  49   2.0000      -0.317660        -8.6440 
  50   2.0000      -0.311175        -8.4675 
  51   2.0000      -0.302876        -8.2417 
  52   2.0000      -0.292184        -7.9507 
  53   2.0000      -0.264936        -7.2093 
  54   2.0000      -0.252987        -6.8841 
  55   2.0000      -0.240905        -6.5554 
  56   2.0000      -0.232057        -6.3146 
  57   0.0000       0.009999         0.2721 
  58   0.0000       0.024687         0.6718 
  59   0.0000       0.082698         2.2503 
  60   0.0000       0.099567         2.7094 
  61   0.0000       0.117256         3.1907 
  62   0.0000       0.123956         3.3730 
  63   0.0000       0.141819         3.8591 
  64   0.0000       0.144125         3.9218 
  65   0.0000       0.149650         4.0722 
  66   0.0000       0.155600         4.2341 
  67   0.0000       0.160028         4.3546 
*Only the first 10 virtual orbitals were printed.
Total SCF time: 0 days 0 hours 0 min 18 sec 
Finished LeanSCF after  18.4 sec

Maximum memory used throughout the entire LEANSCF-calculation: 31.6 MB


-------------------------------------------------------------------------------
                          DFT DISPERSION CORRECTION                            
                                                                               
                              DFTD3 V3.1  Rev 1                                
                          USING Becke-Johnson damping                          
-------------------------------------------------------------------------------
-------------------------   ----------------
Dispersion correction           -0.074338330
-------------------------   ----------------

NOTIFICATION: Different basis set in ORCA and otool_gcp:
ORCA: 265  gCP: 250 
If you are NOT using ECPs, check your basis set inputs!
------------------   -----------------
gCP correction             0.162455312
------------------   -----------------

-------------------------   --------------------
FINAL SINGLE POINT ENERGY      -657.272607213535
-------------------------   --------------------



           ************************************************************
           *        Program running with 12 parallel MPI-processes    *
           *              working on a common directory               *
           ************************************************************
------------------------------------------------------------------------------
                         ORCA SCF GRADIENT CALCULATION
------------------------------------------------------------------------------

Nuc. rep. gradient        (SHARK) ... done (  0.0 sec)
HCore & Overlap gradient  (SHARK) ... done (  0.1 sec)
Split-RIJ-J gradient      (SHARK) ... done (  0.6 sec)
COSX-gradient                     ... done (  7.3 sec)
XC gradient                       ... done (  2.2 sec)
CPCM gradient                     ... done (  0.7 sec)
Dispersion correction             ... done (  0.0 sec)

-------------------
DISPERSION GRADIENT
-------------------

   1   C   :    0.000280826   -0.000501994    0.000305755
   2   C   :   -0.000503375    0.000372183    0.000505550
   3   C   :   -0.000216924    0.000984499    0.000338421
   4   C   :    0.000230220    0.000959337   -0.000376331
   5   C   :    0.000609269    0.000316881   -0.000553187
   6   C   :    0.000612316   -0.000314107   -0.000695097
   7   C   :    0.000552272   -0.000270295    0.000739935
   8   C   :    0.000809034    0.000092582    0.000141405
   9   O   :    0.000375057   -0.000504945   -0.000706937
  10   C   :   -0.000041869   -0.001143935    0.000290874
  11   C   :    0.001192149    0.000274075    0.000368943
  12   C   :   -0.001255016    0.000230918    0.000028425
  13   C   :   -0.001130265    0.000354914   -0.000764398
  14   H   :   -0.000211829    0.000134117    0.000481637
  15   O   :   -0.000168368   -0.000955606   -0.000157717
  16   C   :   -0.000929940   -0.000039560    0.000235659
  17   H   :   -0.000110645    0.000499097    0.000175249
  18   H   :   -0.000123263    0.000476905    0.000360705
  19   H   :    0.000066738    0.000456970   -0.000367388
  20   H   :    0.000033057    0.000500575   -0.000153419
  21   H   :    0.000257376    0.000148924   -0.000401755
  22   H   :    0.000067632   -0.000135996   -0.000625942
  23   H   :    0.000254000   -0.000277965    0.000388712
  24   H   :    0.000143444   -0.000047566    0.000573883
  25   H   :    0.000324199   -0.000352560   -0.000326507
  26   H   :   -0.000057089   -0.000477083    0.000289692
  27   H   :   -0.000005083   -0.000481049    0.000151632
  28   H   :    0.000309095    0.000077175    0.000137960
  29   H   :    0.000362429    0.000110804    0.000054285
  30   H   :   -0.000217784    0.000081613   -0.000248468
  31   H   :   -0.000368208    0.000184832   -0.000422590
  32   H   :   -0.000087529   -0.000470619   -0.000229674
  33   H   :   -0.000296941   -0.000063852    0.000047239
  34   H   :   -0.000418856   -0.000191219    0.000176849
  35   H   :   -0.000336130   -0.000028051    0.000236599

Difference to translation invariance:
           :    0.0000000000    0.0000000000    0.0000000000

Difference to rotation invariance:
           :    0.0000000000    0.0000000000   -0.0000000000

Norm of the Dispersion gradient    ...    0.0046268198
RMS gradient                       ...    0.0004515314
MAX gradient                       ...    0.0012550160
gCP correction                   ... done

------------------
CARTESIAN GRADIENT
------------------

   1   C   :   -0.000165111    0.000350593    0.000225921
   2   C   :    0.000200906   -0.000159988   -0.000527196
   3   C   :   -0.000086463   -0.000283653    0.000044566
   4   C   :    0.000186007   -0.000242251    0.000079063
   5   C   :   -0.000037048    0.000074333    0.000224208
   6   C   :    0.000241111   -0.000412796   -0.000110922
   7   C   :   -0.000186917    0.000055449   -0.000511161
   8   C   :   -0.000622369   -0.000257141   -0.000237063
   9   O   :   -0.000305636    0.000380102    0.000082885
  10   C   :   -0.000379008   -0.000009823   -0.000555647
  11   C   :    0.000296850    0.000290039    0.000078419
  12   C   :    0.000122499   -0.000122568    0.000288123
  13   C   :    0.000148728   -0.000009855   -0.000053296
  14   H   :    0.000014554   -0.000048877    0.000149963
  15   O   :    0.000663333    0.000370196   -0.000826870
  16   C   :    0.000467001    0.000270591   -0.000213456
  17   H   :   -0.000094126    0.000027311    0.000044138
  18   H   :    0.000085382    0.000111816    0.000061872
  19   H   :   -0.000068586   -0.000037525   -0.000052175
  20   H   :   -0.000039784    0.000026571   -0.000137206
  21   H   :    0.000048342   -0.000024574   -0.000089662
  22   H   :   -0.000147570    0.000000570   -0.000018705
  23   H   :    0.000062576   -0.000123775    0.000153061
  24   H   :   -0.000070354    0.000039728    0.000159868
  25   H   :    0.000148570   -0.000028566    0.000217445
  26   H   :    0.000051540   -0.000133349    0.000257424
  27   H   :    0.000148854   -0.000065934   -0.000006520
  28   H   :   -0.000052186   -0.000114415    0.000216999
  29   H   :    0.000061396    0.000108049   -0.000127819
  30   H   :   -0.000061613    0.000025420    0.000152339
  31   H   :    0.000103539    0.000184909   -0.000109467
  32   H   :   -0.000441853   -0.000139165    0.000946182
  33   H   :   -0.000532485    0.000035796   -0.000214963
  34   H   :    0.000140031   -0.000334682    0.000054086
  35   H   :    0.000099893    0.000197465    0.000355568

Difference to translation invariance:
           :   -0.0000000000   -0.0000000000   -0.0000000000

Difference to rotation invariance:
           :   -0.0000073306    0.0001747667   -0.0008070247

Norm of the Cartesian gradient     ...    0.0026008616
RMS gradient                       ...    0.0002538181
MAX gradient                       ...    0.0009461824

-------
TIMINGS
-------

Total SCF gradient time     ....       10.991 sec

Densities                   ....       0.001 sec  (  0.0%)
One electron gradient       ....       0.149 sec  (  1.4%)
RI-J Coulomb gradient       ....       0.570 sec  (  5.2%)
COSX gradient               ....       7.330 sec  ( 66.7%)
XC gradient                 ....       2.216 sec  ( 20.2%)
CPCM gradient               ....       0.657 sec  (  6.0%)
   A-Matrix (El+Nuc)        ....       0.024 sec  (  0.2%)
   Potential                ....       0.632 sec  (  5.8%)

Maximum memory used throughout the entire SCFGRAD-calculation: 37.8 MB


           ************************************************************
           *        Program running with 12 parallel MPI-processes    *
           *              working on a common directory               *
           ************************************************************

------------------------------------------------------------------------------
                              ORCA PROPERTY CALCULATIONS
------------------------------------------------------------------------------

GBWName                                 ... inp.gbw
Number of atoms                         ...     35
Number of basis functions               ...    265
Max core memory                         ...   2500 MB

Electric properties:
Dipole moment                           ... YES
Quadrupole moment                       ...  NO
Static polarizability (Dipole/Dipole)   ...  NO
Static polarizability (Dipole/Quad.)    ...  NO
Static polarizability (Quad./Quad.)     ...  NO
Static polarizability (Velocity)        ...  NO
Static hyperpolarizability              ...  NO

Atomic electric properties:
Dipole moment                           ...  NO
Quadrupole moment                       ...  NO
Static polarizability                   ...  NO

Choice of electric origin               ... Center of mass
Position of electric origin             ...     0.007199    -0.002871    -0.012509

General magnetic properties:
Magnetizability                         ...  NO

EPR properties:
g-Tensor (aka g-matrix)                 ...  NO
Zero-Field splitting spin-orbit         ...  NO
Zero-field splitting spin-spin          ...  NO
Hyperfine couplings                     ...  NO (   0 nuclei)
Quadrupole couplings                    ...  NO (   0 nuclei)
Contact density                         ...  NO (   0 nuclei)

NMR properties:
Chemical shifts                         ...  NO (   0 nuclei)
Spin-rotation constants                 ...  NO (   0 nuclei)
Spin-spin couplings                     ...  NO (   0 nuclei,    0 pairs)

Choice of magnetic origin               ... GIAO
Position of magnetic origin             ...     0.000000     0.000000     0.000000

Properties with geometric perturbations:
SCF Hessian                             ...  NO
IR spectrum                             ...  NO
VCD spectrum                            ...  NO
X-ray spectroscopy properties:
SCF XES/XAS/RIXS spectra                ...  NO

SCF SOC stabilization energy            ...  NO
Diagonal Born-Oppenheimer correction    ...  NO

-------------
DIPOLE MOMENT
-------------

Method             : SCF
Type of density    : Electron Density
Multiplicity       :   1
Irrep              :   0
Energy             :  -657.3607241963235310 Eh
Basis              : AO
                                X                 Y                 Z
Electronic contribution:      3.887789042      -3.781372429      -3.021000518
Nuclear contribution   :     -3.068998974       4.218062384       3.660019690
                        -----------------------------------------
Total Dipole Moment    :      0.818790068       0.436689955       0.639019173
                        -----------------------------------------
Magnitude (a.u.)       :      1.126703508
Magnitude (Debye)      :      2.863852723



--------------------
Rotational spectrum 
--------------------
 
Rotational constants in cm-1:             0.030364             0.018049             0.014891 
Rotational constants in MHz :           910.278751           541.088381           446.425149 

Dipole components along the rotational axes: 
x,y,z [a.u.] :     0.916798    -0.265445     0.598732 
x,y,z [Debye]:     2.330316    -0.674708     1.521857 

 

Dipole moment calculation done in   0.0 sec 

Maximum memory used throughout the entire PROP-calculation: 16.6 MB

--------------------------------
SUGGESTED CITATIONS FOR THIS RUN
--------------------------------

Below you find a list of papers that are relevant to this ORCA run
We neither can nor want to force you to cite these papers, but we appreciate if you do
You receive ORCA, which is the product of decades of hard work by many enthusiastic individuals, for free
The only thing we kindly ask in return is that you cite our papers,
We deeply appreciate it, if you show your appreciation for ORCA by not just citing the generic ORCA reference.

Please note that relegating all ORCA citations to the supporting information does *not* help us.
SI sections are not indexed - citations you put there will not count into any citation statistics
But we need these citations in order to attract the funding resources that allow us to do what we are doing

Therefore, if you are a happy ORCA user, please consider citing a few of the papers listed below in the main body of your paper

In addition to the list printed below, the program has created the file inp.bibtex that contains the list in bibtex format
You can import this file easily into all common literature databanks and citation aid programs

It goes without saying that in many instances, there are alternative algorithms to achieve similar
results as the ones you have gotten from ORCA. It is, of course, also the case that in some instances
ORCA just re-implements algorithms worked out by others. We are fully aware of that and we are also
fully appreciative of our colleagues work. Hence this citation list should not be read as indicating
that the listed papers, which are focused on our own work, are the only ones worth citing. It simply
meant to make it easier for users to cite ORCA specific papers. It is not a substitute for doing your
own literature research and citing the relevant literature in a scientifically appropriate manner.

List of essential papers. We consider these as the minimum necessary citations

  1. Neese, F.
     Software update: the ORCA program system, version 6.0
     WIRES Comput. Molec. Sci. 2025 15(1), e70019
     doi.org/10.1002/wcms.70019

List of papers to cite with high priority. The work reported in these papers was absolutely
necessary for this run to complete.
Our perspective: the developers of density functionals and basis sets usually get cited in chemistry papers
Good! But without the algorithms to do something with them, the functionals or basis sets would not do anything.
Hence, in our opinion, the algorithm design and method developments papers are equally worthy of getting cited

  1. Neese, F.
     An improvement of the resolution of the identity approximation for the formation of the Coulomb matrix
     J. Comp. Chem. 2003 24(14), 1740-1747
     doi.org/10.1002/jcc.10318
  2. Neese, F.; Wennmohs, F.; Hansen, A.; Becker, U.
     Efficient, approximate and parallel Hartree-Fock and hybrid DFT calculations. A 'chain-of-spheres' algorithm for the Hartree-Fock exchange
     Chem. Phys. 2009 356(1-3), 98-109
     doi.org/10.1016/j.chemphys.2008.10.036
  3. Grimme, S.; Antony, J.; Ehrlich, S.; Krieg, H.
     A consistent and accurate ab initio parametrization of density functional dispersion correction (DFT-D) for the 94 elements H-Pu
     J. Chem. Phys. 2010 132 , 154104
     doi.org/10.1063/1.3382344
  4. Grimme, S.; Ehrlich, S.; Goerigk, L.
     Effect of the damping function in dispersion corrected density functional theory
     J. Comput. Chem. 2011 32(7), 1456-1465
     doi.org/10.1002/jcc.21759
  5. Garcia-Rates, M.; Neese, F.
     Effect of the Solute Cavity on the Solvation Energy and its Derivatives within the Framework of the Gaussian Charge Scheme
     J. Comput. Chem. 2020 41 , 922-939
     doi.org/10.1002/jcc.26139
  6. Helmich-Paris, B.; de Souza, B.; Neese, F.; Izsák, R.
     An improved chain of spheres for exchange algorithm
     J. Chem. Phys. 2021 155(10), 104109
     doi.org/10.1063/5.0058766
  7. Neese, F.
     The SHARK Integral Generation and Digestion System
     J. Comp. Chem. 2022 44(3), 381
     doi.org/10.1002/jcc.26942

List of suggested additional citations. These are papers that are important in the 'surrounding' of 
of this run, or papers that preceded the highly important papers. If you like your results we are grateful for a citation.

  1. Izsak, R.; Neese, F.
     An overlap fitted chain of spheres exchange method
     J. Chem. Phys. 2011 135 , 144105
     doi.org/10.1063/1.3646921
  2. Izsak, R.; Hansen, A.; Neese, F.
     The resolution of identity and chain of spheres approximations for the LPNO-CCSD singles Fock term
     Molec. Phys. 2012 110 , 2413-2417
     doi.org/10.1080/00268976.2012.687466
  3. Neese, F.
     The ORCA program system
     WIRES Comput. Molec. Sci. 2012 2(1), 73-78
     doi.org/10.1002/wcms.81
  4. Izsak, R.; Neese, F.; Klopper, W.
     Robust fitting techniques in the chain of spheres approximation to the Fock exchange: The role of the complementary space
     J. Chem. Phys. 2013 139 , 
     doi.org/10.1063/1.4819264
  5. Neese, F.
     Software update: the ORCA program system, version 4.0
     WIRES Comput. Molec. Sci. 2018 8(1), 1-6
     doi.org/10.1002/wcms.1327
  6. Neese, F.; Wennmohs, F.; Becker, U.; Riplinger, C.
     The ORCA quantum chemistry program package
     J. Chem. Phys. 2020 152(22), 224108
     doi.org/10.1063/5.0004608
  7. Neese, F.
     Software update: The ORCA program system—Version 5.0
     WIRES Comput. Molec. Sci. 2022 12(1), e1606
     doi.org/10.1002/wcms.1606

List of optional additional citations

  1. Neese, F.
     Approximate second-order SCF convergence for spin unrestricted wavefunctions
     Chem. Phys. Lett. 2000 325(1-3), 93-98
     doi.org/10.1016/s0009-2614(00)00662-x

Timings for individual modules:

Sum of individual times          ...       32.997 sec (=   0.550 min)
Startup calculation              ...        2.088 sec (=   0.035 min)   6.3 %
SCF iterations                   ...       19.280 sec (=   0.321 min)  58.4 %
Property calculations            ...        0.291 sec (=   0.005 min)   0.9 %
SCF Gradient evaluation          ...       11.339 sec (=   0.189 min)  34.4 %
                             ****ORCA TERMINATED NORMALLY****
TOTAL RUN TIME: 0 days 0 hours 0 minutes 33 seconds 363 msec
  ------------------------------------------------------------------------
          * successful ORCA run, taking over control again...

         :::::::::::::::::::::::::::::::::::::::::::::::::::::
         ::                  ORCA SUMMARY                   ::
         :::::::::::::::::::::::::::::::::::::::::::::::::::::
         :: total energy            -657.272607213535 Eh    ::
         :: gradient norm              0.002600861553 Eh/a0 ::
         :: HOMO-LUMO gap              0.000000000000 eV    ::
         :::::::::::::::::::::::::::::::::::::::::::::::::::::

      ----------------------------------------------------------- 
     |                       L-ANC optimizer                     |
      ----------------------------------------------------------- 
          low memory version by Sebastian Ehlert

          ...................................................
          :                      SETUP                      :
          :.................................................:
          :   energy convergence        0.5000000E-05 Eh    :
          :   grad. convergence         0.1000000E-02 Eh/a0 :
          :   optimization log               true           :
          :   writing optlog all                1     steps :
          :   Hessian reset                     8     steps :
          :   maximium step len.        1.0000000     a0    :
          :   LBFGS images                      8           :
          ...................................................
 * calculating model hessian...
Using Lindh-Hessian (1995)
 Shifting diagonal of input Hessian by   1.000000000000000E-002
 Lowest  eigenvalues of input Hessian
    0.000000    0.000000    0.000000    0.000000    0.000000    0.000000
    0.011112    0.011856    0.012394    0.013274    0.014690    0.015463
    0.016884    0.017715    0.018164    0.018729    0.019530    0.020079
 Highest eigenvalues
    1.391442    1.406557    1.412719    1.417536    1.808924    1.859199
 

........................................................................
.............................. CYCLE    1 ..............................
........................................................................
                         * ORCA takes the control...
  ------------------------------------------------------------------------

                                 *****************
                                 * O   R   C   A *
                                 *****************

                                            #,                                       
                                            ###                                      
                                            ####                                     
                                            #####                                    
                                            ######                                   
                                           ########,                                 
                                     ,,################,,,,,                         
                               ,,#################################,,                 
                          ,,##########################################,,             
                       ,#########################################, ''#####,          
                    ,#############################################,,   '####,        
                  ,##################################################,,,,####,       
                ,###########''''           ''''###############################       
              ,#####''   ,,,,##########,,,,          '''####'''          '####       
            ,##' ,,,,###########################,,,                        '##       
           ' ,,###''''                  '''############,,,                           
         ,,##''                                '''############,,,,        ,,,,,,###''
      ,#''                                            '''#######################'''  
     '                                                          ''''####''''         
             ,#######,   #######,   ,#######,      ##                                
            ,#'     '#,  ##    ##  ,#'     '#,    #''#        ,####,    ,#,          
            ##       ##  ##   ,#'  ##            #'  '#       #'       ,# #          
            ##       ##  #######   ##           ,######,      #####,      #          
            '#,     ,#'  ##    ##  '#,     ,#' ,#      #,     #,   #      #          
             '#######'   ##     ##  '#######'  #'      '#     '####' #    #          



                #########################################################
                #                        -***-                          #
                #          Department of theory and spectroscopy        #
                #                                                       #
                #                      Frank Neese                      #
                #                                                       #
                #     Directorship, Architecture, Infrastructure        #
                #                    SHARK, DRIVERS                     #
                #        Core code/Algorithms in most modules           #
                #                                                       #
                #        Max Planck Institute fuer Kohlenforschung      #
                #                Kaiser Wilhelm Platz 1                 #
                #                 D-45470 Muelheim/Ruhr                 #
                #                      Germany                          #
                #                                                       #
                #                  All rights reserved                  #
                #                        -***-                          #
                #########################################################


                         Program Version 6.1.1  -  RELEASE   -
                                (GIT: $487d211c$)
                          ($2025-11-21 10:33:24 +0100$)


 With contributions from (in alphabetic order):
[Max-Planck-Institut fuer Kohlenforschung]                               
  Daniel Aravena         : Magnetic Suceptibility                        
  Michael Atanasov       : Ab Initio Ligand Field Theory (pilot matlab implementation)
  Alexander A. Auer      : GIAO ZORA, VPT2 properties, NMR spectrum      
  Ute Becker             : All parallelization in ORCA, NUMFREQ, NUMCALC 
  Giovanni Bistoni       : ED, misc. LED, open-shell LED, HFLD           
  Dmytro Bykov           : pre 5.0 version of the SCF Hessian            
  Marcos Casanova-Páez   : Triplet and SCS-CIS(D). UHF-(DLPNO)-IP/EA/STEOM-CCSD. UHF-CVS-IP/STEOM-CCSD   
  Vijay G. Chilkuri      : MRCI spin determinant printing, contributions to CSF-ICE 
  Pauline Colinet        : FMM embedding                                 
  Dipayan Datta          : RHF DLPNO-CCSD density                        
  Achintya Kumar Dutta   : EOM-CC, STEOM-CC                              
  Nicolas Foglia         : Exact transition moments, OPA infrastructure, MCD improvements    
  Dmitry Ganyushin       : Spin-Orbit,Spin-Spin,Magnetic field MRCI      
  Miquel Garcia-Rates    : C-PCM and meta-GGA Hessian, CCSD/C-PCM, Gaussian charge scheme 
  Tiago L. C. Gouveia    : GS-ROHF, GS-ROCIS                             
  Yang Guo               : DLPNO-NEVPT2, F12-NEVPT2, CIM, IAO-localization        
  Andreas Hansen         : Spin unrestricted coupled pair/coupled cluster methods 
  Ingolf Harden          : AUTO-CI MPn and infrastructure                
  Benjamin Helmich-Paris : MC-RPA, TRAH-(SCF,CASSCF), AVAS, COSX integrals, SCF dyn. polar., MC-PDFT, srDFT 
  Lee Huntington         : MR-EOM, pCC                                   
  Robert Izsak           : Overlap fitted RIJCOSX, COSX-SCS-MP3, EOM     
  Riya Kayal             : Wick's Theorem for AUTO-CI, AUTO-CI UHF-CCSDT 
  Emily Kempfer          : AUTO-CI RHF CISDT and CCSDT, approximate NEVPT4
  Christian Kollmar      : KDIIS, OOCD, Brueckner-CCSD(T), CCSD density, CASPT2, CASPT2-K, improved NEVPT2 
  Axel Koslowski         : Symmetry handling                             
  Simone Kossmann        : meta-GGA functionals, TD-DFT gradient, OOMP2, (MP2 Hessian; deprecated post 5.0) 
  Lucas Lang             : DCDCAS, Hyperfine gauge corrections, ICE-SOC+SSC
  Marvin Lechner         : AUTO-CI (C++ implementation), FIC-MRCC        
  Spencer Leger          : CASSCF response                               
  Dagmar Lenk            : GEPOL surface, SMD, ORCA-2-JSON               
  Dimitrios Liakos       : Extrapolation schemes; Compound Job, Property file
  Dimitrios Manganas     : Further ROCIS development; embedding schemes. LFT, Crystal Embedding 
  Dimitrios Pantazis     : SARC Basis sets                               
  Anastasios Papadopoulos: AUTO-CI, single reference methods and gradients 
  Taras Petrenko         : pre 6.0 DFT Hessian and TD-DFT gradient,  ECA, NRVS 
  Petra Pikulova         : Analytic Raman intensities                    
  Peter Pinski           : DLPNO-MP2, DLPNO-MP2 Gradient                 
  Shashank Vittal Rao    : ES-AILFT, MagRelax                            
  Christoph Reimann      : Effective Core Potentials                     
  Marius Retegan         : Local ZFS, SOC                                
  Christoph Riplinger    : Optimizer, TS searches, QM/MM, DLPNO-CCSD(T), (RO)-DLPNO pert. Triples 
  Michael Roemelt        : Original ROCIS implementation, recursive CI coupling coefficients
  Masaaki Saitow         : Open-shell DLPNO-CCSD energy and density      
  Barbara Sandhoefer     : DKH picture change effects                    
  Yorick L. A. Schmerwitz: GMF and freeze-and-release deltaSCF, NEB S-IDPP initial path                    
  Kantharuban Sivalingam : CASSCF convergence/infrastructure, NEVPT2, NEVPT3, NEVPT4(SD), FIC-MRCI and CEPA variants
  Bernardo de Souza      : ESD, SOC TD-DFT                               
  Georgi L. Stoychev     : AutoAux, RI-MP2 NMR, DLPNO-MP2 response, X2C  
  Van Anh Tran           : RI-MP2 g-tensors                              
  Willem Van den Heuvel  : Paramagnetic NMR                              
  Zikuan Wang            : NOTCH, Electric field optimization            
  Frank Wennmohs         : Technical directorship and infrastructure     
  Hang Xu                : AUTO-CI-Response properties                   
                                                                         
[FACCTs GmbH]                                                            
  Markus Bursch, Nicolas Foglia, Miquel Garcia-Rates, Ingolf Harden, Hagen Neugebauer, Anastasios Papadopoulos, 
  Christoph Riplinger, Bernardo de Souza, Georgi L. Stoychev                                                    
                                                                 
  APM, various basis sets, CI-OPT, improved COSX, DLPNO-Multilevel,           
  DOCKER, DRACO, updates on ESD, Fragmentator, GOAT, IRC, LR-CPCM, L-BFGS, MBIS, meta-GGA TD-DFT gradient, ML-optimized integration grids, 
  MM, NACMEs, nearIR, NEB, NEB-TS, NL-DFT gradient (VV10), 2- and 3-layer-ONIOM, interface openCOSMO-RS, QMMM,   
  Crystal-QMMM, RESP, rigid body optimization, SF, symmetry and pop. for TD-DFT, various functionals, SOLVATOR                                   
                                                                         
[Other institutions]                                                     
  V. Asgeirsson          : NEB                                           
  Christoph Bannwarth    : sTDA-DFT, sTD-DFT, PBEh-3c, B97-3c, D3        
  Giovanni Bistoni       : ETS/NOCV, ADLD/ADEX, COVALED                  
  Martin Brehm           : Molecular dynamics                            
  Ronald Cardenas        : ETS/NOCV                                      
  Martina Colucci        : COVALED                                       
  Sebastian Ehlert       : rSCAN, r2SCAN, r2SCAN-3c, D4, dhf basis sets  
  Marvin Friede          : D4 for Fr, Ra, Ac-Lr                          
  Lars Goerigk           : TD-DFT with DH, B97 family of functionals     
  Stefan Grimme          : VdW corrections, initial TS optimization, DFT functionals, gCP, sTDA/sTD-DF 
  Waldemar Hujo          : DFT-NL                                        
  H. Jonsson             : NEB                                           
  Holger Kruse           : gCP                                           
  Marcel Mueller         : wB97X-3c, vDZP basis set                      
  Hagen Neugebauer       : wr2SCAN, Native XTB                           
  Gianluca Regni         : ADLD/ADEX                                     
  Tobias Risthaus        : pre 6.0 range-separated hybrid DFT and stability analysis
  Lukas Wittmann         : regularized MP2, r2SCAN double-hybrids, wr2SCAN        
                                                                         
We gratefully acknowledge several colleagues who have allowed us to      
interface, adapt or use parts of their codes:                            
  Ed Valeev, F. Pavosevic, A. Kumar             : LibInt (2-el integral package), F12 methods 
  Garnet Chan, S. Sharma, J. Yang, R. Olivares  : DMRG                   
  Ulf Ekstrom                                   : XCFun DFT Library      
  Mihaly Kallay                                 : mrcc  (arbitrary order and MRCC methods)
  Frank Weinhold                                : gennbo (NPA and NBO analysis)           
  Simon Mueller                                 : openCOSMO-RS                            
  Christopher J. Cramer and Donald G. Truhlar   : smd solvation model                     
  S Lehtola, MJT Oliveira, MAL Marques          : LibXC Library                           
  Liviu Ungur et al                             : ANISO software                          


 Your calculation uses the libint2 library for the computation of 2-el integrals
 For citations please refer to: http://libint.valeyev.net

 Your ORCA version has been built with support for libXC version: 7.0.0
 For citations please refer to: https://libxc.gitlab.io

 This ORCA versions uses:
   CBLAS   interface :  Fast vector & matrix operations
   LAPACKE interface :  Fast linear algebra routines
   SCALAPACK package :  Parallel linear algebra routines
   Shared memory     :  Shared parallel matrices
   BLAS/LAPACK       :  OpenBLAS 0.3.29  USE64BITINT DYNAMIC_ARCH NO_AFFINITY Haswell SINGLE_THREADED
        Core in use  :  Haswell
   Copyright (c) 2011-2014, The OpenBLAS Project


  ***********************************
  * Starting time: Sun Aug  9 16:31:14 2026
  * Host name:     localhost.localdomain
  * Process ID:    2919047
  * Working dir.:  /home/dinglab/calculation/templates/NMR_modules/autohnmr/alpha_diol_screening/CONF4/b3lyp-3c
  ***********************************

NOTE: MaxCore=2500 MB was set to SCF,MP2,MDCI,CIPSI,MRCI,RASCI and CIS
      => If you want to overwrite this, your respective input block should be placed after the MaxCore statement


***************************************
The coordinates will be read from file: inp.xyz
***************************************


Your calculation utilizes the geometrical counterpoise correction gCP
Please cite in your paper:
H.Kruse, S. Grimme J.Chem.Phys., 136, (2012), 154101 
   

Your calculation utilizes the atom-pairwise dispersion correction
with the Becke-Johnson damping scheme (D3BJ)


Warning: RI is on but no J-basis has been assigned. Assigning Def2/J (nothing to worry about!)
================================================================================

----- Orbital basis set information -----
Your calculation utilizes the basis: def2-mSVP

----- AuxJ basis set information -----
Your calculation utilizes the auxiliary basis: def2/J
   H-Rn: F. Weigend, Phys. Chem. Chem. Phys. 8, 1057 (2006).
   Fr-Lr: K. Eichkorn, F. Weigend, O. Treutler, R. Ahlrichs; Theor. Chem. Acc. 97, 119 (1997).

================================================================================
                                        WARNINGS
                       Please study these warnings very carefully!
================================================================================

WARNING: Old DensityContainer found on disk!
         Will remove this file - 
         If you want to keep old densities, please start your calculation with a different basename. 


WARNING: Gradients are needed
  ===> : At least TightSCF should be used for SCF convergence

================================================================================
                                       INPUT FILE
================================================================================
NAME = inp
|  1> ! b3lyp
|  2> ! d3bj ABC
|  3> ! def2-mSVP
|  4> ! GCP(DFT/SV(P))
|  5> ! DEFGRID2
|  6> ! scfconv6
|  7> ! miniprint nopop noautostart
|  8> %MaxCore 2500
|  9> ! ENGRAD
| 10> %pal
| 11>     nprocs 12
| 12> end
| 13> ! CPCM(chloroform)
| 14> * xyzfile 0 1 inp.xyz
| 15> 
| 16>                          ****END OF INPUT****
================================================================================

                     *******************************
                     * Energy+Gradient Calculation *
                     *******************************

---------------------------------
CARTESIAN COORDINATES (ANGSTROEM)
---------------------------------
  C      0.122735   -0.569225    0.425378
  C     -0.976293    0.527222    0.722053
  C     -0.364665    1.958299    0.563500
  C      0.584844    2.142240   -0.644117
  C      1.541692    0.931375   -0.812823
  C      0.687086   -0.338810   -1.009798
  C      1.373143   -0.281086    1.327122
  C      2.267711    0.640911    0.495322
  O      1.436510   -1.458314   -1.515088
  C     -0.365459   -2.019366    0.648840
  C      3.479671    1.089387    0.841820
  C     -2.312899    0.345968   -0.012182
  C     -2.594152    0.870089   -1.217136
  H     -1.211406    0.412918    1.795661
  O     -1.227490   -2.525554   -0.373174
  C     -3.388527   -0.398333    0.758354
  H     -1.177271    2.699064    0.517410
  H      0.202020    2.188817    1.479837
  H      0.018816    2.273105   -1.580294
  H      1.176509    3.061570   -0.505086
  H      2.228818    1.109138   -1.655057
  H     -0.111536   -0.190060   -1.748884
  H      1.907266   -1.216455    1.568002
  H      1.095490    0.167007    2.294319
  H      2.237964   -1.578966   -0.963689
  H     -0.931904   -2.080385    1.592162
  H      0.515472   -2.677469    0.765036
  H      3.931913    0.841402    1.805517
  H      4.065003    1.728272    0.175952
  H     -3.579921    0.737955   -1.669505
  H     -1.879699    1.448398   -1.802082
  H     -0.677494   -2.622897   -1.177551
  H     -4.337562   -0.424096    0.202475
  H     -3.094727   -1.437185    0.969037
  H     -3.575147    0.089193    1.730949

----------------------------
CARTESIAN COORDINATES (A.U.)
----------------------------
  NO LB      ZA    FRAG     MASS         X           Y           Z
   0 C     6.0000    0    12.011    0.231936   -1.075679    0.803848
   1 C     6.0000    0    12.011   -1.844927    0.996306    1.364483
   2 C     6.0000    0    12.011   -0.689118    3.700649    1.064861
   3 C     6.0000    0    12.011    1.105195    4.048246   -1.217204
   4 C     6.0000    0    12.011    2.913376    1.760043   -1.536014
   5 C     6.0000    0    12.011    1.298404   -0.640259   -1.908243
   6 C     6.0000    0    12.011    2.594864   -0.531175    2.507897
   7 C     6.0000    0    12.011    4.285353    1.211147    0.936023
   8 O     8.0000    0    15.999    2.714610   -2.755815   -2.863100
   9 C     6.0000    0    12.011   -0.690617   -3.816048    1.226130
  10 C     6.0000    0    12.011    6.575625    2.058642    1.590809
  11 C     6.0000    0    12.011   -4.370746    0.653786   -0.023021
  12 C     6.0000    0    12.011   -4.902236    1.644230   -2.300053
  13 H     1.0000    0     1.008   -2.289226    0.780301    3.393307
  14 O     8.0000    0    15.999   -2.319620   -4.772605   -0.705196
  15 C     6.0000    0    12.011   -6.403388   -0.752740    1.433081
  16 H     1.0000    0     1.008   -2.224719    5.100492    0.977763
  17 H     1.0000    0     1.008    0.381762    4.136265    2.796487
  18 H     1.0000    0     1.008    0.035558    4.295546   -2.986323
  19 H     1.0000    0     1.008    2.223280    5.785530   -0.954475
  20 H     1.0000    0     1.008    4.211855    2.095967   -3.127604
  21 H     1.0000    0     1.008   -0.210772   -0.359162   -3.304911
  22 H     1.0000    0     1.008    3.604211   -2.298767    2.963095
  23 H     1.0000    0     1.008    2.070175    0.315597    4.335634
  24 H     1.0000    0     1.008    4.229140   -2.983813   -1.821108
  25 H     1.0000    0     1.008   -1.761043   -3.931358    3.008750
  26 H     1.0000    0     1.008    0.974101   -5.059683    1.445709
  27 H     1.0000    0     1.008    7.430240    1.590019    3.411933
  28 H     1.0000    0     1.008    7.681742    3.265960    0.332501
  29 H     1.0000    0     1.008   -6.765070    1.394534   -3.154908
  30 H     1.0000    0     1.008   -3.552117    2.737076   -3.405441
  31 H     1.0000    0     1.008   -1.280279   -4.956557   -2.225249
  32 H     1.0000    0     1.008   -8.196804   -0.801425    0.382623
  33 H     1.0000    0     1.008   -5.848186   -2.715886    1.831215
  34 H     1.0000    0     1.008   -6.756049    0.168550    3.271020



           ************************************************************
           *        Program running with 12 parallel MPI-processes    *
           *              working on a common directory               *
           ************************************************************
------------------------------------------------------------------------------
                   ___                                                        
                  /   \      - P O W E R E D   B Y -                         
                 /     \                                                     
                 |  |  |   _    _      __       _____    __    __             
                 |  |  |  | |  | |    /  \     |  _  \  |  |  /  |          
                  \  \/   | |  | |   /    \    | | | |  |  | /  /          
                 / \  \   | |__| |  /  /\  \   | |_| |  |  |/  /          
                |  |  |   |  __  | /  /__\  \  |    /   |      \           
                |  |  |   | |  | | |   __   |  |    \   |  |\   \          
                \     /   | |  | | |  |  |  |  | |\  \  |  | \   \       
                 \___/    |_|  |_| |__|  |__|  |_| \__\ |__|  \__/        
                                                                              
                      - O R C A' S   B I G   F R I E N D -                    
                                      &                                       
                       - I N T E G R A L  F E E D E R -                       
                                                                              
 v1 FN, 2020, v2 2021, v3 2022-2024                                           
------------------------------------------------------------------------------


----------------------
SHARK INTEGRAL PACKAGE
----------------------

Number of atoms                             ...     35
Number of basis functions                   ...    265
Number of shells                            ...    145
Maximum angular momentum                    ...      2
Integral batch strategy                     ... SHARK/LIBINT Hybrid
RI-J (if used) integral strategy            ... SPLIT-RIJ (Revised 2003 algorithm where possible)
Printlevel                                  ...      1
Contraction scheme used                     ... SEGMENTED contraction
Prescreening option                         ... SCHWARTZ
   Thresh                                   ... 1.000e-10
   Tcut                                     ... 1.000e-11
   Tpresel                                  ... 1.000e-11 
Coulomb Range Separation                    ... NOT USED
Exchange Range Separation                   ... NOT USED
Multipole approximations                    ... NOT USED
Finite Nucleus Model                        ... NOT USED
CABS basis                                  ... NOT available
Auxiliary Coulomb fitting basis             ... AVAILABLE
   # of basis functions in Aux-J            ...    955
   # of shells in Aux-J                     ...    325
   Maximum angular momentum in Aux-J        ...      4
Auxiliary J/K fitting basis                 ... NOT available
Auxiliary Correlation fitting basis         ... NOT available
Auxiliary 'external' fitting basis          ... NOT available

Checking pre-screening integrals            ... done (  0.0 sec) Dimension = 145
   => SHARK Basis and OBASIS are compatible. Storing Pre-screening
Shell pair information
Shell pair cut-off parameter TPreSel        ...   1.0e-11
Total number of shell pairs                 ...     10585
Shell pairs after pre-screening             ...      8875
Total number of primitive shell pairs       ...     38205
Primitive shell pairs kept                  ...     20872
          la=0 lb=0:   3911 shell pairs
          la=1 lb=0:   2756 shell pairs
          la=1 lb=1:    457 shell pairs
          la=2 lb=0:   1218 shell pairs
          la=2 lb=1:    427 shell pairs
          la=2 lb=2:    106 shell pairs

Checking whether 4 symmetric matrices of dimension 265 fit in memory
:Max Core in MB      =   2500.00
 MB in use           =     14.34
 MB left             =   2485.66
 MB needed           =      1.08
 Data fit in memory  = YES
Calculating RI/J V-Matrix + Cholesky decomp.... done (  0.0 sec)
Calculating Nuclear repulsion               ... done (  0.0 sec) ENN=   1110.052932599555 Eh

Diagonalization of the overlap matrix:
Smallest eigenvalue                        ... 1.939e-03
Time for diagonalization                   ...    0.013 sec
Threshold for overlap eigenvalues          ... 1.000e-07
Number of eigenvalues below threshold      ... 0
Time for construction of square roots      ...    0.004 sec
Total time needed                          ...    0.018 sec

-------------------
DFT GRID GENERATION
-------------------

General Integration Accuracy     IntAcc      ... 4.388
Radial Grid Type                 RadialGrid  ... OptM3 with GC (2021)
Angular Grid (max. ang.)         AngularGrid ... 4 (Lebedev-302)
Angular grid pruning method      GridPruning ... 4 (adaptive)
Weight generation scheme         WeightScheme... mBecke (2022)
Basis function cutoff            BFCut       ... 1.0000e-10
Integration weight cutoff        WCut        ... 1.0000e-14
Partially contracted basis set               ... off
Rotationally invariant grid construction     ... off
Angular grids for H and He will be reduced by one unit

Total number of grid points                  ...   152272
Total number of batches                      ...     2400
Average number of points per batch           ...       63
Average number of grid points per atom       ...     4351

--------------------
COSX GRID GENERATION
--------------------

GRIDX 1
-------
General Integration Accuracy     IntAcc      ... 3.816
Radial Grid Type                 RadialGrid  ... OptM3 with GC (2021)
Angular Grid (max. ang.)         AngularGrid ... 1 (Lebedev-50)
Angular grid pruning method      GridPruning ... 4 (adaptive)
Weight generation scheme         WeightScheme... mBecke (2022)
Basis function cutoff            BFCut       ... 1.0000e-10
Integration weight cutoff        WCut        ... 1.0000e-14
Partially contracted basis set               ... on
Rotationally invariant grid construction     ... off
Angular grids for H and He will be reduced by one unit

Total number of grid points                  ...    19391
Total number of batches                      ...      173
Average number of points per batch           ...      112
Average number of grid points per atom       ...      554
UseSFitting                                  ... on

GRIDX 2
-------
General Integration Accuracy     IntAcc      ... 4.020
Radial Grid Type                 RadialGrid  ... OptM3 with GC (2021)
Angular Grid (max. ang.)         AngularGrid ... 2 (Lebedev-110)
Angular grid pruning method      GridPruning ... 4 (adaptive)
Weight generation scheme         WeightScheme... mBecke (2022)
Basis function cutoff            BFCut       ... 1.0000e-10
Integration weight cutoff        WCut        ... 1.0000e-14
Partially contracted basis set               ... on
Rotationally invariant grid construction     ... off
Angular grids for H and He will be reduced by one unit

Total number of grid points                  ...    40638
Total number of batches                      ...      335
Average number of points per batch           ...      121
Average number of grid points per atom       ...     1161
UseSFitting                                  ... on

GRIDX 3
-------
General Integration Accuracy     IntAcc      ... 4.338
Radial Grid Type                 RadialGrid  ... OptM3 with GC (2021)
Angular Grid (max. ang.)         AngularGrid ... 3 (Lebedev-194)
Angular grid pruning method      GridPruning ... 4 (adaptive)
Weight generation scheme         WeightScheme... mBecke (2022)
Basis function cutoff            BFCut       ... 1.0000e-10
Integration weight cutoff        WCut        ... 1.0000e-14
Partially contracted basis set               ... on
Rotationally invariant grid construction     ... off
Angular grids for H and He will be reduced by one unit

Total number of grid points                  ...    88262
Total number of batches                      ...      710
Average number of points per batch           ...      124
Average number of grid points per atom       ...     2522
UseSFitting                                  ... on
Grids setup in   1.5 sec
Initializing property integral containers    ... done (  0.0 sec)

SHARK setup successfully completed in   1.8 seconds

Maximum memory used throughout the entire STARTUP-calculation: 40.7 MB


           ************************************************************
           *        Program running with 12 parallel MPI-processes    *
           *              working on a common directory               *
           ************************************************************
Loading Hartree-Fock densities                     ... done
Calculating cut-offs                               ... done
Initializing the effective Hamiltonian             ... done
Setting up the integral package (SHARK)            ... done
Starting the Coulomb interaction                   ... done (   0.1 sec)
Making the grid                                    ... done (   0.2 sec)
Mapping shells                                     ... done
Starting the XC term evaluation                    ... done (   0.1 sec)
  promolecular density results
     # of electrons  =    113.986433528
     EX              =    -89.143903602
     EC              =     -3.804207709
     EX+EC           =    -92.948111311
Transforming the Hamiltonian                       ... done (   0.0 sec)
Diagonalizing the Hamiltonian                      ... done (   0.0 sec)
Back transforming the eigenvectors                 ... done (   0.0 sec)
Now organizing SCF variables                       ... done
             **** ENERGY FILE WAS UPDATED (inp.en.tmp) ****
Finished Guess after   0.6 sec
Maximum memory used throughout the entire GUESS-calculation: 17.7 MB


           ************************************************************
           *        Program running with 12 parallel MPI-processes    *
           *              working on a common directory               *
           ************************************************************
--------------------
CPCM SOLVATION MODEL
--------------------
CPCM parameters:
  Epsilon                                         ...       4.8030
  Refrac                                          ...       1.4459
  Rsolv                                           ...       1.3000
  Surface type                                    ... GAUSSIAN VDW
  Discretization scheme                           ... Constant charge density
    Threshold for H atoms                         ...       5.0000 (charges/Ang^2)
    Threshold for non-H atoms                     ...       5.0000 (charges/Ang^2)
  Epsilon function type                           ...         CPCM
Solvent:                                          ... CHLOROFORM
Radii:
  Scheme                                          ... Element-dependent radii
  Radius for C  used is    3.8550 Bohr (=   2.0400 Ang.)
  Radius for O  used is    3.4469 Bohr (=   1.8240 Ang.)
  Radius for H  used is    2.4944 Bohr (=   1.3200 Ang.)
Calculating surface                               ...        done! (  0.0s)
Cavity surface points                             ...         2564
Cavity Volume                                     ...    1809.6560
Cavity Surface-area                               ...     907.7359
Calculating surface distance matrix               ...        done! (  0.1s)
Performing Cholesky decomposition & store         ...        done! (  0.2s)
Overall time for CPCM initialization              ...                 0.3s

----------------------------------------D-I-I-S--------------------------------------------
Iteration    Energy (Eh)           Delta-E    RMSDP     MaxDP     DIISErr   Damp  Time(sec)
-------------------------------------------------------------------------------------------
               ***  Starting incremental Fock matrix formation  ***
    1    -656.9458898452485300     0.00e+00  8.75e-03  7.12e-02  2.34e-01  0.700   2.1
    2    -657.1353645374761072    -1.89e-01  6.32e-03  3.99e-02  1.02e-01  0.700   1.3
                               ***Turning on AO-DIIS***
    3    -657.2142407401345281    -7.89e-02  2.53e-03  1.59e-02  3.77e-02  0.700   1.3
    4    -657.2603634305021387    -4.61e-02  4.26e-03  2.39e-02  1.87e-02  0.000   1.2
    5    -657.3603649554238473    -1.00e-01  8.07e-04  4.66e-03  4.99e-03  0.000   1.3
                              *** Initializing SOSCF ***
---------------------------------------S-O-S-C-F--------------------------------------
Iteration    Energy (Eh)           Delta-E    RMSDP     MaxDP     MaxGrad    Time(sec)
--------------------------------------------------------------------------------------
    6    -657.3607001684540592    -3.35e-04  2.70e-04  1.75e-03  1.01e-03     1.2
               *** Restarting incremental Fock matrix formation ***
    7    -657.3606712067701210     2.90e-05  1.70e-04  1.42e-03  3.47e-04     2.1
    8    -657.3606659626616420     5.24e-06  9.23e-05  8.43e-04  6.59e-04     1.4
    9    -657.3606748661586607    -8.90e-06  1.47e-05  1.34e-04  3.20e-05     1.4
                  *** Gradient check signals convergence ***

               *****************************************************
               *                     SUCCESS                       *
               *           SCF CONVERGED AFTER   9 CYCLES          *
               *****************************************************

Recomputing exchange energy using gridx3       ... done (    2.864 sec)
Old exchange energy                            :    -18.195218109 Eh
New exchange energy                            :    -18.195283688 Eh
Exchange energy change after final integration :     -0.000065579 Eh
Total energy after final integration           :   -657.360740367 Eh
             **** ENERGY FILE WAS UPDATED (inp.en.tmp) ****

----------------
TOTAL SCF ENERGY
----------------

Total Energy       :       -657.36074036717253 Eh          -17887.69514 eV

Components:
Nuclear Repulsion  :       1110.05293259955533 Eh           30206.07594 eV
Electronic Energy  :      -1767.40276026316747 Eh          -48093.47413 eV
One Electron Energy:      -3097.25125547046764 Eh          -84280.49140 eV
Two Electron Energy:       1329.84849520730018 Eh           36187.01727 eV
CPCM Dielectric    :         -0.01084712437445 Eh              -0.29517 eV

Virial components:
Potential Energy   :      -1309.67724918543604 Eh          -35638.12976 eV
Kinetic Energy     :        652.31650881826351 Eh           17750.43462 eV
Virial Ratio       :          2.00773279762312

DFT components:
N(Alpha)           :       56.999984476199 electrons
N(Beta)            :       56.999984476199 electrons
N(Total)           :      113.999968952398 electrons
E(X)               :      -72.170698359065 Eh       
E(C)               :       -4.481646751091 Eh       
E(XC)              :      -76.652345110157 Eh       

CPCM Solvation Model Properties:
Surface-charge          :         -0.02207488835798
Corrected charge        :          0.00000000000000
Outlying charge corr.   :          0.00002412025176 Eh               0.00066 eV
Free-energy (cav+disp)  :  This term is not implemented in the current solvation scheme

---------------
SCF CONVERGENCE
---------------

  Last Energy change         ...    8.9035e-06  Tolerance :   1.0000e-06
  Last MAX-Density change    ...    1.3385e-04  Tolerance :   1.0000e-07
  Last RMS-Density change    ...    1.4702e-05  Tolerance :   5.0000e-09
  Last DIIS Error            ...    1.0101e-03  Tolerance :   1.0000e-06
  Last Orbital Gradient      ...    3.2003e-05  Tolerance :   3.3300e-04
  Last Orbital Rotation      ...    1.0660e-04  Tolerance :   3.3300e-04


----------------
ORBITAL ENERGIES
----------------

  NO   OCC          E(Eh)            E(eV) 
   0   2.0000     -19.134786      -520.6840 
   1   2.0000     -19.122562      -520.3514 
   2   2.0000     -10.220949      -278.1262 
   3   2.0000     -10.214269      -277.9444 
   4   2.0000     -10.187365      -277.2123 
   5   2.0000     -10.186881      -277.1991 
   6   2.0000     -10.184211      -277.1265 
   7   2.0000     -10.183694      -277.1124 
   8   2.0000     -10.179132      -276.9883 
   9   2.0000     -10.176638      -276.9204 
  10   2.0000     -10.173675      -276.8398 
  11   2.0000     -10.170225      -276.7459 
  12   2.0000     -10.165042      -276.6049 
  13   2.0000     -10.161664      -276.5129 
  14   2.0000     -10.156855      -276.3821 
  15   2.0000      -1.012303       -27.5462 
  16   2.0000      -0.996945       -27.1282 
  17   2.0000      -0.854794       -23.2601 
  18   2.0000      -0.797258       -21.6945 
  19   2.0000      -0.759481       -20.6665 
  20   2.0000      -0.751375       -20.4459 
  21   2.0000      -0.713966       -19.4280 
  22   2.0000      -0.670366       -18.2416 
  23   2.0000      -0.664970       -18.0948 
  24   2.0000      -0.662728       -18.0337 
  25   2.0000      -0.613924       -16.7057 
  26   2.0000      -0.583360       -15.8740 
  27   2.0000      -0.555089       -15.1047 
  28   2.0000      -0.522521       -14.2185 
  29   2.0000      -0.509515       -13.8646 
  30   2.0000      -0.502886       -13.6842 
  31   2.0000      -0.478896       -13.0314 
  32   2.0000      -0.461198       -12.5498 
  33   2.0000      -0.454968       -12.3803 
  34   2.0000      -0.437751       -11.9118 
  35   2.0000      -0.430325       -11.7097 
  36   2.0000      -0.425146       -11.5688 
  37   2.0000      -0.415880       -11.3167 
  38   2.0000      -0.402624       -10.9560 
  39   2.0000      -0.401020       -10.9123 
  40   2.0000      -0.390828       -10.6350 
  41   2.0000      -0.387700       -10.5498 
  42   2.0000      -0.379128       -10.3166 
  43   2.0000      -0.373555       -10.1649 
  44   2.0000      -0.369976       -10.0676 
  45   2.0000      -0.352240        -9.5849 
  46   2.0000      -0.347197        -9.4477 
  47   2.0000      -0.329578        -8.9683 
  48   2.0000      -0.325113        -8.8468 
  49   2.0000      -0.317685        -8.6446 
  50   2.0000      -0.311143        -8.4666 
  51   2.0000      -0.302926        -8.2430 
  52   2.0000      -0.292153        -7.9499 
  53   2.0000      -0.264881        -7.2078 
  54   2.0000      -0.253084        -6.8868 
  55   2.0000      -0.240976        -6.5573 
  56   2.0000      -0.232104        -6.3159 
  57   0.0000       0.010067         0.2739 
  58   0.0000       0.024674         0.6714 
  59   0.0000       0.082654         2.2491 
  60   0.0000       0.099536         2.7085 
  61   0.0000       0.117234         3.1901 
  62   0.0000       0.123933         3.3724 
  63   0.0000       0.141775         3.8579 
  64   0.0000       0.144149         3.9225 
  65   0.0000       0.149662         4.0725 
  66   0.0000       0.155484         4.2309 
  67   0.0000       0.160040         4.3549 
*Only the first 10 virtual orbitals were printed.
Total SCF time: 0 days 0 hours 0 min 17 sec 
Finished LeanSCF after  18.0 sec

Maximum memory used throughout the entire LEANSCF-calculation: 31.6 MB


-------------------------------------------------------------------------------
                          DFT DISPERSION CORRECTION                            
                                                                               
                              DFTD3 V3.1  Rev 1                                
                          USING Becke-Johnson damping                          
-------------------------------------------------------------------------------
-------------------------   ----------------
Dispersion correction           -0.074315475
-------------------------   ----------------

NOTIFICATION: Different basis set in ORCA and otool_gcp:
ORCA: 265  gCP: 250 
If you are NOT using ECPs, check your basis set inputs!
------------------   -----------------
gCP correction             0.162434868
------------------   -----------------

-------------------------   --------------------
FINAL SINGLE POINT ENERGY      -657.272620974023
-------------------------   --------------------



           ************************************************************
           *        Program running with 12 parallel MPI-processes    *
           *              working on a common directory               *
           ************************************************************
------------------------------------------------------------------------------
                         ORCA SCF GRADIENT CALCULATION
------------------------------------------------------------------------------

Nuc. rep. gradient        (SHARK) ... done (  0.0 sec)
HCore & Overlap gradient  (SHARK) ... done (  0.1 sec)
Split-RIJ-J gradient      (SHARK) ... done (  0.6 sec)
COSX-gradient                     ... done (  6.7 sec)
XC gradient                       ... done (  2.2 sec)
CPCM gradient                     ... done (  0.7 sec)
Dispersion correction             ... done (  0.0 sec)

-------------------
DISPERSION GRADIENT
-------------------

   1   C   :    0.000280373   -0.000501964    0.000306147
   2   C   :   -0.000503543    0.000372557    0.000505604
   3   C   :   -0.000217026    0.000984582    0.000338458
   4   C   :    0.000229964    0.000959769   -0.000375934
   5   C   :    0.000608769    0.000317042   -0.000552841
   6   C   :    0.000611919   -0.000313975   -0.000695593
   7   C   :    0.000552112   -0.000270491    0.000739790
   8   C   :    0.000810267    0.000092689    0.000141938
   9   O   :    0.000374317   -0.000504726   -0.000707715
  10   C   :   -0.000041516   -0.001143527    0.000291845
  11   C   :    0.001191689    0.000273255    0.000368299
  12   C   :   -0.001255041    0.000231182    0.000028208
  13   C   :   -0.001130127    0.000354007   -0.000764356
  14   H   :   -0.000211773    0.000134447    0.000481498
  15   O   :   -0.000167780   -0.000955661   -0.000156855
  16   C   :   -0.000929502   -0.000039393    0.000235217
  17   H   :   -0.000110562    0.000499022    0.000175182
  18   H   :   -0.000123348    0.000476691    0.000360737
  19   H   :    0.000067000    0.000457155   -0.000366915
  20   H   :    0.000032889    0.000500546   -0.000152910
  21   H   :    0.000257225    0.000149069   -0.000401602
  22   H   :    0.000067687   -0.000135647   -0.000625940
  23   H   :    0.000253866   -0.000277991    0.000388464
  24   H   :    0.000143682   -0.000047605    0.000573866
  25   H   :    0.000323914   -0.000352623   -0.000327282
  26   H   :   -0.000056954   -0.000476756    0.000289952
  27   H   :   -0.000005012   -0.000480902    0.000152186
  28   H   :    0.000309115    0.000076994    0.000137811
  29   H   :    0.000362454    0.000110617    0.000054078
  30   H   :   -0.000217486    0.000081502   -0.000248566
  31   H   :   -0.000368244    0.000184450   -0.000422932
  32   H   :   -0.000087501   -0.000471045   -0.000229920
  33   H   :   -0.000297059   -0.000063901    0.000046927
  34   H   :   -0.000418792   -0.000191308    0.000176887
  35   H   :   -0.000335977   -0.000028063    0.000236265

Difference to translation invariance:
           :   -0.0000000000    0.0000000000    0.0000000000

Difference to rotation invariance:
           :   -0.0000000000    0.0000000000    0.0000000000

Norm of the Dispersion gradient    ...    0.0046265205
RMS gradient                       ...    0.0004515022
MAX gradient                       ...    0.0012550410
gCP correction                   ... done

------------------
CARTESIAN GRADIENT
------------------

   1   C   :   -0.000053412    0.000213688    0.000146113
   2   C   :    0.000086282   -0.000148869   -0.000127245
   3   C   :   -0.000021786   -0.000128047   -0.000051795
   4   C   :    0.000091016   -0.000024471   -0.000007194
   5   C   :   -0.000065166    0.000066692    0.000101499
   6   C   :    0.000161664   -0.000237295   -0.000068128
   7   C   :   -0.000094353   -0.000010285   -0.000210837
   8   C   :   -0.000117186   -0.000088029   -0.000054088
   9   O   :   -0.000083774    0.000163262    0.000043547
  10   C   :   -0.000165215   -0.000037337   -0.000216056
  11   C   :    0.000105490    0.000045116   -0.000016663
  12   C   :   -0.000020491    0.000052203    0.000113638
  13   C   :    0.000036231    0.000160948    0.000023417
  14   H   :   -0.000007666   -0.000022713    0.000047026
  15   O   :    0.000149898    0.000246319   -0.000160993
  16   C   :    0.000173116    0.000076408   -0.000096147
  17   H   :   -0.000008058   -0.000000765    0.000009282
  18   H   :    0.000030902    0.000010442    0.000006566
  19   H   :   -0.000038225   -0.000042625   -0.000013077
  20   H   :   -0.000023460    0.000015182   -0.000076588
  21   H   :    0.000015423   -0.000018127   -0.000017696
  22   H   :   -0.000029097   -0.000026560   -0.000005274
  23   H   :    0.000022569   -0.000039281    0.000051370
  24   H   :   -0.000020859    0.000009819    0.000044851
  25   H   :    0.000010052   -0.000008512    0.000096403
  26   H   :    0.000021941   -0.000082662    0.000067872
  27   H   :    0.000037463   -0.000009257   -0.000058529
  28   H   :   -0.000089267    0.000005383    0.000065713
  29   H   :   -0.000029729    0.000045214    0.000018712
  30   H   :   -0.000001270   -0.000018018    0.000050595
  31   H   :   -0.000003315   -0.000002527   -0.000041269
  32   H   :   -0.000036751   -0.000175509    0.000223720
  33   H   :   -0.000098129    0.000046881    0.000015923
  34   H   :   -0.000008697   -0.000068320    0.000006584
  35   H   :    0.000073859    0.000031652    0.000088750

Difference to translation invariance:
           :   -0.0000000000   -0.0000000000   -0.0000000000

Difference to rotation invariance:
           :   -0.0000004451    0.0001560287   -0.0008082016

Norm of the Cartesian gradient     ...    0.0009133242
RMS gradient                       ...    0.0000891313
MAX gradient                       ...    0.0002463190

-------
TIMINGS
-------

Total SCF gradient time     ....       10.285 sec

Densities                   ....       0.001 sec  (  0.0%)
One electron gradient       ....       0.121 sec  (  1.2%)
RI-J Coulomb gradient       ....       0.593 sec  (  5.8%)
COSX gradient               ....       6.664 sec  ( 64.8%)
XC gradient                 ....       2.164 sec  ( 21.0%)
CPCM gradient               ....       0.678 sec  (  6.6%)
   A-Matrix (El+Nuc)        ....       0.025 sec  (  0.2%)
   Potential                ....       0.653 sec  (  6.4%)

Maximum memory used throughout the entire SCFGRAD-calculation: 37.8 MB


           ************************************************************
           *        Program running with 12 parallel MPI-processes    *
           *              working on a common directory               *
           ************************************************************

------------------------------------------------------------------------------
                              ORCA PROPERTY CALCULATIONS
------------------------------------------------------------------------------

GBWName                                 ... inp.gbw
Number of atoms                         ...     35
Number of basis functions               ...    265
Max core memory                         ...   2500 MB

Electric properties:
Dipole moment                           ... YES
Quadrupole moment                       ...  NO
Static polarizability (Dipole/Dipole)   ...  NO
Static polarizability (Dipole/Quad.)    ...  NO
Static polarizability (Quad./Quad.)     ...  NO
Static polarizability (Velocity)        ...  NO
Static hyperpolarizability              ...  NO

Atomic electric properties:
Dipole moment                           ...  NO
Quadrupole moment                       ...  NO
Static polarizability                   ...  NO

Choice of electric origin               ... Center of mass
Position of electric origin             ...     0.007080    -0.003034    -0.012037

General magnetic properties:
Magnetizability                         ...  NO

EPR properties:
g-Tensor (aka g-matrix)                 ...  NO
Zero-Field splitting spin-orbit         ...  NO
Zero-field splitting spin-spin          ...  NO
Hyperfine couplings                     ...  NO (   0 nuclei)
Quadrupole couplings                    ...  NO (   0 nuclei)
Contact density                         ...  NO (   0 nuclei)

NMR properties:
Chemical shifts                         ...  NO (   0 nuclei)
Spin-rotation constants                 ...  NO (   0 nuclei)
Spin-spin couplings                     ...  NO (   0 nuclei,    0 pairs)

Choice of magnetic origin               ... GIAO
Position of magnetic origin             ...     0.000000     0.000000     0.000000

Properties with geometric perturbations:
SCF Hessian                             ...  NO
IR spectrum                             ...  NO
VCD spectrum                            ...  NO
X-ray spectroscopy properties:
SCF XES/XAS/RIXS spectra                ...  NO

SCF SOC stabilization energy            ...  NO
Diagonal Born-Oppenheimer correction    ...  NO

-------------
DIPOLE MOMENT
-------------

Method             : SCF
Type of density    : Electron Density
Multiplicity       :   1
Irrep              :   0
Energy             :  -657.3607403671725251 Eh
Basis              : AO
                                X                 Y                 Z
Electronic contribution:      3.886370738      -3.777984381      -3.014799762
Nuclear contribution   :     -3.067035703       4.220557814       3.651414645
                        -----------------------------------------
Total Dipole Moment    :      0.819335036       0.442573433       0.636614883
                        -----------------------------------------
Magnitude (a.u.)       :      1.128033534
Magnitude (Debye)      :      2.867233380



--------------------
Rotational spectrum 
--------------------
 
Rotational constants in cm-1:             0.030355             0.018038             0.014883 
Rotational constants in MHz :           910.013150           540.775704           446.188064 

Dipole components along the rotational axes: 
x,y,z [a.u.] :     0.918571    -0.270493     0.596255 
x,y,z [Debye]:     2.334823    -0.687540     1.515559 

 

Dipole moment calculation done in   0.0 sec 

Maximum memory used throughout the entire PROP-calculation: 16.6 MB

--------------------------------
SUGGESTED CITATIONS FOR THIS RUN
--------------------------------

Below you find a list of papers that are relevant to this ORCA run
We neither can nor want to force you to cite these papers, but we appreciate if you do
You receive ORCA, which is the product of decades of hard work by many enthusiastic individuals, for free
The only thing we kindly ask in return is that you cite our papers,
We deeply appreciate it, if you show your appreciation for ORCA by not just citing the generic ORCA reference.

Please note that relegating all ORCA citations to the supporting information does *not* help us.
SI sections are not indexed - citations you put there will not count into any citation statistics
But we need these citations in order to attract the funding resources that allow us to do what we are doing

Therefore, if you are a happy ORCA user, please consider citing a few of the papers listed below in the main body of your paper

In addition to the list printed below, the program has created the file inp.bibtex that contains the list in bibtex format
You can import this file easily into all common literature databanks and citation aid programs

It goes without saying that in many instances, there are alternative algorithms to achieve similar
results as the ones you have gotten from ORCA. It is, of course, also the case that in some instances
ORCA just re-implements algorithms worked out by others. We are fully aware of that and we are also
fully appreciative of our colleagues work. Hence this citation list should not be read as indicating
that the listed papers, which are focused on our own work, are the only ones worth citing. It simply
meant to make it easier for users to cite ORCA specific papers. It is not a substitute for doing your
own literature research and citing the relevant literature in a scientifically appropriate manner.

List of essential papers. We consider these as the minimum necessary citations

  1. Neese, F.
     Software update: the ORCA program system, version 6.0
     WIRES Comput. Molec. Sci. 2025 15(1), e70019
     doi.org/10.1002/wcms.70019

List of papers to cite with high priority. The work reported in these papers was absolutely
necessary for this run to complete.
Our perspective: the developers of density functionals and basis sets usually get cited in chemistry papers
Good! But without the algorithms to do something with them, the functionals or basis sets would not do anything.
Hence, in our opinion, the algorithm design and method developments papers are equally worthy of getting cited

  1. Neese, F.
     An improvement of the resolution of the identity approximation for the formation of the Coulomb matrix
     J. Comp. Chem. 2003 24(14), 1740-1747
     doi.org/10.1002/jcc.10318
  2. Neese, F.; Wennmohs, F.; Hansen, A.; Becker, U.
     Efficient, approximate and parallel Hartree-Fock and hybrid DFT calculations. A 'chain-of-spheres' algorithm for the Hartree-Fock exchange
     Chem. Phys. 2009 356(1-3), 98-109
     doi.org/10.1016/j.chemphys.2008.10.036
  3. Grimme, S.; Antony, J.; Ehrlich, S.; Krieg, H.
     A consistent and accurate ab initio parametrization of density functional dispersion correction (DFT-D) for the 94 elements H-Pu
     J. Chem. Phys. 2010 132 , 154104
     doi.org/10.1063/1.3382344
  4. Grimme, S.; Ehrlich, S.; Goerigk, L.
     Effect of the damping function in dispersion corrected density functional theory
     J. Comput. Chem. 2011 32(7), 1456-1465
     doi.org/10.1002/jcc.21759
  5. Garcia-Rates, M.; Neese, F.
     Effect of the Solute Cavity on the Solvation Energy and its Derivatives within the Framework of the Gaussian Charge Scheme
     J. Comput. Chem. 2020 41 , 922-939
     doi.org/10.1002/jcc.26139
  6. Helmich-Paris, B.; de Souza, B.; Neese, F.; Izsák, R.
     An improved chain of spheres for exchange algorithm
     J. Chem. Phys. 2021 155(10), 104109
     doi.org/10.1063/5.0058766
  7. Neese, F.
     The SHARK Integral Generation and Digestion System
     J. Comp. Chem. 2022 44(3), 381
     doi.org/10.1002/jcc.26942

List of suggested additional citations. These are papers that are important in the 'surrounding' of 
of this run, or papers that preceded the highly important papers. If you like your results we are grateful for a citation.

  1. Izsak, R.; Neese, F.
     An overlap fitted chain of spheres exchange method
     J. Chem. Phys. 2011 135 , 144105
     doi.org/10.1063/1.3646921
  2. Izsak, R.; Hansen, A.; Neese, F.
     The resolution of identity and chain of spheres approximations for the LPNO-CCSD singles Fock term
     Molec. Phys. 2012 110 , 2413-2417
     doi.org/10.1080/00268976.2012.687466
  3. Neese, F.
     The ORCA program system
     WIRES Comput. Molec. Sci. 2012 2(1), 73-78
     doi.org/10.1002/wcms.81
  4. Izsak, R.; Neese, F.; Klopper, W.
     Robust fitting techniques in the chain of spheres approximation to the Fock exchange: The role of the complementary space
     J. Chem. Phys. 2013 139 , 
     doi.org/10.1063/1.4819264
  5. Neese, F.
     Software update: the ORCA program system, version 4.0
     WIRES Comput. Molec. Sci. 2018 8(1), 1-6
     doi.org/10.1002/wcms.1327
  6. Neese, F.; Wennmohs, F.; Becker, U.; Riplinger, C.
     The ORCA quantum chemistry program package
     J. Chem. Phys. 2020 152(22), 224108
     doi.org/10.1063/5.0004608
  7. Neese, F.
     Software update: The ORCA program system—Version 5.0
     WIRES Comput. Molec. Sci. 2022 12(1), e1606
     doi.org/10.1002/wcms.1606

List of optional additional citations

  1. Neese, F.
     Approximate second-order SCF convergence for spin unrestricted wavefunctions
     Chem. Phys. Lett. 2000 325(1-3), 93-98
     doi.org/10.1016/s0009-2614(00)00662-x

Timings for individual modules:

Sum of individual times          ...       31.861 sec (=   0.531 min)
Startup calculation              ...        1.975 sec (=   0.033 min)   6.2 %
SCF iterations                   ...       18.950 sec (=   0.316 min)  59.5 %
Property calculations            ...        0.324 sec (=   0.005 min)   1.0 %
SCF Gradient evaluation          ...       10.612 sec (=   0.177 min)  33.3 %
                             ****ORCA TERMINATED NORMALLY****
TOTAL RUN TIME: 0 days 0 hours 0 minutes 32 seconds 247 msec
  ------------------------------------------------------------------------
          * successful ORCA run, taking over control again...
av. E:   -657.2726210 ->   -657.2726210
av. G:      0.0026007 ->      0.0026007
 * total energy  :  -657.2726210 Eh     change       -0.1376049E-04 Eh
   gradient norm :     0.0009129 Eh/a0  converged?    E=F G=T D=F
   step length   :     0.0233448 a0

........................................................................
.............................. CYCLE    2 ..............................
........................................................................
                         * ORCA takes the control...
  ------------------------------------------------------------------------

                                 *****************
                                 * O   R   C   A *
                                 *****************

                                            #,                                       
                                            ###                                      
                                            ####                                     
                                            #####                                    
                                            ######                                   
                                           ########,                                 
                                     ,,################,,,,,                         
                               ,,#################################,,                 
                          ,,##########################################,,             
                       ,#########################################, ''#####,          
                    ,#############################################,,   '####,        
                  ,##################################################,,,,####,       
                ,###########''''           ''''###############################       
              ,#####''   ,,,,##########,,,,          '''####'''          '####       
            ,##' ,,,,###########################,,,                        '##       
           ' ,,###''''                  '''############,,,                           
         ,,##''                                '''############,,,,        ,,,,,,###''
      ,#''                                            '''#######################'''  
     '                                                          ''''####''''         
             ,#######,   #######,   ,#######,      ##                                
            ,#'     '#,  ##    ##  ,#'     '#,    #''#        ,####,    ,#,          
            ##       ##  ##   ,#'  ##            #'  '#       #'       ,# #          
            ##       ##  #######   ##           ,######,      #####,      #          
            '#,     ,#'  ##    ##  '#,     ,#' ,#      #,     #,   #      #          
             '#######'   ##     ##  '#######'  #'      '#     '####' #    #          



                #########################################################
                #                        -***-                          #
                #          Department of theory and spectroscopy        #
                #                                                       #
                #                      Frank Neese                      #
                #                                                       #
                #     Directorship, Architecture, Infrastructure        #
                #                    SHARK, DRIVERS                     #
                #        Core code/Algorithms in most modules           #
                #                                                       #
                #        Max Planck Institute fuer Kohlenforschung      #
                #                Kaiser Wilhelm Platz 1                 #
                #                 D-45470 Muelheim/Ruhr                 #
                #                      Germany                          #
                #                                                       #
                #                  All rights reserved                  #
                #                        -***-                          #
                #########################################################


                         Program Version 6.1.1  -  RELEASE   -
                                (GIT: $487d211c$)
                          ($2025-11-21 10:33:24 +0100$)


 With contributions from (in alphabetic order):
[Max-Planck-Institut fuer Kohlenforschung]                               
  Daniel Aravena         : Magnetic Suceptibility                        
  Michael Atanasov       : Ab Initio Ligand Field Theory (pilot matlab implementation)
  Alexander A. Auer      : GIAO ZORA, VPT2 properties, NMR spectrum      
  Ute Becker             : All parallelization in ORCA, NUMFREQ, NUMCALC 
  Giovanni Bistoni       : ED, misc. LED, open-shell LED, HFLD           
  Dmytro Bykov           : pre 5.0 version of the SCF Hessian            
  Marcos Casanova-Páez   : Triplet and SCS-CIS(D). UHF-(DLPNO)-IP/EA/STEOM-CCSD. UHF-CVS-IP/STEOM-CCSD   
  Vijay G. Chilkuri      : MRCI spin determinant printing, contributions to CSF-ICE 
  Pauline Colinet        : FMM embedding                                 
  Dipayan Datta          : RHF DLPNO-CCSD density                        
  Achintya Kumar Dutta   : EOM-CC, STEOM-CC                              
  Nicolas Foglia         : Exact transition moments, OPA infrastructure, MCD improvements    
  Dmitry Ganyushin       : Spin-Orbit,Spin-Spin,Magnetic field MRCI      
  Miquel Garcia-Rates    : C-PCM and meta-GGA Hessian, CCSD/C-PCM, Gaussian charge scheme 
  Tiago L. C. Gouveia    : GS-ROHF, GS-ROCIS                             
  Yang Guo               : DLPNO-NEVPT2, F12-NEVPT2, CIM, IAO-localization        
  Andreas Hansen         : Spin unrestricted coupled pair/coupled cluster methods 
  Ingolf Harden          : AUTO-CI MPn and infrastructure                
  Benjamin Helmich-Paris : MC-RPA, TRAH-(SCF,CASSCF), AVAS, COSX integrals, SCF dyn. polar., MC-PDFT, srDFT 
  Lee Huntington         : MR-EOM, pCC                                   
  Robert Izsak           : Overlap fitted RIJCOSX, COSX-SCS-MP3, EOM     
  Riya Kayal             : Wick's Theorem for AUTO-CI, AUTO-CI UHF-CCSDT 
  Emily Kempfer          : AUTO-CI RHF CISDT and CCSDT, approximate NEVPT4
  Christian Kollmar      : KDIIS, OOCD, Brueckner-CCSD(T), CCSD density, CASPT2, CASPT2-K, improved NEVPT2 
  Axel Koslowski         : Symmetry handling                             
  Simone Kossmann        : meta-GGA functionals, TD-DFT gradient, OOMP2, (MP2 Hessian; deprecated post 5.0) 
  Lucas Lang             : DCDCAS, Hyperfine gauge corrections, ICE-SOC+SSC
  Marvin Lechner         : AUTO-CI (C++ implementation), FIC-MRCC        
  Spencer Leger          : CASSCF response                               
  Dagmar Lenk            : GEPOL surface, SMD, ORCA-2-JSON               
  Dimitrios Liakos       : Extrapolation schemes; Compound Job, Property file
  Dimitrios Manganas     : Further ROCIS development; embedding schemes. LFT, Crystal Embedding 
  Dimitrios Pantazis     : SARC Basis sets                               
  Anastasios Papadopoulos: AUTO-CI, single reference methods and gradients 
  Taras Petrenko         : pre 6.0 DFT Hessian and TD-DFT gradient,  ECA, NRVS 
  Petra Pikulova         : Analytic Raman intensities                    
  Peter Pinski           : DLPNO-MP2, DLPNO-MP2 Gradient                 
  Shashank Vittal Rao    : ES-AILFT, MagRelax                            
  Christoph Reimann      : Effective Core Potentials                     
  Marius Retegan         : Local ZFS, SOC                                
  Christoph Riplinger    : Optimizer, TS searches, QM/MM, DLPNO-CCSD(T), (RO)-DLPNO pert. Triples 
  Michael Roemelt        : Original ROCIS implementation, recursive CI coupling coefficients
  Masaaki Saitow         : Open-shell DLPNO-CCSD energy and density      
  Barbara Sandhoefer     : DKH picture change effects                    
  Yorick L. A. Schmerwitz: GMF and freeze-and-release deltaSCF, NEB S-IDPP initial path                    
  Kantharuban Sivalingam : CASSCF convergence/infrastructure, NEVPT2, NEVPT3, NEVPT4(SD), FIC-MRCI and CEPA variants
  Bernardo de Souza      : ESD, SOC TD-DFT                               
  Georgi L. Stoychev     : AutoAux, RI-MP2 NMR, DLPNO-MP2 response, X2C  
  Van Anh Tran           : RI-MP2 g-tensors                              
  Willem Van den Heuvel  : Paramagnetic NMR                              
  Zikuan Wang            : NOTCH, Electric field optimization            
  Frank Wennmohs         : Technical directorship and infrastructure     
  Hang Xu                : AUTO-CI-Response properties                   
                                                                         
[FACCTs GmbH]                                                            
  Markus Bursch, Nicolas Foglia, Miquel Garcia-Rates, Ingolf Harden, Hagen Neugebauer, Anastasios Papadopoulos, 
  Christoph Riplinger, Bernardo de Souza, Georgi L. Stoychev                                                    
                                                                 
  APM, various basis sets, CI-OPT, improved COSX, DLPNO-Multilevel,           
  DOCKER, DRACO, updates on ESD, Fragmentator, GOAT, IRC, LR-CPCM, L-BFGS, MBIS, meta-GGA TD-DFT gradient, ML-optimized integration grids, 
  MM, NACMEs, nearIR, NEB, NEB-TS, NL-DFT gradient (VV10), 2- and 3-layer-ONIOM, interface openCOSMO-RS, QMMM,   
  Crystal-QMMM, RESP, rigid body optimization, SF, symmetry and pop. for TD-DFT, various functionals, SOLVATOR                                   
                                                                         
[Other institutions]                                                     
  V. Asgeirsson          : NEB                                           
  Christoph Bannwarth    : sTDA-DFT, sTD-DFT, PBEh-3c, B97-3c, D3        
  Giovanni Bistoni       : ETS/NOCV, ADLD/ADEX, COVALED                  
  Martin Brehm           : Molecular dynamics                            
  Ronald Cardenas        : ETS/NOCV                                      
  Martina Colucci        : COVALED                                       
  Sebastian Ehlert       : rSCAN, r2SCAN, r2SCAN-3c, D4, dhf basis sets  
  Marvin Friede          : D4 for Fr, Ra, Ac-Lr                          
  Lars Goerigk           : TD-DFT with DH, B97 family of functionals     
  Stefan Grimme          : VdW corrections, initial TS optimization, DFT functionals, gCP, sTDA/sTD-DF 
  Waldemar Hujo          : DFT-NL                                        
  H. Jonsson             : NEB                                           
  Holger Kruse           : gCP                                           
  Marcel Mueller         : wB97X-3c, vDZP basis set                      
  Hagen Neugebauer       : wr2SCAN, Native XTB                           
  Gianluca Regni         : ADLD/ADEX                                     
  Tobias Risthaus        : pre 6.0 range-separated hybrid DFT and stability analysis
  Lukas Wittmann         : regularized MP2, r2SCAN double-hybrids, wr2SCAN        
                                                                         
We gratefully acknowledge several colleagues who have allowed us to      
interface, adapt or use parts of their codes:                            
  Ed Valeev, F. Pavosevic, A. Kumar             : LibInt (2-el integral package), F12 methods 
  Garnet Chan, S. Sharma, J. Yang, R. Olivares  : DMRG                   
  Ulf Ekstrom                                   : XCFun DFT Library      
  Mihaly Kallay                                 : mrcc  (arbitrary order and MRCC methods)
  Frank Weinhold                                : gennbo (NPA and NBO analysis)           
  Simon Mueller                                 : openCOSMO-RS                            
  Christopher J. Cramer and Donald G. Truhlar   : smd solvation model                     
  S Lehtola, MJT Oliveira, MAL Marques          : LibXC Library                           
  Liviu Ungur et al                             : ANISO software                          


 Your calculation uses the libint2 library for the computation of 2-el integrals
 For citations please refer to: http://libint.valeyev.net

 Your ORCA version has been built with support for libXC version: 7.0.0
 For citations please refer to: https://libxc.gitlab.io

 This ORCA versions uses:
   CBLAS   interface :  Fast vector & matrix operations
   LAPACKE interface :  Fast linear algebra routines
   SCALAPACK package :  Parallel linear algebra routines
   Shared memory     :  Shared parallel matrices
   BLAS/LAPACK       :  OpenBLAS 0.3.29  USE64BITINT DYNAMIC_ARCH NO_AFFINITY Haswell SINGLE_THREADED
        Core in use  :  Haswell
   Copyright (c) 2011-2014, The OpenBLAS Project


  ***********************************
  * Starting time: Sun Aug  9 16:31:46 2026
  * Host name:     localhost.localdomain
  * Process ID:    2919698
  * Working dir.:  /home/dinglab/calculation/templates/NMR_modules/autohnmr/alpha_diol_screening/CONF4/b3lyp-3c
  ***********************************

NOTE: MaxCore=2500 MB was set to SCF,MP2,MDCI,CIPSI,MRCI,RASCI and CIS
      => If you want to overwrite this, your respective input block should be placed after the MaxCore statement


***************************************
The coordinates will be read from file: inp.xyz
***************************************


Your calculation utilizes the geometrical counterpoise correction gCP
Please cite in your paper:
H.Kruse, S. Grimme J.Chem.Phys., 136, (2012), 154101 
   

Your calculation utilizes the atom-pairwise dispersion correction
with the Becke-Johnson damping scheme (D3BJ)


Warning: RI is on but no J-basis has been assigned. Assigning Def2/J (nothing to worry about!)
================================================================================

----- Orbital basis set information -----
Your calculation utilizes the basis: def2-mSVP

----- AuxJ basis set information -----
Your calculation utilizes the auxiliary basis: def2/J
   H-Rn: F. Weigend, Phys. Chem. Chem. Phys. 8, 1057 (2006).
   Fr-Lr: K. Eichkorn, F. Weigend, O. Treutler, R. Ahlrichs; Theor. Chem. Acc. 97, 119 (1997).

================================================================================
                                        WARNINGS
                       Please study these warnings very carefully!
================================================================================

WARNING: Old DensityContainer found on disk!
         Will remove this file - 
         If you want to keep old densities, please start your calculation with a different basename. 


WARNING: Gradients are needed
  ===> : At least TightSCF should be used for SCF convergence

================================================================================
                                       INPUT FILE
================================================================================
NAME = inp
|  1> ! b3lyp
|  2> ! d3bj ABC
|  3> ! def2-mSVP
|  4> ! GCP(DFT/SV(P))
|  5> ! DEFGRID2
|  6> ! scfconv6
|  7> ! miniprint nopop noautostart
|  8> %MaxCore 2500
|  9> ! ENGRAD
| 10> %pal
| 11>     nprocs 12
| 12> end
| 13> ! CPCM(chloroform)
| 14> * xyzfile 0 1 inp.xyz
| 15> 
| 16>                          ****END OF INPUT****
================================================================================

                     *******************************
                     * Energy+Gradient Calculation *
                     *******************************

---------------------------------
CARTESIAN COORDINATES (ANGSTROEM)
---------------------------------
  C      0.122794   -0.568463    0.426467
  C     -0.977935    0.528447    0.722821
  C     -0.365737    1.959865    0.564538
  C      0.585915    2.144259   -0.641277
  C      1.541976    0.932484   -0.812072
  C      0.685731   -0.336542   -1.009205
  C      1.374363   -0.280097    1.328037
  C      2.269331    0.641134    0.495510
  O      1.432761   -1.457169   -1.518055
  C     -0.364196   -2.018681    0.653162
  C      3.482721    1.086619    0.839396
  C     -2.313963    0.343350   -0.013213
  C     -2.593657    0.863899   -1.220010
  H     -1.213713    0.414850    1.796015
  O     -1.227225   -2.529834   -0.366461
  C     -3.390930   -0.400901    0.756367
  H     -1.177575    2.701191    0.517344
  H      0.199628    2.188926    1.481831
  H      0.022055    2.278784   -1.578143
  H      1.179293    3.061851   -0.497963
  H      2.228483    1.110701   -1.654525
  H     -0.112881   -0.185800   -1.747596
  H      1.907993   -1.215939    1.566660
  H      1.098021    0.167684    2.295364
  H      2.236742   -1.578310   -0.970868
  H     -0.931485   -2.076523    1.595724
  H      0.516788   -2.675930    0.771054
  H      3.938799    0.836155    1.800375
  H      4.068779    1.722390    0.171516
  H     -3.578889    0.732806   -1.673879
  H     -1.879516    1.444874   -1.802298
  H     -0.682257   -2.611955   -1.177601
  H     -4.336233   -0.431375    0.195984
  H     -3.095131   -1.437655    0.971459
  H     -3.584338    0.089035    1.725826

----------------------------
CARTESIAN COORDINATES (A.U.)
----------------------------
  NO LB      ZA    FRAG     MASS         X           Y           Z
   0 C     6.0000    0    12.011    0.232048   -1.074239    0.805905
   1 C     6.0000    0    12.011   -1.848028    0.998620    1.365934
   2 C     6.0000    0    12.011   -0.691143    3.703609    1.066822
   3 C     6.0000    0    12.011    1.107218    4.052063   -1.211838
   4 C     6.0000    0    12.011    2.913912    1.762139   -1.534593
   5 C     6.0000    0    12.011    1.295845   -0.635973   -1.907121
   6 C     6.0000    0    12.011    2.597170   -0.529306    2.509625
   7 C     6.0000    0    12.011    4.288414    1.211567    0.936378
   8 O     8.0000    0    15.999    2.707526   -2.753651   -2.868708
   9 C     6.0000    0    12.011   -0.688231   -3.814754    1.234297
  10 C     6.0000    0    12.011    6.581389    2.053412    1.586229
  11 C     6.0000    0    12.011   -4.372756    0.648838   -0.024969
  12 C     6.0000    0    12.011   -4.901301    1.632533   -2.305484
  13 H     1.0000    0     1.008   -2.293585    0.783954    3.393977
  14 O     8.0000    0    15.999   -2.319119   -4.780693   -0.692511
  15 C     6.0000    0    12.011   -6.407930   -0.757594    1.429326
  16 H     1.0000    0     1.008   -2.225295    5.104512    0.977639
  17 H     1.0000    0     1.008    0.377243    4.136471    2.800256
  18 H     1.0000    0     1.008    0.041677    4.306278   -2.982258
  19 H     1.0000    0     1.008    2.228542    5.786059   -0.941014
  20 H     1.0000    0     1.008    4.211222    2.098921   -3.126599
  21 H     1.0000    0     1.008   -0.213314   -0.351111   -3.302478
  22 H     1.0000    0     1.008    3.605584   -2.297791    2.960557
  23 H     1.0000    0     1.008    2.074958    0.316876    4.337610
  24 H     1.0000    0     1.008    4.226830   -2.982574   -1.834676
  25 H     1.0000    0     1.008   -1.760251   -3.924059    3.015481
  26 H     1.0000    0     1.008    0.976587   -5.056775    1.457080
  27 H     1.0000    0     1.008    7.443251    1.580103    3.402216
  28 H     1.0000    0     1.008    7.688878    3.254844    0.324119
  29 H     1.0000    0     1.008   -6.763120    1.384802   -3.163173
  30 H     1.0000    0     1.008   -3.551771    2.730417   -3.405850
  31 H     1.0000    0     1.008   -1.289280   -4.935879   -2.225342
  32 H     1.0000    0     1.008   -8.194294   -0.815181    0.370357
  33 H     1.0000    0     1.008   -5.848949   -2.716775    1.835792
  34 H     1.0000    0     1.008   -6.773417    0.168251    3.261338



           ************************************************************
           *        Program running with 12 parallel MPI-processes    *
           *              working on a common directory               *
           ************************************************************
------------------------------------------------------------------------------
                   ___                                                        
                  /   \      - P O W E R E D   B Y -                         
                 /     \                                                     
                 |  |  |   _    _      __       _____    __    __             
                 |  |  |  | |  | |    /  \     |  _  \  |  |  /  |          
                  \  \/   | |  | |   /    \    | | | |  |  | /  /          
                 / \  \   | |__| |  /  /\  \   | |_| |  |  |/  /          
                |  |  |   |  __  | /  /__\  \  |    /   |      \           
                |  |  |   | |  | | |   __   |  |    \   |  |\   \          
                \     /   | |  | | |  |  |  |  | |\  \  |  | \   \       
                 \___/    |_|  |_| |__|  |__|  |_| \__\ |__|  \__/        
                                                                              
                      - O R C A' S   B I G   F R I E N D -                    
                                      &                                       
                       - I N T E G R A L  F E E D E R -                       
                                                                              
 v1 FN, 2020, v2 2021, v3 2022-2024                                           
------------------------------------------------------------------------------


----------------------
SHARK INTEGRAL PACKAGE
----------------------

Number of atoms                             ...     35
Number of basis functions                   ...    265
Number of shells                            ...    145
Maximum angular momentum                    ...      2
Integral batch strategy                     ... SHARK/LIBINT Hybrid
RI-J (if used) integral strategy            ... SPLIT-RIJ (Revised 2003 algorithm where possible)
Printlevel                                  ...      1
Contraction scheme used                     ... SEGMENTED contraction
Prescreening option                         ... SCHWARTZ
   Thresh                                   ... 1.000e-10
   Tcut                                     ... 1.000e-11
   Tpresel                                  ... 1.000e-11 
Coulomb Range Separation                    ... NOT USED
Exchange Range Separation                   ... NOT USED
Multipole approximations                    ... NOT USED
Finite Nucleus Model                        ... NOT USED
CABS basis                                  ... NOT available
Auxiliary Coulomb fitting basis             ... AVAILABLE
   # of basis functions in Aux-J            ...    955
   # of shells in Aux-J                     ...    325
   Maximum angular momentum in Aux-J        ...      4
Auxiliary J/K fitting basis                 ... NOT available
Auxiliary Correlation fitting basis         ... NOT available
Auxiliary 'external' fitting basis          ... NOT available

Checking pre-screening integrals            ... done (  0.0 sec) Dimension = 145
   => SHARK Basis and OBASIS are compatible. Storing Pre-screening
Shell pair information
Shell pair cut-off parameter TPreSel        ...   1.0e-11
Total number of shell pairs                 ...     10585
Shell pairs after pre-screening             ...      8876
Total number of primitive shell pairs       ...     38205
Primitive shell pairs kept                  ...     20873
          la=0 lb=0:   3912 shell pairs
          la=1 lb=0:   2756 shell pairs
          la=1 lb=1:    457 shell pairs
          la=2 lb=0:   1218 shell pairs
          la=2 lb=1:    427 shell pairs
          la=2 lb=2:    106 shell pairs

Checking whether 4 symmetric matrices of dimension 265 fit in memory
:Max Core in MB      =   2500.00
 MB in use           =     14.35
 MB left             =   2485.65
 MB needed           =      1.08
 Data fit in memory  = YES
Calculating RI/J V-Matrix + Cholesky decomp.... done (  0.0 sec)
Calculating Nuclear repulsion               ... done (  0.0 sec) ENN=   1109.735166368711 Eh

Diagonalization of the overlap matrix:
Smallest eigenvalue                        ... 1.941e-03
Time for diagonalization                   ...    0.012 sec
Threshold for overlap eigenvalues          ... 1.000e-07
Number of eigenvalues below threshold      ... 0
Time for construction of square roots      ...    0.004 sec
Total time needed                          ...    0.017 sec

-------------------
DFT GRID GENERATION
-------------------

General Integration Accuracy     IntAcc      ... 4.388
Radial Grid Type                 RadialGrid  ... OptM3 with GC (2021)
Angular Grid (max. ang.)         AngularGrid ... 4 (Lebedev-302)
Angular grid pruning method      GridPruning ... 4 (adaptive)
Weight generation scheme         WeightScheme... mBecke (2022)
Basis function cutoff            BFCut       ... 1.0000e-10
Integration weight cutoff        WCut        ... 1.0000e-14
Partially contracted basis set               ... off
Rotationally invariant grid construction     ... off
Angular grids for H and He will be reduced by one unit

Total number of grid points                  ...   152276
Total number of batches                      ...     2397
Average number of points per batch           ...       63
Average number of grid points per atom       ...     4351

--------------------
COSX GRID GENERATION
--------------------

GRIDX 1
-------
General Integration Accuracy     IntAcc      ... 3.816
Radial Grid Type                 RadialGrid  ... OptM3 with GC (2021)
Angular Grid (max. ang.)         AngularGrid ... 1 (Lebedev-50)
Angular grid pruning method      GridPruning ... 4 (adaptive)
Weight generation scheme         WeightScheme... mBecke (2022)
Basis function cutoff            BFCut       ... 1.0000e-10
Integration weight cutoff        WCut        ... 1.0000e-14
Partially contracted basis set               ... on
Rotationally invariant grid construction     ... off
Angular grids for H and He will be reduced by one unit

Total number of grid points                  ...    19389
Total number of batches                      ...      173
Average number of points per batch           ...      112
Average number of grid points per atom       ...      554
UseSFitting                                  ... on

GRIDX 2
-------
General Integration Accuracy     IntAcc      ... 4.020
Radial Grid Type                 RadialGrid  ... OptM3 with GC (2021)
Angular Grid (max. ang.)         AngularGrid ... 2 (Lebedev-110)
Angular grid pruning method      GridPruning ... 4 (adaptive)
Weight generation scheme         WeightScheme... mBecke (2022)
Basis function cutoff            BFCut       ... 1.0000e-10
Integration weight cutoff        WCut        ... 1.0000e-14
Partially contracted basis set               ... on
Rotationally invariant grid construction     ... off
Angular grids for H and He will be reduced by one unit

Total number of grid points                  ...    40643
Total number of batches                      ...      336
Average number of points per batch           ...      120
Average number of grid points per atom       ...     1161
UseSFitting                                  ... on

GRIDX 3
-------
General Integration Accuracy     IntAcc      ... 4.338
Radial Grid Type                 RadialGrid  ... OptM3 with GC (2021)
Angular Grid (max. ang.)         AngularGrid ... 3 (Lebedev-194)
Angular grid pruning method      GridPruning ... 4 (adaptive)
Weight generation scheme         WeightScheme... mBecke (2022)
Basis function cutoff            BFCut       ... 1.0000e-10
Integration weight cutoff        WCut        ... 1.0000e-14
Partially contracted basis set               ... on
Rotationally invariant grid construction     ... off
Angular grids for H and He will be reduced by one unit

Total number of grid points                  ...    88260
Total number of batches                      ...      709
Average number of points per batch           ...      124
Average number of grid points per atom       ...     2522
UseSFitting                                  ... on
Grids setup in   1.6 sec
Initializing property integral containers    ... done (  0.0 sec)

SHARK setup successfully completed in   1.8 seconds

Maximum memory used throughout the entire STARTUP-calculation: 40.7 MB


           ************************************************************
           *        Program running with 12 parallel MPI-processes    *
           *              working on a common directory               *
           ************************************************************
Loading Hartree-Fock densities                     ... done
Calculating cut-offs                               ... done
Initializing the effective Hamiltonian             ... done
Setting up the integral package (SHARK)            ... done
Starting the Coulomb interaction                   ... done (   0.1 sec)
Making the grid                                    ... done (   0.2 sec)
Mapping shells                                     ... done
Starting the XC term evaluation                    ... done (   0.1 sec)
  promolecular density results
     # of electrons  =    113.986476779
     EX              =    -89.142592893
     EC              =     -3.804025471
     EX+EC           =    -92.946618364
Transforming the Hamiltonian                       ... done (   0.0 sec)
Diagonalizing the Hamiltonian                      ... done (   0.0 sec)
Back transforming the eigenvectors                 ... done (   0.0 sec)
Now organizing SCF variables                       ... done
             **** ENERGY FILE WAS UPDATED (inp.en.tmp) ****
Finished Guess after   0.6 sec
Maximum memory used throughout the entire GUESS-calculation: 17.7 MB


           ************************************************************
           *        Program running with 12 parallel MPI-processes    *
           *              working on a common directory               *
           ************************************************************
--------------------
CPCM SOLVATION MODEL
--------------------
CPCM parameters:
  Epsilon                                         ...       4.8030
  Refrac                                          ...       1.4459
  Rsolv                                           ...       1.3000
  Surface type                                    ... GAUSSIAN VDW
  Discretization scheme                           ... Constant charge density
    Threshold for H atoms                         ...       5.0000 (charges/Ang^2)
    Threshold for non-H atoms                     ...       5.0000 (charges/Ang^2)
  Epsilon function type                           ...         CPCM
Solvent:                                          ... CHLOROFORM
Radii:
  Scheme                                          ... Element-dependent radii
  Radius for C  used is    3.8550 Bohr (=   2.0400 Ang.)
  Radius for O  used is    3.4469 Bohr (=   1.8240 Ang.)
  Radius for H  used is    2.4944 Bohr (=   1.3200 Ang.)
Calculating surface                               ...        done! (  0.0s)
Cavity surface points                             ...         2563
Cavity Volume                                     ...    1810.4376
Cavity Surface-area                               ...     908.1423
Calculating surface distance matrix               ...        done! (  0.1s)
Performing Cholesky decomposition & store         ...        done! (  0.2s)
Overall time for CPCM initialization              ...                 0.3s

----------------------------------------D-I-I-S--------------------------------------------
Iteration    Energy (Eh)           Delta-E    RMSDP     MaxDP     DIISErr   Damp  Time(sec)
-------------------------------------------------------------------------------------------
               ***  Starting incremental Fock matrix formation  ***
    1    -656.9459824087175548     0.00e+00  8.75e-03  7.12e-02  2.34e-01  0.700   2.2
    2    -657.1353840273079641    -1.89e-01  6.31e-03  3.99e-02  1.02e-01  0.700   1.3
                               ***Turning on AO-DIIS***
    3    -657.2142516042945317    -7.89e-02  2.53e-03  1.59e-02  3.77e-02  0.700   1.3
    4    -657.2603683693780567    -4.61e-02  4.26e-03  2.38e-02  1.87e-02  0.000   1.2
    5    -657.3603489413926582    -1.00e-01  8.07e-04  4.66e-03  4.98e-03  0.000   1.3
                              *** Initializing SOSCF ***
---------------------------------------S-O-S-C-F--------------------------------------
Iteration    Energy (Eh)           Delta-E    RMSDP     MaxDP     MaxGrad    Time(sec)
--------------------------------------------------------------------------------------
    6    -657.3606838716020775    -3.35e-04  2.70e-04  1.75e-03  1.01e-03     1.2
               *** Restarting incremental Fock matrix formation ***
    7    -657.3606564801748391     2.74e-05  1.70e-04  1.41e-03  3.47e-04     2.2
    8    -657.3606512954149821     5.18e-06  9.18e-05  8.45e-04  6.59e-04     1.5
    9    -657.3606601155163389    -8.82e-06  1.47e-05  1.33e-04  3.16e-05     1.4
                  *** Gradient check signals convergence ***

               *****************************************************
               *                     SUCCESS                       *
               *           SCF CONVERGED AFTER   9 CYCLES          *
               *****************************************************

Recomputing exchange energy using gridx3       ... done (    2.920 sec)
Old exchange energy                            :    -18.194922880 Eh
New exchange energy                            :    -18.194989465 Eh
Exchange energy change after final integration :     -0.000066586 Eh
Total energy after final integration           :   -657.360726610 Eh
             **** ENERGY FILE WAS UPDATED (inp.en.tmp) ****

----------------
TOTAL SCF ENERGY
----------------

Total Energy       :       -657.36072661014248 Eh          -17887.69476 eV

Components:
Nuclear Repulsion  :       1109.73516636871136 Eh           30197.42908 eV
Electronic Energy  :      -1767.08498339907351 Eh          -48084.82698 eV
One Electron Energy:      -3096.61201184549918 Eh          -84263.09670 eV
Two Electron Energy:       1329.52702844642567 Eh           36178.26971 eV
CPCM Dielectric    :         -0.01084299400491 Eh              -0.29505 eV

Virial components:
Potential Energy   :      -1309.67186535091901 Eh          -35637.98326 eV
Kinetic Energy     :        652.31113874077653 Eh           17750.28849 eV
Virial Ratio       :          2.00774107257943

DFT components:
N(Alpha)           :       56.999975560009 electrons
N(Beta)            :       56.999975560009 electrons
N(Total)           :      113.999951120017 electrons
E(X)               :      -72.169737316977 Eh       
E(C)               :       -4.481493159202 Eh       
E(XC)              :      -76.651230476179 Eh       

CPCM Solvation Model Properties:
Surface-charge          :         -0.02207023891555
Corrected charge        :         -0.00000000000000
Outlying charge corr.   :          0.00002410717064 Eh               0.00066 eV
Free-energy (cav+disp)  :  This term is not implemented in the current solvation scheme

---------------
SCF CONVERGENCE
---------------

  Last Energy change         ...    8.8201e-06  Tolerance :   1.0000e-06
  Last MAX-Density change    ...    1.3283e-04  Tolerance :   1.0000e-07
  Last RMS-Density change    ...    1.4700e-05  Tolerance :   5.0000e-09
  Last DIIS Error            ...    1.0089e-03  Tolerance :   1.0000e-06
  Last Orbital Gradient      ...    3.1556e-05  Tolerance :   3.3300e-04
  Last Orbital Rotation      ...    1.0456e-04  Tolerance :   3.3300e-04


----------------
ORBITAL ENERGIES
----------------

  NO   OCC          E(Eh)            E(eV) 
   0   2.0000     -19.134757      -520.6832 
   1   2.0000     -19.122599      -520.3524 
   2   2.0000     -10.221099      -278.1303 
   3   2.0000     -10.214263      -277.9442 
   4   2.0000     -10.187643      -277.2198 
   5   2.0000     -10.186897      -277.1996 
   6   2.0000     -10.184315      -277.1293 
   7   2.0000     -10.183888      -277.1177 
   8   2.0000     -10.179272      -276.9921 
   9   2.0000     -10.176657      -276.9209 
  10   2.0000     -10.173747      -276.8417 
  11   2.0000     -10.170334      -276.7489 
  12   2.0000     -10.164993      -276.6035 
  13   2.0000     -10.161491      -276.5082 
  14   2.0000     -10.156883      -276.3828 
  15   2.0000      -1.012007       -27.5381 
  16   2.0000      -0.996465       -27.1152 
  17   2.0000      -0.854641       -23.2560 
  18   2.0000      -0.797154       -21.6917 
  19   2.0000      -0.759431       -20.6652 
  20   2.0000      -0.751435       -20.4476 
  21   2.0000      -0.714031       -19.4298 
  22   2.0000      -0.670453       -18.2439 
  23   2.0000      -0.664989       -18.0953 
  24   2.0000      -0.662724       -18.0336 
  25   2.0000      -0.614001       -16.7078 
  26   2.0000      -0.583340       -15.8735 
  27   2.0000      -0.555074       -15.1043 
  28   2.0000      -0.522520       -14.2185 
  29   2.0000      -0.509379       -13.8609 
  30   2.0000      -0.502959       -13.6862 
  31   2.0000      -0.478733       -13.0270 
  32   2.0000      -0.460837       -12.5400 
  33   2.0000      -0.454994       -12.3810 
  34   2.0000      -0.437754       -11.9119 
  35   2.0000      -0.430148       -11.7049 
  36   2.0000      -0.425217       -11.5708 
  37   2.0000      -0.415920       -11.3178 
  38   2.0000      -0.402646       -10.9565 
  39   2.0000      -0.401117       -10.9150 
  40   2.0000      -0.390881       -10.6364 
  41   2.0000      -0.387716       -10.5503 
  42   2.0000      -0.379228       -10.3193 
  43   2.0000      -0.373627       -10.1669 
  44   2.0000      -0.370046       -10.0695 
  45   2.0000      -0.352347        -9.5878 
  46   2.0000      -0.347208        -9.4480 
  47   2.0000      -0.329566        -8.9679 
  48   2.0000      -0.325053        -8.8451 
  49   2.0000      -0.317827        -8.6485 
  50   2.0000      -0.311000        -8.4627 
  51   2.0000      -0.303039        -8.2461 
  52   2.0000      -0.292072        -7.9477 
  53   2.0000      -0.264725        -7.2035 
  54   2.0000      -0.253321        -6.8932 
  55   2.0000      -0.241057        -6.5595 
  56   2.0000      -0.232147        -6.3170 
  57   0.0000       0.010164         0.2766 
  58   0.0000       0.024648         0.6707 
  59   0.0000       0.082586         2.2473 
  60   0.0000       0.099420         2.7053 
  61   0.0000       0.117253         3.1906 
  62   0.0000       0.123870         3.3707 
  63   0.0000       0.141705         3.8560 
  64   0.0000       0.144131         3.9220 
  65   0.0000       0.149564         4.0699 
  66   0.0000       0.155171         4.2224 
  67   0.0000       0.160115         4.3569 
*Only the first 10 virtual orbitals were printed.
Total SCF time: 0 days 0 hours 0 min 18 sec 
Finished LeanSCF after  18.4 sec

Maximum memory used throughout the entire LEANSCF-calculation: 31.6 MB


-------------------------------------------------------------------------------
                          DFT DISPERSION CORRECTION                            
                                                                               
                              DFTD3 V3.1  Rev 1                                
                          USING Becke-Johnson damping                          
-------------------------------------------------------------------------------
-------------------------   ----------------
Dispersion correction           -0.074284815
-------------------------   ----------------

NOTIFICATION: Different basis set in ORCA and otool_gcp:
ORCA: 265  gCP: 250 
If you are NOT using ECPs, check your basis set inputs!
------------------   -----------------
gCP correction             0.162384236
------------------   -----------------

-------------------------   --------------------
FINAL SINGLE POINT ENERGY      -657.272627189425
-------------------------   --------------------



           ************************************************************
           *        Program running with 12 parallel MPI-processes    *
           *              working on a common directory               *
           ************************************************************
------------------------------------------------------------------------------
                         ORCA SCF GRADIENT CALCULATION
------------------------------------------------------------------------------

Nuc. rep. gradient        (SHARK) ... done (  0.0 sec)
HCore & Overlap gradient  (SHARK) ... done (  0.1 sec)
Split-RIJ-J gradient      (SHARK) ... done (  0.6 sec)
COSX-gradient                     ... done (  6.7 sec)
XC gradient                       ... done (  2.2 sec)
CPCM gradient                     ... done (  0.7 sec)
Dispersion correction             ... done (  0.0 sec)

-------------------
DISPERSION GRADIENT
-------------------

   1   C   :    0.000279251   -0.000501759    0.000307127
   2   C   :   -0.000503768    0.000373551    0.000505283
   3   C   :   -0.000217130    0.000985488    0.000339484
   4   C   :    0.000229632    0.000960657   -0.000374179
   5   C   :    0.000608353    0.000317589   -0.000552141
   6   C   :    0.000610753   -0.000313410   -0.000696750
   7   C   :    0.000552014   -0.000270666    0.000740010
   8   C   :    0.000812817    0.000093534    0.000142966
   9   O   :    0.000373004   -0.000504619   -0.000709737
  10   C   :   -0.000040497   -0.001142656    0.000294779
  11   C   :    0.001190954    0.000271462    0.000366561
  12   C   :   -0.001255106    0.000229983    0.000026764
  13   C   :   -0.001130376    0.000351607   -0.000766560
  14   H   :   -0.000211825    0.000135244    0.000481352
  15   O   :   -0.000166385   -0.000955998   -0.000154357
  16   C   :   -0.000929282   -0.000039300    0.000233987
  17   H   :   -0.000110482    0.000499179    0.000175396
  18   H   :   -0.000123712    0.000476374    0.000360828
  19   H   :    0.000067469    0.000457900   -0.000365675
  20   H   :    0.000032716    0.000500666   -0.000151615
  21   H   :    0.000256894    0.000149394   -0.000401274
  22   H   :    0.000066956   -0.000134332   -0.000625457
  23   H   :    0.000253597   -0.000277947    0.000388171
  24   H   :    0.000144227   -0.000047551    0.000573895
  25   H   :    0.000323260   -0.000352784   -0.000329481
  26   H   :   -0.000056527   -0.000475962    0.000290922
  27   H   :   -0.000004570   -0.000480725    0.000153764
  28   H   :    0.000309172    0.000076396    0.000137154
  29   H   :    0.000362364    0.000109961    0.000053399
  30   H   :   -0.000216969    0.000081256   -0.000248834
  31   H   :   -0.000368269    0.000183734   -0.000423520
  32   H   :   -0.000086573   -0.000472986   -0.000231106
  33   H   :   -0.000297308   -0.000064017    0.000046241
  34   H   :   -0.000418716   -0.000191269    0.000177221
  35   H   :   -0.000335935   -0.000027995    0.000235381

Difference to translation invariance:
           :    0.0000000000    0.0000000000   -0.0000000000

Difference to rotation invariance:
           :   -0.0000000000    0.0000000000   -0.0000000000

Norm of the Dispersion gradient    ...    0.0046271039
RMS gradient                       ...    0.0004515591
MAX gradient                       ...    0.0012551057
gCP correction                   ... done

------------------
CARTESIAN GRADIENT
------------------

   1   C   :    0.000039524   -0.000281282   -0.000105332
   2   C   :   -0.000072187    0.000257474    0.000277547
   3   C   :    0.000084192    0.000345354    0.000056026
   4   C   :   -0.000133244    0.000025404    0.000001048
   5   C   :    0.000087308   -0.000055780   -0.000293507
   6   C   :   -0.000231881    0.000281588   -0.000024025
   7   C   :    0.000070109   -0.000096032    0.000354388
   8   C   :    0.000487627    0.000199526    0.000181286
   9   O   :    0.000245367   -0.000198457   -0.000005051
  10   C   :    0.000266202   -0.000077631    0.000417153
  11   C   :   -0.000342600    0.000073440    0.000069617
  12   C   :   -0.000090849   -0.000091632   -0.000196687
  13   C   :    0.000037159   -0.000299523   -0.000137703
  14   H   :    0.000040209    0.000064105   -0.000105952
  15   O   :   -0.000676109   -0.000067297    0.000729955
  16   C   :   -0.000379217   -0.000076706    0.000139844
  17   H   :    0.000099463   -0.000024629   -0.000014018
  18   H   :   -0.000001139   -0.000080104   -0.000078965
  19   H   :    0.000053255   -0.000038438    0.000017112
  20   H   :    0.000012326   -0.000016982    0.000049774
  21   H   :    0.000004836   -0.000021201    0.000067256
  22   H   :    0.000123637   -0.000053685   -0.000012529
  23   H   :   -0.000065453    0.000067125   -0.000120968
  24   H   :    0.000067688   -0.000040231   -0.000119140
  25   H   :   -0.000119069   -0.000002228   -0.000082153
  26   H   :   -0.000026602    0.000029500   -0.000201391
  27   H   :   -0.000125043    0.000071022   -0.000075098
  28   H   :    0.000015499    0.000013696   -0.000165427
  29   H   :   -0.000036998   -0.000124637    0.000115712
  30   H   :   -0.000033885    0.000169023    0.000017317
  31   H   :   -0.000174678    0.000007360    0.000154710
  32   H   :    0.000518156   -0.000117246   -0.000874745
  33   H   :    0.000364549    0.000066028    0.000243276
  34   H   :   -0.000094652    0.000268860   -0.000108085
  35   H   :   -0.000013498   -0.000175786   -0.000171244

Difference to translation invariance:
           :   -0.0000000000   -0.0000000000   -0.0000000000

Difference to rotation invariance:
           :   -0.0000163877    0.0000982542   -0.0007827819

Norm of the Cartesian gradient     ...    0.0021494912
RMS gradient                       ...    0.0002097689
MAX gradient                       ...    0.0008747447

-------
TIMINGS
-------

Total SCF gradient time     ....       10.420 sec

Densities                   ....       0.001 sec  (  0.0%)
One electron gradient       ....       0.143 sec  (  1.4%)
RI-J Coulomb gradient       ....       0.614 sec  (  5.9%)
COSX gradient               ....       6.675 sec  ( 64.1%)
XC gradient                 ....       2.213 sec  ( 21.2%)
CPCM gradient               ....       0.678 sec  (  6.5%)
   A-Matrix (El+Nuc)        ....       0.024 sec  (  0.2%)
   Potential                ....       0.654 sec  (  6.3%)

Maximum memory used throughout the entire SCFGRAD-calculation: 37.8 MB


           ************************************************************
           *        Program running with 12 parallel MPI-processes    *
           *              working on a common directory               *
           ************************************************************

------------------------------------------------------------------------------
                              ORCA PROPERTY CALCULATIONS
------------------------------------------------------------------------------

GBWName                                 ... inp.gbw
Number of atoms                         ...     35
Number of basis functions               ...    265
Max core memory                         ...   2500 MB

Electric properties:
Dipole moment                           ... YES
Quadrupole moment                       ...  NO
Static polarizability (Dipole/Dipole)   ...  NO
Static polarizability (Dipole/Quad.)    ...  NO
Static polarizability (Quad./Quad.)     ...  NO
Static polarizability (Velocity)        ...  NO
Static hyperpolarizability              ...  NO

Atomic electric properties:
Dipole moment                           ...  NO
Quadrupole moment                       ...  NO
Static polarizability                   ...  NO

Choice of electric origin               ... Center of mass
Position of electric origin             ...     0.006758    -0.003789    -0.011109

General magnetic properties:
Magnetizability                         ...  NO

EPR properties:
g-Tensor (aka g-matrix)                 ...  NO
Zero-Field splitting spin-orbit         ...  NO
Zero-field splitting spin-spin          ...  NO
Hyperfine couplings                     ...  NO (   0 nuclei)
Quadrupole couplings                    ...  NO (   0 nuclei)
Contact density                         ...  NO (   0 nuclei)

NMR properties:
Chemical shifts                         ...  NO (   0 nuclei)
Spin-rotation constants                 ...  NO (   0 nuclei)
Spin-spin couplings                     ...  NO (   0 nuclei,    0 pairs)

Choice of magnetic origin               ... GIAO
Position of magnetic origin             ...     0.000000     0.000000     0.000000

Properties with geometric perturbations:
SCF Hessian                             ...  NO
IR spectrum                             ...  NO
VCD spectrum                            ...  NO
X-ray spectroscopy properties:
SCF XES/XAS/RIXS spectra                ...  NO

SCF SOC stabilization energy            ...  NO
Diagonal Born-Oppenheimer correction    ...  NO

-------------
DIPOLE MOMENT
-------------

Method             : SCF
Type of density    : Electron Density
Multiplicity       :   1
Irrep              :   0
Energy             :  -657.3607266101424784 Eh
Basis              : AO
                                X                 Y                 Z
Electronic contribution:      3.881623951      -3.773958517      -3.002321832
Nuclear contribution   :     -3.062055877       4.234062303       3.634807498
                        -----------------------------------------
Total Dipole Moment    :      0.819568075       0.460103786       0.632485667
                        -----------------------------------------
Magnitude (a.u.)       :      1.132883684
Magnitude (Debye)      :      2.879561482



--------------------
Rotational spectrum 
--------------------
 
Rotational constants in cm-1:             0.030351             0.018019             0.014873 
Rotational constants in MHz :           909.907469           540.188456           445.890441 

Dipole components along the rotational axes: 
x,y,z [a.u.] :     0.923078    -0.285522     0.591464 
x,y,z [Debye]:     2.346277    -0.725740     1.503383 

 

Dipole moment calculation done in   0.0 sec 

Maximum memory used throughout the entire PROP-calculation: 16.6 MB

--------------------------------
SUGGESTED CITATIONS FOR THIS RUN
--------------------------------

Below you find a list of papers that are relevant to this ORCA run
We neither can nor want to force you to cite these papers, but we appreciate if you do
You receive ORCA, which is the product of decades of hard work by many enthusiastic individuals, for free
The only thing we kindly ask in return is that you cite our papers,
We deeply appreciate it, if you show your appreciation for ORCA by not just citing the generic ORCA reference.

Please note that relegating all ORCA citations to the supporting information does *not* help us.
SI sections are not indexed - citations you put there will not count into any citation statistics
But we need these citations in order to attract the funding resources that allow us to do what we are doing

Therefore, if you are a happy ORCA user, please consider citing a few of the papers listed below in the main body of your paper

In addition to the list printed below, the program has created the file inp.bibtex that contains the list in bibtex format
You can import this file easily into all common literature databanks and citation aid programs

It goes without saying that in many instances, there are alternative algorithms to achieve similar
results as the ones you have gotten from ORCA. It is, of course, also the case that in some instances
ORCA just re-implements algorithms worked out by others. We are fully aware of that and we are also
fully appreciative of our colleagues work. Hence this citation list should not be read as indicating
that the listed papers, which are focused on our own work, are the only ones worth citing. It simply
meant to make it easier for users to cite ORCA specific papers. It is not a substitute for doing your
own literature research and citing the relevant literature in a scientifically appropriate manner.

List of essential papers. We consider these as the minimum necessary citations

  1. Neese, F.
     Software update: the ORCA program system, version 6.0
     WIRES Comput. Molec. Sci. 2025 15(1), e70019
     doi.org/10.1002/wcms.70019

List of papers to cite with high priority. The work reported in these papers was absolutely
necessary for this run to complete.
Our perspective: the developers of density functionals and basis sets usually get cited in chemistry papers
Good! But without the algorithms to do something with them, the functionals or basis sets would not do anything.
Hence, in our opinion, the algorithm design and method developments papers are equally worthy of getting cited

  1. Neese, F.
     An improvement of the resolution of the identity approximation for the formation of the Coulomb matrix
     J. Comp. Chem. 2003 24(14), 1740-1747
     doi.org/10.1002/jcc.10318
  2. Neese, F.; Wennmohs, F.; Hansen, A.; Becker, U.
     Efficient, approximate and parallel Hartree-Fock and hybrid DFT calculations. A 'chain-of-spheres' algorithm for the Hartree-Fock exchange
     Chem. Phys. 2009 356(1-3), 98-109
     doi.org/10.1016/j.chemphys.2008.10.036
  3. Grimme, S.; Antony, J.; Ehrlich, S.; Krieg, H.
     A consistent and accurate ab initio parametrization of density functional dispersion correction (DFT-D) for the 94 elements H-Pu
     J. Chem. Phys. 2010 132 , 154104
     doi.org/10.1063/1.3382344
  4. Grimme, S.; Ehrlich, S.; Goerigk, L.
     Effect of the damping function in dispersion corrected density functional theory
     J. Comput. Chem. 2011 32(7), 1456-1465
     doi.org/10.1002/jcc.21759
  5. Garcia-Rates, M.; Neese, F.
     Effect of the Solute Cavity on the Solvation Energy and its Derivatives within the Framework of the Gaussian Charge Scheme
     J. Comput. Chem. 2020 41 , 922-939
     doi.org/10.1002/jcc.26139
  6. Helmich-Paris, B.; de Souza, B.; Neese, F.; Izsák, R.
     An improved chain of spheres for exchange algorithm
     J. Chem. Phys. 2021 155(10), 104109
     doi.org/10.1063/5.0058766
  7. Neese, F.
     The SHARK Integral Generation and Digestion System
     J. Comp. Chem. 2022 44(3), 381
     doi.org/10.1002/jcc.26942

List of suggested additional citations. These are papers that are important in the 'surrounding' of 
of this run, or papers that preceded the highly important papers. If you like your results we are grateful for a citation.

  1. Izsak, R.; Neese, F.
     An overlap fitted chain of spheres exchange method
     J. Chem. Phys. 2011 135 , 144105
     doi.org/10.1063/1.3646921
  2. Izsak, R.; Hansen, A.; Neese, F.
     The resolution of identity and chain of spheres approximations for the LPNO-CCSD singles Fock term
     Molec. Phys. 2012 110 , 2413-2417
     doi.org/10.1080/00268976.2012.687466
  3. Neese, F.
     The ORCA program system
     WIRES Comput. Molec. Sci. 2012 2(1), 73-78
     doi.org/10.1002/wcms.81
  4. Izsak, R.; Neese, F.; Klopper, W.
     Robust fitting techniques in the chain of spheres approximation to the Fock exchange: The role of the complementary space
     J. Chem. Phys. 2013 139 , 
     doi.org/10.1063/1.4819264
  5. Neese, F.
     Software update: the ORCA program system, version 4.0
     WIRES Comput. Molec. Sci. 2018 8(1), 1-6
     doi.org/10.1002/wcms.1327
  6. Neese, F.; Wennmohs, F.; Becker, U.; Riplinger, C.
     The ORCA quantum chemistry program package
     J. Chem. Phys. 2020 152(22), 224108
     doi.org/10.1063/5.0004608
  7. Neese, F.
     Software update: The ORCA program system—Version 5.0
     WIRES Comput. Molec. Sci. 2022 12(1), e1606
     doi.org/10.1002/wcms.1606

List of optional additional citations

  1. Neese, F.
     Approximate second-order SCF convergence for spin unrestricted wavefunctions
     Chem. Phys. Lett. 2000 325(1-3), 93-98
     doi.org/10.1016/s0009-2614(00)00662-x

Timings for individual modules:

Sum of individual times          ...       32.431 sec (=   0.541 min)
Startup calculation              ...        2.025 sec (=   0.034 min)   6.2 %
SCF iterations                   ...       19.361 sec (=   0.323 min)  59.7 %
Property calculations            ...        0.299 sec (=   0.005 min)   0.9 %
SCF Gradient evaluation          ...       10.746 sec (=   0.179 min)  33.1 %
                             ****ORCA TERMINATED NORMALLY****
TOTAL RUN TIME: 0 days 0 hours 0 minutes 33 seconds 7 msec
  ------------------------------------------------------------------------
          * successful ORCA run, taking over control again...
av. E:   -657.2726272 ->   -657.2726272
av. G:      0.0009129 ->      0.0009129
 * total energy  :  -657.2726272 Eh     change       -0.6215402E-05 Eh
   gradient norm :     0.0021493 Eh/a0  converged?    E=F G=F D=F
   step length   :     0.0630899 a0

........................................................................
.............................. CYCLE    3 ..............................
........................................................................
                         * ORCA takes the control...
  ------------------------------------------------------------------------

                                 *****************
                                 * O   R   C   A *
                                 *****************

                                            #,                                       
                                            ###                                      
                                            ####                                     
                                            #####                                    
                                            ######                                   
                                           ########,                                 
                                     ,,################,,,,,                         
                               ,,#################################,,                 
                          ,,##########################################,,             
                       ,#########################################, ''#####,          
                    ,#############################################,,   '####,        
                  ,##################################################,,,,####,       
                ,###########''''           ''''###############################       
              ,#####''   ,,,,##########,,,,          '''####'''          '####       
            ,##' ,,,,###########################,,,                        '##       
           ' ,,###''''                  '''############,,,                           
         ,,##''                                '''############,,,,        ,,,,,,###''
      ,#''                                            '''#######################'''  
     '                                                          ''''####''''         
             ,#######,   #######,   ,#######,      ##                                
            ,#'     '#,  ##    ##  ,#'     '#,    #''#        ,####,    ,#,          
            ##       ##  ##   ,#'  ##            #'  '#       #'       ,# #          
            ##       ##  #######   ##           ,######,      #####,      #          
            '#,     ,#'  ##    ##  '#,     ,#' ,#      #,     #,   #      #          
             '#######'   ##     ##  '#######'  #'      '#     '####' #    #          



                #########################################################
                #                        -***-                          #
                #          Department of theory and spectroscopy        #
                #                                                       #
                #                      Frank Neese                      #
                #                                                       #
                #     Directorship, Architecture, Infrastructure        #
                #                    SHARK, DRIVERS                     #
                #        Core code/Algorithms in most modules           #
                #                                                       #
                #        Max Planck Institute fuer Kohlenforschung      #
                #                Kaiser Wilhelm Platz 1                 #
                #                 D-45470 Muelheim/Ruhr                 #
                #                      Germany                          #
                #                                                       #
                #                  All rights reserved                  #
                #                        -***-                          #
                #########################################################


                         Program Version 6.1.1  -  RELEASE   -
                                (GIT: $487d211c$)
                          ($2025-11-21 10:33:24 +0100$)


 With contributions from (in alphabetic order):
[Max-Planck-Institut fuer Kohlenforschung]                               
  Daniel Aravena         : Magnetic Suceptibility                        
  Michael Atanasov       : Ab Initio Ligand Field Theory (pilot matlab implementation)
  Alexander A. Auer      : GIAO ZORA, VPT2 properties, NMR spectrum      
  Ute Becker             : All parallelization in ORCA, NUMFREQ, NUMCALC 
  Giovanni Bistoni       : ED, misc. LED, open-shell LED, HFLD           
  Dmytro Bykov           : pre 5.0 version of the SCF Hessian            
  Marcos Casanova-Páez   : Triplet and SCS-CIS(D). UHF-(DLPNO)-IP/EA/STEOM-CCSD. UHF-CVS-IP/STEOM-CCSD   
  Vijay G. Chilkuri      : MRCI spin determinant printing, contributions to CSF-ICE 
  Pauline Colinet        : FMM embedding                                 
  Dipayan Datta          : RHF DLPNO-CCSD density                        
  Achintya Kumar Dutta   : EOM-CC, STEOM-CC                              
  Nicolas Foglia         : Exact transition moments, OPA infrastructure, MCD improvements    
  Dmitry Ganyushin       : Spin-Orbit,Spin-Spin,Magnetic field MRCI      
  Miquel Garcia-Rates    : C-PCM and meta-GGA Hessian, CCSD/C-PCM, Gaussian charge scheme 
  Tiago L. C. Gouveia    : GS-ROHF, GS-ROCIS                             
  Yang Guo               : DLPNO-NEVPT2, F12-NEVPT2, CIM, IAO-localization        
  Andreas Hansen         : Spin unrestricted coupled pair/coupled cluster methods 
  Ingolf Harden          : AUTO-CI MPn and infrastructure                
  Benjamin Helmich-Paris : MC-RPA, TRAH-(SCF,CASSCF), AVAS, COSX integrals, SCF dyn. polar., MC-PDFT, srDFT 
  Lee Huntington         : MR-EOM, pCC                                   
  Robert Izsak           : Overlap fitted RIJCOSX, COSX-SCS-MP3, EOM     
  Riya Kayal             : Wick's Theorem for AUTO-CI, AUTO-CI UHF-CCSDT 
  Emily Kempfer          : AUTO-CI RHF CISDT and CCSDT, approximate NEVPT4
  Christian Kollmar      : KDIIS, OOCD, Brueckner-CCSD(T), CCSD density, CASPT2, CASPT2-K, improved NEVPT2 
  Axel Koslowski         : Symmetry handling                             
  Simone Kossmann        : meta-GGA functionals, TD-DFT gradient, OOMP2, (MP2 Hessian; deprecated post 5.0) 
  Lucas Lang             : DCDCAS, Hyperfine gauge corrections, ICE-SOC+SSC
  Marvin Lechner         : AUTO-CI (C++ implementation), FIC-MRCC        
  Spencer Leger          : CASSCF response                               
  Dagmar Lenk            : GEPOL surface, SMD, ORCA-2-JSON               
  Dimitrios Liakos       : Extrapolation schemes; Compound Job, Property file
  Dimitrios Manganas     : Further ROCIS development; embedding schemes. LFT, Crystal Embedding 
  Dimitrios Pantazis     : SARC Basis sets                               
  Anastasios Papadopoulos: AUTO-CI, single reference methods and gradients 
  Taras Petrenko         : pre 6.0 DFT Hessian and TD-DFT gradient,  ECA, NRVS 
  Petra Pikulova         : Analytic Raman intensities                    
  Peter Pinski           : DLPNO-MP2, DLPNO-MP2 Gradient                 
  Shashank Vittal Rao    : ES-AILFT, MagRelax                            
  Christoph Reimann      : Effective Core Potentials                     
  Marius Retegan         : Local ZFS, SOC                                
  Christoph Riplinger    : Optimizer, TS searches, QM/MM, DLPNO-CCSD(T), (RO)-DLPNO pert. Triples 
  Michael Roemelt        : Original ROCIS implementation, recursive CI coupling coefficients
  Masaaki Saitow         : Open-shell DLPNO-CCSD energy and density      
  Barbara Sandhoefer     : DKH picture change effects                    
  Yorick L. A. Schmerwitz: GMF and freeze-and-release deltaSCF, NEB S-IDPP initial path                    
  Kantharuban Sivalingam : CASSCF convergence/infrastructure, NEVPT2, NEVPT3, NEVPT4(SD), FIC-MRCI and CEPA variants
  Bernardo de Souza      : ESD, SOC TD-DFT                               
  Georgi L. Stoychev     : AutoAux, RI-MP2 NMR, DLPNO-MP2 response, X2C  
  Van Anh Tran           : RI-MP2 g-tensors                              
  Willem Van den Heuvel  : Paramagnetic NMR                              
  Zikuan Wang            : NOTCH, Electric field optimization            
  Frank Wennmohs         : Technical directorship and infrastructure     
  Hang Xu                : AUTO-CI-Response properties                   
                                                                         
[FACCTs GmbH]                                                            
  Markus Bursch, Nicolas Foglia, Miquel Garcia-Rates, Ingolf Harden, Hagen Neugebauer, Anastasios Papadopoulos, 
  Christoph Riplinger, Bernardo de Souza, Georgi L. Stoychev                                                    
                                                                 
  APM, various basis sets, CI-OPT, improved COSX, DLPNO-Multilevel,           
  DOCKER, DRACO, updates on ESD, Fragmentator, GOAT, IRC, LR-CPCM, L-BFGS, MBIS, meta-GGA TD-DFT gradient, ML-optimized integration grids, 
  MM, NACMEs, nearIR, NEB, NEB-TS, NL-DFT gradient (VV10), 2- and 3-layer-ONIOM, interface openCOSMO-RS, QMMM,   
  Crystal-QMMM, RESP, rigid body optimization, SF, symmetry and pop. for TD-DFT, various functionals, SOLVATOR                                   
                                                                         
[Other institutions]                                                     
  V. Asgeirsson          : NEB                                           
  Christoph Bannwarth    : sTDA-DFT, sTD-DFT, PBEh-3c, B97-3c, D3        
  Giovanni Bistoni       : ETS/NOCV, ADLD/ADEX, COVALED                  
  Martin Brehm           : Molecular dynamics                            
  Ronald Cardenas        : ETS/NOCV                                      
  Martina Colucci        : COVALED                                       
  Sebastian Ehlert       : rSCAN, r2SCAN, r2SCAN-3c, D4, dhf basis sets  
  Marvin Friede          : D4 for Fr, Ra, Ac-Lr                          
  Lars Goerigk           : TD-DFT with DH, B97 family of functionals     
  Stefan Grimme          : VdW corrections, initial TS optimization, DFT functionals, gCP, sTDA/sTD-DF 
  Waldemar Hujo          : DFT-NL                                        
  H. Jonsson             : NEB                                           
  Holger Kruse           : gCP                                           
  Marcel Mueller         : wB97X-3c, vDZP basis set                      
  Hagen Neugebauer       : wr2SCAN, Native XTB                           
  Gianluca Regni         : ADLD/ADEX                                     
  Tobias Risthaus        : pre 6.0 range-separated hybrid DFT and stability analysis
  Lukas Wittmann         : regularized MP2, r2SCAN double-hybrids, wr2SCAN        
                                                                         
We gratefully acknowledge several colleagues who have allowed us to      
interface, adapt or use parts of their codes:                            
  Ed Valeev, F. Pavosevic, A. Kumar             : LibInt (2-el integral package), F12 methods 
  Garnet Chan, S. Sharma, J. Yang, R. Olivares  : DMRG                   
  Ulf Ekstrom                                   : XCFun DFT Library      
  Mihaly Kallay                                 : mrcc  (arbitrary order and MRCC methods)
  Frank Weinhold                                : gennbo (NPA and NBO analysis)           
  Simon Mueller                                 : openCOSMO-RS                            
  Christopher J. Cramer and Donald G. Truhlar   : smd solvation model                     
  S Lehtola, MJT Oliveira, MAL Marques          : LibXC Library                           
  Liviu Ungur et al                             : ANISO software                          


 Your calculation uses the libint2 library for the computation of 2-el integrals
 For citations please refer to: http://libint.valeyev.net

 Your ORCA version has been built with support for libXC version: 7.0.0
 For citations please refer to: https://libxc.gitlab.io

 This ORCA versions uses:
   CBLAS   interface :  Fast vector & matrix operations
   LAPACKE interface :  Fast linear algebra routines
   SCALAPACK package :  Parallel linear algebra routines
   Shared memory     :  Shared parallel matrices
   BLAS/LAPACK       :  OpenBLAS 0.3.29  USE64BITINT DYNAMIC_ARCH NO_AFFINITY Haswell SINGLE_THREADED
        Core in use  :  Haswell
   Copyright (c) 2011-2014, The OpenBLAS Project


  ***********************************
  * Starting time: Sun Aug  9 16:32:19 2026
  * Host name:     localhost.localdomain
  * Process ID:    2920482
  * Working dir.:  /home/dinglab/calculation/templates/NMR_modules/autohnmr/alpha_diol_screening/CONF4/b3lyp-3c
  ***********************************

NOTE: MaxCore=2500 MB was set to SCF,MP2,MDCI,CIPSI,MRCI,RASCI and CIS
      => If you want to overwrite this, your respective input block should be placed after the MaxCore statement


***************************************
The coordinates will be read from file: inp.xyz
***************************************


Your calculation utilizes the geometrical counterpoise correction gCP
Please cite in your paper:
H.Kruse, S. Grimme J.Chem.Phys., 136, (2012), 154101 
   

Your calculation utilizes the atom-pairwise dispersion correction
with the Becke-Johnson damping scheme (D3BJ)


Warning: RI is on but no J-basis has been assigned. Assigning Def2/J (nothing to worry about!)
================================================================================

----- Orbital basis set information -----
Your calculation utilizes the basis: def2-mSVP

----- AuxJ basis set information -----
Your calculation utilizes the auxiliary basis: def2/J
   H-Rn: F. Weigend, Phys. Chem. Chem. Phys. 8, 1057 (2006).
   Fr-Lr: K. Eichkorn, F. Weigend, O. Treutler, R. Ahlrichs; Theor. Chem. Acc. 97, 119 (1997).

================================================================================
                                        WARNINGS
                       Please study these warnings very carefully!
================================================================================

WARNING: Old DensityContainer found on disk!
         Will remove this file - 
         If you want to keep old densities, please start your calculation with a different basename. 


WARNING: Gradients are needed
  ===> : At least TightSCF should be used for SCF convergence

================================================================================
                                       INPUT FILE
================================================================================
NAME = inp
|  1> ! b3lyp
|  2> ! d3bj ABC
|  3> ! def2-mSVP
|  4> ! GCP(DFT/SV(P))
|  5> ! DEFGRID2
|  6> ! scfconv6
|  7> ! miniprint nopop noautostart
|  8> %MaxCore 2500
|  9> ! ENGRAD
| 10> %pal
| 11>     nprocs 12
| 12> end
| 13> ! CPCM(chloroform)
| 14> * xyzfile 0 1 inp.xyz
| 15> 
| 16>                          ****END OF INPUT****
================================================================================

                     *******************************
                     * Energy+Gradient Calculation *
                     *******************************

---------------------------------
CARTESIAN COORDINATES (ANGSTROEM)
---------------------------------
  C      0.122796   -0.568252    0.426807
  C     -0.978049    0.528182    0.723183
  C     -0.366095    1.959576    0.565001
  C      0.585731    2.144482   -0.640688
  C      1.541561    0.932631   -0.811876
  C      0.685292   -0.336361   -1.008942
  C      1.374411   -0.279882    1.328131
  C      2.269538    0.640557    0.495052
  O      1.431923   -1.456900   -1.518300
  C     -0.364231   -2.018366    0.653522
  C      3.483732    1.085010    0.838090
  C     -2.313887    0.343960   -0.013025
  C     -2.593210    0.865163   -1.219649
  H     -1.214029    0.414251    1.796373
  O     -1.227190   -2.529309   -0.366126
  C     -3.390792   -0.401146    0.755793
  H     -1.178229    2.700673    0.517685
  H      0.198953    2.189060    1.482454
  H      0.021792    2.279437   -1.577486
  H      1.179200    3.062003   -0.497287
  H      2.227643    1.110944   -1.654713
  H     -0.113795   -0.185285   -1.746836
  H      1.907904   -1.215751    1.567319
  H      1.098084    0.168271    2.295395
  H      2.236400   -1.578014   -0.971688
  H     -0.931221   -2.076229    1.596386
  H      0.516847   -2.675654    0.771588
  H      3.939360    0.835739    1.799724
  H      4.069155    1.721726    0.170351
  H     -3.577228    0.730982   -1.675341
  H     -1.877883    1.443901   -1.802962
  H     -0.682652   -2.610408   -1.177029
  H     -4.335953   -0.432705    0.194540
  H     -3.094266   -1.437716    0.971933
  H     -3.585101    0.089558    1.724907

----------------------------
CARTESIAN COORDINATES (A.U.)
----------------------------
  NO LB      ZA    FRAG     MASS         X           Y           Z
   0 C     6.0000    0    12.011    0.232051   -1.073840    0.806549
   1 C     6.0000    0    12.011   -1.848245    0.998119    1.366617
   2 C     6.0000    0    12.011   -0.691819    3.703063    1.067697
   3 C     6.0000    0    12.011    1.106871    4.052483   -1.210724
   4 C     6.0000    0    12.011    2.913129    1.762416   -1.534224
   5 C     6.0000    0    12.011    1.295015   -0.635630   -1.906624
   6 C     6.0000    0    12.011    2.597260   -0.528899    2.509803
   7 C     6.0000    0    12.011    4.288806    1.210476    0.935513
   8 O     8.0000    0    15.999    2.705943   -2.753143   -2.869171
   9 C     6.0000    0    12.011   -0.688297   -3.814159    1.234977
  10 C     6.0000    0    12.011    6.583299    2.050372    1.583761
  11 C     6.0000    0    12.011   -4.372612    0.649991   -0.024614
  12 C     6.0000    0    12.011   -4.900456    1.634921   -2.304802
  13 H     1.0000    0     1.008   -2.294182    0.782821    3.394652
  14 O     8.0000    0    15.999   -2.319054   -4.779701   -0.691878
  15 C     6.0000    0    12.011   -6.407669   -0.758055    1.428242
  16 H     1.0000    0     1.008   -2.226531    5.103533    0.978283
  17 H     1.0000    0     1.008    0.375966    4.136724    2.801431
  18 H     1.0000    0     1.008    0.041182    4.307513   -2.981017
  19 H     1.0000    0     1.008    2.228366    5.786347   -0.939736
  20 H     1.0000    0     1.008    4.209636    2.099379   -3.126954
  21 H     1.0000    0     1.008   -0.215041   -0.350138   -3.301041
  22 H     1.0000    0     1.008    3.605416   -2.297436    2.961804
  23 H     1.0000    0     1.008    2.075078    0.317986    4.337668
  24 H     1.0000    0     1.008    4.226183   -2.982014   -1.836224
  25 H     1.0000    0     1.008   -1.759753   -3.923504    3.016732
  26 H     1.0000    0     1.008    0.976700   -5.056253    1.458090
  27 H     1.0000    0     1.008    7.444312    1.579317    3.400986
  28 H     1.0000    0     1.008    7.689588    3.253590    0.321917
  29 H     1.0000    0     1.008   -6.759982    1.381356   -3.165936
  30 H     1.0000    0     1.008   -3.548685    2.728577   -3.407105
  31 H     1.0000    0     1.008   -1.290025   -4.932956   -2.224262
  32 H     1.0000    0     1.008   -8.193765   -0.817693    0.367628
  33 H     1.0000    0     1.008   -5.847315   -2.716890    1.836687
  34 H     1.0000    0     1.008   -6.774859    0.169241    3.259601



           ************************************************************
           *        Program running with 12 parallel MPI-processes    *
           *              working on a common directory               *
           ************************************************************
------------------------------------------------------------------------------
                   ___                                                        
                  /   \      - P O W E R E D   B Y -                         
                 /     \                                                     
                 |  |  |   _    _      __       _____    __    __             
                 |  |  |  | |  | |    /  \     |  _  \  |  |  /  |          
                  \  \/   | |  | |   /    \    | | | |  |  | /  /          
                 / \  \   | |__| |  /  /\  \   | |_| |  |  |/  /          
                |  |  |   |  __  | /  /__\  \  |    /   |      \           
                |  |  |   | |  | | |   __   |  |    \   |  |\   \          
                \     /   | |  | | |  |  |  |  | |\  \  |  | \   \       
                 \___/    |_|  |_| |__|  |__|  |_| \__\ |__|  \__/        
                                                                              
                      - O R C A' S   B I G   F R I E N D -                    
                                      &                                       
                       - I N T E G R A L  F E E D E R -                       
                                                                              
 v1 FN, 2020, v2 2021, v3 2022-2024                                           
------------------------------------------------------------------------------


----------------------
SHARK INTEGRAL PACKAGE
----------------------

Number of atoms                             ...     35
Number of basis functions                   ...    265
Number of shells                            ...    145
Maximum angular momentum                    ...      2
Integral batch strategy                     ... SHARK/LIBINT Hybrid
RI-J (if used) integral strategy            ... SPLIT-RIJ (Revised 2003 algorithm where possible)
Printlevel                                  ...      1
Contraction scheme used                     ... SEGMENTED contraction
Prescreening option                         ... SCHWARTZ
   Thresh                                   ... 1.000e-10
   Tcut                                     ... 1.000e-11
   Tpresel                                  ... 1.000e-11 
Coulomb Range Separation                    ... NOT USED
Exchange Range Separation                   ... NOT USED
Multipole approximations                    ... NOT USED
Finite Nucleus Model                        ... NOT USED
CABS basis                                  ... NOT available
Auxiliary Coulomb fitting basis             ... AVAILABLE
   # of basis functions in Aux-J            ...    955
   # of shells in Aux-J                     ...    325
   Maximum angular momentum in Aux-J        ...      4
Auxiliary J/K fitting basis                 ... NOT available
Auxiliary Correlation fitting basis         ... NOT available
Auxiliary 'external' fitting basis          ... NOT available

Checking pre-screening integrals            ... done (  0.0 sec) Dimension = 145
   => SHARK Basis and OBASIS are compatible. Storing Pre-screening
Shell pair information
Shell pair cut-off parameter TPreSel        ...   1.0e-11
Total number of shell pairs                 ...     10585
Shell pairs after pre-screening             ...      8876
Total number of primitive shell pairs       ...     38205
Primitive shell pairs kept                  ...     20875
          la=0 lb=0:   3912 shell pairs
          la=1 lb=0:   2756 shell pairs
          la=1 lb=1:    457 shell pairs
          la=2 lb=0:   1218 shell pairs
          la=2 lb=1:    427 shell pairs
          la=2 lb=2:    106 shell pairs

Checking whether 4 symmetric matrices of dimension 265 fit in memory
:Max Core in MB      =   2500.00
 MB in use           =     14.35
 MB left             =   2485.65
 MB needed           =      1.08
 Data fit in memory  = YES
Calculating RI/J V-Matrix + Cholesky decomp.... done (  0.0 sec)
Calculating Nuclear repulsion               ... done (  0.0 sec) ENN=   1109.791414916893 Eh

Diagonalization of the overlap matrix:
Smallest eigenvalue                        ... 1.941e-03
Time for diagonalization                   ...    0.013 sec
Threshold for overlap eigenvalues          ... 1.000e-07
Number of eigenvalues below threshold      ... 0
Time for construction of square roots      ...    0.004 sec
Total time needed                          ...    0.017 sec

-------------------
DFT GRID GENERATION
-------------------

General Integration Accuracy     IntAcc      ... 4.388
Radial Grid Type                 RadialGrid  ... OptM3 with GC (2021)
Angular Grid (max. ang.)         AngularGrid ... 4 (Lebedev-302)
Angular grid pruning method      GridPruning ... 4 (adaptive)
Weight generation scheme         WeightScheme... mBecke (2022)
Basis function cutoff            BFCut       ... 1.0000e-10
Integration weight cutoff        WCut        ... 1.0000e-14
Partially contracted basis set               ... off
Rotationally invariant grid construction     ... off
Angular grids for H and He will be reduced by one unit

Total number of grid points                  ...   152277
Total number of batches                      ...     2395
Average number of points per batch           ...       63
Average number of grid points per atom       ...     4351

--------------------
COSX GRID GENERATION
--------------------

GRIDX 1
-------
General Integration Accuracy     IntAcc      ... 3.816
Radial Grid Type                 RadialGrid  ... OptM3 with GC (2021)
Angular Grid (max. ang.)         AngularGrid ... 1 (Lebedev-50)
Angular grid pruning method      GridPruning ... 4 (adaptive)
Weight generation scheme         WeightScheme... mBecke (2022)
Basis function cutoff            BFCut       ... 1.0000e-10
Integration weight cutoff        WCut        ... 1.0000e-14
Partially contracted basis set               ... on
Rotationally invariant grid construction     ... off
Angular grids for H and He will be reduced by one unit

Total number of grid points                  ...    19390
Total number of batches                      ...      173
Average number of points per batch           ...      112
Average number of grid points per atom       ...      554
UseSFitting                                  ... on

GRIDX 2
-------
General Integration Accuracy     IntAcc      ... 4.020
Radial Grid Type                 RadialGrid  ... OptM3 with GC (2021)
Angular Grid (max. ang.)         AngularGrid ... 2 (Lebedev-110)
Angular grid pruning method      GridPruning ... 4 (adaptive)
Weight generation scheme         WeightScheme... mBecke (2022)
Basis function cutoff            BFCut       ... 1.0000e-10
Integration weight cutoff        WCut        ... 1.0000e-14
Partially contracted basis set               ... on
Rotationally invariant grid construction     ... off
Angular grids for H and He will be reduced by one unit

Total number of grid points                  ...    40644
Total number of batches                      ...      336
Average number of points per batch           ...      120
Average number of grid points per atom       ...     1161
UseSFitting                                  ... on

GRIDX 3
-------
General Integration Accuracy     IntAcc      ... 4.338
Radial Grid Type                 RadialGrid  ... OptM3 with GC (2021)
Angular Grid (max. ang.)         AngularGrid ... 3 (Lebedev-194)
Angular grid pruning method      GridPruning ... 4 (adaptive)
Weight generation scheme         WeightScheme... mBecke (2022)
Basis function cutoff            BFCut       ... 1.0000e-10
Integration weight cutoff        WCut        ... 1.0000e-14
Partially contracted basis set               ... on
Rotationally invariant grid construction     ... off
Angular grids for H and He will be reduced by one unit

Total number of grid points                  ...    88260
Total number of batches                      ...      710
Average number of points per batch           ...      124
Average number of grid points per atom       ...     2522
UseSFitting                                  ... on
Grids setup in   1.6 sec
Initializing property integral containers    ... done (  0.0 sec)

SHARK setup successfully completed in   1.8 seconds

Maximum memory used throughout the entire STARTUP-calculation: 40.7 MB


           ************************************************************
           *        Program running with 12 parallel MPI-processes    *
           *              working on a common directory               *
           ************************************************************
Loading Hartree-Fock densities                     ... done
Calculating cut-offs                               ... done
Initializing the effective Hamiltonian             ... done
Setting up the integral package (SHARK)            ... done
Starting the Coulomb interaction                   ... done (   0.1 sec)
Making the grid                                    ... done (   0.2 sec)
Mapping shells                                     ... done
Starting the XC term evaluation                    ... done (   0.1 sec)
  promolecular density results
     # of electrons  =    113.986518728
     EX              =    -89.142701501
     EC              =     -3.804053301
     EX+EC           =    -92.946754803
Transforming the Hamiltonian                       ... done (   0.0 sec)
Diagonalizing the Hamiltonian                      ... done (   0.0 sec)
Back transforming the eigenvectors                 ... done (   0.0 sec)
Now organizing SCF variables                       ... done
             **** ENERGY FILE WAS UPDATED (inp.en.tmp) ****
Finished Guess after   0.5 sec
Maximum memory used throughout the entire GUESS-calculation: 17.7 MB


           ************************************************************
           *        Program running with 12 parallel MPI-processes    *
           *              working on a common directory               *
           ************************************************************
--------------------
CPCM SOLVATION MODEL
--------------------
CPCM parameters:
  Epsilon                                         ...       4.8030
  Refrac                                          ...       1.4459
  Rsolv                                           ...       1.3000
  Surface type                                    ... GAUSSIAN VDW
  Discretization scheme                           ... Constant charge density
    Threshold for H atoms                         ...       5.0000 (charges/Ang^2)
    Threshold for non-H atoms                     ...       5.0000 (charges/Ang^2)
  Epsilon function type                           ...         CPCM
Solvent:                                          ... CHLOROFORM
Radii:
  Scheme                                          ... Element-dependent radii
  Radius for C  used is    3.8550 Bohr (=   2.0400 Ang.)
  Radius for O  used is    3.4469 Bohr (=   1.8240 Ang.)
  Radius for H  used is    2.4944 Bohr (=   1.3200 Ang.)
Calculating surface                               ...        done! (  0.0s)
Cavity surface points                             ...         2563
Cavity Volume                                     ...    1810.3693
Cavity Surface-area                               ...     908.0778
Calculating surface distance matrix               ...        done! (  0.1s)
Performing Cholesky decomposition & store         ...        done! (  0.2s)
Overall time for CPCM initialization              ...                 0.3s

----------------------------------------D-I-I-S--------------------------------------------
Iteration    Energy (Eh)           Delta-E    RMSDP     MaxDP     DIISErr   Damp  Time(sec)
-------------------------------------------------------------------------------------------
               ***  Starting incremental Fock matrix formation  ***
    1    -656.9460611694166801     0.00e+00  8.75e-03  7.12e-02  2.34e-01  0.700   2.1
    2    -657.1354326979503639    -1.89e-01  6.31e-03  3.99e-02  1.02e-01  0.700   1.3
                               ***Turning on AO-DIIS***
    3    -657.2142843888052539    -7.89e-02  2.53e-03  1.59e-02  3.77e-02  0.700   1.3
    4    -657.2603919162691000    -4.61e-02  4.26e-03  2.39e-02  1.87e-02  0.000   1.2
    5    -657.3603539038374493    -1.00e-01  8.07e-04  4.66e-03  4.98e-03  0.000   1.3
                              *** Initializing SOSCF ***
---------------------------------------S-O-S-C-F--------------------------------------
Iteration    Energy (Eh)           Delta-E    RMSDP     MaxDP     MaxGrad    Time(sec)
--------------------------------------------------------------------------------------
    6    -657.3606888021063241    -3.35e-04  2.70e-04  1.75e-03  1.01e-03     1.2
               *** Restarting incremental Fock matrix formation ***
    7    -657.3606611349364357     2.77e-05  1.70e-04  1.41e-03  3.47e-04     2.1
    8    -657.3606559404051950     5.19e-06  9.18e-05  8.45e-04  6.60e-04     1.5
    9    -657.3606647762339890    -8.84e-06  1.47e-05  1.33e-04  3.17e-05     1.4
                  *** Gradient check signals convergence ***

               *****************************************************
               *                     SUCCESS                       *
               *           SCF CONVERGED AFTER   9 CYCLES          *
               *****************************************************

Recomputing exchange energy using gridx3       ... done (    2.843 sec)
Old exchange energy                            :    -18.194904230 Eh
New exchange energy                            :    -18.194970757 Eh
Exchange energy change after final integration :     -0.000066527 Eh
Total energy after final integration           :   -657.360731218 Eh
             **** ENERGY FILE WAS UPDATED (inp.en.tmp) ****

----------------
TOTAL SCF ENERGY
----------------

Total Energy       :       -657.36073121779680 Eh          -17887.69489 eV

Components:
Nuclear Repulsion  :       1109.79141491689325 Eh           30198.95969 eV
Electronic Energy  :      -1767.14124308274882 Eh          -48086.35789 eV
One Electron Energy:      -3096.72257204834796 Eh          -84266.10519 eV
Two Electron Energy:       1329.58132896559914 Eh           36179.74730 eV
CPCM Dielectric    :         -0.01083652483130 Eh              -0.29488 eV

Virial components:
Potential Energy   :      -1309.67162600354459 Eh          -35637.97674 eV
Kinetic Energy     :        652.31089478574768 Eh           17750.28185 eV
Virial Ratio       :          2.00774145652390

DFT components:
N(Alpha)           :       56.999973574295 electrons
N(Beta)            :       56.999973574295 electrons
N(Total)           :      113.999947148589 electrons
E(X)               :      -72.169660381296 Eh       
E(C)               :       -4.481507896683 Eh       
E(XC)              :      -76.651168277978 Eh       

CPCM Solvation Model Properties:
Surface-charge          :         -0.02207276036958
Corrected charge        :          0.00000000000000
Outlying charge corr.   :          0.00002411308055 Eh               0.00066 eV
Free-energy (cav+disp)  :  This term is not implemented in the current solvation scheme

---------------
SCF CONVERGENCE
---------------

  Last Energy change         ...    8.8358e-06  Tolerance :   1.0000e-06
  Last MAX-Density change    ...    1.3317e-04  Tolerance :   1.0000e-07
  Last RMS-Density change    ...    1.4706e-05  Tolerance :   5.0000e-09
  Last DIIS Error            ...    1.0084e-03  Tolerance :   1.0000e-06
  Last Orbital Gradient      ...    3.1673e-05  Tolerance :   3.3300e-04
  Last Orbital Rotation      ...    1.0506e-04  Tolerance :   3.3300e-04


----------------
ORBITAL ENERGIES
----------------

  NO   OCC          E(Eh)            E(eV) 
   0   2.0000     -19.134789      -520.6841 
   1   2.0000     -19.122578      -520.3518 
   2   2.0000     -10.221093      -278.1301 
   3   2.0000     -10.214272      -277.9445 
   4   2.0000     -10.187621      -277.2193 
   5   2.0000     -10.186920      -277.2002 
   6   2.0000     -10.184314      -277.1293 
   7   2.0000     -10.183869      -277.1172 
   8   2.0000     -10.179273      -276.9921 
   9   2.0000     -10.176672      -276.9213 
  10   2.0000     -10.173767      -276.8423 
  11   2.0000     -10.170324      -276.7486 
  12   2.0000     -10.165048      -276.6050 
  13   2.0000     -10.161566      -276.5103 
  14   2.0000     -10.156909      -276.3835 
  15   2.0000      -1.012059       -27.5395 
  16   2.0000      -0.996589       -27.1186 
  17   2.0000      -0.854689       -23.2573 
  18   2.0000      -0.797188       -21.6926 
  19   2.0000      -0.759446       -20.6656 
  20   2.0000      -0.751429       -20.4474 
  21   2.0000      -0.714023       -19.4296 
  22   2.0000      -0.670432       -18.2434 
  23   2.0000      -0.665001       -18.0956 
  24   2.0000      -0.662743       -18.0342 
  25   2.0000      -0.614006       -16.7080 
  26   2.0000      -0.583359       -15.8740 
  27   2.0000      -0.555089       -15.1047 
  28   2.0000      -0.522533       -14.2189 
  29   2.0000      -0.509411       -13.8618 
  30   2.0000      -0.502982       -13.6868 
  31   2.0000      -0.478732       -13.0270 
  32   2.0000      -0.460836       -12.5400 
  33   2.0000      -0.455005       -12.3813 
  34   2.0000      -0.437764       -11.9122 
  35   2.0000      -0.430180       -11.7058 
  36   2.0000      -0.425224       -11.5709 
  37   2.0000      -0.415913       -11.3176 
  38   2.0000      -0.402646       -10.9566 
  39   2.0000      -0.401117       -10.9149 
  40   2.0000      -0.390854       -10.6357 
  41   2.0000      -0.387724       -10.5505 
  42   2.0000      -0.379229       -10.3194 
  43   2.0000      -0.373619       -10.1667 
  44   2.0000      -0.370059       -10.0698 
  45   2.0000      -0.352336        -9.5876 
  46   2.0000      -0.347212        -9.4481 
  47   2.0000      -0.329601        -8.9689 
  48   2.0000      -0.325020        -8.8442 
  49   2.0000      -0.317826        -8.6485 
  50   2.0000      -0.311035        -8.4637 
  51   2.0000      -0.303058        -8.2466 
  52   2.0000      -0.292079        -7.9479 
  53   2.0000      -0.264734        -7.2038 
  54   2.0000      -0.253332        -6.8935 
  55   2.0000      -0.241050        -6.5593 
  56   2.0000      -0.232152        -6.3172 
  57   0.0000       0.010111         0.2751 
  58   0.0000       0.024645         0.6706 
  59   0.0000       0.082631         2.2485 
  60   0.0000       0.099397         2.7047 
  61   0.0000       0.117267         3.1910 
  62   0.0000       0.123858         3.3704 
  63   0.0000       0.141692         3.8556 
  64   0.0000       0.144144         3.9224 
  65   0.0000       0.149561         4.0698 
  66   0.0000       0.155211         4.2235 
  67   0.0000       0.160037         4.3548 
*Only the first 10 virtual orbitals were printed.
Total SCF time: 0 days 0 hours 0 min 18 sec 
Finished LeanSCF after  18.2 sec

Maximum memory used throughout the entire LEANSCF-calculation: 31.6 MB


-------------------------------------------------------------------------------
                          DFT DISPERSION CORRECTION                            
                                                                               
                              DFTD3 V3.1  Rev 1                                
                          USING Becke-Johnson damping                          
-------------------------------------------------------------------------------
-------------------------   ----------------
Dispersion correction           -0.074292050
-------------------------   ----------------

NOTIFICATION: Different basis set in ORCA and otool_gcp:
ORCA: 265  gCP: 250 
If you are NOT using ECPs, check your basis set inputs!
------------------   -----------------
gCP correction             0.162391124
------------------   -----------------

-------------------------   --------------------
FINAL SINGLE POINT ENERGY      -657.272632144190
-------------------------   --------------------



           ************************************************************
           *        Program running with 12 parallel MPI-processes    *
           *              working on a common directory               *
           ************************************************************
------------------------------------------------------------------------------
                         ORCA SCF GRADIENT CALCULATION
------------------------------------------------------------------------------

Nuc. rep. gradient        (SHARK) ... done (  0.0 sec)
HCore & Overlap gradient  (SHARK) ... done (  0.1 sec)
Split-RIJ-J gradient      (SHARK) ... done (  0.6 sec)
COSX-gradient                     ... done (  6.7 sec)
XC gradient                       ... done (  2.2 sec)
CPCM gradient                     ... done (  0.7 sec)
Dispersion correction             ... done (  0.0 sec)

-------------------
DISPERSION GRADIENT
-------------------

   1   C   :    0.000279534   -0.000501698    0.000307306
   2   C   :   -0.000503862    0.000373432    0.000505597
   3   C   :   -0.000217290    0.000985373    0.000339707
   4   C   :    0.000229635    0.000960947   -0.000373933
   5   C   :    0.000608605    0.000317729   -0.000552093
   6   C   :    0.000610894   -0.000313399   -0.000696508
   7   C   :    0.000552214   -0.000270579    0.000740147
   8   C   :    0.000812794    0.000093012    0.000142480
   9   O   :    0.000372827   -0.000504756   -0.000709971
  10   C   :   -0.000040524   -0.001142703    0.000295006
  11   C   :    0.001191048    0.000271132    0.000365990
  12   C   :   -0.001255041    0.000230445    0.000026858
  13   C   :   -0.001130086    0.000352093   -0.000766579
  14   H   :   -0.000211861    0.000135066    0.000481379
  15   O   :   -0.000166476   -0.000956088   -0.000154165
  16   C   :   -0.000929725   -0.000039409    0.000233925
  17   H   :   -0.000110623    0.000499053    0.000175428
  18   H   :   -0.000123576    0.000476416    0.000361020
  19   H   :    0.000067485    0.000458042   -0.000365489
  20   H   :    0.000032828    0.000500804   -0.000151436
  21   H   :    0.000256809    0.000149489   -0.000401264
  22   H   :    0.000066706   -0.000134224   -0.000625314
  23   H   :    0.000253605   -0.000277803    0.000388306
  24   H   :    0.000144275   -0.000047406    0.000573923
  25   H   :    0.000323130   -0.000352776   -0.000329808
  26   H   :   -0.000056517   -0.000475875    0.000291015
  27   H   :   -0.000004545   -0.000480799    0.000153871
  28   H   :    0.000309198    0.000076331    0.000137005
  29   H   :    0.000362349    0.000109844    0.000053266
  30   H   :   -0.000217138    0.000081258   -0.000249041
  31   H   :   -0.000368268    0.000183731   -0.000423808
  32   H   :   -0.000086265   -0.000473230   -0.000231428
  33   H   :   -0.000297385   -0.000064108    0.000046162
  34   H   :   -0.000418733   -0.000191302    0.000177280
  35   H   :   -0.000336020   -0.000028039    0.000235167

Difference to translation invariance:
           :   -0.0000000000    0.0000000000   -0.0000000000

Difference to rotation invariance:
           :   -0.0000000000    0.0000000000    0.0000000000

Norm of the Dispersion gradient    ...    0.0046274233
RMS gradient                       ...    0.0004515903
MAX gradient                       ...    0.0012550406
gCP correction                   ... done

------------------
CARTESIAN GRADIENT
------------------

   1   C   :    0.000088972   -0.000161221   -0.000079937
   2   C   :   -0.000073650    0.000084168    0.000180813
   3   C   :    0.000056763    0.000158958   -0.000027345
   4   C   :   -0.000083834    0.000066142   -0.000018631
   5   C   :    0.000019273   -0.000016373   -0.000147566
   6   C   :   -0.000138445    0.000211418    0.000027007
   7   C   :    0.000047024   -0.000040962    0.000252428
   8   C   :    0.000290340    0.000063663    0.000084825
   9   O   :    0.000167601   -0.000175073   -0.000035934
  10   C   :    0.000174448   -0.000010534    0.000297063
  11   C   :   -0.000143455   -0.000067554    0.000004506
  12   C   :   -0.000072316    0.000062303   -0.000104210
  13   C   :   -0.000080195    0.000025575    0.000063281
  14   H   :    0.000015904    0.000035829   -0.000078128
  15   O   :   -0.000405890   -0.000088937    0.000348794
  16   C   :   -0.000210930   -0.000092576    0.000093189
  17   H   :    0.000059217   -0.000005751   -0.000012181
  18   H   :   -0.000002111   -0.000055224   -0.000050645
  19   H   :    0.000024757   -0.000020366    0.000005446
  20   H   :    0.000018767   -0.000007472    0.000016177
  21   H   :    0.000004184   -0.000017037    0.000043786
  22   H   :    0.000075534   -0.000026353   -0.000013672
  23   H   :   -0.000026099    0.000034640   -0.000096350
  24   H   :    0.000039413   -0.000048950   -0.000062515
  25   H   :   -0.000061239   -0.000008406   -0.000045585
  26   H   :   -0.000018228    0.000027084   -0.000122562
  27   H   :   -0.000075596    0.000050421   -0.000033107
  28   H   :   -0.000001991    0.000066177   -0.000050801
  29   H   :   -0.000028883   -0.000015648    0.000084818
  30   H   :   -0.000012266    0.000013308   -0.000046944
  31   H   :   -0.000048964   -0.000063636    0.000035825
  32   H   :    0.000270114   -0.000056265   -0.000485041
  33   H   :    0.000175772    0.000054214    0.000117573
  34   H   :   -0.000063544    0.000108542   -0.000058502
  35   H   :    0.000019554   -0.000084103   -0.000085875

Difference to translation invariance:
           :   -0.0000000000   -0.0000000000   -0.0000000000

Difference to rotation invariance:
           :   -0.0000090024    0.0001117497   -0.0007744883

Norm of the Cartesian gradient     ...    0.0012100517
RMS gradient                       ...    0.0001180890
MAX gradient                       ...    0.0004850410

-------
TIMINGS
-------

Total SCF gradient time     ....       10.364 sec

Densities                   ....       0.002 sec  (  0.0%)
One electron gradient       ....       0.136 sec  (  1.3%)
RI-J Coulomb gradient       ....       0.612 sec  (  5.9%)
COSX gradient               ....       6.700 sec  ( 64.6%)
XC gradient                 ....       2.187 sec  ( 21.1%)
CPCM gradient               ....       0.666 sec  (  6.4%)
   A-Matrix (El+Nuc)        ....       0.024 sec  (  0.2%)
   Potential                ....       0.641 sec  (  6.2%)

Maximum memory used throughout the entire SCFGRAD-calculation: 37.8 MB


           ************************************************************
           *        Program running with 12 parallel MPI-processes    *
           *              working on a common directory               *
           ************************************************************

------------------------------------------------------------------------------
                              ORCA PROPERTY CALCULATIONS
------------------------------------------------------------------------------

GBWName                                 ... inp.gbw
Number of atoms                         ...     35
Number of basis functions               ...    265
Max core memory                         ...   2500 MB

Electric properties:
Dipole moment                           ... YES
Quadrupole moment                       ...  NO
Static polarizability (Dipole/Dipole)   ...  NO
Static polarizability (Dipole/Quad.)    ...  NO
Static polarizability (Quad./Quad.)     ...  NO
Static polarizability (Velocity)        ...  NO
Static hyperpolarizability              ...  NO

Atomic electric properties:
Dipole moment                           ...  NO
Quadrupole moment                       ...  NO
Static polarizability                   ...  NO

Choice of electric origin               ... Center of mass
Position of electric origin             ...     0.006687    -0.003663    -0.011009

General magnetic properties:
Magnetizability                         ...  NO

EPR properties:
g-Tensor (aka g-matrix)                 ...  NO
Zero-Field splitting spin-orbit         ...  NO
Zero-field splitting spin-spin          ...  NO
Hyperfine couplings                     ...  NO (   0 nuclei)
Quadrupole couplings                    ...  NO (   0 nuclei)
Contact density                         ...  NO (   0 nuclei)

NMR properties:
Chemical shifts                         ...  NO (   0 nuclei)
Spin-rotation constants                 ...  NO (   0 nuclei)
Spin-spin couplings                     ...  NO (   0 nuclei,    0 pairs)

Choice of magnetic origin               ... GIAO
Position of magnetic origin             ...     0.000000     0.000000     0.000000

Properties with geometric perturbations:
SCF Hessian                             ...  NO
IR spectrum                             ...  NO
VCD spectrum                            ...  NO
X-ray spectroscopy properties:
SCF XES/XAS/RIXS spectra                ...  NO

SCF SOC stabilization energy            ...  NO
Diagonal Born-Oppenheimer correction    ...  NO

-------------
DIPOLE MOMENT
-------------

Method             : SCF
Type of density    : Electron Density
Multiplicity       :   1
Irrep              :   0
Energy             :  -657.3607312177967970 Eh
Basis              : AO
                                X                 Y                 Z
Electronic contribution:      3.880922012      -3.772109726      -3.001147841
Nuclear contribution   :     -3.060970681       4.231905246       3.632909251
                        -----------------------------------------
Total Dipole Moment    :      0.819951331       0.459795519       0.631761410
                        -----------------------------------------
Magnitude (a.u.)       :      1.132631707
Magnitude (Debye)      :      2.878921006



--------------------
Rotational spectrum 
--------------------
 
Rotational constants in cm-1:             0.030357             0.018021             0.014875 
Rotational constants in MHz :           910.066705           540.244005           445.946115 

Dipole components along the rotational axes: 
x,y,z [a.u.] :     0.923240    -0.285216     0.590876 
x,y,z [Debye]:     2.346689    -0.724961     1.501889 

 

Dipole moment calculation done in   0.0 sec 

Maximum memory used throughout the entire PROP-calculation: 16.6 MB

--------------------------------
SUGGESTED CITATIONS FOR THIS RUN
--------------------------------

Below you find a list of papers that are relevant to this ORCA run
We neither can nor want to force you to cite these papers, but we appreciate if you do
You receive ORCA, which is the product of decades of hard work by many enthusiastic individuals, for free
The only thing we kindly ask in return is that you cite our papers,
We deeply appreciate it, if you show your appreciation for ORCA by not just citing the generic ORCA reference.

Please note that relegating all ORCA citations to the supporting information does *not* help us.
SI sections are not indexed - citations you put there will not count into any citation statistics
But we need these citations in order to attract the funding resources that allow us to do what we are doing

Therefore, if you are a happy ORCA user, please consider citing a few of the papers listed below in the main body of your paper

In addition to the list printed below, the program has created the file inp.bibtex that contains the list in bibtex format
You can import this file easily into all common literature databanks and citation aid programs

It goes without saying that in many instances, there are alternative algorithms to achieve similar
results as the ones you have gotten from ORCA. It is, of course, also the case that in some instances
ORCA just re-implements algorithms worked out by others. We are fully aware of that and we are also
fully appreciative of our colleagues work. Hence this citation list should not be read as indicating
that the listed papers, which are focused on our own work, are the only ones worth citing. It simply
meant to make it easier for users to cite ORCA specific papers. It is not a substitute for doing your
own literature research and citing the relevant literature in a scientifically appropriate manner.

List of essential papers. We consider these as the minimum necessary citations

  1. Neese, F.
     Software update: the ORCA program system, version 6.0
     WIRES Comput. Molec. Sci. 2025 15(1), e70019
     doi.org/10.1002/wcms.70019

List of papers to cite with high priority. The work reported in these papers was absolutely
necessary for this run to complete.
Our perspective: the developers of density functionals and basis sets usually get cited in chemistry papers
Good! But without the algorithms to do something with them, the functionals or basis sets would not do anything.
Hence, in our opinion, the algorithm design and method developments papers are equally worthy of getting cited

  1. Neese, F.
     An improvement of the resolution of the identity approximation for the formation of the Coulomb matrix
     J. Comp. Chem. 2003 24(14), 1740-1747
     doi.org/10.1002/jcc.10318
  2. Neese, F.; Wennmohs, F.; Hansen, A.; Becker, U.
     Efficient, approximate and parallel Hartree-Fock and hybrid DFT calculations. A 'chain-of-spheres' algorithm for the Hartree-Fock exchange
     Chem. Phys. 2009 356(1-3), 98-109
     doi.org/10.1016/j.chemphys.2008.10.036
  3. Grimme, S.; Antony, J.; Ehrlich, S.; Krieg, H.
     A consistent and accurate ab initio parametrization of density functional dispersion correction (DFT-D) for the 94 elements H-Pu
     J. Chem. Phys. 2010 132 , 154104
     doi.org/10.1063/1.3382344
  4. Grimme, S.; Ehrlich, S.; Goerigk, L.
     Effect of the damping function in dispersion corrected density functional theory
     J. Comput. Chem. 2011 32(7), 1456-1465
     doi.org/10.1002/jcc.21759
  5. Garcia-Rates, M.; Neese, F.
     Effect of the Solute Cavity on the Solvation Energy and its Derivatives within the Framework of the Gaussian Charge Scheme
     J. Comput. Chem. 2020 41 , 922-939
     doi.org/10.1002/jcc.26139
  6. Helmich-Paris, B.; de Souza, B.; Neese, F.; Izsák, R.
     An improved chain of spheres for exchange algorithm
     J. Chem. Phys. 2021 155(10), 104109
     doi.org/10.1063/5.0058766
  7. Neese, F.
     The SHARK Integral Generation and Digestion System
     J. Comp. Chem. 2022 44(3), 381
     doi.org/10.1002/jcc.26942

List of suggested additional citations. These are papers that are important in the 'surrounding' of 
of this run, or papers that preceded the highly important papers. If you like your results we are grateful for a citation.

  1. Izsak, R.; Neese, F.
     An overlap fitted chain of spheres exchange method
     J. Chem. Phys. 2011 135 , 144105
     doi.org/10.1063/1.3646921
  2. Izsak, R.; Hansen, A.; Neese, F.
     The resolution of identity and chain of spheres approximations for the LPNO-CCSD singles Fock term
     Molec. Phys. 2012 110 , 2413-2417
     doi.org/10.1080/00268976.2012.687466
  3. Neese, F.
     The ORCA program system
     WIRES Comput. Molec. Sci. 2012 2(1), 73-78
     doi.org/10.1002/wcms.81
  4. Izsak, R.; Neese, F.; Klopper, W.
     Robust fitting techniques in the chain of spheres approximation to the Fock exchange: The role of the complementary space
     J. Chem. Phys. 2013 139 , 
     doi.org/10.1063/1.4819264
  5. Neese, F.
     Software update: the ORCA program system, version 4.0
     WIRES Comput. Molec. Sci. 2018 8(1), 1-6
     doi.org/10.1002/wcms.1327
  6. Neese, F.; Wennmohs, F.; Becker, U.; Riplinger, C.
     The ORCA quantum chemistry program package
     J. Chem. Phys. 2020 152(22), 224108
     doi.org/10.1063/5.0004608
  7. Neese, F.
     Software update: The ORCA program system—Version 5.0
     WIRES Comput. Molec. Sci. 2022 12(1), e1606
     doi.org/10.1002/wcms.1606

List of optional additional citations

  1. Neese, F.
     Approximate second-order SCF convergence for spin unrestricted wavefunctions
     Chem. Phys. Lett. 2000 325(1-3), 93-98
     doi.org/10.1016/s0009-2614(00)00662-x

Timings for individual modules:

Sum of individual times          ...       32.201 sec (=   0.537 min)
Startup calculation              ...        2.016 sec (=   0.034 min)   6.3 %
SCF iterations                   ...       19.132 sec (=   0.319 min)  59.4 %
Property calculations            ...        0.330 sec (=   0.005 min)   1.0 %
SCF Gradient evaluation          ...       10.723 sec (=   0.179 min)  33.3 %
                             ****ORCA TERMINATED NORMALLY****
TOTAL RUN TIME: 0 days 0 hours 0 minutes 32 seconds 522 msec
  ------------------------------------------------------------------------
          * successful ORCA run, taking over control again...
av. E:   -657.2726321 ->   -657.2726321
av. G:      0.0021493 ->      0.0021493
 * total energy  :  -657.2726321 Eh     change       -0.4954765E-05 Eh
   gradient norm :     0.0012098 Eh/a0  converged?    E=T G=F D=F
   step length   :     0.0127254 a0

........................................................................
.............................. CYCLE    4 ..............................
........................................................................
                         * ORCA takes the control...
  ------------------------------------------------------------------------

                                 *****************
                                 * O   R   C   A *
                                 *****************

                                            #,                                       
                                            ###                                      
                                            ####                                     
                                            #####                                    
                                            ######                                   
                                           ########,                                 
                                     ,,################,,,,,                         
                               ,,#################################,,                 
                          ,,##########################################,,             
                       ,#########################################, ''#####,          
                    ,#############################################,,   '####,        
                  ,##################################################,,,,####,       
                ,###########''''           ''''###############################       
              ,#####''   ,,,,##########,,,,          '''####'''          '####       
            ,##' ,,,,###########################,,,                        '##       
           ' ,,###''''                  '''############,,,                           
         ,,##''                                '''############,,,,        ,,,,,,###''
      ,#''                                            '''#######################'''  
     '                                                          ''''####''''         
             ,#######,   #######,   ,#######,      ##                                
            ,#'     '#,  ##    ##  ,#'     '#,    #''#        ,####,    ,#,          
            ##       ##  ##   ,#'  ##            #'  '#       #'       ,# #          
            ##       ##  #######   ##           ,######,      #####,      #          
            '#,     ,#'  ##    ##  '#,     ,#' ,#      #,     #,   #      #          
             '#######'   ##     ##  '#######'  #'      '#     '####' #    #          



                #########################################################
                #                        -***-                          #
                #          Department of theory and spectroscopy        #
                #                                                       #
                #                      Frank Neese                      #
                #                                                       #
                #     Directorship, Architecture, Infrastructure        #
                #                    SHARK, DRIVERS                     #
                #        Core code/Algorithms in most modules           #
                #                                                       #
                #        Max Planck Institute fuer Kohlenforschung      #
                #                Kaiser Wilhelm Platz 1                 #
                #                 D-45470 Muelheim/Ruhr                 #
                #                      Germany                          #
                #                                                       #
                #                  All rights reserved                  #
                #                        -***-                          #
                #########################################################


                         Program Version 6.1.1  -  RELEASE   -
                                (GIT: $487d211c$)
                          ($2025-11-21 10:33:24 +0100$)


 With contributions from (in alphabetic order):
[Max-Planck-Institut fuer Kohlenforschung]                               
  Daniel Aravena         : Magnetic Suceptibility                        
  Michael Atanasov       : Ab Initio Ligand Field Theory (pilot matlab implementation)
  Alexander A. Auer      : GIAO ZORA, VPT2 properties, NMR spectrum      
  Ute Becker             : All parallelization in ORCA, NUMFREQ, NUMCALC 
  Giovanni Bistoni       : ED, misc. LED, open-shell LED, HFLD           
  Dmytro Bykov           : pre 5.0 version of the SCF Hessian            
  Marcos Casanova-Páez   : Triplet and SCS-CIS(D). UHF-(DLPNO)-IP/EA/STEOM-CCSD. UHF-CVS-IP/STEOM-CCSD   
  Vijay G. Chilkuri      : MRCI spin determinant printing, contributions to CSF-ICE 
  Pauline Colinet        : FMM embedding                                 
  Dipayan Datta          : RHF DLPNO-CCSD density                        
  Achintya Kumar Dutta   : EOM-CC, STEOM-CC                              
  Nicolas Foglia         : Exact transition moments, OPA infrastructure, MCD improvements    
  Dmitry Ganyushin       : Spin-Orbit,Spin-Spin,Magnetic field MRCI      
  Miquel Garcia-Rates    : C-PCM and meta-GGA Hessian, CCSD/C-PCM, Gaussian charge scheme 
  Tiago L. C. Gouveia    : GS-ROHF, GS-ROCIS                             
  Yang Guo               : DLPNO-NEVPT2, F12-NEVPT2, CIM, IAO-localization        
  Andreas Hansen         : Spin unrestricted coupled pair/coupled cluster methods 
  Ingolf Harden          : AUTO-CI MPn and infrastructure                
  Benjamin Helmich-Paris : MC-RPA, TRAH-(SCF,CASSCF), AVAS, COSX integrals, SCF dyn. polar., MC-PDFT, srDFT 
  Lee Huntington         : MR-EOM, pCC                                   
  Robert Izsak           : Overlap fitted RIJCOSX, COSX-SCS-MP3, EOM     
  Riya Kayal             : Wick's Theorem for AUTO-CI, AUTO-CI UHF-CCSDT 
  Emily Kempfer          : AUTO-CI RHF CISDT and CCSDT, approximate NEVPT4
  Christian Kollmar      : KDIIS, OOCD, Brueckner-CCSD(T), CCSD density, CASPT2, CASPT2-K, improved NEVPT2 
  Axel Koslowski         : Symmetry handling                             
  Simone Kossmann        : meta-GGA functionals, TD-DFT gradient, OOMP2, (MP2 Hessian; deprecated post 5.0) 
  Lucas Lang             : DCDCAS, Hyperfine gauge corrections, ICE-SOC+SSC
  Marvin Lechner         : AUTO-CI (C++ implementation), FIC-MRCC        
  Spencer Leger          : CASSCF response                               
  Dagmar Lenk            : GEPOL surface, SMD, ORCA-2-JSON               
  Dimitrios Liakos       : Extrapolation schemes; Compound Job, Property file
  Dimitrios Manganas     : Further ROCIS development; embedding schemes. LFT, Crystal Embedding 
  Dimitrios Pantazis     : SARC Basis sets                               
  Anastasios Papadopoulos: AUTO-CI, single reference methods and gradients 
  Taras Petrenko         : pre 6.0 DFT Hessian and TD-DFT gradient,  ECA, NRVS 
  Petra Pikulova         : Analytic Raman intensities                    
  Peter Pinski           : DLPNO-MP2, DLPNO-MP2 Gradient                 
  Shashank Vittal Rao    : ES-AILFT, MagRelax                            
  Christoph Reimann      : Effective Core Potentials                     
  Marius Retegan         : Local ZFS, SOC                                
  Christoph Riplinger    : Optimizer, TS searches, QM/MM, DLPNO-CCSD(T), (RO)-DLPNO pert. Triples 
  Michael Roemelt        : Original ROCIS implementation, recursive CI coupling coefficients
  Masaaki Saitow         : Open-shell DLPNO-CCSD energy and density      
  Barbara Sandhoefer     : DKH picture change effects                    
  Yorick L. A. Schmerwitz: GMF and freeze-and-release deltaSCF, NEB S-IDPP initial path                    
  Kantharuban Sivalingam : CASSCF convergence/infrastructure, NEVPT2, NEVPT3, NEVPT4(SD), FIC-MRCI and CEPA variants
  Bernardo de Souza      : ESD, SOC TD-DFT                               
  Georgi L. Stoychev     : AutoAux, RI-MP2 NMR, DLPNO-MP2 response, X2C  
  Van Anh Tran           : RI-MP2 g-tensors                              
  Willem Van den Heuvel  : Paramagnetic NMR                              
  Zikuan Wang            : NOTCH, Electric field optimization            
  Frank Wennmohs         : Technical directorship and infrastructure     
  Hang Xu                : AUTO-CI-Response properties                   
                                                                         
[FACCTs GmbH]                                                            
  Markus Bursch, Nicolas Foglia, Miquel Garcia-Rates, Ingolf Harden, Hagen Neugebauer, Anastasios Papadopoulos, 
  Christoph Riplinger, Bernardo de Souza, Georgi L. Stoychev                                                    
                                                                 
  APM, various basis sets, CI-OPT, improved COSX, DLPNO-Multilevel,           
  DOCKER, DRACO, updates on ESD, Fragmentator, GOAT, IRC, LR-CPCM, L-BFGS, MBIS, meta-GGA TD-DFT gradient, ML-optimized integration grids, 
  MM, NACMEs, nearIR, NEB, NEB-TS, NL-DFT gradient (VV10), 2- and 3-layer-ONIOM, interface openCOSMO-RS, QMMM,   
  Crystal-QMMM, RESP, rigid body optimization, SF, symmetry and pop. for TD-DFT, various functionals, SOLVATOR                                   
                                                                         
[Other institutions]                                                     
  V. Asgeirsson          : NEB                                           
  Christoph Bannwarth    : sTDA-DFT, sTD-DFT, PBEh-3c, B97-3c, D3        
  Giovanni Bistoni       : ETS/NOCV, ADLD/ADEX, COVALED                  
  Martin Brehm           : Molecular dynamics                            
  Ronald Cardenas        : ETS/NOCV                                      
  Martina Colucci        : COVALED                                       
  Sebastian Ehlert       : rSCAN, r2SCAN, r2SCAN-3c, D4, dhf basis sets  
  Marvin Friede          : D4 for Fr, Ra, Ac-Lr                          
  Lars Goerigk           : TD-DFT with DH, B97 family of functionals     
  Stefan Grimme          : VdW corrections, initial TS optimization, DFT functionals, gCP, sTDA/sTD-DF 
  Waldemar Hujo          : DFT-NL                                        
  H. Jonsson             : NEB                                           
  Holger Kruse           : gCP                                           
  Marcel Mueller         : wB97X-3c, vDZP basis set                      
  Hagen Neugebauer       : wr2SCAN, Native XTB                           
  Gianluca Regni         : ADLD/ADEX                                     
  Tobias Risthaus        : pre 6.0 range-separated hybrid DFT and stability analysis
  Lukas Wittmann         : regularized MP2, r2SCAN double-hybrids, wr2SCAN        
                                                                         
We gratefully acknowledge several colleagues who have allowed us to      
interface, adapt or use parts of their codes:                            
  Ed Valeev, F. Pavosevic, A. Kumar             : LibInt (2-el integral package), F12 methods 
  Garnet Chan, S. Sharma, J. Yang, R. Olivares  : DMRG                   
  Ulf Ekstrom                                   : XCFun DFT Library      
  Mihaly Kallay                                 : mrcc  (arbitrary order and MRCC methods)
  Frank Weinhold                                : gennbo (NPA and NBO analysis)           
  Simon Mueller                                 : openCOSMO-RS                            
  Christopher J. Cramer and Donald G. Truhlar   : smd solvation model                     
  S Lehtola, MJT Oliveira, MAL Marques          : LibXC Library                           
  Liviu Ungur et al                             : ANISO software                          


 Your calculation uses the libint2 library for the computation of 2-el integrals
 For citations please refer to: http://libint.valeyev.net

 Your ORCA version has been built with support for libXC version: 7.0.0
 For citations please refer to: https://libxc.gitlab.io

 This ORCA versions uses:
   CBLAS   interface :  Fast vector & matrix operations
   LAPACKE interface :  Fast linear algebra routines
   SCALAPACK package :  Parallel linear algebra routines
   Shared memory     :  Shared parallel matrices
   BLAS/LAPACK       :  OpenBLAS 0.3.29  USE64BITINT DYNAMIC_ARCH NO_AFFINITY Haswell SINGLE_THREADED
        Core in use  :  Haswell
   Copyright (c) 2011-2014, The OpenBLAS Project


  ***********************************
  * Starting time: Sun Aug  9 16:32:52 2026
  * Host name:     localhost.localdomain
  * Process ID:    2921186
  * Working dir.:  /home/dinglab/calculation/templates/NMR_modules/autohnmr/alpha_diol_screening/CONF4/b3lyp-3c
  ***********************************

NOTE: MaxCore=2500 MB was set to SCF,MP2,MDCI,CIPSI,MRCI,RASCI and CIS
      => If you want to overwrite this, your respective input block should be placed after the MaxCore statement


***************************************
The coordinates will be read from file: inp.xyz
***************************************


Your calculation utilizes the geometrical counterpoise correction gCP
Please cite in your paper:
H.Kruse, S. Grimme J.Chem.Phys., 136, (2012), 154101 
   

Your calculation utilizes the atom-pairwise dispersion correction
with the Becke-Johnson damping scheme (D3BJ)


Warning: RI is on but no J-basis has been assigned. Assigning Def2/J (nothing to worry about!)
================================================================================

----- Orbital basis set information -----
Your calculation utilizes the basis: def2-mSVP

----- AuxJ basis set information -----
Your calculation utilizes the auxiliary basis: def2/J
   H-Rn: F. Weigend, Phys. Chem. Chem. Phys. 8, 1057 (2006).
   Fr-Lr: K. Eichkorn, F. Weigend, O. Treutler, R. Ahlrichs; Theor. Chem. Acc. 97, 119 (1997).

================================================================================
                                        WARNINGS
                       Please study these warnings very carefully!
================================================================================

WARNING: Old DensityContainer found on disk!
         Will remove this file - 
         If you want to keep old densities, please start your calculation with a different basename. 


WARNING: Gradients are needed
  ===> : At least TightSCF should be used for SCF convergence

================================================================================
                                       INPUT FILE
================================================================================
NAME = inp
|  1> ! b3lyp
|  2> ! d3bj ABC
|  3> ! def2-mSVP
|  4> ! GCP(DFT/SV(P))
|  5> ! DEFGRID2
|  6> ! scfconv6
|  7> ! miniprint nopop noautostart
|  8> %MaxCore 2500
|  9> ! ENGRAD
| 10> %pal
| 11>     nprocs 12
| 12> end
| 13> ! CPCM(chloroform)
| 14> * xyzfile 0 1 inp.xyz
| 15> 
| 16>                          ****END OF INPUT****
================================================================================

                     *******************************
                     * Energy+Gradient Calculation *
                     *******************************

---------------------------------
CARTESIAN COORDINATES (ANGSTROEM)
---------------------------------
  C      0.122635   -0.567854    0.427680
  C     -0.978055    0.527576    0.724055
  C     -0.367009    1.959046    0.566387
  C      0.584953    2.144785   -0.639278
  C      1.540341    0.932961   -0.811508
  C      0.684266   -0.336187   -1.008262
  C      1.374113   -0.278979    1.328365
  C      2.269288    0.640142    0.494285
  O      1.430375   -1.456189   -1.518317
  C     -0.364214   -2.017917    0.653912
  C      3.484892    1.082900    0.835688
  C     -2.312574    0.343649   -0.013584
  C     -2.590392    0.864827   -1.220645
  H     -1.214846    0.412853    1.797209
  O     -1.227073   -2.527548   -0.365853
  C     -3.389925   -0.401391    0.754349
  H     -1.180003    2.699369    0.518696
  H      0.197351    2.189689    1.484138
  H      0.020671    2.280383   -1.575850
  H      1.178377    3.062335   -0.495962
  H      2.225528    1.111551   -1.655159
  H     -0.115877   -0.184784   -1.745122
  H      1.907386   -1.214645    1.569722
  H      1.097507    0.170560    2.295157
  H      2.235657   -1.577035   -0.972542
  H     -0.930330   -2.076475    1.597568
  H      0.517071   -2.675447    0.771675
  H      3.940927    0.832988    1.797192
  H      4.070312    1.718872    0.166904
  H     -3.573942    0.729814   -1.677058
  H     -1.874673    1.443986   -1.803422
  H     -0.682864   -2.608389   -1.175618
  H     -4.334651   -0.435873    0.191284
  H     -3.092176   -1.437277    0.974033
  H     -3.586535    0.091834    1.722169

----------------------------
CARTESIAN COORDINATES (A.U.)
----------------------------
  NO LB      ZA    FRAG     MASS         X           Y           Z
   0 C     6.0000    0    12.011    0.231746   -1.073089    0.808198
   1 C     6.0000    0    12.011   -1.848256    0.996974    1.368265
   2 C     6.0000    0    12.011   -0.693546    3.702061    1.070316
   3 C     6.0000    0    12.011    1.105401    4.053057   -1.208060
   4 C     6.0000    0    12.011    2.910823    1.763042   -1.533528
   5 C     6.0000    0    12.011    1.293075   -0.635301   -1.905340
   6 C     6.0000    0    12.011    2.596698   -0.527194    2.510246
   7 C     6.0000    0    12.011    4.288333    1.209693    0.934064
   8 O     8.0000    0    15.999    2.703018   -2.751799   -2.869204
   9 C     6.0000    0    12.011   -0.688264   -3.813310    1.235715
  10 C     6.0000    0    12.011    6.585491    2.046385    1.579221
  11 C     6.0000    0    12.011   -4.370132    0.649403   -0.025671
  12 C     6.0000    0    12.011   -4.895131    1.634285   -2.306684
  13 H     1.0000    0     1.008   -2.295725    0.780178    3.396234
  14 O     8.0000    0    15.999   -2.318833   -4.776373   -0.691361
  15 C     6.0000    0    12.011   -6.406029   -0.758520    1.425512
  16 H     1.0000    0     1.008   -2.229882    5.101068    0.980194
  17 H     1.0000    0     1.008    0.372940    4.137913    2.804614
  18 H     1.0000    0     1.008    0.039063    4.309299   -2.977925
  19 H     1.0000    0     1.008    2.226809    5.786975   -0.937232
  20 H     1.0000    0     1.008    4.205638    2.100528   -3.127798
  21 H     1.0000    0     1.008   -0.218976   -0.349192   -3.297803
  22 H     1.0000    0     1.008    3.604438   -2.295347    2.966345
  23 H     1.0000    0     1.008    2.073987    0.322312    4.337218
  24 H     1.0000    0     1.008    4.224780   -2.980164   -1.837839
  25 H     1.0000    0     1.008   -1.758069   -3.923968    3.018967
  26 H     1.0000    0     1.008    0.977122   -5.055862    1.458254
  27 H     1.0000    0     1.008    7.447273    1.574119    3.396201
  28 H     1.0000    0     1.008    7.691774    3.248198    0.315402
  29 H     1.0000    0     1.008   -6.753772    1.379149   -3.169181
  30 H     1.0000    0     1.008   -3.542618    2.728738   -3.407973
  31 H     1.0000    0     1.008   -1.290427   -4.929140   -2.221595
  32 H     1.0000    0     1.008   -8.191303   -0.823680    0.361474
  33 H     1.0000    0     1.008   -5.843365   -2.716060    1.840656
  34 H     1.0000    0     1.008   -6.777568    0.173541    3.254429



           ************************************************************
           *        Program running with 12 parallel MPI-processes    *
           *              working on a common directory               *
           ************************************************************
------------------------------------------------------------------------------
                   ___                                                        
                  /   \      - P O W E R E D   B Y -                         
                 /     \                                                     
                 |  |  |   _    _      __       _____    __    __             
                 |  |  |  | |  | |    /  \     |  _  \  |  |  /  |          
                  \  \/   | |  | |   /    \    | | | |  |  | /  /          
                 / \  \   | |__| |  /  /\  \   | |_| |  |  |/  /          
                |  |  |   |  __  | /  /__\  \  |    /   |      \           
                |  |  |   | |  | | |   __   |  |    \   |  |\   \          
                \     /   | |  | | |  |  |  |  | |\  \  |  | \   \       
                 \___/    |_|  |_| |__|  |__|  |_| \__\ |__|  \__/        
                                                                              
                      - O R C A' S   B I G   F R I E N D -                    
                                      &                                       
                       - I N T E G R A L  F E E D E R -                       
                                                                              
 v1 FN, 2020, v2 2021, v3 2022-2024                                           
------------------------------------------------------------------------------


----------------------
SHARK INTEGRAL PACKAGE
----------------------

Number of atoms                             ...     35
Number of basis functions                   ...    265
Number of shells                            ...    145
Maximum angular momentum                    ...      2
Integral batch strategy                     ... SHARK/LIBINT Hybrid
RI-J (if used) integral strategy            ... SPLIT-RIJ (Revised 2003 algorithm where possible)
Printlevel                                  ...      1
Contraction scheme used                     ... SEGMENTED contraction
Prescreening option                         ... SCHWARTZ
   Thresh                                   ... 1.000e-10
   Tcut                                     ... 1.000e-11
   Tpresel                                  ... 1.000e-11 
Coulomb Range Separation                    ... NOT USED
Exchange Range Separation                   ... NOT USED
Multipole approximations                    ... NOT USED
Finite Nucleus Model                        ... NOT USED
CABS basis                                  ... NOT available
Auxiliary Coulomb fitting basis             ... AVAILABLE
   # of basis functions in Aux-J            ...    955
   # of shells in Aux-J                     ...    325
   Maximum angular momentum in Aux-J        ...      4
Auxiliary J/K fitting basis                 ... NOT available
Auxiliary Correlation fitting basis         ... NOT available
Auxiliary 'external' fitting basis          ... NOT available

Checking pre-screening integrals            ... done (  0.0 sec) Dimension = 145
   => SHARK Basis and OBASIS are compatible. Storing Pre-screening
Shell pair information
Shell pair cut-off parameter TPreSel        ...   1.0e-11
Total number of shell pairs                 ...     10585
Shell pairs after pre-screening             ...      8874
Total number of primitive shell pairs       ...     38205
Primitive shell pairs kept                  ...     20874
          la=0 lb=0:   3911 shell pairs
          la=1 lb=0:   2755 shell pairs
          la=1 lb=1:    457 shell pairs
          la=2 lb=0:   1218 shell pairs
          la=2 lb=1:    427 shell pairs
          la=2 lb=2:    106 shell pairs

Checking whether 4 symmetric matrices of dimension 265 fit in memory
:Max Core in MB      =   2500.00
 MB in use           =     14.34
 MB left             =   2485.66
 MB needed           =      1.08
 Data fit in memory  = YES
Calculating RI/J V-Matrix + Cholesky decomp.... done (  0.0 sec)
Calculating Nuclear repulsion               ... done (  0.0 sec) ENN=   1110.032057053400 Eh

Diagonalization of the overlap matrix:
Smallest eigenvalue                        ... 1.940e-03
Time for diagonalization                   ...    0.013 sec
Threshold for overlap eigenvalues          ... 1.000e-07
Number of eigenvalues below threshold      ... 0
Time for construction of square roots      ...    0.004 sec
Total time needed                          ...    0.018 sec

-------------------
DFT GRID GENERATION
-------------------

General Integration Accuracy     IntAcc      ... 4.388
Radial Grid Type                 RadialGrid  ... OptM3 with GC (2021)
Angular Grid (max. ang.)         AngularGrid ... 4 (Lebedev-302)
Angular grid pruning method      GridPruning ... 4 (adaptive)
Weight generation scheme         WeightScheme... mBecke (2022)
Basis function cutoff            BFCut       ... 1.0000e-10
Integration weight cutoff        WCut        ... 1.0000e-14
Partially contracted basis set               ... off
Rotationally invariant grid construction     ... off
Angular grids for H and He will be reduced by one unit

Total number of grid points                  ...   152274
Total number of batches                      ...     2395
Average number of points per batch           ...       63
Average number of grid points per atom       ...     4351

--------------------
COSX GRID GENERATION
--------------------

GRIDX 1
-------
General Integration Accuracy     IntAcc      ... 3.816
Radial Grid Type                 RadialGrid  ... OptM3 with GC (2021)
Angular Grid (max. ang.)         AngularGrid ... 1 (Lebedev-50)
Angular grid pruning method      GridPruning ... 4 (adaptive)
Weight generation scheme         WeightScheme... mBecke (2022)
Basis function cutoff            BFCut       ... 1.0000e-10
Integration weight cutoff        WCut        ... 1.0000e-14
Partially contracted basis set               ... on
Rotationally invariant grid construction     ... off
Angular grids for H and He will be reduced by one unit

Total number of grid points                  ...    19390
Total number of batches                      ...      173
Average number of points per batch           ...      112
Average number of grid points per atom       ...      554
UseSFitting                                  ... on

GRIDX 2
-------
General Integration Accuracy     IntAcc      ... 4.020
Radial Grid Type                 RadialGrid  ... OptM3 with GC (2021)
Angular Grid (max. ang.)         AngularGrid ... 2 (Lebedev-110)
Angular grid pruning method      GridPruning ... 4 (adaptive)
Weight generation scheme         WeightScheme... mBecke (2022)
Basis function cutoff            BFCut       ... 1.0000e-10
Integration weight cutoff        WCut        ... 1.0000e-14
Partially contracted basis set               ... on
Rotationally invariant grid construction     ... off
Angular grids for H and He will be reduced by one unit

Total number of grid points                  ...    40639
Total number of batches                      ...      336
Average number of points per batch           ...      120
Average number of grid points per atom       ...     1161
UseSFitting                                  ... on

GRIDX 3
-------
General Integration Accuracy     IntAcc      ... 4.338
Radial Grid Type                 RadialGrid  ... OptM3 with GC (2021)
Angular Grid (max. ang.)         AngularGrid ... 3 (Lebedev-194)
Angular grid pruning method      GridPruning ... 4 (adaptive)
Weight generation scheme         WeightScheme... mBecke (2022)
Basis function cutoff            BFCut       ... 1.0000e-10
Integration weight cutoff        WCut        ... 1.0000e-14
Partially contracted basis set               ... on
Rotationally invariant grid construction     ... off
Angular grids for H and He will be reduced by one unit

Total number of grid points                  ...    88257
Total number of batches                      ...      710
Average number of points per batch           ...      124
Average number of grid points per atom       ...     2522
UseSFitting                                  ... on
Grids setup in   1.6 sec
Initializing property integral containers    ... done (  0.0 sec)

SHARK setup successfully completed in   1.8 seconds

Maximum memory used throughout the entire STARTUP-calculation: 40.7 MB


           ************************************************************
           *        Program running with 12 parallel MPI-processes    *
           *              working on a common directory               *
           ************************************************************
Loading Hartree-Fock densities                     ... done
Calculating cut-offs                               ... done
Initializing the effective Hamiltonian             ... done
Setting up the integral package (SHARK)            ... done
Starting the Coulomb interaction                   ... done (   0.1 sec)
Making the grid                                    ... done (   0.2 sec)
Mapping shells                                     ... done
Starting the XC term evaluation                    ... done (   0.0 sec)
  promolecular density results
     # of electrons  =    113.986606764
     EX              =    -89.143434151
     EC              =     -3.804176757
     EX+EC           =    -92.947610907
Transforming the Hamiltonian                       ... done (   0.0 sec)
Diagonalizing the Hamiltonian                      ... done (   0.0 sec)
Back transforming the eigenvectors                 ... done (   0.0 sec)
Now organizing SCF variables                       ... done
             **** ENERGY FILE WAS UPDATED (inp.en.tmp) ****
Finished Guess after   0.5 sec
Maximum memory used throughout the entire GUESS-calculation: 17.7 MB


           ************************************************************
           *        Program running with 12 parallel MPI-processes    *
           *              working on a common directory               *
           ************************************************************
--------------------
CPCM SOLVATION MODEL
--------------------
CPCM parameters:
  Epsilon                                         ...       4.8030
  Refrac                                          ...       1.4459
  Rsolv                                           ...       1.3000
  Surface type                                    ... GAUSSIAN VDW
  Discretization scheme                           ... Constant charge density
    Threshold for H atoms                         ...       5.0000 (charges/Ang^2)
    Threshold for non-H atoms                     ...       5.0000 (charges/Ang^2)
  Epsilon function type                           ...         CPCM
Solvent:                                          ... CHLOROFORM
Radii:
  Scheme                                          ... Element-dependent radii
  Radius for C  used is    3.8550 Bohr (=   2.0400 Ang.)
  Radius for O  used is    3.4469 Bohr (=   1.8240 Ang.)
  Radius for H  used is    2.4944 Bohr (=   1.3200 Ang.)
Calculating surface                               ...        done! (  0.0s)
Cavity surface points                             ...         2560
Cavity Volume                                     ...    1810.0830
Cavity Surface-area                               ...     907.8404
Calculating surface distance matrix               ...        done! (  0.1s)
Performing Cholesky decomposition & store         ...        done! (  0.2s)
Overall time for CPCM initialization              ...                 0.3s

----------------------------------------D-I-I-S--------------------------------------------
Iteration    Energy (Eh)           Delta-E    RMSDP     MaxDP     DIISErr   Damp  Time(sec)
-------------------------------------------------------------------------------------------
               ***  Starting incremental Fock matrix formation  ***
    1    -656.9461201159397206     0.00e+00  8.75e-03  7.12e-02  2.34e-01  0.700   2.2
    2    -657.1354798364029648    -1.89e-01  6.31e-03  3.99e-02  1.02e-01  0.700   1.3
                               ***Turning on AO-DIIS***
    3    -657.2143175824219270    -7.88e-02  2.53e-03  1.59e-02  3.77e-02  0.700   1.3
    4    -657.2604170356721625    -4.61e-02  4.26e-03  2.39e-02  1.87e-02  0.000   1.2
    5    -657.3603651996120334    -9.99e-02  8.07e-04  4.66e-03  4.98e-03  0.000   1.3
                              *** Initializing SOSCF ***
---------------------------------------S-O-S-C-F--------------------------------------
Iteration    Energy (Eh)           Delta-E    RMSDP     MaxDP     MaxGrad    Time(sec)
--------------------------------------------------------------------------------------
    6    -657.3607001348075300    -3.35e-04  2.70e-04  1.75e-03  1.01e-03     1.2
               *** Restarting incremental Fock matrix formation ***
    7    -657.3606719918777799     2.81e-05  1.70e-04  1.42e-03  3.47e-04     2.2
    8    -657.3606667675658173     5.22e-06  9.21e-05  8.45e-04  6.60e-04     1.5
    9    -657.3606756527228754    -8.89e-06  1.47e-05  1.34e-04  3.19e-05     1.4
                  *** Gradient check signals convergence ***

               *****************************************************
               *                     SUCCESS                       *
               *           SCF CONVERGED AFTER   9 CYCLES          *
               *****************************************************

Recomputing exchange energy using gridx3       ... done (    2.933 sec)
Old exchange energy                            :    -18.195035725 Eh
New exchange energy                            :    -18.195101934 Eh
Exchange energy change after final integration :     -0.000066210 Eh
Total energy after final integration           :   -657.360741773 Eh
             **** ENERGY FILE WAS UPDATED (inp.en.tmp) ****

----------------
TOTAL SCF ENERGY
----------------

Total Energy       :       -657.36074177295950 Eh          -17887.69518 eV

Components:
Nuclear Repulsion  :       1110.03205705339974 Eh           30205.50789 eV
Electronic Energy  :      -1767.38190990216663 Eh          -48092.90676 eV
One Electron Energy:      -3097.20157036819955 Eh          -84279.13940 eV
Two Electron Energy:       1329.81966046603293 Eh           36186.23263 eV
CPCM Dielectric    :         -0.01082271463228 Eh              -0.29450 eV

Virial components:
Potential Energy   :      -1309.67414268760967 Eh          -35638.04523 eV
Kinetic Energy     :        652.31340091465017 Eh           17750.35005 eV
Virial Ratio       :          2.00773760105378

DFT components:
N(Alpha)           :       56.999971513847 electrons
N(Beta)            :       56.999971513847 electrons
N(Total)           :      113.999943027694 electrons
E(X)               :      -72.170089079986 Eh       
E(C)               :       -4.481601838907 Eh       
E(XC)              :      -76.651690918893 Eh       

CPCM Solvation Model Properties:
Surface-charge          :         -0.02207916016016
Corrected charge        :         -0.00000000000000
Outlying charge corr.   :          0.00002412940508 Eh               0.00066 eV
Free-energy (cav+disp)  :  This term is not implemented in the current solvation scheme

---------------
SCF CONVERGENCE
---------------

  Last Energy change         ...    8.8852e-06  Tolerance :   1.0000e-06
  Last MAX-Density change    ...    1.3386e-04  Tolerance :   1.0000e-07
  Last RMS-Density change    ...    1.4717e-05  Tolerance :   5.0000e-09
  Last DIIS Error            ...    1.0082e-03  Tolerance :   1.0000e-06
  Last Orbital Gradient      ...    3.1949e-05  Tolerance :   3.3300e-04
  Last Orbital Rotation      ...    1.0630e-04  Tolerance :   3.3300e-04


----------------
ORBITAL ENERGIES
----------------

  NO   OCC          E(Eh)            E(eV) 
   0   2.0000     -19.134850      -520.6857 
   1   2.0000     -19.122516      -520.3501 
   2   2.0000     -10.221026      -278.1283 
   3   2.0000     -10.214283      -277.9448 
   4   2.0000     -10.187492      -277.2157 
   5   2.0000     -10.186924      -277.2003 
   6   2.0000     -10.184277      -277.1283 
   7   2.0000     -10.183797      -277.1152 
   8   2.0000     -10.179236      -276.9911 
   9   2.0000     -10.176659      -276.9210 
  10   2.0000     -10.173776      -276.8425 
  11   2.0000     -10.170324      -276.7486 
  12   2.0000     -10.165120      -276.6070 
  13   2.0000     -10.161695      -276.5138 
  14   2.0000     -10.156908      -276.3835 
  15   2.0000      -1.012237       -27.5444 
  16   2.0000      -0.996925       -27.1277 
  17   2.0000      -0.854815       -23.2607 
  18   2.0000      -0.797272       -21.6949 
  19   2.0000      -0.759469       -20.6662 
  20   2.0000      -0.751404       -20.4467 
  21   2.0000      -0.714001       -19.4290 
  22   2.0000      -0.670397       -18.2424 
  23   2.0000      -0.665017       -18.0960 
  24   2.0000      -0.662770       -18.0349 
  25   2.0000      -0.614009       -16.7080 
  26   2.0000      -0.583415       -15.8755 
  27   2.0000      -0.555095       -15.1049 
  28   2.0000      -0.522572       -14.2199 
  29   2.0000      -0.509480       -13.8637 
  30   2.0000      -0.503035       -13.6883 
  31   2.0000      -0.478777       -13.0282 
  32   2.0000      -0.460893       -12.5415 
  33   2.0000      -0.455042       -12.3823 
  34   2.0000      -0.437782       -11.9127 
  35   2.0000      -0.430268       -11.7082 
  36   2.0000      -0.425221       -11.5708 
  37   2.0000      -0.415882       -11.3167 
  38   2.0000      -0.402602       -10.9553 
  39   2.0000      -0.401135       -10.9154 
  40   2.0000      -0.390790       -10.6339 
  41   2.0000      -0.387738       -10.5509 
  42   2.0000      -0.379235       -10.3195 
  43   2.0000      -0.373630       -10.1670 
  44   2.0000      -0.370080       -10.0704 
  45   2.0000      -0.352307        -9.5868 
  46   2.0000      -0.347213        -9.4481 
  47   2.0000      -0.329661        -8.9705 
  48   2.0000      -0.324975        -8.8430 
  49   2.0000      -0.317834        -8.6487 
  50   2.0000      -0.311099        -8.4654 
  51   2.0000      -0.303077        -8.2471 
  52   2.0000      -0.292066        -7.9475 
  53   2.0000      -0.264762        -7.2045 
  54   2.0000      -0.253316        -6.8931 
  55   2.0000      -0.241010        -6.5582 
  56   2.0000      -0.232103        -6.3159 
  57   0.0000       0.010040         0.2732 
  58   0.0000       0.024653         0.6708 
  59   0.0000       0.082746         2.2516 
  60   0.0000       0.099393         2.7046 
  61   0.0000       0.117368         3.1937 
  62   0.0000       0.123879         3.3709 
  63   0.0000       0.141724         3.8565 
  64   0.0000       0.144169         3.9230 
  65   0.0000       0.149568         4.0699 
  66   0.0000       0.155301         4.2259 
  67   0.0000       0.159981         4.3533 
*Only the first 10 virtual orbitals were printed.
Total SCF time: 0 days 0 hours 0 min 18 sec 
Finished LeanSCF after  18.4 sec

Maximum memory used throughout the entire LEANSCF-calculation: 31.6 MB


-------------------------------------------------------------------------------
                          DFT DISPERSION CORRECTION                            
                                                                               
                              DFTD3 V3.1  Rev 1                                
                          USING Becke-Johnson damping                          
-------------------------------------------------------------------------------
-------------------------   ----------------
Dispersion correction           -0.074321352
-------------------------   ----------------

NOTIFICATION: Different basis set in ORCA and otool_gcp:
ORCA: 265  gCP: 250 
If you are NOT using ECPs, check your basis set inputs!
------------------   -----------------
gCP correction             0.162426964
------------------   -----------------

-------------------------   --------------------
FINAL SINGLE POINT ENERGY      -657.272636161637
-------------------------   --------------------



           ************************************************************
           *        Program running with 12 parallel MPI-processes    *
           *              working on a common directory               *
           ************************************************************
------------------------------------------------------------------------------
                         ORCA SCF GRADIENT CALCULATION
------------------------------------------------------------------------------

Nuc. rep. gradient        (SHARK) ... done (  0.0 sec)
HCore & Overlap gradient  (SHARK) ... done (  0.2 sec)
Split-RIJ-J gradient      (SHARK) ... done (  0.6 sec)
COSX-gradient                     ... done (  6.8 sec)
XC gradient                       ... done (  2.2 sec)
CPCM gradient                     ... done (  0.7 sec)
Dispersion correction             ... done (  0.0 sec)

-------------------
DISPERSION GRADIENT
-------------------

   1   C   :    0.000279932   -0.000501475    0.000307738
   2   C   :   -0.000503969    0.000373001    0.000506361
   3   C   :   -0.000217416    0.000985316    0.000340529
   4   C   :    0.000229826    0.000961555   -0.000373138
   5   C   :    0.000609541    0.000318168   -0.000552046
   6   C   :    0.000611298   -0.000313438   -0.000695782
   7   C   :    0.000552787   -0.000269932    0.000740671
   8   C   :    0.000812251    0.000092456    0.000141393
   9   O   :    0.000372867   -0.000505230   -0.000710327
  10   C   :   -0.000040447   -0.001143047    0.000295348
  11   C   :    0.001191448    0.000270681    0.000364857
  12   C   :   -0.001254891    0.000230291    0.000026465
  13   C   :   -0.001130005    0.000352744   -0.000768056
  14   H   :   -0.000212071    0.000134672    0.000481528
  15   O   :   -0.000166611   -0.000956468   -0.000153825
  16   C   :   -0.000930860   -0.000039708    0.000233764
  17   H   :   -0.000110986    0.000499094    0.000175628
  18   H   :   -0.000123340    0.000476470    0.000361456
  19   H   :    0.000067351    0.000458506   -0.000365178
  20   H   :    0.000033112    0.000501158   -0.000151100
  21   H   :    0.000256681    0.000149708   -0.000401314
  22   H   :    0.000065918   -0.000134040   -0.000624908
  23   H   :    0.000253677   -0.000277417    0.000388881
  24   H   :    0.000144278   -0.000046867    0.000573995
  25   H   :    0.000322979   -0.000352803   -0.000330347
  26   H   :   -0.000056482   -0.000475883    0.000291228
  27   H   :   -0.000004410   -0.000481065    0.000153843
  28   H   :    0.000309333    0.000076083    0.000136645
  29   H   :    0.000362315    0.000109572    0.000052867
  30   H   :   -0.000217590    0.000081267   -0.000249464
  31   H   :   -0.000368115    0.000183973   -0.000424213
  32   H   :   -0.000085489   -0.000473852   -0.000231904
  33   H   :   -0.000297761   -0.000064277    0.000046003
  34   H   :   -0.000418811   -0.000191167    0.000177604
  35   H   :   -0.000336341   -0.000028047    0.000234798

Difference to translation invariance:
           :    0.0000000000   -0.0000000000   -0.0000000000

Difference to rotation invariance:
           :   -0.0000000000   -0.0000000000   -0.0000000000

Norm of the Dispersion gradient    ...    0.0046287569
RMS gradient                       ...    0.0004517204
MAX gradient                       ...    0.0012548908
gCP correction                   ... done

------------------
CARTESIAN GRADIENT
------------------

   1   C   :   -0.000020317    0.000077808   -0.000026966
   2   C   :   -0.000023716   -0.000060068    0.000014195
   3   C   :    0.000007016   -0.000155657   -0.000103145
   4   C   :    0.000073661    0.000060563    0.000002736
   5   C   :   -0.000075372   -0.000014352    0.000093030
   6   C   :    0.000098191   -0.000058513    0.000100399
   7   C   :   -0.000016904    0.000056271   -0.000106985
   8   C   :   -0.000162811   -0.000110591   -0.000069004
   9   O   :   -0.000048364   -0.000030348   -0.000063192
  10   C   :   -0.000047710    0.000071548   -0.000096430
  11   C   :    0.000082985    0.000003241    0.000014489
  12   C   :    0.000067574    0.000097283    0.000044543
  13   C   :   -0.000045077    0.000052152    0.000032445
  14   H   :   -0.000006068   -0.000017801    0.000039098
  15   O   :    0.000249276   -0.000021276   -0.000405726
  16   C   :    0.000144995    0.000028264    0.000004293
  17   H   :   -0.000022935    0.000017523   -0.000006445
  18   H   :    0.000012354    0.000014476    0.000021250
  19   H   :   -0.000013732   -0.000002499   -0.000021743
  20   H   :    0.000003781    0.000011499   -0.000045163
  21   H   :    0.000009011   -0.000006818   -0.000024786
  22   H   :   -0.000034976    0.000017093   -0.000010690
  23   H   :    0.000022989   -0.000046949   -0.000004442
  24   H   :   -0.000013912   -0.000030598    0.000047041
  25   H   :    0.000044481   -0.000007875    0.000032986
  26   H   :   -0.000010642    0.000009955    0.000053211
  27   H   :    0.000022702   -0.000032511    0.000034983
  28   H   :   -0.000001182    0.000019547    0.000097072
  29   H   :    0.000028932    0.000072045   -0.000030855
  30   H   :   -0.000012109   -0.000027156    0.000004591
  31   H   :    0.000075212    0.000025481   -0.000054388
  32   H   :   -0.000257244    0.000055918    0.000397024
  33   H   :   -0.000178646    0.000023591   -0.000081961
  34   H   :    0.000020260   -0.000139516    0.000006248
  35   H   :    0.000028298    0.000048271    0.000112285

Difference to translation invariance:
           :   -0.0000000000   -0.0000000000   -0.0000000000

Difference to rotation invariance:
           :   -0.0000017664    0.0000984122   -0.0007629805

Norm of the Cartesian gradient     ...    0.0008978715
RMS gradient                       ...    0.0000876233
MAX gradient                       ...    0.0004057260

-------
TIMINGS
-------

Total SCF gradient time     ....       10.449 sec

Densities                   ....       0.001 sec  (  0.0%)
One electron gradient       ....       0.154 sec  (  1.5%)
RI-J Coulomb gradient       ....       0.612 sec  (  5.9%)
COSX gradient               ....       6.797 sec  ( 65.1%)
XC gradient                 ....       2.151 sec  ( 20.6%)
CPCM gradient               ....       0.670 sec  (  6.4%)
   A-Matrix (El+Nuc)        ....       0.024 sec  (  0.2%)
   Potential                ....       0.646 sec  (  6.2%)

Maximum memory used throughout the entire SCFGRAD-calculation: 37.8 MB


           ************************************************************
           *        Program running with 12 parallel MPI-processes    *
           *              working on a common directory               *
           ************************************************************

------------------------------------------------------------------------------
                              ORCA PROPERTY CALCULATIONS
------------------------------------------------------------------------------

GBWName                                 ... inp.gbw
Number of atoms                         ...     35
Number of basis functions               ...    265
Max core memory                         ...   2500 MB

Electric properties:
Dipole moment                           ... YES
Quadrupole moment                       ...  NO
Static polarizability (Dipole/Dipole)   ...  NO
Static polarizability (Dipole/Quad.)    ...  NO
Static polarizability (Quad./Quad.)     ...  NO
Static polarizability (Velocity)        ...  NO
Static hyperpolarizability              ...  NO

Atomic electric properties:
Dipole moment                           ...  NO
Quadrupole moment                       ...  NO
Static polarizability                   ...  NO

Choice of electric origin               ... Center of mass
Position of electric origin             ...     0.006645    -0.003526    -0.010970

General magnetic properties:
Magnetizability                         ...  NO

EPR properties:
g-Tensor (aka g-matrix)                 ...  NO
Zero-Field splitting spin-orbit         ...  NO
Zero-field splitting spin-spin          ...  NO
Hyperfine couplings                     ...  NO (   0 nuclei)
Quadrupole couplings                    ...  NO (   0 nuclei)
Contact density                         ...  NO (   0 nuclei)

NMR properties:
Chemical shifts                         ...  NO (   0 nuclei)
Spin-rotation constants                 ...  NO (   0 nuclei)
Spin-spin couplings                     ...  NO (   0 nuclei,    0 pairs)

Choice of magnetic origin               ... GIAO
Position of magnetic origin             ...     0.000000     0.000000     0.000000

Properties with geometric perturbations:
SCF Hessian                             ...  NO
IR spectrum                             ...  NO
VCD spectrum                            ...  NO
X-ray spectroscopy properties:
SCF XES/XAS/RIXS spectra                ...  NO

SCF SOC stabilization energy            ...  NO
Diagonal Born-Oppenheimer correction    ...  NO

-------------
DIPOLE MOMENT
-------------

Method             : SCF
Type of density    : Electron Density
Multiplicity       :   1
Irrep              :   0
Energy             :  -657.3607417729594999 Eh
Basis              : AO
                                X                 Y                 Z
Electronic contribution:      3.880219042      -3.771124401      -3.000336357
Nuclear contribution   :     -3.060649416       4.230133898       3.632242353
                        -----------------------------------------
Total Dipole Moment    :      0.819569626       0.459009497       0.631905996
                        -----------------------------------------
Magnitude (a.u.)       :      1.132117166
Magnitude (Debye)      :      2.877613149



--------------------
Rotational spectrum 
--------------------
 
Rotational constants in cm-1:             0.030376             0.018030             0.014885 
Rotational constants in MHz :           910.642058           540.523885           446.240540 

Dipole components along the rotational axes: 
x,y,z [a.u.] :     0.922692    -0.284482     0.591100 
x,y,z [Debye]:     2.345297    -0.723096     1.502456 

 

Dipole moment calculation done in   0.0 sec 

Maximum memory used throughout the entire PROP-calculation: 16.6 MB

--------------------------------
SUGGESTED CITATIONS FOR THIS RUN
--------------------------------

Below you find a list of papers that are relevant to this ORCA run
We neither can nor want to force you to cite these papers, but we appreciate if you do
You receive ORCA, which is the product of decades of hard work by many enthusiastic individuals, for free
The only thing we kindly ask in return is that you cite our papers,
We deeply appreciate it, if you show your appreciation for ORCA by not just citing the generic ORCA reference.

Please note that relegating all ORCA citations to the supporting information does *not* help us.
SI sections are not indexed - citations you put there will not count into any citation statistics
But we need these citations in order to attract the funding resources that allow us to do what we are doing

Therefore, if you are a happy ORCA user, please consider citing a few of the papers listed below in the main body of your paper

In addition to the list printed below, the program has created the file inp.bibtex that contains the list in bibtex format
You can import this file easily into all common literature databanks and citation aid programs

It goes without saying that in many instances, there are alternative algorithms to achieve similar
results as the ones you have gotten from ORCA. It is, of course, also the case that in some instances
ORCA just re-implements algorithms worked out by others. We are fully aware of that and we are also
fully appreciative of our colleagues work. Hence this citation list should not be read as indicating
that the listed papers, which are focused on our own work, are the only ones worth citing. It simply
meant to make it easier for users to cite ORCA specific papers. It is not a substitute for doing your
own literature research and citing the relevant literature in a scientifically appropriate manner.

List of essential papers. We consider these as the minimum necessary citations

  1. Neese, F.
     Software update: the ORCA program system, version 6.0
     WIRES Comput. Molec. Sci. 2025 15(1), e70019
     doi.org/10.1002/wcms.70019

List of papers to cite with high priority. The work reported in these papers was absolutely
necessary for this run to complete.
Our perspective: the developers of density functionals and basis sets usually get cited in chemistry papers
Good! But without the algorithms to do something with them, the functionals or basis sets would not do anything.
Hence, in our opinion, the algorithm design and method developments papers are equally worthy of getting cited

  1. Neese, F.
     An improvement of the resolution of the identity approximation for the formation of the Coulomb matrix
     J. Comp. Chem. 2003 24(14), 1740-1747
     doi.org/10.1002/jcc.10318
  2. Neese, F.; Wennmohs, F.; Hansen, A.; Becker, U.
     Efficient, approximate and parallel Hartree-Fock and hybrid DFT calculations. A 'chain-of-spheres' algorithm for the Hartree-Fock exchange
     Chem. Phys. 2009 356(1-3), 98-109
     doi.org/10.1016/j.chemphys.2008.10.036
  3. Grimme, S.; Antony, J.; Ehrlich, S.; Krieg, H.
     A consistent and accurate ab initio parametrization of density functional dispersion correction (DFT-D) for the 94 elements H-Pu
     J. Chem. Phys. 2010 132 , 154104
     doi.org/10.1063/1.3382344
  4. Grimme, S.; Ehrlich, S.; Goerigk, L.
     Effect of the damping function in dispersion corrected density functional theory
     J. Comput. Chem. 2011 32(7), 1456-1465
     doi.org/10.1002/jcc.21759
  5. Garcia-Rates, M.; Neese, F.
     Effect of the Solute Cavity on the Solvation Energy and its Derivatives within the Framework of the Gaussian Charge Scheme
     J. Comput. Chem. 2020 41 , 922-939
     doi.org/10.1002/jcc.26139
  6. Helmich-Paris, B.; de Souza, B.; Neese, F.; Izsák, R.
     An improved chain of spheres for exchange algorithm
     J. Chem. Phys. 2021 155(10), 104109
     doi.org/10.1063/5.0058766
  7. Neese, F.
     The SHARK Integral Generation and Digestion System
     J. Comp. Chem. 2022 44(3), 381
     doi.org/10.1002/jcc.26942

List of suggested additional citations. These are papers that are important in the 'surrounding' of 
of this run, or papers that preceded the highly important papers. If you like your results we are grateful for a citation.

  1. Izsak, R.; Neese, F.
     An overlap fitted chain of spheres exchange method
     J. Chem. Phys. 2011 135 , 144105
     doi.org/10.1063/1.3646921
  2. Izsak, R.; Hansen, A.; Neese, F.
     The resolution of identity and chain of spheres approximations for the LPNO-CCSD singles Fock term
     Molec. Phys. 2012 110 , 2413-2417
     doi.org/10.1080/00268976.2012.687466
  3. Neese, F.
     The ORCA program system
     WIRES Comput. Molec. Sci. 2012 2(1), 73-78
     doi.org/10.1002/wcms.81
  4. Izsak, R.; Neese, F.; Klopper, W.
     Robust fitting techniques in the chain of spheres approximation to the Fock exchange: The role of the complementary space
     J. Chem. Phys. 2013 139 , 
     doi.org/10.1063/1.4819264
  5. Neese, F.
     Software update: the ORCA program system, version 4.0
     WIRES Comput. Molec. Sci. 2018 8(1), 1-6
     doi.org/10.1002/wcms.1327
  6. Neese, F.; Wennmohs, F.; Becker, U.; Riplinger, C.
     The ORCA quantum chemistry program package
     J. Chem. Phys. 2020 152(22), 224108
     doi.org/10.1063/5.0004608
  7. Neese, F.
     Software update: The ORCA program system—Version 5.0
     WIRES Comput. Molec. Sci. 2022 12(1), e1606
     doi.org/10.1002/wcms.1606

List of optional additional citations

  1. Neese, F.
     Approximate second-order SCF convergence for spin unrestricted wavefunctions
     Chem. Phys. Lett. 2000 325(1-3), 93-98
     doi.org/10.1016/s0009-2614(00)00662-x

Timings for individual modules:

Sum of individual times          ...       32.414 sec (=   0.540 min)
Startup calculation              ...        2.028 sec (=   0.034 min)   6.3 %
SCF iterations                   ...       19.243 sec (=   0.321 min)  59.4 %
Property calculations            ...        0.340 sec (=   0.006 min)   1.0 %
SCF Gradient evaluation          ...       10.803 sec (=   0.180 min)  33.3 %
                             ****ORCA TERMINATED NORMALLY****
TOTAL RUN TIME: 0 days 0 hours 0 minutes 32 seconds 796 msec
  ------------------------------------------------------------------------
          * successful ORCA run, taking over control again...
av. E:   -657.2726362 ->   -657.2726362
av. G:      0.0012098 ->      0.0012098
 * total energy  :  -657.2726362 Eh     change       -0.4017447E-05 Eh
   gradient norm :     0.0008975 Eh/a0  converged?    E=T G=T D=F
   step length   :     0.0275759 a0

   *** GEOMETRY OPTIMIZATION CONVERGED AFTER 4 CYCLES ***

------------------------------------------------------------------------
 total energy gain   :        -0.0000289 Eh       -0.0182 kcal/mol
 total RMSD          :         0.0188117 a0        0.0100 Å
 total power (kW/mol):        -0.0190008 (step)   -0.0006 (real)
------------------------------------------------------------------------

 L-ANCopt (total)              0 d,  0 h,  2 min, 10.759 sec
 setup                          ...        0 min,  0.000 sec (  0.000%)
 model hessian                  ...        0 min,  0.075 sec (  0.057%)
 ANC generation                 ...        0 min,  0.005 sec (  0.004%)
 coordinate transformation      ...        0 min,  0.000 sec (  0.000%)
 Rational function              ...        0 min,  0.000 sec (  0.000%)
 singlepoint calculation        ...        2 min, 10.677 sec ( 99.937%)
 optimization log               ...        0 min,  0.001 sec (  0.001%)
 hessian update                 ...        0 min,  0.000 sec (  0.000%)

================
 final structure:
================
$coord
        0.23174622895955       -1.07308943878443        0.80819827825052      c
       -1.84825639902159        0.99697367167478        1.36826529845402      c
       -0.69354609380668        3.70206098415005        1.07031568269919      c
        1.10540085621833        4.05305671402387       -1.20806000712416      c
        2.91082266087483        1.76304154027179       -1.53352844704901      c
        1.29307465711051       -0.63530148385589       -1.90533968560698      c
        2.59669763359260       -0.52719439239666        2.51024639617909      c
        4.28833335172887        1.20969300008344        0.93406396797396      c
        2.70301755030858       -2.75179909851880       -2.86920407630890      o
       -0.68826377998185       -3.81330978031359        1.23571544800100      c
        6.58549073070356        2.04638526844913        1.57922096640572      c
       -4.37013221323716        0.64940284375163       -0.02567077880940      c
       -4.89513129775818        1.63428536677525       -2.30668436932055      c
       -2.29572546597155        0.78017824502447        3.39623356643525      h
       -2.31883284049987       -4.77637274390888       -0.69136147991105      o
       -6.40602939317607       -0.75851993193843        1.42551244758373      c
       -2.22988209551645        5.10106748052483        0.98019381951648      h
        0.37294009659925        4.13791249512616        2.80461425556224      h
        0.03906295256565        4.30929864194749       -2.97792478348928      h
        2.22680939166175        5.78697511409757       -0.93723238470085      h
        4.20563815151556        2.10052787224646       -3.12779778218399      h
       -0.21897555213182       -0.34919187527661       -3.29780300694107      h
        3.60443756471089       -2.29534728110996        2.96634475086918      h
        2.07398709227483        0.32231195970978        4.33721783160152      h
        4.22477975610257       -2.98016403064307       -1.83783896688371      h
       -1.75806919460409       -3.92396812388697        3.01896671881127      h
        0.97712197239150       -5.05586183841107        1.45825423723700      h
        7.44727283759396        1.57411898922585        3.39620097434899      h
        7.69177427925559        3.24819760833733        0.31540218130802      h
       -6.75377206726620        1.37914887829699       -3.16918071571163      h
       -3.54261807978152        2.72873766370560       -3.40797337988406      h
       -1.29042666310243       -4.92914046770137       -2.22159547132022      h
       -8.19130248509280       -0.82368020816539        0.36147446360727      h
       -5.84336544555883       -2.71606035842747        1.84065570085196      h
       -6.77756829933562        0.17354135650690        3.25442852541159      h
$end
 
 Bond Distances (Angstroems)
 ---------------------------
C1-C2=1.5809         C1-C6=1.5592         C1-C7=1.5687         C1-C10=1.5462        C2-C1=1.5809         C2-C3=1.5644         
C2-C12=1.5359        C2-H14=1.1049        C3-C2=1.5644         C3-C4=1.5474         C3-H17=1.1006        C3-H18=1.1018        
C4-C3=1.5474         C4-C5=1.5527         C4-H19=1.1018        C4-H20=1.1021        C5-C4=1.5527         C5-C6=1.5435         
C5-C8=1.5239         C5-H21=1.1014        C6-C1=1.5592         C6-C5=1.5435         C6-O9=1.4392         C6-H22=1.0982        
C7-C1=1.5687         C7-C8=1.5303         C7-H23=1.1037        C7-H24=1.1015        C8-C5=1.5239         C8-C7=1.5303         
C8-C11=1.3380        O9-C6=1.4392         O9-H25=0.9803        C10-C1=1.5462        C10-O15=1.4297       C10-H26=1.1020       
C10-H27=1.1058       C11-C8=1.3380        C11-H28=1.0931       C11-H29=1.0929       C12-C2=1.5359        C12-C13=1.3438       
C12-C16=1.5184       C13-C12=1.3438       C13-H30=1.0927       C13-H31=1.0896       H14-C2=1.1049        O15-C10=1.4297       
O15-H32=0.9790       C16-C12=1.5184       C16-H33=1.1003       C16-H34=1.1000       C16-H35=1.1039       H17-C3=1.1006        
H18-C3=1.1018        H19-C4=1.1018        H20-C4=1.1021        H21-C5=1.1014        H22-C6=1.0982        H23-C7=1.1037        
H24-C7=1.1015        H25-O9=0.9803        H26-C10=1.1020       H27-C10=1.1058       H28-C11=1.0931       H29-C11=1.0929       
H30-C13=1.0927       H31-C13=1.0896       H32-O15=0.9790       H33-C16=1.1003       H34-C16=1.1000       H35-C16=1.1039       
 C  H  Rav=1.0998 sigma=0.0045  Rmin=1.0896  Rmax=1.1058    18
 C  C  Rav=1.5181 sigma=0.0742  Rmin=1.3380  Rmax=1.5809    14
 O  H  Rav=0.9796 sigma=0.0006  Rmin=0.9790  Rmax=0.9803     2
 O  C  Rav=1.4345 sigma=0.0047  Rmin=1.4297  Rmax=1.4392     2
 
 selected bond angles (degree)
 --------------------
C6-C1-C2=108.69                C7-C1-C2=108.68                C7-C1-C6=102.36                C10-C1-C2=113.78               
C10-C1-C6=112.80               C10-C1-C7=109.87               C3-C2-C1=110.07                C12-C2-C1=115.59               
C12-C2-C3=113.61               H14-C2-C1=105.03               H14-C2-C3=106.06               H14-C2-C12=105.53              
C4-C3-C2=115.38                H17-C3-C2=109.35               H17-C3-C4=109.87               H18-C3-C2=107.92               
H18-C3-C4=107.98               H18-C3-H17=105.88              C5-C4-C3=111.79                H19-C4-C3=111.22               
H19-C4-C5=108.47               H20-C4-C3=109.26               H20-C4-C5=109.44               H20-C4-H19=106.49              
C6-C5-C4=108.34                C8-C5-C4=110.44                C8-C5-C6=102.51                H21-C5-C4=109.95               
H21-C5-C6=112.38               H21-C5-C8=112.95               C5-C6-C1=101.80                O9-C6-C1=113.42                
O9-C6-C5=113.42                H22-C6-C1=112.08               H22-C6-C5=112.10               H22-C6-O9=104.31               
C8-C7-C1=105.33                H23-C7-C1=110.79               H23-C7-C8=110.23               H24-C7-C1=112.26               
H24-C7-C8=112.34               H24-C7-H23=105.98              C7-C8-C5=107.62                C11-C8-C5=126.13               
C11-C8-C7=126.24               H25-O9-C6=108.94               O15-C10-C1=114.83              H26-C10-C1=109.69              
H26-C10-O15=106.37             H27-C10-C1=108.80              H27-C10-O15=110.18             H27-C10-H26=106.66             
 
 selected dihedral angles (degree)
 ---------------------------------
C3-C2-C1-C6=302.61            C3-C2-C1-C7= 53.27            C3-C2-C1-C10=176.02           C12-C2-C1-C6= 72.99           
C12-C2-C1-C7=183.65           C12-C2-C1-C10=306.40          H14-C2-C1-C6=188.84           H14-C2-C1-C7=299.50           
H14-C2-C1-C10= 62.25          C4-C3-C2-C1= 41.22            C4-C3-C2-C12=269.79           C4-C3-C2-H14=154.32           
H17-C3-C2-C1=165.65           H17-C3-C2-C12= 34.22          H17-C3-C2-H14=278.76          H18-C3-C2-C1=280.38           
H18-C3-C2-C12=148.95          H18-C3-C2-H14= 33.49          C5-C4-C3-C2=317.83            C5-C4-C3-H17=193.68           
C5-C4-C3-H18= 78.63           H19-C4-C3-C2= 79.26           H19-C4-C3-H17=315.10          H19-C4-C3-H18=200.06          
H20-C4-C3-C2=196.54           H20-C4-C3-H17= 72.38          H20-C4-C3-H18=317.34          C6-C5-C4-C3= 58.74            
C6-C5-C4-H19=295.73           C6-C5-C4-H20=179.93           C8-C5-C4-C3=307.21            C8-C5-C4-H19=184.20           
C8-C5-C4-H20= 68.40           H21-C5-C4-C3=181.90           H21-C5-C4-H19= 58.90          H21-C5-C4-H20=303.09          
C5-C6-C1-C2= 72.87            C5-C6-C1-C7=318.03            C5-C6-C1-C10=200.02           O9-C6-C1-C2=195.09            
O9-C6-C1-C7= 80.24            O9-C6-C1-C10=322.24           H22-C6-C1-C2=312.90           H22-C6-C1-C7=198.05           
H22-C6-C1-C10= 80.05          C1-C6-C5-C4=287.03            C1-C6-C5-C8= 43.80            C1-C6-C5-H21=165.35           
O9-C6-C5-C4=164.82            O9-C6-C5-C8=281.59            O9-C6-C5-H21= 43.14           H22-C6-C5-C4= 47.00           
H22-C6-C5-C8=163.76           H22-C6-C5-H21=285.32          C8-C7-C1-C2=269.46            C8-C7-C1-C6= 24.32            
C8-C7-C1-C10=144.38           H23-C7-C1-C2=150.28           H23-C7-C1-C6=265.14           H23-C7-C1-C10= 25.21          
H24-C7-C1-C2= 32.01           H24-C7-C1-C6=146.87           H24-C7-C1-C10=266.94          C7-C8-C5-C4= 86.32            
C7-C8-C5-C6=331.07            C7-C8-C5-H21=209.91           C11-C8-C5-C4=264.96           C11-C8-C5-C6=149.71           
C11-C8-C5-H21= 28.55          C5-C8-C7-C1=  2.67            C5-C8-C7-H23=122.22           C5-C8-C7-H24=240.17           
C11-C8-C7-C1=184.03           C11-C8-C7-H23=303.58          C11-C8-C7-H24= 61.53          H25-O9-C6-C1=294.81           
H25-O9-C6-C5= 50.31           H25-O9-C6-H22=172.57          O15-C10-C1-C2= 75.44          O15-C10-C1-C6=311.03          
O15-C10-C1-C7=197.53          H26-C10-C1-C2=315.75          H26-C10-C1-C6=191.34          H26-C10-C1-C7= 77.84          
H27-C10-C1-C2=199.43          H27-C10-C1-C6= 75.02          H27-C10-C1-C7=321.52          
           -------------------------------------------------
          |                Final Singlepoint                |
           -------------------------------------------------
                         * ORCA takes the control...
  ------------------------------------------------------------------------

                                 *****************
                                 * O   R   C   A *
                                 *****************

                                            #,                                       
                                            ###                                      
                                            ####                                     
                                            #####                                    
                                            ######                                   
                                           ########,                                 
                                     ,,################,,,,,                         
                               ,,#################################,,                 
                          ,,##########################################,,             
                       ,#########################################, ''#####,          
                    ,#############################################,,   '####,        
                  ,##################################################,,,,####,       
                ,###########''''           ''''###############################       
              ,#####''   ,,,,##########,,,,          '''####'''          '####       
            ,##' ,,,,###########################,,,                        '##       
           ' ,,###''''                  '''############,,,                           
         ,,##''                                '''############,,,,        ,,,,,,###''
      ,#''                                            '''#######################'''  
     '                                                          ''''####''''         
             ,#######,   #######,   ,#######,      ##                                
            ,#'     '#,  ##    ##  ,#'     '#,    #''#        ,####,    ,#,          
            ##       ##  ##   ,#'  ##            #'  '#       #'       ,# #          
            ##       ##  #######   ##           ,######,      #####,      #          
            '#,     ,#'  ##    ##  '#,     ,#' ,#      #,     #,   #      #          
             '#######'   ##     ##  '#######'  #'      '#     '####' #    #          



                #########################################################
                #                        -***-                          #
                #          Department of theory and spectroscopy        #
                #                                                       #
                #                      Frank Neese                      #
                #                                                       #
                #     Directorship, Architecture, Infrastructure        #
                #                    SHARK, DRIVERS                     #
                #        Core code/Algorithms in most modules           #
                #                                                       #
                #        Max Planck Institute fuer Kohlenforschung      #
                #                Kaiser Wilhelm Platz 1                 #
                #                 D-45470 Muelheim/Ruhr                 #
                #                      Germany                          #
                #                                                       #
                #                  All rights reserved                  #
                #                        -***-                          #
                #########################################################


                         Program Version 6.1.1  -  RELEASE   -
                                (GIT: $487d211c$)
                          ($2025-11-21 10:33:24 +0100$)


 With contributions from (in alphabetic order):
[Max-Planck-Institut fuer Kohlenforschung]                               
  Daniel Aravena         : Magnetic Suceptibility                        
  Michael Atanasov       : Ab Initio Ligand Field Theory (pilot matlab implementation)
  Alexander A. Auer      : GIAO ZORA, VPT2 properties, NMR spectrum      
  Ute Becker             : All parallelization in ORCA, NUMFREQ, NUMCALC 
  Giovanni Bistoni       : ED, misc. LED, open-shell LED, HFLD           
  Dmytro Bykov           : pre 5.0 version of the SCF Hessian            
  Marcos Casanova-Páez   : Triplet and SCS-CIS(D). UHF-(DLPNO)-IP/EA/STEOM-CCSD. UHF-CVS-IP/STEOM-CCSD   
  Vijay G. Chilkuri      : MRCI spin determinant printing, contributions to CSF-ICE 
  Pauline Colinet        : FMM embedding                                 
  Dipayan Datta          : RHF DLPNO-CCSD density                        
  Achintya Kumar Dutta   : EOM-CC, STEOM-CC                              
  Nicolas Foglia         : Exact transition moments, OPA infrastructure, MCD improvements    
  Dmitry Ganyushin       : Spin-Orbit,Spin-Spin,Magnetic field MRCI      
  Miquel Garcia-Rates    : C-PCM and meta-GGA Hessian, CCSD/C-PCM, Gaussian charge scheme 
  Tiago L. C. Gouveia    : GS-ROHF, GS-ROCIS                             
  Yang Guo               : DLPNO-NEVPT2, F12-NEVPT2, CIM, IAO-localization        
  Andreas Hansen         : Spin unrestricted coupled pair/coupled cluster methods 
  Ingolf Harden          : AUTO-CI MPn and infrastructure                
  Benjamin Helmich-Paris : MC-RPA, TRAH-(SCF,CASSCF), AVAS, COSX integrals, SCF dyn. polar., MC-PDFT, srDFT 
  Lee Huntington         : MR-EOM, pCC                                   
  Robert Izsak           : Overlap fitted RIJCOSX, COSX-SCS-MP3, EOM     
  Riya Kayal             : Wick's Theorem for AUTO-CI, AUTO-CI UHF-CCSDT 
  Emily Kempfer          : AUTO-CI RHF CISDT and CCSDT, approximate NEVPT4
  Christian Kollmar      : KDIIS, OOCD, Brueckner-CCSD(T), CCSD density, CASPT2, CASPT2-K, improved NEVPT2 
  Axel Koslowski         : Symmetry handling                             
  Simone Kossmann        : meta-GGA functionals, TD-DFT gradient, OOMP2, (MP2 Hessian; deprecated post 5.0) 
  Lucas Lang             : DCDCAS, Hyperfine gauge corrections, ICE-SOC+SSC
  Marvin Lechner         : AUTO-CI (C++ implementation), FIC-MRCC        
  Spencer Leger          : CASSCF response                               
  Dagmar Lenk            : GEPOL surface, SMD, ORCA-2-JSON               
  Dimitrios Liakos       : Extrapolation schemes; Compound Job, Property file
  Dimitrios Manganas     : Further ROCIS development; embedding schemes. LFT, Crystal Embedding 
  Dimitrios Pantazis     : SARC Basis sets                               
  Anastasios Papadopoulos: AUTO-CI, single reference methods and gradients 
  Taras Petrenko         : pre 6.0 DFT Hessian and TD-DFT gradient,  ECA, NRVS 
  Petra Pikulova         : Analytic Raman intensities                    
  Peter Pinski           : DLPNO-MP2, DLPNO-MP2 Gradient                 
  Shashank Vittal Rao    : ES-AILFT, MagRelax                            
  Christoph Reimann      : Effective Core Potentials                     
  Marius Retegan         : Local ZFS, SOC                                
  Christoph Riplinger    : Optimizer, TS searches, QM/MM, DLPNO-CCSD(T), (RO)-DLPNO pert. Triples 
  Michael Roemelt        : Original ROCIS implementation, recursive CI coupling coefficients
  Masaaki Saitow         : Open-shell DLPNO-CCSD energy and density      
  Barbara Sandhoefer     : DKH picture change effects                    
  Yorick L. A. Schmerwitz: GMF and freeze-and-release deltaSCF, NEB S-IDPP initial path                    
  Kantharuban Sivalingam : CASSCF convergence/infrastructure, NEVPT2, NEVPT3, NEVPT4(SD), FIC-MRCI and CEPA variants
  Bernardo de Souza      : ESD, SOC TD-DFT                               
  Georgi L. Stoychev     : AutoAux, RI-MP2 NMR, DLPNO-MP2 response, X2C  
  Van Anh Tran           : RI-MP2 g-tensors                              
  Willem Van den Heuvel  : Paramagnetic NMR                              
  Zikuan Wang            : NOTCH, Electric field optimization            
  Frank Wennmohs         : Technical directorship and infrastructure     
  Hang Xu                : AUTO-CI-Response properties                   
                                                                         
[FACCTs GmbH]                                                            
  Markus Bursch, Nicolas Foglia, Miquel Garcia-Rates, Ingolf Harden, Hagen Neugebauer, Anastasios Papadopoulos, 
  Christoph Riplinger, Bernardo de Souza, Georgi L. Stoychev                                                    
                                                                 
  APM, various basis sets, CI-OPT, improved COSX, DLPNO-Multilevel,           
  DOCKER, DRACO, updates on ESD, Fragmentator, GOAT, IRC, LR-CPCM, L-BFGS, MBIS, meta-GGA TD-DFT gradient, ML-optimized integration grids, 
  MM, NACMEs, nearIR, NEB, NEB-TS, NL-DFT gradient (VV10), 2- and 3-layer-ONIOM, interface openCOSMO-RS, QMMM,   
  Crystal-QMMM, RESP, rigid body optimization, SF, symmetry and pop. for TD-DFT, various functionals, SOLVATOR                                   
                                                                         
[Other institutions]                                                     
  V. Asgeirsson          : NEB                                           
  Christoph Bannwarth    : sTDA-DFT, sTD-DFT, PBEh-3c, B97-3c, D3        
  Giovanni Bistoni       : ETS/NOCV, ADLD/ADEX, COVALED                  
  Martin Brehm           : Molecular dynamics                            
  Ronald Cardenas        : ETS/NOCV                                      
  Martina Colucci        : COVALED                                       
  Sebastian Ehlert       : rSCAN, r2SCAN, r2SCAN-3c, D4, dhf basis sets  
  Marvin Friede          : D4 for Fr, Ra, Ac-Lr                          
  Lars Goerigk           : TD-DFT with DH, B97 family of functionals     
  Stefan Grimme          : VdW corrections, initial TS optimization, DFT functionals, gCP, sTDA/sTD-DF 
  Waldemar Hujo          : DFT-NL                                        
  H. Jonsson             : NEB                                           
  Holger Kruse           : gCP                                           
  Marcel Mueller         : wB97X-3c, vDZP basis set                      
  Hagen Neugebauer       : wr2SCAN, Native XTB                           
  Gianluca Regni         : ADLD/ADEX                                     
  Tobias Risthaus        : pre 6.0 range-separated hybrid DFT and stability analysis
  Lukas Wittmann         : regularized MP2, r2SCAN double-hybrids, wr2SCAN        
                                                                         
We gratefully acknowledge several colleagues who have allowed us to      
interface, adapt or use parts of their codes:                            
  Ed Valeev, F. Pavosevic, A. Kumar             : LibInt (2-el integral package), F12 methods 
  Garnet Chan, S. Sharma, J. Yang, R. Olivares  : DMRG                   
  Ulf Ekstrom                                   : XCFun DFT Library      
  Mihaly Kallay                                 : mrcc  (arbitrary order and MRCC methods)
  Frank Weinhold                                : gennbo (NPA and NBO analysis)           
  Simon Mueller                                 : openCOSMO-RS                            
  Christopher J. Cramer and Donald G. Truhlar   : smd solvation model                     
  S Lehtola, MJT Oliveira, MAL Marques          : LibXC Library                           
  Liviu Ungur et al                             : ANISO software                          


 Your calculation uses the libint2 library for the computation of 2-el integrals
 For citations please refer to: http://libint.valeyev.net

 Your ORCA version has been built with support for libXC version: 7.0.0
 For citations please refer to: https://libxc.gitlab.io

 This ORCA versions uses:
   CBLAS   interface :  Fast vector & matrix operations
   LAPACKE interface :  Fast linear algebra routines
   SCALAPACK package :  Parallel linear algebra routines
   Shared memory     :  Shared parallel matrices
   BLAS/LAPACK       :  OpenBLAS 0.3.29  USE64BITINT DYNAMIC_ARCH NO_AFFINITY Haswell SINGLE_THREADED
        Core in use  :  Haswell
   Copyright (c) 2011-2014, The OpenBLAS Project


  ***********************************
  * Starting time: Sun Aug  9 16:33:25 2026
  * Host name:     localhost.localdomain
  * Process ID:    2921921
  * Working dir.:  /home/dinglab/calculation/templates/NMR_modules/autohnmr/alpha_diol_screening/CONF4/b3lyp-3c
  ***********************************

NOTE: MaxCore=2500 MB was set to SCF,MP2,MDCI,CIPSI,MRCI,RASCI and CIS
      => If you want to overwrite this, your respective input block should be placed after the MaxCore statement


***************************************
The coordinates will be read from file: inp.xyz
***************************************


Your calculation utilizes the geometrical counterpoise correction gCP
Please cite in your paper:
H.Kruse, S. Grimme J.Chem.Phys., 136, (2012), 154101 
   

Your calculation utilizes the atom-pairwise dispersion correction
with the Becke-Johnson damping scheme (D3BJ)


Warning: RI is on but no J-basis has been assigned. Assigning Def2/J (nothing to worry about!)
================================================================================

----- Orbital basis set information -----
Your calculation utilizes the basis: def2-mSVP

----- AuxJ basis set information -----
Your calculation utilizes the auxiliary basis: def2/J
   H-Rn: F. Weigend, Phys. Chem. Chem. Phys. 8, 1057 (2006).
   Fr-Lr: K. Eichkorn, F. Weigend, O. Treutler, R. Ahlrichs; Theor. Chem. Acc. 97, 119 (1997).

================================================================================
                                        WARNINGS
                       Please study these warnings very carefully!
================================================================================

WARNING: Old DensityContainer found on disk!
         Will remove this file - 
         If you want to keep old densities, please start your calculation with a different basename. 


WARNING: Gradients are needed
  ===> : At least TightSCF should be used for SCF convergence

================================================================================
                                       INPUT FILE
================================================================================
NAME = inp
|  1> ! b3lyp
|  2> ! d3bj ABC
|  3> ! def2-mSVP
|  4> ! GCP(DFT/SV(P))
|  5> ! DEFGRID2
|  6> ! scfconv6
|  7> ! miniprint nopop noautostart
|  8> %MaxCore 2500
|  9> ! ENGRAD
| 10> %pal
| 11>     nprocs 12
| 12> end
| 13> ! CPCM(chloroform)
| 14> * xyzfile 0 1 inp.xyz
| 15> 
| 16>                          ****END OF INPUT****
================================================================================

                     *******************************
                     * Energy+Gradient Calculation *
                     *******************************

---------------------------------
CARTESIAN COORDINATES (ANGSTROEM)
---------------------------------
  C      0.122635   -0.567854    0.427680
  C     -0.978055    0.527576    0.724055
  C     -0.367009    1.959046    0.566387
  C      0.584953    2.144785   -0.639278
  C      1.540341    0.932961   -0.811508
  C      0.684266   -0.336187   -1.008262
  C      1.374113   -0.278979    1.328365
  C      2.269288    0.640142    0.494285
  O      1.430375   -1.456189   -1.518317
  C     -0.364214   -2.017917    0.653912
  C      3.484892    1.082900    0.835688
  C     -2.312574    0.343649   -0.013584
  C     -2.590392    0.864827   -1.220645
  H     -1.214846    0.412853    1.797209
  O     -1.227073   -2.527548   -0.365853
  C     -3.389925   -0.401391    0.754349
  H     -1.180003    2.699369    0.518696
  H      0.197351    2.189689    1.484138
  H      0.020671    2.280383   -1.575850
  H      1.178377    3.062335   -0.495962
  H      2.225528    1.111551   -1.655159
  H     -0.115877   -0.184784   -1.745122
  H      1.907386   -1.214645    1.569722
  H      1.097507    0.170560    2.295157
  H      2.235657   -1.577035   -0.972542
  H     -0.930330   -2.076475    1.597568
  H      0.517071   -2.675447    0.771675
  H      3.940927    0.832988    1.797192
  H      4.070312    1.718872    0.166904
  H     -3.573942    0.729814   -1.677058
  H     -1.874673    1.443986   -1.803422
  H     -0.682864   -2.608389   -1.175618
  H     -4.334651   -0.435873    0.191284
  H     -3.092176   -1.437277    0.974033
  H     -3.586535    0.091834    1.722169

----------------------------
CARTESIAN COORDINATES (A.U.)
----------------------------
  NO LB      ZA    FRAG     MASS         X           Y           Z
   0 C     6.0000    0    12.011    0.231746   -1.073089    0.808198
   1 C     6.0000    0    12.011   -1.848256    0.996974    1.368265
   2 C     6.0000    0    12.011   -0.693546    3.702061    1.070316
   3 C     6.0000    0    12.011    1.105401    4.053057   -1.208060
   4 C     6.0000    0    12.011    2.910823    1.763042   -1.533528
   5 C     6.0000    0    12.011    1.293075   -0.635301   -1.905340
   6 C     6.0000    0    12.011    2.596698   -0.527194    2.510246
   7 C     6.0000    0    12.011    4.288333    1.209693    0.934064
   8 O     8.0000    0    15.999    2.703018   -2.751799   -2.869204
   9 C     6.0000    0    12.011   -0.688264   -3.813310    1.235715
  10 C     6.0000    0    12.011    6.585491    2.046385    1.579221
  11 C     6.0000    0    12.011   -4.370132    0.649403   -0.025671
  12 C     6.0000    0    12.011   -4.895131    1.634285   -2.306684
  13 H     1.0000    0     1.008   -2.295725    0.780178    3.396234
  14 O     8.0000    0    15.999   -2.318833   -4.776373   -0.691361
  15 C     6.0000    0    12.011   -6.406029   -0.758520    1.425512
  16 H     1.0000    0     1.008   -2.229882    5.101068    0.980194
  17 H     1.0000    0     1.008    0.372940    4.137913    2.804614
  18 H     1.0000    0     1.008    0.039063    4.309299   -2.977925
  19 H     1.0000    0     1.008    2.226809    5.786975   -0.937232
  20 H     1.0000    0     1.008    4.205638    2.100528   -3.127798
  21 H     1.0000    0     1.008   -0.218976   -0.349192   -3.297803
  22 H     1.0000    0     1.008    3.604438   -2.295347    2.966345
  23 H     1.0000    0     1.008    2.073987    0.322312    4.337218
  24 H     1.0000    0     1.008    4.224780   -2.980164   -1.837839
  25 H     1.0000    0     1.008   -1.758069   -3.923968    3.018967
  26 H     1.0000    0     1.008    0.977122   -5.055862    1.458254
  27 H     1.0000    0     1.008    7.447273    1.574119    3.396201
  28 H     1.0000    0     1.008    7.691774    3.248198    0.315402
  29 H     1.0000    0     1.008   -6.753772    1.379149   -3.169181
  30 H     1.0000    0     1.008   -3.542618    2.728738   -3.407973
  31 H     1.0000    0     1.008   -1.290427   -4.929140   -2.221595
  32 H     1.0000    0     1.008   -8.191303   -0.823680    0.361474
  33 H     1.0000    0     1.008   -5.843365   -2.716060    1.840656
  34 H     1.0000    0     1.008   -6.777568    0.173541    3.254429



           ************************************************************
           *        Program running with 12 parallel MPI-processes    *
           *              working on a common directory               *
           ************************************************************
------------------------------------------------------------------------------
                   ___                                                        
                  /   \      - P O W E R E D   B Y -                         
                 /     \                                                     
                 |  |  |   _    _      __       _____    __    __             
                 |  |  |  | |  | |    /  \     |  _  \  |  |  /  |          
                  \  \/   | |  | |   /    \    | | | |  |  | /  /          
                 / \  \   | |__| |  /  /\  \   | |_| |  |  |/  /          
                |  |  |   |  __  | /  /__\  \  |    /   |      \           
                |  |  |   | |  | | |   __   |  |    \   |  |\   \          
                \     /   | |  | | |  |  |  |  | |\  \  |  | \   \       
                 \___/    |_|  |_| |__|  |__|  |_| \__\ |__|  \__/        
                                                                              
                      - O R C A' S   B I G   F R I E N D -                    
                                      &                                       
                       - I N T E G R A L  F E E D E R -                       
                                                                              
 v1 FN, 2020, v2 2021, v3 2022-2024                                           
------------------------------------------------------------------------------


----------------------
SHARK INTEGRAL PACKAGE
----------------------

Number of atoms                             ...     35
Number of basis functions                   ...    265
Number of shells                            ...    145
Maximum angular momentum                    ...      2
Integral batch strategy                     ... SHARK/LIBINT Hybrid
RI-J (if used) integral strategy            ... SPLIT-RIJ (Revised 2003 algorithm where possible)
Printlevel                                  ...      1
Contraction scheme used                     ... SEGMENTED contraction
Prescreening option                         ... SCHWARTZ
   Thresh                                   ... 1.000e-10
   Tcut                                     ... 1.000e-11
   Tpresel                                  ... 1.000e-11 
Coulomb Range Separation                    ... NOT USED
Exchange Range Separation                   ... NOT USED
Multipole approximations                    ... NOT USED
Finite Nucleus Model                        ... NOT USED
CABS basis                                  ... NOT available
Auxiliary Coulomb fitting basis             ... AVAILABLE
   # of basis functions in Aux-J            ...    955
   # of shells in Aux-J                     ...    325
   Maximum angular momentum in Aux-J        ...      4
Auxiliary J/K fitting basis                 ... NOT available
Auxiliary Correlation fitting basis         ... NOT available
Auxiliary 'external' fitting basis          ... NOT available

Checking pre-screening integrals            ... done (  0.0 sec) Dimension = 145
   => SHARK Basis and OBASIS are compatible. Storing Pre-screening
Shell pair information
Shell pair cut-off parameter TPreSel        ...   1.0e-11
Total number of shell pairs                 ...     10585
Shell pairs after pre-screening             ...      8874
Total number of primitive shell pairs       ...     38205
Primitive shell pairs kept                  ...     20874
          la=0 lb=0:   3911 shell pairs
          la=1 lb=0:   2755 shell pairs
          la=1 lb=1:    457 shell pairs
          la=2 lb=0:   1218 shell pairs
          la=2 lb=1:    427 shell pairs
          la=2 lb=2:    106 shell pairs

Checking whether 4 symmetric matrices of dimension 265 fit in memory
:Max Core in MB      =   2500.00
 MB in use           =     14.34
 MB left             =   2485.66
 MB needed           =      1.08
 Data fit in memory  = YES
Calculating RI/J V-Matrix + Cholesky decomp.... done (  0.0 sec)
Calculating Nuclear repulsion               ... done (  0.0 sec) ENN=   1110.032057053400 Eh

Diagonalization of the overlap matrix:
Smallest eigenvalue                        ... 1.940e-03
Time for diagonalization                   ...    0.013 sec
Threshold for overlap eigenvalues          ... 1.000e-07
Number of eigenvalues below threshold      ... 0
Time for construction of square roots      ...    0.004 sec
Total time needed                          ...    0.018 sec

-------------------
DFT GRID GENERATION
-------------------

General Integration Accuracy     IntAcc      ... 4.388
Radial Grid Type                 RadialGrid  ... OptM3 with GC (2021)
Angular Grid (max. ang.)         AngularGrid ... 4 (Lebedev-302)
Angular grid pruning method      GridPruning ... 4 (adaptive)
Weight generation scheme         WeightScheme... mBecke (2022)
Basis function cutoff            BFCut       ... 1.0000e-10
Integration weight cutoff        WCut        ... 1.0000e-14
Partially contracted basis set               ... off
Rotationally invariant grid construction     ... off
Angular grids for H and He will be reduced by one unit

Total number of grid points                  ...   152274
Total number of batches                      ...     2395
Average number of points per batch           ...       63
Average number of grid points per atom       ...     4351

--------------------
COSX GRID GENERATION
--------------------

GRIDX 1
-------
General Integration Accuracy     IntAcc      ... 3.816
Radial Grid Type                 RadialGrid  ... OptM3 with GC (2021)
Angular Grid (max. ang.)         AngularGrid ... 1 (Lebedev-50)
Angular grid pruning method      GridPruning ... 4 (adaptive)
Weight generation scheme         WeightScheme... mBecke (2022)
Basis function cutoff            BFCut       ... 1.0000e-10
Integration weight cutoff        WCut        ... 1.0000e-14
Partially contracted basis set               ... on
Rotationally invariant grid construction     ... off
Angular grids for H and He will be reduced by one unit

Total number of grid points                  ...    19390
Total number of batches                      ...      173
Average number of points per batch           ...      112
Average number of grid points per atom       ...      554
UseSFitting                                  ... on

GRIDX 2
-------
General Integration Accuracy     IntAcc      ... 4.020
Radial Grid Type                 RadialGrid  ... OptM3 with GC (2021)
Angular Grid (max. ang.)         AngularGrid ... 2 (Lebedev-110)
Angular grid pruning method      GridPruning ... 4 (adaptive)
Weight generation scheme         WeightScheme... mBecke (2022)
Basis function cutoff            BFCut       ... 1.0000e-10
Integration weight cutoff        WCut        ... 1.0000e-14
Partially contracted basis set               ... on
Rotationally invariant grid construction     ... off
Angular grids for H and He will be reduced by one unit

Total number of grid points                  ...    40639
Total number of batches                      ...      336
Average number of points per batch           ...      120
Average number of grid points per atom       ...     1161
UseSFitting                                  ... on

GRIDX 3
-------
General Integration Accuracy     IntAcc      ... 4.338
Radial Grid Type                 RadialGrid  ... OptM3 with GC (2021)
Angular Grid (max. ang.)         AngularGrid ... 3 (Lebedev-194)
Angular grid pruning method      GridPruning ... 4 (adaptive)
Weight generation scheme         WeightScheme... mBecke (2022)
Basis function cutoff            BFCut       ... 1.0000e-10
Integration weight cutoff        WCut        ... 1.0000e-14
Partially contracted basis set               ... on
Rotationally invariant grid construction     ... off
Angular grids for H and He will be reduced by one unit

Total number of grid points                  ...    88257
Total number of batches                      ...      710
Average number of points per batch           ...      124
Average number of grid points per atom       ...     2522
UseSFitting                                  ... on
Grids setup in   1.5 sec
Initializing property integral containers    ... done (  0.0 sec)

SHARK setup successfully completed in   1.8 seconds

Maximum memory used throughout the entire STARTUP-calculation: 40.7 MB


           ************************************************************
           *        Program running with 12 parallel MPI-processes    *
           *              working on a common directory               *
           ************************************************************
Loading Hartree-Fock densities                     ... done
Calculating cut-offs                               ... done
Initializing the effective Hamiltonian             ... done
Setting up the integral package (SHARK)            ... done
Starting the Coulomb interaction                   ... done (   0.1 sec)
Making the grid                                    ... done (   0.2 sec)
Mapping shells                                     ... done
Starting the XC term evaluation                    ... done (   0.0 sec)
  promolecular density results
     # of electrons  =    113.986606764
     EX              =    -89.143434151
     EC              =     -3.804176757
     EX+EC           =    -92.947610907
Transforming the Hamiltonian                       ... done (   0.0 sec)
Diagonalizing the Hamiltonian                      ... done (   0.0 sec)
Back transforming the eigenvectors                 ... done (   0.0 sec)
Now organizing SCF variables                       ... done
             **** ENERGY FILE WAS UPDATED (inp.en.tmp) ****
Finished Guess after   0.5 sec
Maximum memory used throughout the entire GUESS-calculation: 17.7 MB


           ************************************************************
           *        Program running with 12 parallel MPI-processes    *
           *              working on a common directory               *
           ************************************************************
--------------------
CPCM SOLVATION MODEL
--------------------
CPCM parameters:
  Epsilon                                         ...       4.8030
  Refrac                                          ...       1.4459
  Rsolv                                           ...       1.3000
  Surface type                                    ... GAUSSIAN VDW
  Discretization scheme                           ... Constant charge density
    Threshold for H atoms                         ...       5.0000 (charges/Ang^2)
    Threshold for non-H atoms                     ...       5.0000 (charges/Ang^2)
  Epsilon function type                           ...         CPCM
Solvent:                                          ... CHLOROFORM
Radii:
  Scheme                                          ... Element-dependent radii
  Radius for C  used is    3.8550 Bohr (=   2.0400 Ang.)
  Radius for O  used is    3.4469 Bohr (=   1.8240 Ang.)
  Radius for H  used is    2.4944 Bohr (=   1.3200 Ang.)
Calculating surface                               ...        done! (  0.0s)
Cavity surface points                             ...         2560
Cavity Volume                                     ...    1810.0830
Cavity Surface-area                               ...     907.8404
Calculating surface distance matrix               ...        done! (  0.1s)
Performing Cholesky decomposition & store         ...        done! (  0.2s)
Overall time for CPCM initialization              ...                 0.3s

----------------------------------------D-I-I-S--------------------------------------------
Iteration    Energy (Eh)           Delta-E    RMSDP     MaxDP     DIISErr   Damp  Time(sec)
-------------------------------------------------------------------------------------------
               ***  Starting incremental Fock matrix formation  ***
    1    -656.9461201159397206     0.00e+00  8.75e-03  7.12e-02  2.34e-01  0.700   2.2
    2    -657.1354798364029648    -1.89e-01  6.31e-03  3.99e-02  1.02e-01  0.700   1.3
                               ***Turning on AO-DIIS***
    3    -657.2143175824219270    -7.88e-02  2.53e-03  1.59e-02  3.77e-02  0.700   1.4
    4    -657.2604170356721625    -4.61e-02  4.26e-03  2.39e-02  1.87e-02  0.000   1.2
    5    -657.3603651996120334    -9.99e-02  8.07e-04  4.66e-03  4.98e-03  0.000   1.3
                              *** Initializing SOSCF ***
---------------------------------------S-O-S-C-F--------------------------------------
Iteration    Energy (Eh)           Delta-E    RMSDP     MaxDP     MaxGrad    Time(sec)
--------------------------------------------------------------------------------------
    6    -657.3607001348075300    -3.35e-04  2.70e-04  1.75e-03  1.01e-03     1.2
               *** Restarting incremental Fock matrix formation ***
    7    -657.3606719918777799     2.81e-05  1.70e-04  1.42e-03  3.47e-04     2.2
    8    -657.3606667675658173     5.22e-06  9.21e-05  8.45e-04  6.60e-04     1.5
    9    -657.3606756527228754    -8.89e-06  1.47e-05  1.34e-04  3.19e-05     1.4
                  *** Gradient check signals convergence ***

               *****************************************************
               *                     SUCCESS                       *
               *           SCF CONVERGED AFTER   9 CYCLES          *
               *****************************************************

Recomputing exchange energy using gridx3       ... done (    2.886 sec)
Old exchange energy                            :    -18.195035725 Eh
New exchange energy                            :    -18.195101934 Eh
Exchange energy change after final integration :     -0.000066210 Eh
Total energy after final integration           :   -657.360741773 Eh
             **** ENERGY FILE WAS UPDATED (inp.en.tmp) ****

----------------
TOTAL SCF ENERGY
----------------

Total Energy       :       -657.36074177295950 Eh          -17887.69518 eV

Components:
Nuclear Repulsion  :       1110.03205705339974 Eh           30205.50789 eV
Electronic Energy  :      -1767.38190990216663 Eh          -48092.90676 eV
One Electron Energy:      -3097.20157036819955 Eh          -84279.13940 eV
Two Electron Energy:       1329.81966046603293 Eh           36186.23263 eV
CPCM Dielectric    :         -0.01082271463228 Eh              -0.29450 eV

Virial components:
Potential Energy   :      -1309.67414268760967 Eh          -35638.04523 eV
Kinetic Energy     :        652.31340091465017 Eh           17750.35005 eV
Virial Ratio       :          2.00773760105378

DFT components:
N(Alpha)           :       56.999971513847 electrons
N(Beta)            :       56.999971513847 electrons
N(Total)           :      113.999943027694 electrons
E(X)               :      -72.170089079986 Eh       
E(C)               :       -4.481601838907 Eh       
E(XC)              :      -76.651690918893 Eh       

CPCM Solvation Model Properties:
Surface-charge          :         -0.02207916016016
Corrected charge        :         -0.00000000000000
Outlying charge corr.   :          0.00002412940508 Eh               0.00066 eV
Free-energy (cav+disp)  :  This term is not implemented in the current solvation scheme

---------------
SCF CONVERGENCE
---------------

  Last Energy change         ...    8.8852e-06  Tolerance :   1.0000e-06
  Last MAX-Density change    ...    1.3386e-04  Tolerance :   1.0000e-07
  Last RMS-Density change    ...    1.4717e-05  Tolerance :   5.0000e-09
  Last DIIS Error            ...    1.0082e-03  Tolerance :   1.0000e-06
  Last Orbital Gradient      ...    3.1949e-05  Tolerance :   3.3300e-04
  Last Orbital Rotation      ...    1.0630e-04  Tolerance :   3.3300e-04


----------------
ORBITAL ENERGIES
----------------

  NO   OCC          E(Eh)            E(eV) 
   0   2.0000     -19.134850      -520.6857 
   1   2.0000     -19.122516      -520.3501 
   2   2.0000     -10.221026      -278.1283 
   3   2.0000     -10.214283      -277.9448 
   4   2.0000     -10.187492      -277.2157 
   5   2.0000     -10.186924      -277.2003 
   6   2.0000     -10.184277      -277.1283 
   7   2.0000     -10.183797      -277.1152 
   8   2.0000     -10.179236      -276.9911 
   9   2.0000     -10.176659      -276.9210 
  10   2.0000     -10.173776      -276.8425 
  11   2.0000     -10.170324      -276.7486 
  12   2.0000     -10.165120      -276.6070 
  13   2.0000     -10.161695      -276.5138 
  14   2.0000     -10.156908      -276.3835 
  15   2.0000      -1.012237       -27.5444 
  16   2.0000      -0.996925       -27.1277 
  17   2.0000      -0.854815       -23.2607 
  18   2.0000      -0.797272       -21.6949 
  19   2.0000      -0.759469       -20.6662 
  20   2.0000      -0.751404       -20.4467 
  21   2.0000      -0.714001       -19.4290 
  22   2.0000      -0.670397       -18.2424 
  23   2.0000      -0.665017       -18.0960 
  24   2.0000      -0.662770       -18.0349 
  25   2.0000      -0.614009       -16.7080 
  26   2.0000      -0.583415       -15.8755 
  27   2.0000      -0.555095       -15.1049 
  28   2.0000      -0.522572       -14.2199 
  29   2.0000      -0.509480       -13.8637 
  30   2.0000      -0.503035       -13.6883 
  31   2.0000      -0.478777       -13.0282 
  32   2.0000      -0.460893       -12.5415 
  33   2.0000      -0.455042       -12.3823 
  34   2.0000      -0.437782       -11.9127 
  35   2.0000      -0.430268       -11.7082 
  36   2.0000      -0.425221       -11.5708 
  37   2.0000      -0.415882       -11.3167 
  38   2.0000      -0.402602       -10.9553 
  39   2.0000      -0.401135       -10.9154 
  40   2.0000      -0.390790       -10.6339 
  41   2.0000      -0.387738       -10.5509 
  42   2.0000      -0.379235       -10.3195 
  43   2.0000      -0.373630       -10.1670 
  44   2.0000      -0.370080       -10.0704 
  45   2.0000      -0.352307        -9.5868 
  46   2.0000      -0.347213        -9.4481 
  47   2.0000      -0.329661        -8.9705 
  48   2.0000      -0.324975        -8.8430 
  49   2.0000      -0.317834        -8.6487 
  50   2.0000      -0.311099        -8.4654 
  51   2.0000      -0.303077        -8.2471 
  52   2.0000      -0.292066        -7.9475 
  53   2.0000      -0.264762        -7.2045 
  54   2.0000      -0.253316        -6.8931 
  55   2.0000      -0.241010        -6.5582 
  56   2.0000      -0.232103        -6.3159 
  57   0.0000       0.010040         0.2732 
  58   0.0000       0.024653         0.6708 
  59   0.0000       0.082746         2.2516 
  60   0.0000       0.099393         2.7046 
  61   0.0000       0.117368         3.1937 
  62   0.0000       0.123879         3.3709 
  63   0.0000       0.141724         3.8565 
  64   0.0000       0.144169         3.9230 
  65   0.0000       0.149568         4.0699 
  66   0.0000       0.155301         4.2259 
  67   0.0000       0.159981         4.3533 
*Only the first 10 virtual orbitals were printed.
Total SCF time: 0 days 0 hours 0 min 18 sec 
Finished LeanSCF after  18.5 sec

Maximum memory used throughout the entire LEANSCF-calculation: 31.6 MB


-------------------------------------------------------------------------------
                          DFT DISPERSION CORRECTION                            
                                                                               
                              DFTD3 V3.1  Rev 1                                
                          USING Becke-Johnson damping                          
-------------------------------------------------------------------------------
-------------------------   ----------------
Dispersion correction           -0.074321352
-------------------------   ----------------

NOTIFICATION: Different basis set in ORCA and otool_gcp:
ORCA: 265  gCP: 250 
If you are NOT using ECPs, check your basis set inputs!
------------------   -----------------
gCP correction             0.162426964
------------------   -----------------

-------------------------   --------------------
FINAL SINGLE POINT ENERGY      -657.272636161637
-------------------------   --------------------



           ************************************************************
           *        Program running with 12 parallel MPI-processes    *
           *              working on a common directory               *
           ************************************************************
------------------------------------------------------------------------------
                         ORCA SCF GRADIENT CALCULATION
------------------------------------------------------------------------------

Nuc. rep. gradient        (SHARK) ... done (  0.0 sec)
HCore & Overlap gradient  (SHARK) ... done (  0.2 sec)
Split-RIJ-J gradient      (SHARK) ... done (  0.6 sec)
COSX-gradient                     ... done (  6.9 sec)
XC gradient                       ... done (  2.2 sec)
CPCM gradient                     ... done (  0.7 sec)
Dispersion correction             ... done (  0.0 sec)

-------------------
DISPERSION GRADIENT
-------------------

   1   C   :    0.000279932   -0.000501475    0.000307738
   2   C   :   -0.000503969    0.000373001    0.000506361
   3   C   :   -0.000217416    0.000985316    0.000340529
   4   C   :    0.000229826    0.000961555   -0.000373138
   5   C   :    0.000609541    0.000318168   -0.000552046
   6   C   :    0.000611298   -0.000313438   -0.000695782
   7   C   :    0.000552787   -0.000269932    0.000740671
   8   C   :    0.000812251    0.000092456    0.000141393
   9   O   :    0.000372867   -0.000505230   -0.000710327
  10   C   :   -0.000040447   -0.001143047    0.000295348
  11   C   :    0.001191448    0.000270681    0.000364857
  12   C   :   -0.001254891    0.000230291    0.000026465
  13   C   :   -0.001130005    0.000352744   -0.000768056
  14   H   :   -0.000212071    0.000134672    0.000481528
  15   O   :   -0.000166611   -0.000956468   -0.000153825
  16   C   :   -0.000930860   -0.000039708    0.000233764
  17   H   :   -0.000110986    0.000499094    0.000175628
  18   H   :   -0.000123340    0.000476470    0.000361456
  19   H   :    0.000067351    0.000458506   -0.000365178
  20   H   :    0.000033112    0.000501158   -0.000151100
  21   H   :    0.000256681    0.000149708   -0.000401314
  22   H   :    0.000065918   -0.000134040   -0.000624908
  23   H   :    0.000253677   -0.000277417    0.000388881
  24   H   :    0.000144278   -0.000046867    0.000573995
  25   H   :    0.000322979   -0.000352803   -0.000330347
  26   H   :   -0.000056482   -0.000475883    0.000291228
  27   H   :   -0.000004410   -0.000481065    0.000153843
  28   H   :    0.000309333    0.000076083    0.000136645
  29   H   :    0.000362315    0.000109572    0.000052867
  30   H   :   -0.000217590    0.000081267   -0.000249464
  31   H   :   -0.000368115    0.000183973   -0.000424213
  32   H   :   -0.000085489   -0.000473852   -0.000231904
  33   H   :   -0.000297761   -0.000064277    0.000046003
  34   H   :   -0.000418811   -0.000191167    0.000177604
  35   H   :   -0.000336341   -0.000028047    0.000234798

Difference to translation invariance:
           :    0.0000000000   -0.0000000000   -0.0000000000

Difference to rotation invariance:
           :   -0.0000000000   -0.0000000000   -0.0000000000

Norm of the Dispersion gradient    ...    0.0046287569
RMS gradient                       ...    0.0004517204
MAX gradient                       ...    0.0012548908
gCP correction                   ... done

------------------
CARTESIAN GRADIENT
------------------

   1   C   :   -0.000020317    0.000077808   -0.000026966
   2   C   :   -0.000023716   -0.000060068    0.000014195
   3   C   :    0.000007016   -0.000155657   -0.000103145
   4   C   :    0.000073661    0.000060563    0.000002736
   5   C   :   -0.000075372   -0.000014352    0.000093030
   6   C   :    0.000098191   -0.000058513    0.000100399
   7   C   :   -0.000016904    0.000056271   -0.000106985
   8   C   :   -0.000162811   -0.000110591   -0.000069004
   9   O   :   -0.000048364   -0.000030348   -0.000063192
  10   C   :   -0.000047710    0.000071548   -0.000096430
  11   C   :    0.000082985    0.000003241    0.000014489
  12   C   :    0.000067574    0.000097283    0.000044543
  13   C   :   -0.000045077    0.000052152    0.000032445
  14   H   :   -0.000006068   -0.000017801    0.000039098
  15   O   :    0.000249276   -0.000021276   -0.000405726
  16   C   :    0.000144995    0.000028264    0.000004293
  17   H   :   -0.000022935    0.000017523   -0.000006445
  18   H   :    0.000012354    0.000014476    0.000021250
  19   H   :   -0.000013732   -0.000002499   -0.000021743
  20   H   :    0.000003781    0.000011499   -0.000045163
  21   H   :    0.000009011   -0.000006818   -0.000024786
  22   H   :   -0.000034976    0.000017093   -0.000010690
  23   H   :    0.000022989   -0.000046949   -0.000004442
  24   H   :   -0.000013912   -0.000030598    0.000047041
  25   H   :    0.000044481   -0.000007875    0.000032986
  26   H   :   -0.000010642    0.000009955    0.000053211
  27   H   :    0.000022702   -0.000032511    0.000034983
  28   H   :   -0.000001182    0.000019547    0.000097072
  29   H   :    0.000028932    0.000072045   -0.000030855
  30   H   :   -0.000012109   -0.000027156    0.000004591
  31   H   :    0.000075212    0.000025481   -0.000054388
  32   H   :   -0.000257244    0.000055918    0.000397024
  33   H   :   -0.000178646    0.000023591   -0.000081961
  34   H   :    0.000020260   -0.000139516    0.000006248
  35   H   :    0.000028298    0.000048271    0.000112285

Difference to translation invariance:
           :   -0.0000000000   -0.0000000000   -0.0000000000

Difference to rotation invariance:
           :   -0.0000017664    0.0000984122   -0.0007629805

Norm of the Cartesian gradient     ...    0.0008978715
RMS gradient                       ...    0.0000876233
MAX gradient                       ...    0.0004057260

-------
TIMINGS
-------

Total SCF gradient time     ....       10.680 sec

Densities                   ....       0.001 sec  (  0.0%)
One electron gradient       ....       0.170 sec  (  1.6%)
RI-J Coulomb gradient       ....       0.586 sec  (  5.5%)
COSX gradient               ....       6.898 sec  ( 64.6%)
XC gradient                 ....       2.210 sec  ( 20.7%)
CPCM gradient               ....       0.662 sec  (  6.2%)
   A-Matrix (El+Nuc)        ....       0.023 sec  (  0.2%)
   Potential                ....       0.638 sec  (  6.0%)

Maximum memory used throughout the entire SCFGRAD-calculation: 37.8 MB


           ************************************************************
           *        Program running with 12 parallel MPI-processes    *
           *              working on a common directory               *
           ************************************************************

------------------------------------------------------------------------------
                              ORCA PROPERTY CALCULATIONS
------------------------------------------------------------------------------

GBWName                                 ... inp.gbw
Number of atoms                         ...     35
Number of basis functions               ...    265
Max core memory                         ...   2500 MB

Electric properties:
Dipole moment                           ... YES
Quadrupole moment                       ...  NO
Static polarizability (Dipole/Dipole)   ...  NO
Static polarizability (Dipole/Quad.)    ...  NO
Static polarizability (Quad./Quad.)     ...  NO
Static polarizability (Velocity)        ...  NO
Static hyperpolarizability              ...  NO

Atomic electric properties:
Dipole moment                           ...  NO
Quadrupole moment                       ...  NO
Static polarizability                   ...  NO

Choice of electric origin               ... Center of mass
Position of electric origin             ...     0.006645    -0.003526    -0.010970

General magnetic properties:
Magnetizability                         ...  NO

EPR properties:
g-Tensor (aka g-matrix)                 ...  NO
Zero-Field splitting spin-orbit         ...  NO
Zero-field splitting spin-spin          ...  NO
Hyperfine couplings                     ...  NO (   0 nuclei)
Quadrupole couplings                    ...  NO (   0 nuclei)
Contact density                         ...  NO (   0 nuclei)

NMR properties:
Chemical shifts                         ...  NO (   0 nuclei)
Spin-rotation constants                 ...  NO (   0 nuclei)
Spin-spin couplings                     ...  NO (   0 nuclei,    0 pairs)

Choice of magnetic origin               ... GIAO
Position of magnetic origin             ...     0.000000     0.000000     0.000000

Properties with geometric perturbations:
SCF Hessian                             ...  NO
IR spectrum                             ...  NO
VCD spectrum                            ...  NO
X-ray spectroscopy properties:
SCF XES/XAS/RIXS spectra                ...  NO

SCF SOC stabilization energy            ...  NO
Diagonal Born-Oppenheimer correction    ...  NO

-------------
DIPOLE MOMENT
-------------

Method             : SCF
Type of density    : Electron Density
Multiplicity       :   1
Irrep              :   0
Energy             :  -657.3607417729594999 Eh
Basis              : AO
                                X                 Y                 Z
Electronic contribution:      3.880219042      -3.771124401      -3.000336357
Nuclear contribution   :     -3.060649416       4.230133898       3.632242353
                        -----------------------------------------
Total Dipole Moment    :      0.819569626       0.459009497       0.631905996
                        -----------------------------------------
Magnitude (a.u.)       :      1.132117166
Magnitude (Debye)      :      2.877613149



--------------------
Rotational spectrum 
--------------------
 
Rotational constants in cm-1:             0.030376             0.018030             0.014885 
Rotational constants in MHz :           910.642058           540.523885           446.240540 

Dipole components along the rotational axes: 
x,y,z [a.u.] :     0.922692    -0.284482     0.591100 
x,y,z [Debye]:     2.345297    -0.723096     1.502456 

 

Dipole moment calculation done in   0.0 sec 

Maximum memory used throughout the entire PROP-calculation: 16.6 MB

--------------------------------
SUGGESTED CITATIONS FOR THIS RUN
--------------------------------

Below you find a list of papers that are relevant to this ORCA run
We neither can nor want to force you to cite these papers, but we appreciate if you do
You receive ORCA, which is the product of decades of hard work by many enthusiastic individuals, for free
The only thing we kindly ask in return is that you cite our papers,
We deeply appreciate it, if you show your appreciation for ORCA by not just citing the generic ORCA reference.

Please note that relegating all ORCA citations to the supporting information does *not* help us.
SI sections are not indexed - citations you put there will not count into any citation statistics
But we need these citations in order to attract the funding resources that allow us to do what we are doing

Therefore, if you are a happy ORCA user, please consider citing a few of the papers listed below in the main body of your paper

In addition to the list printed below, the program has created the file inp.bibtex that contains the list in bibtex format
You can import this file easily into all common literature databanks and citation aid programs

It goes without saying that in many instances, there are alternative algorithms to achieve similar
results as the ones you have gotten from ORCA. It is, of course, also the case that in some instances
ORCA just re-implements algorithms worked out by others. We are fully aware of that and we are also
fully appreciative of our colleagues work. Hence this citation list should not be read as indicating
that the listed papers, which are focused on our own work, are the only ones worth citing. It simply
meant to make it easier for users to cite ORCA specific papers. It is not a substitute for doing your
own literature research and citing the relevant literature in a scientifically appropriate manner.

List of essential papers. We consider these as the minimum necessary citations

  1. Neese, F.
     Software update: the ORCA program system, version 6.0
     WIRES Comput. Molec. Sci. 2025 15(1), e70019
     doi.org/10.1002/wcms.70019

List of papers to cite with high priority. The work reported in these papers was absolutely
necessary for this run to complete.
Our perspective: the developers of density functionals and basis sets usually get cited in chemistry papers
Good! But without the algorithms to do something with them, the functionals or basis sets would not do anything.
Hence, in our opinion, the algorithm design and method developments papers are equally worthy of getting cited

  1. Neese, F.
     An improvement of the resolution of the identity approximation for the formation of the Coulomb matrix
     J. Comp. Chem. 2003 24(14), 1740-1747
     doi.org/10.1002/jcc.10318
  2. Neese, F.; Wennmohs, F.; Hansen, A.; Becker, U.
     Efficient, approximate and parallel Hartree-Fock and hybrid DFT calculations. A 'chain-of-spheres' algorithm for the Hartree-Fock exchange
     Chem. Phys. 2009 356(1-3), 98-109
     doi.org/10.1016/j.chemphys.2008.10.036
  3. Grimme, S.; Antony, J.; Ehrlich, S.; Krieg, H.
     A consistent and accurate ab initio parametrization of density functional dispersion correction (DFT-D) for the 94 elements H-Pu
     J. Chem. Phys. 2010 132 , 154104
     doi.org/10.1063/1.3382344
  4. Grimme, S.; Ehrlich, S.; Goerigk, L.
     Effect of the damping function in dispersion corrected density functional theory
     J. Comput. Chem. 2011 32(7), 1456-1465
     doi.org/10.1002/jcc.21759
  5. Garcia-Rates, M.; Neese, F.
     Effect of the Solute Cavity on the Solvation Energy and its Derivatives within the Framework of the Gaussian Charge Scheme
     J. Comput. Chem. 2020 41 , 922-939
     doi.org/10.1002/jcc.26139
  6. Helmich-Paris, B.; de Souza, B.; Neese, F.; Izsák, R.
     An improved chain of spheres for exchange algorithm
     J. Chem. Phys. 2021 155(10), 104109
     doi.org/10.1063/5.0058766
  7. Neese, F.
     The SHARK Integral Generation and Digestion System
     J. Comp. Chem. 2022 44(3), 381
     doi.org/10.1002/jcc.26942

List of suggested additional citations. These are papers that are important in the 'surrounding' of 
of this run, or papers that preceded the highly important papers. If you like your results we are grateful for a citation.

  1. Izsak, R.; Neese, F.
     An overlap fitted chain of spheres exchange method
     J. Chem. Phys. 2011 135 , 144105
     doi.org/10.1063/1.3646921
  2. Izsak, R.; Hansen, A.; Neese, F.
     The resolution of identity and chain of spheres approximations for the LPNO-CCSD singles Fock term
     Molec. Phys. 2012 110 , 2413-2417
     doi.org/10.1080/00268976.2012.687466
  3. Neese, F.
     The ORCA program system
     WIRES Comput. Molec. Sci. 2012 2(1), 73-78
     doi.org/10.1002/wcms.81
  4. Izsak, R.; Neese, F.; Klopper, W.
     Robust fitting techniques in the chain of spheres approximation to the Fock exchange: The role of the complementary space
     J. Chem. Phys. 2013 139 , 
     doi.org/10.1063/1.4819264
  5. Neese, F.
     Software update: the ORCA program system, version 4.0
     WIRES Comput. Molec. Sci. 2018 8(1), 1-6
     doi.org/10.1002/wcms.1327
  6. Neese, F.; Wennmohs, F.; Becker, U.; Riplinger, C.
     The ORCA quantum chemistry program package
     J. Chem. Phys. 2020 152(22), 224108
     doi.org/10.1063/5.0004608
  7. Neese, F.
     Software update: The ORCA program system—Version 5.0
     WIRES Comput. Molec. Sci. 2022 12(1), e1606
     doi.org/10.1002/wcms.1606

List of optional additional citations

  1. Neese, F.
     Approximate second-order SCF convergence for spin unrestricted wavefunctions
     Chem. Phys. Lett. 2000 325(1-3), 93-98
     doi.org/10.1016/s0009-2614(00)00662-x

Timings for individual modules:

Sum of individual times          ...       32.824 sec (=   0.547 min)
Startup calculation              ...        1.943 sec (=   0.032 min)   5.9 %
SCF iterations                   ...       19.414 sec (=   0.324 min)  59.1 %
Property calculations            ...        0.349 sec (=   0.006 min)   1.1 %
SCF Gradient evaluation          ...       11.119 sec (=   0.185 min)  33.9 %
                             ****ORCA TERMINATED NORMALLY****
TOTAL RUN TIME: 0 days 0 hours 0 minutes 33 seconds 451 msec
  ------------------------------------------------------------------------
          * successful ORCA run, taking over control again...

         :::::::::::::::::::::::::::::::::::::::::::::::::::::
         ::                  ORCA SUMMARY                   ::
         :::::::::::::::::::::::::::::::::::::::::::::::::::::
         :: total energy            -657.272636161637 Eh    ::
         :: gradient norm              0.000897871501 Eh/a0 ::
         :: HOMO-LUMO gap              0.000000000000 eV    ::
         :::::::::::::::::::::::::::::::::::::::::::::::::::::

           -------------------------------------------------
          |                Property Printout                |
           -------------------------------------------------
           -------------------------------------------------
          |                Geometry Summary                 |
           -------------------------------------------------

      molecular mass/u    :      208.2971915
   center of mass at/Å    :        0.0035175      -0.0018813      -0.0058126
  moments of inertia/u·Å² :        0.5549620E+03   0.9349588E+03   0.1132504E+04
rotational constants/cm⁻¹ :        0.3037619E-01   0.1803035E-01   0.1488527E-01

 * 24 selected distances

     #   Z          #   Z                                           value/Å
     6   6 c        9   8 o                                       1.4391808 (max)
     8   6 c       11   6 c                                       1.3380144
    12   6 c       13   6 c                                       1.3438019
     2   6 c       14   1 h                                       1.1049399
    10   6 c       15   8 o                                       1.4297456
     3   6 c       17   1 h                                       1.1005958
     3   6 c       18   1 h                                       1.1018013
     4   6 c       19   1 h                                       1.1018022
     4   6 c       20   1 h                                       1.1020842
     5   6 c       21   1 h                                       1.1014185
     6   6 c       22   1 h                                       1.0982320
     7   6 c       23   1 h                                       1.1036778
     7   6 c       24   1 h                                       1.1014913
     9   8 o       25   1 h                                       0.9802821
    10   6 c       26   1 h                                       1.1019999
    10   6 c       27   1 h                                       1.1058373
    11   6 c       28   1 h                                       1.0931219
    11   6 c       29   1 h                                       1.0929085
    13   6 c       30   1 h                                       1.0926633
    13   6 c       31   1 h                                       1.0896369
    15   8 o       32   1 h                                       0.9789884 (min)
    16   6 c       33   1 h                                       1.1003354
    16   6 c       34   1 h                                       1.0999887
    16   6 c       35   1 h                                       1.1039040

 * 4 distinct bonds (by element types)

   Z      Z             #   av. dist./Å        max./Å        min./Å
   1 H    6 C          18     1.0998022     1.1058373     1.0896369
   6 C    6 C           2     1.3409082     1.3438019     1.3380144
   1 H    8 O           2     0.9796353     0.9802821     0.9789884
   6 C    8 O           2     1.4344632     1.4391808     1.4297456


optimized geometry written to: xtbopt.coord


           -------------------------------------------------
          | TOTAL ENERGY             -657.272636161637 Eh   |
          | GRADIENT NORM               0.000897871501 Eh/α |
           -------------------------------------------------

------------------------------------------------------------------------
 * finished run on 2026/08/09 at 16:33:58.519     
------------------------------------------------------------------------
 total:
 * wall-time:     0 d,  0 h,  3 min, 17.655 sec
 *  cpu-time:     0 d,  0 h,  0 min,  4.504 sec
 * ratio c/w:     0.023 speedup
 SCF:
 * wall-time:     0 d,  0 h,  0 min, 33.387 sec
 *  cpu-time:     0 d,  0 h,  0 min,  2.169 sec
 * ratio c/w:     0.065 speedup
 ANC optimizer:
 * wall-time:     0 d,  0 h,  2 min, 44.236 sec
 *  cpu-time:     0 d,  0 h,  0 min,  2.312 sec
 * ratio c/w:     0.014 speedup

normal termination of xtb
