      -----------------------------------------------------------      
     |                   =====================                   |     
     |                           x T B                           |     
     |                   =====================                   |     
     |                         S. Grimme                         |     
     |          Mulliken Center for Theoretical Chemistry        |     
     |                    University of Bonn                     |     
      -----------------------------------------------------------      

   * xtb version 6.7.1 (edcfbbe) compiled by 'albert@albert-system' on 2024-07-22

   xtb is free software: you can redistribute it and/or modify it under
   the terms of the GNU Lesser General Public License as published by
   the Free Software Foundation, either version 3 of the License, or
   (at your option) any later version.
   
   xtb is distributed in the hope that it will be useful,
   but WITHOUT ANY WARRANTY; without even the implied warranty of
   MERCHANTABILITY or FITNESS FOR A PARTICULAR PURPOSE.  See the
   GNU Lesser General Public License for more details.
   
   Cite this work as:
   * C. Bannwarth, E. Caldeweyher, S. Ehlert, A. Hansen, P. Pracht,
     J. Seibert, S. Spicher, S. Grimme, WIREs Comput. Mol. Sci., 2020, 11,
     e01493. DOI: 10.1002/wcms.1493
   
   for GFN2-xTB:
   * C. Bannwarth, S. Ehlert and S. Grimme., J. Chem. Theory Comput., 2019,
     15, 1652-1671. DOI: 10.1021/acs.jctc.8b01176
   for GFN1-xTB:
   * S. Grimme, C. Bannwarth, P. Shushkov, J. Chem. Theory Comput., 2017,
     13, 1989-2009. DOI: 10.1021/acs.jctc.7b00118
   for GFN0-xTB:
   * P. Pracht, E. Caldeweyher, S. Ehlert, S. Grimme, ChemRxiv, 2019, preprint.
     DOI: 10.26434/chemrxiv.8326202.v1
   for GFN-FF:
   * S. Spicher and S. Grimme, Angew. Chem. Int. Ed., 2020, 59, 15665-15673.
     DOI: 10.1002/anie.202004239
   
   for ALPB and GBSA implicit solvation:
   * S. Ehlert, M. Stahn, S. Spicher, S. Grimme, J. Chem. Theory Comput.,
     2021, 17, 4250-4261. DOI: 10.1021/acs.jctc.1c00471
   
   for ddCOSMO and CPCM-X implicit solvation:
   * M. Stahn, S. Ehlert, S. Grimme, J. Phys. Chem. A,
     2023, XX, XXXX-XXXX. DOI: 10.1021/acs.jpca.3c04382
   
   for DFT-D4:
   * E. Caldeweyher, C. Bannwarth and S. Grimme, J. Chem. Phys., 2017,
     147, 034112. DOI: 10.1063/1.4993215
   * E. Caldeweyher, S. Ehlert, A. Hansen, H. Neugebauer, S. Spicher,
     C. Bannwarth and S. Grimme, J. Chem. Phys., 2019, 150, 154122.
     DOI: 10.1063/1.5090222
   * E. Caldeweyher, J.-M. Mewes, S. Ehlert and S. Grimme, Phys. Chem. Chem. Phys.
     2020, 22, 8499-8512. DOI: 10.1039/D0CP00502A
   
   for sTDA-xTB:
   * S. Grimme and C. Bannwarth, J. Chem. Phys., 2016, 145, 054103.
     DOI: 10.1063/1.4959605
   
   in the mass-spec context:
   * V. Asgeirsson, C. Bauer and S. Grimme, Chem. Sci., 2017, 8, 4879.
     DOI: 10.1039/c7sc00601b
   * J. Koopman and S. Grimme, ACS Omega 2019, 4, 12, 15120-15133.
     DOI: 10.1021/acsomega.9b02011
   
   for metadynamics refer to:
   * S. Grimme, J. Chem. Theory Comput., 2019, 155, 2847-2862
     DOI: 10.1021/acs.jctc.9b00143
   
   for SPH calculations refer to:
   * S. Spicher and S. Grimme, J. Chem. Theory Comput., 2021, 17, 1701-1714
     DOI: 10.1021/acs.jctc.0c01306
   
   for ONIOM refer to:
   * C. Plett, A. Katbashev, S. Ehlert, S. Grimme, M. Bursch,
     Phys. Chem. Chem. Phys., 2023, 25, 17860-17868. DOI: 10.1039/D3CP02178E
   
   for DIPRO refer to:
   * J. Kohn, N. Gildemeister, S. Grimme, D. Fazzi, A. Hansen,
     J. Chem. Phys., 2023, just accepted.
   
   for PTB refer to:
   * S. Grimme, M. Mueller, A. Hansen, J. Chem. Phys., 2023, 158, 124111.
     DOI: 10.1063/5.0137838
   
   with help from (in alphabetical order)
   P. Atkinson, C. Bannwarth, F. Bohle, G. Brandenburg, E. Caldeweyher
   M. Checinski, S. Dohm, S. Ehlert, S. Ehrlich, I. Gerasimov, C. Hölzer
   A. Katbashev, J. Kohn, J. Koopman, C. Lavigne, S. Lehtola, F. März, M. Müller,
   F. Musil, H. Neugebauer, J. Pisarek, C. Plett, P. Pracht, F. Pultar,
   J. Seibert, P. Shushkov, S. Spicher, M. Stahn, M. Steiner, T. Strunk,
   J. Stückrath, T. Rose, and J. Unsleber
   
 * started run on 2026/08/09 at 16:28:47.372     
   ID    Z sym.   atoms
    1    6 c      1-8, 10-13, 16
    2    8 o      9, 15
    3    1 h      14, 17-35

           -------------------------------------------------
          |                Calculation Setup                |
           -------------------------------------------------

          program call               : /home/dinglab/software/xtb_6.7.1/xtb_dist/bin/xtb coord --gfn2 --ohess vtight --alpb chcl3 --chrg 0 --enso --norestart -I xcontrol-inp --parallel 12
          hostname                   : localhost
          coordinate file            : coord
          omp threads                :                    12


           -------------------------------------------------
          |                 G F N 2 - x T B                 |
           -------------------------------------------------

        Reference                      10.1021/acs.jctc.8b01176
      * Hamiltonian:
        H0-scaling (s, p, d)           1.850000    2.230000    2.230000
        zeta-weighting                 0.500000
      * Dispersion:
        s8                             2.700000
        a1                             0.520000
        a2                             5.000000
        s9                             5.000000
      * Repulsion:
        kExp                           1.500000    1.000000
        rExp                           1.000000
      * Coulomb:
        alpha                          2.000000
        third order                    shell-resolved
        anisotropic                    true
        a3                             3.000000
        a5                             4.000000
        cn-shift                       1.200000
        cn-exp                         4.000000
        max-rad                        5.000000

      * Solvation model:               ALPB
        Solvent                        chcl3
        Parameter file                 internal GFN2-xTB/ALPB
        Dielectric constant                4.8100E+00
        Reference state                gsolv [1 M gas/solution]
        Free energy shift                  3.8910E-03 Eh       2.4417E+00 kcal/mol
        Temperature                        2.9815E+02 K
        Density                            1.4900E+00 kg/L
        Solvent mass                       1.1938E+02 g/mol
        Interaction kernel             P16
        Born radius scaling (c1)           1.3274E+00
        Born radii integrator          GBOBC
        Born offset                        0.0000E+00 a0       0.0000E+00 AA
        H-bond correction              false
        Ion screening                  false
        Surface tension                    1.0000E-05 Eh       1.5569E+01 dyn/cm
        Grid points                               974 per atom

          ...................................................
          :                      SETUP                      :
          :.................................................:
          :  # basis functions                  80          :
          :  # atomic orbitals                  80          :
          :  # shells                           50          :
          :  # electrons                        84          :
          :  max. iterations                   250          :
          :  Hamiltonian                  GFN2-xTB          :
          :  restarted?                      false          :
          :  GBSA solvation                   true          :
          :  PC potential                    false          :
          :  electronic temp.          300.0000000     K    :
          :  accuracy                    1.0000000          :
          :  -> integral cutoff          0.2500000E+02      :
          :  -> integral neglect         0.1000000E-07      :
          :  -> SCF convergence          0.1000000E-05 Eh   :
          :  -> wf. convergence          0.1000000E-03 e    :
          :  Broyden damping             0.4000000          :
          :  net charge                          0          :
          :  unpaired electrons                  0          :
          ...................................................

 iter      E             dE          RMSdq      gap      omega  full diag
   1    -46.6669597 -0.466670E+02  0.344E+00    5.04       0.0  T
   2    -46.7092939 -0.423342E-01  0.193E+00    4.96       1.0  T
   3    -46.7035662  0.572776E-02  0.814E-01    4.98       1.0  T
   4    -46.7109154 -0.734919E-02  0.379E-01    4.91       1.0  T
   5    -46.7136181 -0.270268E-02  0.767E-02    4.93       1.0  T
   6    -46.7136509 -0.328794E-04  0.431E-02    4.93       1.0  T
   7    -46.7136575 -0.658949E-05  0.144E-02    4.93       1.2  T
   8    -46.7136592 -0.169900E-05  0.530E-03    4.93       3.2  T
   9    -46.7136597 -0.517587E-06  0.239E-03    4.93       7.1  T
  10    -46.7136598 -0.431208E-07  0.893E-04    4.93      18.9  T
  11    -46.7136598 -0.347169E-08  0.368E-04    4.93      46.0  T

   *** convergence criteria satisfied after 11 iterations ***

         #    Occupation            Energy/Eh            Energy/eV
      -------------------------------------------------------------
         1        2.0000           -0.6916928             -18.8219
       ...           ...                  ...                  ...
        36        2.0000           -0.4323285             -11.7643
        37        2.0000           -0.4231521             -11.5146
        38        2.0000           -0.4196506             -11.4193
        39        2.0000           -0.4128705             -11.2348
        40        2.0000           -0.4028633             -10.9625
        41        2.0000           -0.3928693             -10.6905
        42        2.0000           -0.3904930             -10.6259 (HOMO)
        43                         -0.2092544              -5.6941 (LUMO)
        44                         -0.2080304              -5.6608
        45                         -0.0108249              -0.2946
        46                         -0.0005867              -0.0160
        47                          0.0175310               0.4770
       ...                                ...                  ...
        80                          0.5934495              16.1486
      -------------------------------------------------------------
                  HL-Gap            0.1812386 Eh            4.9318 eV
             Fermi-level           -0.2998737 Eh           -8.1600 eV

 SCC (total)                   0 d,  0 h,  0 min,  0.052 sec
 SCC setup                      ...        0 min,  0.001 sec (  1.567%)
 Dispersion                     ...        0 min,  0.000 sec (  0.693%)
 classical contributions        ...        0 min,  0.000 sec (  0.050%)
 integral evaluation            ...        0 min,  0.002 sec (  3.183%)
 iterations                     ...        0 min,  0.045 sec ( 86.981%)
 molecular gradient             ...        0 min,  0.004 sec (  7.036%)
 printout                       ...        0 min,  0.000 sec (  0.415%)

         :::::::::::::::::::::::::::::::::::::::::::::::::::::
         ::                     SUMMARY                     ::
         :::::::::::::::::::::::::::::::::::::::::::::::::::::
         :: total energy             -46.155247728086 Eh    ::
         :: total w/o Gsasa/hb       -46.142931568414 Eh    ::
         :: gradient norm              0.050653272157 Eh/a0 ::
         :: HOMO-LUMO gap              4.931752108599 eV    ::
         ::.................................................::
         :: SCC energy               -46.713006713920 Eh    ::
         :: -> isotropic ES            0.063025469464 Eh    ::
         :: -> anisotropic ES          0.008203754107 Eh    ::
         :: -> anisotropic XC          0.019657463026 Eh    ::
         :: -> dispersion             -0.035430040319 Eh    ::
         :: -> Gsolv                  -0.020758116670 Eh    ::
         ::    -> Gelec               -0.008441956998 Eh    ::
         ::    -> Gsasa               -0.016207178915 Eh    ::
         ::    -> Ghb                  0.000000000000 Eh    ::
         ::    -> Gshift               0.003891019244 Eh    ::
         :: repulsion energy           0.557758985834 Eh    ::
         :: add. restraining           0.000000000000 Eh    ::
         :: total charge               0.000000000000 e     ::
         :::::::::::::::::::::::::::::::::::::::::::::::::::::

      ----------------------------------------------------------- 
     |                   =====================                   |
     |                        A N C O P T                        |
     |                   =====================                   |
     |               Approximate Normal Coordinate               |
     |                Rational Function Optimizer                |
      ----------------------------------------------------------- 
      ----------------------------------------------------------- 
     |                   =====================                   |
     |                        A N C O P T                        |
     |                   =====================                   |
     |               Approximate Normal Coordinate               |
     |                Rational Function Optimizer                |
      ----------------------------------------------------------- 

          ...................................................
          :                      SETUP                      :
          :.................................................:
          :   optimization level         verytight          :
          :   max. optcycles                   700          :
          :   ANC micro-cycles                  20          :
          :   degrees of freedom                99          :
          :.................................................:
          :   RF solver                   davidson          :
          :   write xtbopt.log                true          :
          :   linear?                        false          :
          :   energy convergence         0.1000000E-06 Eh   :
          :   grad. convergence          0.2000000E-03 Eh/α :
          :   maxmium RF displ.          1.0000000          :
          :   Hlow (freq-cutoff)         0.1000000E-01      :
          :   Hmax (freq-cutoff)         5.0000000          :
          :   S6 in model hess.         20.0000000          :
          ...................................................

generating ANC from exact Hessian ...
Using Lindh-Hessian (1995)
 Shifting diagonal of input Hessian by   8.958419996534130E-003
 Lowest  eigenvalues of input Hessian
    0.000000    0.000000    0.000000    0.000000    0.000000    0.000000
    0.010000    0.010671    0.011103    0.012384    0.012883    0.013991
    0.014818    0.016086    0.016508    0.017443    0.018090    0.018734
 Highest eigenvalues
    1.389339    1.402512    1.406392    1.422578    1.807954    1.856538
 

........................................................................
.............................. CYCLE    1 ..............................
........................................................................

 iter      E             dE          RMSdq      gap      omega  full diag
   1    -46.7136598 -0.467137E+02  0.815E-05    4.93       0.0  T
   2    -46.7136598 -0.344329E-10  0.469E-05    4.93     360.2  T
   3    -46.7136598 -0.738964E-12  0.322E-05    4.93     524.8  T
     SCC iter.                  ...        0 min,  0.006 sec
     gradient                   ...        0 min,  0.004 sec
 * total energy  :   -46.1552477 Eh     change       -0.7775469E-09 Eh
   gradient norm :     0.0506558 Eh/α   predicted     0.0000000E+00 (-100.00%)
   displ. norm   :     0.2927312 α      lambda       -0.9587142E-02
   maximum displ.:     0.1171772 α      in ANC's #24, #23, #62, ...

........................................................................
.............................. CYCLE    2 ..............................
........................................................................

 iter      E             dE          RMSdq      gap      omega  full diag
   1    -46.7650128 -0.467650E+02  0.145E-01    5.09       0.0  T
   2    -46.7650416 -0.288075E-04  0.886E-02    5.09       1.0  T
   3    -46.7650145  0.270636E-04  0.563E-02    5.09       1.0  T
   4    -46.7650698 -0.552749E-04  0.664E-03    5.09       2.5  T
   5    -46.7650702 -0.439659E-06  0.301E-03    5.09       5.6  T
   6    -46.7650702 -0.175403E-08  0.127E-03    5.09      13.3  T
   7    -46.7650702 -0.108065E-07  0.520E-04    5.09      32.5  T
   8    -46.7650702 -0.472247E-08  0.211E-04    5.09      80.1  T
     SCC iter.                  ...        0 min,  0.015 sec
     gradient                   ...        0 min,  0.004 sec
 * total energy  :   -46.1613773 Eh     change       -0.6129536E-02 Eh
   gradient norm :     0.0151674 Eh/α   predicted    -0.5204553E-02 ( -15.09%)
   displ. norm   :     0.1845514 α      lambda       -0.1399813E-02
   maximum displ.:     0.0670938 α      in ANC's #15, #4, #24, ...

........................................................................
.............................. CYCLE    3 ..............................
........................................................................

 iter      E             dE          RMSdq      gap      omega  full diag
   1    -46.7834611 -0.467835E+02  0.703E-02    5.13       0.0  T
   2    -46.7834672 -0.611435E-05  0.437E-02    5.13       1.0  T
   3    -46.7834606  0.658872E-05  0.264E-02    5.13       1.0  T
   4    -46.7834733 -0.127091E-04  0.327E-03    5.13       5.2  T
   5    -46.7834734 -0.105738E-06  0.138E-03    5.13      12.2  T
   6    -46.7834734 -0.332088E-08  0.636E-04    5.13      26.6  T
   7    -46.7834734 -0.113658E-08  0.286E-04    5.13      59.1  T
     SCC iter.                  ...        0 min,  0.013 sec
     gradient                   ...        0 min,  0.004 sec
 * total energy  :   -46.1621118 Eh     change       -0.7345778E-03 Eh
   gradient norm :     0.0048607 Eh/α   predicted    -0.7241212E-03 (  -1.42%)
   displ. norm   :     0.0675125 α      lambda       -0.1123890E-03
   maximum displ.:     0.0333353 α      in ANC's #4, #15, #14, ...

........................................................................
.............................. CYCLE    4 ..............................
........................................................................

 iter      E             dE          RMSdq      gap      omega  full diag
   1    -46.7833479 -0.467833E+02  0.270E-02    5.12       0.0  T
   2    -46.7833481 -0.251636E-06  0.161E-02    5.12       1.0  T
   3    -46.7833476  0.499398E-06  0.478E-03    5.12       3.5  T
   4    -46.7833482 -0.608142E-06  0.952E-04    5.12      17.8  T
   5    -46.7833482 -0.973976E-08  0.443E-04    5.12      38.2  T
     SCC iter.                  ...        0 min,  0.009 sec
     gradient                   ...        0 min,  0.004 sec
 * total energy  :   -46.1621824 Eh     change       -0.7055461E-04 Eh
   gradient norm :     0.0021449 Eh/α   predicted    -0.5645425E-04 ( -19.99%)
   displ. norm   :     0.1001568 α      lambda       -0.8984535E-04
   maximum displ.:     0.0630791 α      in ANC's #4, #14, #1, ...

........................................................................
.............................. CYCLE    5 ..............................
........................................................................

 iter      E             dE          RMSdq      gap      omega  full diag
   1    -46.7819150 -0.467819E+02  0.374E-02    5.12       0.0  T
   2    -46.7819155 -0.431160E-06  0.223E-02    5.12       1.0  T
   3    -46.7819152  0.319855E-06  0.430E-03    5.12       3.9  T
   4    -46.7819156 -0.457446E-06  0.130E-03    5.12      13.0  T
   5    -46.7819156 -0.173588E-07  0.664E-04    5.12      25.4  T
   6    -46.7819156 -0.198577E-08  0.210E-04    5.12      80.4  T
     SCC iter.                  ...        0 min,  0.011 sec
     gradient                   ...        0 min,  0.004 sec
 * total energy  :   -46.1622344 Eh     change       -0.5195728E-04 Eh
   gradient norm :     0.0026271 Eh/α   predicted    -0.4537849E-04 ( -12.66%)
   displ. norm   :     0.0658327 α      lambda       -0.3571135E-04
   maximum displ.:     0.0360494 α      in ANC's #4, #1, #9, ...

........................................................................
.............................. CYCLE    6 ..............................
........................................................................

 iter      E             dE          RMSdq      gap      omega  full diag
   1    -46.7813125 -0.467813E+02  0.250E-02    5.12       0.0  T
   2    -46.7813126 -0.112237E-06  0.149E-02    5.12       1.1  T
   3    -46.7813125  0.305518E-07  0.172E-03    5.12       9.8  T
   4    -46.7813126 -0.654876E-07  0.697E-04    5.12      24.3  T
   5    -46.7813126 -0.479084E-08  0.377E-04    5.12      44.8  T
     SCC iter.                  ...        0 min,  0.009 sec
     gradient                   ...        0 min,  0.004 sec
 * total energy  :   -46.1622596 Eh     change       -0.2526551E-04 Eh
   gradient norm :     0.0027506 Eh/α   predicted    -0.1793394E-04 ( -29.02%)
   displ. norm   :     0.0854527 α      lambda       -0.3487550E-04
   maximum displ.:     0.0503120 α      in ANC's #1, #4, #9, ...

........................................................................
.............................. CYCLE    7 ..............................
........................................................................

 iter      E             dE          RMSdq      gap      omega  full diag
   1    -46.7813389 -0.467813E+02  0.300E-02    5.13       0.0  T
   2    -46.7813390 -0.114449E-06  0.178E-02    5.12       1.0  T
   3    -46.7813389  0.864926E-07  0.237E-03    5.12       7.1  T
   4    -46.7813391 -0.138227E-06  0.758E-04    5.12      22.3  T
   5    -46.7813391 -0.356688E-08  0.358E-04    5.12      47.3  T
     SCC iter.                  ...        0 min,  0.009 sec
     gradient                   ...        0 min,  0.004 sec
 * total energy  :   -46.1622842 Eh     change       -0.2458285E-04 Eh
   gradient norm :     0.0017508 Eh/α   predicted    -0.1756818E-04 ( -28.53%)
   displ. norm   :     0.1056242 α      lambda       -0.1948048E-04
   maximum displ.:     0.0694444 α      in ANC's #1, #4, #3, ...

........................................................................
.............................. CYCLE    8 ..............................
........................................................................

 iter      E             dE          RMSdq      gap      omega  full diag
   1    -46.7821804 -0.467822E+02  0.352E-02    5.13       0.0  T
   2    -46.7821805 -0.171288E-06  0.208E-02    5.13       1.0  T
   3    -46.7821803  0.222089E-06  0.330E-03    5.13       5.1  T
   4    -46.7821806 -0.293845E-06  0.776E-04    5.13      21.8  T
   5    -46.7821806 -0.428098E-08  0.392E-04    5.13      43.1  T
     SCC iter.                  ...        0 min,  0.009 sec
     gradient                   ...        0 min,  0.004 sec
 * total energy  :   -46.1623008 Eh     change       -0.1658130E-04 Eh
   gradient norm :     0.0012012 Eh/α   predicted    -0.9790335E-05 ( -40.96%)
   displ. norm   :     0.0494548 α      lambda       -0.6845762E-05
   maximum displ.:     0.0339952 α      in ANC's #1, #3, #4, ...

........................................................................
.............................. CYCLE    9 ..............................
........................................................................

 iter      E             dE          RMSdq      gap      omega  full diag
   1    -46.7823226 -0.467823E+02  0.154E-02    5.13       0.0  T
   2    -46.7823226 -0.201874E-07  0.909E-03    5.13       1.9  T
   3    -46.7823225  0.760917E-07  0.172E-03    5.13       9.8  T
   4    -46.7823226 -0.887053E-07  0.223E-04    5.13      75.9  T
   5    -46.7823226 -0.432713E-09  0.114E-04    5.13     148.1  T
     SCC iter.                  ...        0 min,  0.009 sec
     gradient                   ...        0 min,  0.004 sec
 * total energy  :   -46.1623089 Eh     change       -0.8149683E-05 Eh
   gradient norm :     0.0009670 Eh/α   predicted    -0.3429081E-05 ( -57.92%)
   displ. norm   :     0.0749459 α      lambda       -0.1020596E-04
   maximum displ.:     0.0492273 α      in ANC's #1, #3, #2, ...

........................................................................
.............................. CYCLE   10 ..............................
........................................................................

 iter      E             dE          RMSdq      gap      omega  full diag
   1    -46.7824323 -0.467824E+02  0.216E-02    5.13       0.0  T
   2    -46.7824323 -0.381869E-07  0.128E-02    5.13       1.3  T
   3    -46.7824323  0.608691E-07  0.166E-03    5.13      10.2  T
   4    -46.7824323 -0.783367E-07  0.354E-04    5.13      47.8  T
   5    -46.7824323 -0.977636E-09  0.183E-04    5.13      92.4  T
     SCC iter.                  ...        0 min,  0.009 sec
     gradient                   ...        0 min,  0.003 sec
 * total energy  :   -46.1623190 Eh     change       -0.1002590E-04 Eh
   gradient norm :     0.0011745 Eh/α   predicted    -0.5117229E-05 ( -48.96%)
   displ. norm   :     0.0707751 α      lambda       -0.7108856E-05
   maximum displ.:     0.0495090 α      in ANC's #1, #3, #2, ...

........................................................................
.............................. CYCLE   11 ..............................
........................................................................

 iter      E             dE          RMSdq      gap      omega  full diag
   1    -46.7821471 -0.467821E+02  0.221E-02    5.13       0.0  T
   2    -46.7821471 -0.343687E-07  0.130E-02    5.13       1.3  T
   3    -46.7821471 -0.853458E-08  0.592E-04    5.13      28.6  T
   4    -46.7821471 -0.419156E-08  0.356E-04    5.13      47.4  T
     SCC iter.                  ...        0 min,  0.006 sec
     gradient                   ...        0 min,  0.003 sec
 * total energy  :   -46.1623239 Eh     change       -0.4947813E-05 Eh
   gradient norm :     0.0008073 Eh/α   predicted    -0.3563705E-05 ( -27.97%)
   displ. norm   :     0.0412500 α      lambda       -0.4556112E-05
   maximum displ.:     0.0303957 α      in ANC's #1, #4, #3, ...

........................................................................
.............................. CYCLE   12 ..............................
........................................................................

 iter      E             dE          RMSdq      gap      omega  full diag
   1    -46.7819879 -0.467820E+02  0.156E-02    5.13       0.0  T
   2    -46.7819879 -0.212884E-07  0.920E-03    5.13       1.8  T
   3    -46.7819879  0.294425E-08  0.688E-04    5.13      24.6  T
   4    -46.7819879 -0.101349E-07  0.284E-04    5.13      59.6  T
     SCC iter.                  ...        0 min,  0.005 sec
     gradient                   ...        0 min,  0.003 sec
 * total energy  :   -46.1623273 Eh     change       -0.3395277E-05 Eh
   gradient norm :     0.0007262 Eh/α   predicted    -0.2283578E-05 ( -32.74%)
   displ. norm   :     0.0192112 α      lambda       -0.1960603E-05
   maximum displ.:     0.0148171 α      in ANC's #1, #4, #9, ...

........................................................................
.............................. CYCLE   13 ..............................
........................................................................

 iter      E             dE          RMSdq      gap      omega  full diag
   1    -46.7822270 -0.467822E+02  0.754E-03    5.13       0.0  T
   2    -46.7822271 -0.900185E-08  0.444E-03    5.13       3.8  T
   3    -46.7822271  0.486317E-09  0.331E-04    5.13      51.1  T
   4    -46.7822271 -0.218832E-08  0.129E-04    5.13     131.3  T
     SCC iter.                  ...        0 min,  0.005 sec
     gradient                   ...        0 min,  0.003 sec
 * total energy  :   -46.1623292 Eh     change       -0.1870670E-05 Eh
   gradient norm :     0.0002918 Eh/α   predicted    -0.9819612E-06 ( -47.51%)
   displ. norm   :     0.0167357 α      lambda       -0.9050988E-06
   maximum displ.:     0.0134454 α      in ANC's #1, #2, #9, ...

........................................................................
.............................. CYCLE   14 ..............................
........................................................................

 iter      E             dE          RMSdq      gap      omega  full diag
   1    -46.7822469 -0.467822E+02  0.587E-03    5.13       0.0  T
   2    -46.7822469 -0.419327E-08  0.345E-03    5.13       4.9  T
   3    -46.7822469 -0.356572E-09  0.168E-04    5.13     100.4  T
   4    -46.7822469 -0.486537E-09  0.688E-05    5.13     245.5  T
     SCC iter.                  ...        0 min,  0.005 sec
     gradient                   ...        0 min,  0.003 sec
 * total energy  :   -46.1623300 Eh     change       -0.8585657E-06 Eh
   gradient norm :     0.0002791 Eh/α   predicted    -0.4542873E-06 ( -47.09%)
   displ. norm   :     0.0116348 α      lambda       -0.4260904E-06
   maximum displ.:     0.0096356 α      in ANC's #1, #2, #9, ...

........................................................................
.............................. CYCLE   15 ..............................
........................................................................

 iter      E             dE          RMSdq      gap      omega  full diag
   1    -46.7822038 -0.467822E+02  0.386E-03    5.13       0.0  T
   2    -46.7822038 -0.106227E-08  0.227E-03    5.13       7.4  T
   3    -46.7822038  0.132786E-09  0.134E-04    5.13     126.0  T
   4    -46.7822038 -0.438938E-09  0.503E-05    5.13     336.3  T
     SCC iter.                  ...        0 min,  0.005 sec
     gradient                   ...        0 min,  0.003 sec
 * total energy  :   -46.1623305 Eh     change       -0.4698475E-06 Eh
   gradient norm :     0.0001378 Eh/α   predicted    -0.2159618E-06 ( -54.04%)
   displ. norm   :     0.0099149 α      lambda       -0.2896272E-06
   maximum displ.:     0.0077718 α      in ANC's #1, #2, #4, ...

........................................................................
.............................. CYCLE   16 ..............................
........................................................................

 iter      E             dE          RMSdq      gap      omega  full diag
   1    -46.7822162 -0.467822E+02  0.327E-03    5.13       0.0  T
   2    -46.7822162 -0.513992E-09  0.193E-03    5.13       8.8  T
   3    -46.7822162  0.262965E-09  0.144E-04    5.13     117.4  T
   4    -46.7822162 -0.521361E-09  0.464E-05    5.13     364.4  T
     SCC iter.                  ...        0 min,  0.005 sec
     gradient                   ...        0 min,  0.003 sec
 * total energy  :   -46.1623309 Eh     change       -0.3537034E-06 Eh
   gradient norm :     0.0001209 Eh/α   predicted    -0.1466817E-06 ( -58.53%)
   displ. norm   :     0.0110045 α      lambda       -0.2540203E-06
   maximum displ.:     0.0081413 α      in ANC's #1, #2, #4, ...

........................................................................
.............................. CYCLE   17 ..............................
........................................................................

 iter      E             dE          RMSdq      gap      omega  full diag
   1    -46.7821922 -0.467822E+02  0.353E-03    5.13       0.0  T
   2    -46.7821922 -0.707601E-09  0.208E-03    5.13       8.1  T
   3    -46.7821922  0.117893E-09  0.125E-04    5.13     134.9  T
   4    -46.7821922 -0.351619E-09  0.473E-05    5.13     357.1  T
     SCC iter.                  ...        0 min,  0.005 sec
     gradient                   ...        0 min,  0.003 sec
 * total energy  :   -46.1623311 Eh     change       -0.2916391E-06 Eh
   gradient norm :     0.0001007 Eh/α   predicted    -0.1282640E-06 ( -56.02%)
   displ. norm   :     0.0098913 α      lambda       -0.1661611E-06
   maximum displ.:     0.0072994 α      in ANC's #1, #2, #4, ...

........................................................................
.............................. CYCLE   18 ..............................
........................................................................

 iter      E             dE          RMSdq      gap      omega  full diag
   1    -46.7821989 -0.467822E+02  0.332E-03    5.13       0.0  T
   2    -46.7821989 -0.586461E-09  0.196E-03    5.13       8.6  T
   3    -46.7821989  0.285716E-09  0.136E-04    5.13     124.3  T
   4    -46.7821989 -0.494524E-09  0.397E-05    5.13     426.1  T
     SCC iter.                  ...        0 min,  0.005 sec
     gradient                   ...        0 min,  0.003 sec
 * total energy  :   -46.1623313 Eh     change       -0.1853438E-06 Eh
   gradient norm :     0.0000868 Eh/α   predicted    -0.8460397E-07 ( -54.35%)
   displ. norm   :     0.0098913 α      lambda        0.0000000E+00
   maximum displ.:     0.0072994 α      in ANC's #1, #2, #4, ...

........................................................................
.............................. CYCLE   19 ..............................
........................................................................

 iter      E             dE          RMSdq      gap      omega  full diag
   1    -46.7822044 -0.467822E+02  0.332E-03    5.13       0.0  T
   2    -46.7822044 -0.572008E-09  0.196E-03    5.13       8.6  T
   3    -46.7822044  0.251710E-09  0.132E-04    5.13     128.5  T
   4    -46.7822044 -0.458321E-09  0.394E-05    5.13     429.2  T
     SCC iter.                  ...        0 min,  0.006 sec
     gradient                   ...        0 min,  0.003 sec
 * total energy  :   -46.1623314 Eh     change       -0.4822871E-07 Eh
   gradient norm :     0.0001569 Eh/α   predicted    -0.3868274E-08 ( -91.98%)
   displ. norm   :     0.0028935 α      lambda       -0.8011739E-07
   maximum displ.:     0.0019294 α      in ANC's #1, #2, #7, ...

   *** GEOMETRY OPTIMIZATION CONVERGED AFTER 19 ITERATIONS ***

------------------------------------------------------------------------
 total energy gain   :        -0.0070837 Eh       -4.4451 kcal/mol
 total RMSD          :         0.1420894 a0        0.0752 Å
 total power (kW/mol):        -0.9788489 (step)  -54.7885 (real)
------------------------------------------------------------------------

 ANCopt (total)                0 d,  0 h,  0 min,  0.339 sec
 optimizer setup                ...        0 min,  0.000 sec (  0.063%)
 model hessian                  ...        0 min,  0.079 sec ( 23.200%)
 ANC generation                 ...        0 min,  0.002 sec (  0.607%)
 coordinate transformation      ...        0 min,  0.000 sec (  0.102%)
 single point calculation       ...        0 min,  0.252 sec ( 74.106%)
 optimization log               ...        0 min,  0.003 sec (  0.950%)
 hessian update                 ...        0 min,  0.000 sec (  0.102%)
 rational function              ...        0 min,  0.002 sec (  0.521%)

================
 final structure:
================
$coord
        0.14623314564224       -1.16978650670596        0.20757320233882      c
       -1.80825360150491        0.76470382810341        1.22806002245370      c
       -0.63133092546803        3.42998078698451        1.39686853438948      c
        1.08200365436548        4.16761889312566       -0.80999698598635      c
        2.81777772547754        1.97187017112753       -1.54552911881601      c
        1.18051309268247       -0.27101142500653       -2.36558912969370      c
        2.53198393701747       -1.10291142766421        1.88086184573375      c
        4.14786064316117        0.95923184475281        0.76346994710229      c
        2.58337939880687       -2.13321407103002       -3.66658976571861      o
       -0.96455601284664       -3.84000398221416        0.02826835905312      c
        6.35297436690166        1.73571822399158        1.63802983517823      c
       -4.33615910167435        0.73949414328141       -0.12591670515641      c
       -4.80497411893496        1.86378890198890       -2.31271901792769      c
       -2.20700284149872        0.20084977787072        3.18391619172426      h
       -1.45086255130204       -4.95690999919023        2.40205279800050      o
       -6.43742265090199       -0.56541146950625        1.27712778374895      c
       -2.15048341613422        4.81367919499733        1.57844697616957      h
        0.49520907726433        3.52267237492174        3.12303280374276      h
       -0.02290408460492        4.72673297379679       -2.45623353265836      h
        2.22619816870554        5.79095021047040       -0.24921437499251      h
        4.12819316982680        2.55744833890491       -3.02940241485262      h
       -0.32323134524301        0.24060628024329       -3.67613165934086      h
        3.50548072603982       -2.92372216863947        1.80276367439546      h
        2.09365814797561       -0.75142021627091        3.86292118416356      h
        4.05712598293631       -2.53138155729989       -2.66325417476621      h
        0.39316639208798       -5.09261588286918       -0.89505083275283      h
       -2.67923876941299       -3.80145949343505       -1.13989029077189      h
        7.18383387009632        0.93608676443413        3.31607199861811      h
        7.41157605878722        3.20913027230974        0.71554148081750      h
       -6.66449994936253        1.80610930775394       -3.14287060276095      h
       -3.41181740831938        2.88921605570756       -3.37334095324541      h
       -2.59433007440710       -3.86815702806375        3.32037059847895      h
       -6.05514985441620       -2.57430873755996        1.51104746239442      h
       -6.65793929817192        0.26068118076094        3.15165302030849      h
       -8.21670303173955       -0.37140525209913        0.26863452041901      h
$end
 
 Bond Distances (Angstroems)
 ---------------------------
C1-C2=1.5522         C1-C6=1.5427         C1-C7=1.5425         C1-C10=1.5333        C2-C1=1.5522         C2-C3=1.5444         
C2-C12=1.5176        C2-H14=1.0976        C3-C2=1.5444         C3-C4=1.5291         C3-H17=1.0916        C3-H18=1.0919        
C4-C3=1.5291         C4-C5=1.5314         C4-H19=1.0901        C4-H20=1.0921        C5-C4=1.5314         C5-C6=1.5322         
C5-C8=1.5085         C5-H21=1.0925        C6-C1=1.5427         C6-C5=1.5322         C6-O9=1.4129         C6-H22=1.0897        
C7-C1=1.5425         C7-C8=1.5072         C7-H23=1.0934        C7-H24=1.0902        C8-C5=1.5085         C8-C7=1.5072         
C8-C11=1.3209        O9-C6=1.4129         O9-H25=0.9667        C10-C1=1.5333        C10-O15=1.4119       C10-H26=1.0928       
C10-H27=1.0981       C11-C8=1.3209        C11-H28=1.0774       C11-H29=1.0770       C12-C2=1.5176        C12-C13=1.3246       
C12-C16=1.5048       C13-C12=1.3246       C13-H30=1.0781       C13-H31=1.0738       H14-C2=1.0976        O15-C10=1.4119       
O15-H32=0.9666       C16-C12=1.5048       C16-H33=1.0892       C16-H34=1.0903       C16-H35=1.0871       H17-C3=1.0916        
H18-C3=1.0919        H19-C4=1.0901        H20-C4=1.0921        H21-C5=1.0925        H22-C6=1.0897        H23-C7=1.0934        
H24-C7=1.0902        H25-O9=0.9667        H26-C10=1.0928       H27-C10=1.0981       H28-C11=1.0774       H29-C11=1.0770       
H30-C13=1.0781       H31-C13=1.0738       H32-O15=0.9666       H33-C16=1.0892       H34-C16=1.0903       H35-C16=1.0871       
 C  H  Rav=1.0885 sigma=0.0069  Rmin=1.0738  Rmax=1.0981    18
 C  C  Rav=1.4994 sigma=0.0735  Rmin=1.3209  Rmax=1.5522    14
 O  H  Rav=0.9666 sigma=0.0001  Rmin=0.9666  Rmax=0.9667     2
 O  C  Rav=1.4124 sigma=0.0005  Rmin=1.4119  Rmax=1.4129     2
 
 selected bond angles (degree)
 --------------------
C6-C1-C2=109.89                C7-C1-C2=109.30                C7-C1-C6=102.08                C10-C1-C2=111.95               
C10-C1-C6=111.44               C10-C1-C7=111.74               C3-C2-C1=110.71                C12-C2-C1=114.66               
C12-C2-C3=113.01               H14-C2-C1=106.07               H14-C2-C3=105.74               H14-C2-C12=105.86              
C4-C3-C2=115.34                H17-C3-C2=108.70               H17-C3-C4=109.43               H18-C3-C2=108.03               
H18-C3-C4=107.68               H18-C3-H17=107.36              C5-C4-C3=110.86                H19-C4-C3=111.20               
H19-C4-C5=108.94               H20-C4-C3=108.78               H20-C4-C5=109.47               H20-C4-H19=107.52              
C6-C5-C4=108.70                C8-C5-C4=110.09                C8-C5-C6=102.60                H21-C5-C4=110.38               
H21-C5-C6=112.03               H21-C5-C8=112.76               C5-C6-C1=100.92                O9-C6-C1=113.67                
O9-C6-C5=112.41                H22-C6-C1=112.29               H22-C6-C5=113.62               H22-C6-O9=104.29               
C8-C7-C1=104.82                H23-C7-C1=110.10               H23-C7-C8=110.85               H24-C7-C1=112.46               
H24-C7-C8=112.00               H24-C7-H23=106.68              C7-C8-C5=108.07                C11-C8-C5=125.84               
C11-C8-C7=126.08               H25-O9-C6=107.96               O15-C10-C1=113.61              H26-C10-C1=109.55              
H26-C10-O15=105.29             H27-C10-C1=109.54              H27-C10-O15=110.98             H27-C10-H26=107.63             
 
 selected dihedral angles (degree)
 ---------------------------------
C3-C2-C1-C6=304.16            C3-C2-C1-C7= 55.41            C3-C2-C1-C10=179.77           C12-C2-C1-C6= 73.46           
C12-C2-C1-C7=184.71           C12-C2-C1-C10=309.07          H14-C2-C1-C6=189.91           H14-C2-C1-C7=301.16           
H14-C2-C1-C10= 65.52          C4-C3-C2-C1= 40.39            C4-C3-C2-C12=270.20           C4-C3-C2-H14=154.85           
H17-C3-C2-C1=163.69           H17-C3-C2-C12= 33.50          H17-C3-C2-H14=278.15          H18-C3-C2-C1=279.88           
H18-C3-C2-C12=149.70          H18-C3-C2-H14= 34.34          C5-C4-C3-C2=317.05            C5-C4-C3-H17=194.14           
C5-C4-C3-H18= 77.75           H19-C4-C3-C2= 78.40           H19-C4-C3-H17=315.49          H19-C4-C3-H18=199.10          
H20-C4-C3-C2=196.63           H20-C4-C3-H17= 73.71          H20-C4-C3-H18=317.33          C6-C5-C4-C3= 60.87            
C6-C5-C4-H19=298.20           C6-C5-C4-H20=180.89           C8-C5-C4-C3=309.22            C8-C5-C4-H19=186.55           
C8-C5-C4-H20= 69.24           H21-C5-C4-C3=184.11           H21-C5-C4-H19= 61.44          H21-C5-C4-H20=304.12          
C5-C6-C1-C2= 71.23            C5-C6-C1-C7=315.33            C5-C6-C1-C10=195.92           O9-C6-C1-C2=191.79            
O9-C6-C1-C7= 75.89            O9-C6-C1-C10=316.48           H22-C6-C1-C2=309.89           H22-C6-C1-C7=193.99           
H22-C6-C1-C10= 74.58          C1-C6-C5-C4=286.49            C1-C6-C5-C8= 43.05            C1-C6-C5-H21=164.25           
O9-C6-C5-C4=165.03            O9-C6-C5-C8=281.60            O9-C6-C5-H21= 42.79           H22-C6-C5-C4= 46.88           
H22-C6-C5-C8=163.45           H22-C6-C5-H21=284.64          C8-C7-C1-C2=272.99            C8-C7-C1-C6= 29.31            
C8-C7-C1-C10=148.50           H23-C7-C1-C2=153.72           H23-C7-C1-C6=270.05           H23-C7-C1-C10= 29.24          
H24-C7-C1-C2= 34.90           H24-C7-C1-C6=151.23           H24-C7-C1-C10=270.42          C7-C8-C5-C4= 90.18            
C7-C8-C5-C6=334.62            C7-C8-C5-H21=213.92           C11-C8-C5-C4=269.72           C11-C8-C5-C6=154.16           
C11-C8-C5-H21= 33.47          C5-C8-C7-C1=357.41            C5-C8-C7-H23=116.17           C5-C8-C7-H24=235.19           
C11-C8-C7-C1=177.86           C11-C8-C7-H23=296.63          C11-C8-C7-H24= 55.64          H25-O9-C6-C1=296.56           
H25-O9-C6-C5= 50.42           H25-O9-C6-H22=173.94          O15-C10-C1-C2=291.01          O15-C10-C1-C6=167.48          
O15-C10-C1-C7= 53.99          H26-C10-C1-C2=173.58          H26-C10-C1-C6= 50.06          H26-C10-C1-C7=296.57          
H27-C10-C1-C2= 55.74          H27-C10-C1-C6=292.22          H27-C10-C1-C7=178.73          
           -------------------------------------------------
          |                Final Singlepoint                |
           -------------------------------------------------

          ...................................................
          :                      SETUP                      :
          :.................................................:
          :  # basis functions                  80          :
          :  # atomic orbitals                  80          :
          :  # shells                           50          :
          :  # electrons                        84          :
          :  max. iterations                   250          :
          :  Hamiltonian                  GFN2-xTB          :
          :  restarted?                      false          :
          :  GBSA solvation                   true          :
          :  PC potential                    false          :
          :  electronic temp.          300.0000000     K    :
          :  accuracy                    1.0000000          :
          :  -> integral cutoff          0.2500000E+02      :
          :  -> integral neglect         0.1000000E-07      :
          :  -> SCF convergence          0.1000000E-05 Eh   :
          :  -> wf. convergence          0.1000000E-03 e    :
          :  Broyden damping             0.4000000          :
          :  net charge                          0          :
          :  unpaired electrons                  0          :
          ...................................................

 iter      E             dE          RMSdq      gap      omega  full diag
   1    -46.7822044 -0.467822E+02  0.205E-05    5.13       0.0  T
   2    -46.7822044 -0.994760E-12  0.127E-05    5.13    1332.7  T
   3    -46.7822044  0.852651E-13  0.853E-06    5.13    1982.7  T

   *** convergence criteria satisfied after 3 iterations ***

         #    Occupation            Energy/Eh            Energy/eV
      -------------------------------------------------------------
         1        2.0000           -0.6962452             -18.9458
       ...           ...                  ...                  ...
        36        2.0000           -0.4322116             -11.7611
        37        2.0000           -0.4227852             -11.5046
        38        2.0000           -0.4185210             -11.3885
        39        2.0000           -0.4126658             -11.2292
        40        2.0000           -0.4016339             -10.9290
        41        2.0000           -0.3932813             -10.7017
        42        2.0000           -0.3923125             -10.6754 (HOMO)
        43                         -0.2037105              -5.5432 (LUMO)
        44                         -0.2027685              -5.5176
        45                          0.0130451               0.3550
        46                          0.0241968               0.6584
        47                          0.0395734               1.0768
       ...                                ...                  ...
        80                          0.6450855              17.5537
      -------------------------------------------------------------
                  HL-Gap            0.1886020 Eh            5.1321 eV
             Fermi-level           -0.2980115 Eh           -8.1093 eV

 SCC (total)                   0 d,  0 h,  0 min,  0.009 sec
 SCC setup                      ...        0 min,  0.001 sec (  7.060%)
 Dispersion                     ...        0 min,  0.000 sec (  1.907%)
 classical contributions        ...        0 min,  0.000 sec (  0.218%)
 integral evaluation            ...        0 min,  0.001 sec ( 11.603%)
 iterations                     ...        0 min,  0.004 sec ( 44.993%)
 molecular gradient             ...        0 min,  0.003 sec ( 32.619%)
 printout                       ...        0 min,  0.000 sec (  1.197%)

         :::::::::::::::::::::::::::::::::::::::::::::::::::::
         ::                     SUMMARY                     ::
         :::::::::::::::::::::::::::::::::::::::::::::::::::::
         :: total energy             -46.162331381169 Eh    ::
         :: total w/o Gsasa/hb       -46.150363912616 Eh    ::
         :: gradient norm              0.000156874448 Eh/a0 ::
         :: HOMO-LUMO gap              5.132121263897 eV    ::
         ::.................................................::
         :: SCC energy               -46.781555716869 Eh    ::
         :: -> isotropic ES            0.062582059065 Eh    ::
         :: -> anisotropic ES          0.006622081545 Eh    ::
         :: -> anisotropic XC          0.017383270509 Eh    ::
         :: -> dispersion             -0.036162270358 Eh    ::
         :: -> Gsolv                  -0.020176200696 Eh    ::
         ::    -> Gelec               -0.008208732143 Eh    ::
         ::    -> Gsasa               -0.015858487797 Eh    ::
         ::    -> Ghb                  0.000000000000 Eh    ::
         ::    -> Gshift               0.003891019244 Eh    ::
         :: repulsion energy           0.619224335700 Eh    ::
         :: add. restraining           0.000000000000 Eh    ::
         :: total charge               0.000000000000 e     ::
         :::::::::::::::::::::::::::::::::::::::::::::::::::::

           ------------------------------------------------- 
          |                Numerical Hessian                |
           ------------------------------------------------- 
step length          :   0.00500
SCC accuracy         :   0.30000
Hessian scale factor :   1.00000
frozen atoms in %    :   0.00000    0
RMS gradient         :   0.00016
estimated CPU  time      1.57 min
estimated wall time      0.13 min

writing file <hessian>.

 projected vibrational frequencies (cm⁻¹)
eigval :       -0.00    -0.00    -0.00     0.00     0.00     0.00
eigval :       63.30    83.83    96.96   118.63   142.99   165.02
eigval :      178.99   205.54   259.74   275.59   289.65   305.55
eigval :      319.47   326.53   357.55   364.23   378.87   426.72
eigval :      446.94   463.05   512.05   541.64   562.05   604.65
eigval :      680.25   685.52   714.71   718.77   794.64   825.56
eigval :      875.73   887.98   894.84   897.88   911.65   929.19
eigval :      943.09   951.86   955.05   998.13  1015.09  1039.00
eigval :     1044.24  1053.34  1063.68  1075.11  1085.93  1107.14
eigval :     1116.51  1134.32  1154.13  1176.02  1189.71  1195.19
eigval :     1206.85  1229.48  1242.11  1254.44  1266.65  1271.29
eigval :     1288.14  1299.35  1305.51  1331.24  1344.56  1348.91
eigval :     1352.64  1364.78  1399.73  1411.82  1421.81  1468.71
eigval :     1480.61  1482.25  1483.78  1491.65  1494.03  1719.81
eigval :     1737.23  2895.42  2896.84  2950.08  2959.43  2964.75
eigval :     2973.28  2981.09  2987.88  2991.42  2994.91  2995.48
eigval :     3004.63  3012.31  3043.12  3097.72  3097.96  3118.75
eigval :     3150.38  3495.85  3503.56
           -------------------------------------------------
          |                Property Printout                |
           -------------------------------------------------

    * Orbital Energies and Occupations

         #    Occupation            Energy/Eh            Energy/eV
      -------------------------------------------------------------
         1        2.0000           -0.6962452             -18.9458
       ...           ...                  ...                  ...
        30        2.0000           -0.4659162             -12.6782
        31        2.0000           -0.4564792             -12.4214
        32        2.0000           -0.4534277             -12.3384
        33        2.0000           -0.4479522             -12.1894
        34        2.0000           -0.4448988             -12.1063
        35        2.0000           -0.4395894             -11.9618
        36        2.0000           -0.4322116             -11.7611
        37        2.0000           -0.4227852             -11.5046
        38        2.0000           -0.4185210             -11.3885
        39        2.0000           -0.4126658             -11.2292
        40        2.0000           -0.4016339             -10.9290
        41        2.0000           -0.3932813             -10.7017
        42        2.0000           -0.3923125             -10.6754 (HOMO)
        43                         -0.2037105              -5.5432 (LUMO)
        44                         -0.2027685              -5.5176
        45                          0.0130451               0.3550
        46                          0.0241968               0.6584
        47                          0.0395734               1.0768
        48                          0.0448117               1.2194
        49                          0.0636747               1.7327
        50                          0.0708416               1.9277
        51                          0.0826828               2.2499
        52                          0.0893065               2.4302
        53                          0.0962961               2.6204
       ...                                ...                  ...
        80                          0.6450856              17.5537
      -------------------------------------------------------------
                  HL-Gap            0.1886020 Eh            5.1321 eV
             Fermi-level           -0.2980115 Eh           -8.1093 eV

     #   Z          covCN         q      C6AA      α(0)
     1   6 c        3.934    -0.008    20.662     6.460
     2   6 c        3.856    -0.033    21.116     6.535
     3   6 c        3.803    -0.062    21.686     6.630
     4   6 c        3.808    -0.058    21.620     6.619
     5   6 c        3.889    -0.036    21.163     6.540
     6   6 c        3.771     0.107    18.861     6.189
     7   6 c        3.832    -0.069    21.788     6.641
     8   6 c        2.975     0.009    27.823     8.652
     9   8 o        1.655    -0.486    22.585     6.415
    10   6 c        3.677     0.081    19.440     6.316
    11   6 c        2.838    -0.113    30.846     9.102
    12   6 c        2.936     0.009    27.823     8.651
    13   6 c        2.844    -0.110    30.770     9.091
    14   1 h        0.924     0.043     2.413     2.429
    15   8 o        1.655    -0.483    22.536     6.408
    16   6 c        3.761    -0.114    22.734     6.797
    17   1 h        0.924     0.041     2.435     2.440
    18   1 h        0.924     0.042     2.427     2.436
    19   1 h        0.925     0.039     2.464     2.455
    20   1 h        0.924     0.042     2.424     2.435
    21   1 h        0.924     0.041     2.431     2.438
    22   1 h        0.925     0.045     2.382     2.414
    23   1 h        0.924     0.051     2.302     2.373
    24   1 h        0.925     0.053     2.286     2.364
    25   1 h        0.805     0.310     0.691     1.306
    26   1 h        0.924     0.050     2.314     2.379
    27   1 h        0.923     0.023     2.687     2.564
    28   1 h        0.926     0.034     2.528     2.486
    29   1 h        0.926     0.034     2.525     2.485
    30   1 h        0.926     0.032     2.556     2.500
    31   1 h        0.926     0.035     2.522     2.483
    32   1 h        0.805     0.310     0.691     1.306
    33   1 h        0.925     0.049     2.329     2.387
    34   1 h        0.924     0.047     2.362     2.404
    35   1 h        0.925     0.045     2.387     2.416

 Mol. C6AA /au·bohr⁶  :      10381.651625
 Mol. C8AA /au·bohr⁸  :     233513.858208
 Mol. α(0) /au        :        153.546516


Wiberg/Mayer (AO) data.
largest (>0.10) Wiberg bond orders for each atom

 ---------------------------------------------------------------------------
     #   Z sym  total        # sym  WBO       # sym  WBO       # sym  WBO
 ---------------------------------------------------------------------------
     1   6 c    3.989 --     7 c    0.982    10 c    0.980     2 c    0.959
                             6 c    0.959
     2   6 c    3.993 --    12 c    0.997     3 c    0.984    14 h    0.959
                             1 c    0.959
     3   6 c    3.996 --     4 c    1.009     2 c    0.984    18 h    0.977
                            17 h    0.976
     4   6 c    3.996 --     3 c    1.009     5 c    0.979    20 h    0.975
                            19 h    0.970
     5   6 c    3.995 --     8 c    0.995     4 c    0.979     6 c    0.973
                            21 h    0.963
     6   6 c    3.947 --     9 o    0.985     5 c    0.973     1 c    0.959
                            22 h    0.958
     7   6 c    3.996 --     8 c    1.007     1 c    0.982    24 h    0.963
                            23 h    0.957
     8   6 c    3.986 --    11 c    1.935     7 c    1.007     5 c    0.995
     9   8 o    1.949 --     6 c    0.985    25 h    0.884
    10   6 c    3.949 --    15 o    0.993     1 c    0.980    26 h    0.968
                            27 h    0.966
    11   6 c    3.988 --     8 c    1.935    28 h    0.975    29 h    0.975
    12   6 c    3.986 --    13 c    1.930    16 c    1.023     2 c    0.997
    13   6 c    3.989 --    12 c    1.930    30 h    0.974    31 h    0.967
    14   1 h    0.998 --     2 c    0.959
    15   8 o    1.937 --    10 c    0.993    32 h    0.880
    16   6 c    3.996 --    12 c    1.023    35 h    0.984    34 h    0.972
                            33 h    0.965
    17   1 h    0.998 --     3 c    0.976
    18   1 h    0.998 --     3 c    0.977
    19   1 h    0.998 --     4 c    0.970
    20   1 h    0.998 --     4 c    0.975
    21   1 h    0.998 --     5 c    0.963
    22   1 h    0.998 --     6 c    0.958
    23   1 h    0.997 --     7 c    0.957
    24   1 h    0.997 --     7 c    0.963
    25   1 h    0.904 --     9 o    0.884
    26   1 h    0.997 --    10 c    0.968
    27   1 h    0.999 --    10 c    0.966
    28   1 h    0.998 --    11 c    0.975
    29   1 h    0.998 --    11 c    0.975
    30   1 h    0.998 --    13 c    0.974
    31   1 h    0.999 --    13 c    0.967
    32   1 h    0.904 --    15 o    0.880
    33   1 h    0.998 --    16 c    0.965
    34   1 h    0.998 --    16 c    0.972
    35   1 h    0.998 --    16 c    0.984
 ---------------------------------------------------------------------------

Topologies differ in total number of bonds
Writing topology from bond orders to xtbtopo.mol

molecular dipole:
                 x           y           z       tot (Debye)
 q only:       -0.222       0.849       0.661
   full:       -0.246       0.989       0.773       3.252
molecular quadrupole (traceless):
                xx          xy          yy          xz          yz          zz
 q only:        6.249      -0.154      -4.563      -1.455      -0.258      -1.686
  q+dip:        9.756       0.492      -7.925       0.325      -1.630      -1.831
   full:        9.164      -0.192      -7.038      -0.870      -0.668      -2.126

           -------------------------------------------------
          |                Geometry Summary                 |
           -------------------------------------------------

      molecular mass/u    :      208.2971915
   center of mass at/Å    :       -0.0003368      -0.0000856       0.0004018
  moments of inertia/u·Å² :        0.5834995E+03   0.9129060E+03   0.1089617E+04
rotational constants/cm⁻¹ :        0.2889057E-01   0.1846590E-01   0.1547115E-01

 * 30 selected distances

     #   Z          #   Z                                           value/Å
     3   6 c        4   6 c                                       1.5291191
     4   6 c        5   6 c                                       1.5314386
     1   6 c        6   6 c                                       1.5426852 (max)
     5   6 c        6   6 c                                       1.5322082
     1   6 c        7   6 c                                       1.5424563
     6   6 c        9   8 o                                       1.4128572
     1   6 c       10   6 c                                       1.5333421
     8   6 c       11   6 c                                       1.3208579
    12   6 c       13   6 c                                       1.3246281
     2   6 c       14   1 h                                       1.0976195
    10   6 c       15   8 o                                       1.4119046
     3   6 c       17   1 h                                       1.0916218
     3   6 c       18   1 h                                       1.0918669
     4   6 c       19   1 h                                       1.0900954
     4   6 c       20   1 h                                       1.0920638
     5   6 c       21   1 h                                       1.0924621
     6   6 c       22   1 h                                       1.0897097
     7   6 c       23   1 h                                       1.0933815
     7   6 c       24   1 h                                       1.0901867
     9   8 o       25   1 h                                       0.9666938
    10   6 c       26   1 h                                       1.0928459
    10   6 c       27   1 h                                       1.0981183
    11   6 c       28   1 h                                       1.0774397
    11   6 c       29   1 h                                       1.0770500
    13   6 c       30   1 h                                       1.0780569
    13   6 c       31   1 h                                       1.0737612
    15   8 o       32   1 h                                       0.9665577 (min)
    16   6 c       33   1 h                                       1.0891953
    16   6 c       34   1 h                                       1.0902723
    16   6 c       35   1 h                                       1.0871387

 * 4 distinct bonds (by element types)

   Z      Z             #   av. dist./Å        max./Å        min./Å
   1 H    6 C          18     1.0884937     1.0981183     1.0737612
   6 C    6 C           8     1.4820919     1.5426852     1.3208579
   1 H    8 O           2     0.9666258     0.9666938     0.9665577
   6 C    8 O           2     1.4123809     1.4128572     1.4119046

           -------------------------------------------------
          |               Frequency Printout                |
           -------------------------------------------------
 projected vibrational frequencies (cm⁻¹)
eigval :       -0.00    -0.00    -0.00     0.00     0.00     0.00
eigval :       63.30    83.83    96.96   118.63   142.99   165.02
eigval :      178.99   205.54   259.74   275.59   289.65   305.55
eigval :      319.47   326.53   357.55   364.23   378.87   426.72
eigval :      446.94   463.05   512.05   541.64   562.05   604.65
eigval :      680.25   685.52   714.71   718.77   794.64   825.56
eigval :      875.73   887.98   894.84   897.88   911.65   929.19
eigval :      943.09   951.86   955.05   998.13  1015.09  1039.00
eigval :     1044.24  1053.34  1063.68  1075.11  1085.93  1107.14
eigval :     1116.51  1134.32  1154.13  1176.02  1189.71  1195.19
eigval :     1206.85  1229.48  1242.11  1254.44  1266.65  1271.29
eigval :     1288.14  1299.35  1305.51  1331.24  1344.56  1348.91
eigval :     1352.64  1364.78  1399.73  1411.82  1421.81  1468.71
eigval :     1480.61  1482.25  1483.78  1491.65  1494.03  1719.81
eigval :     1737.23  2895.42  2896.84  2950.08  2959.43  2964.75
eigval :     2973.28  2981.09  2987.88  2991.42  2994.91  2995.48
eigval :     3004.63  3012.31  3043.12  3097.72  3097.96  3118.75
eigval :     3150.38  3495.85  3503.56
 reduced masses (amu)
   1: 10.82   2: 11.05   3: 11.77   4: 11.00   5: 11.84   6: 11.61   7:  9.52   8:  9.87
   9: 10.92  10:  9.79  11: 11.43  12:  6.49  13: 10.80  14:  8.75  15: 10.86  16:  7.59
  17:  9.48  18:  7.28  19:  7.98  20:  8.92  21:  3.59  22:  7.78  23:  5.79  24:  9.95
  25: 10.56  26:  9.01  27:  8.69  28:  9.28  29:  8.36  30:  9.69  31:  8.44  32:  5.84
  33:  5.40  34:  4.15  35:  9.83  36:  7.51  37:  8.63  38:  7.17  39:  4.79  40:  4.03
  41:  5.75  42:  7.30  43:  6.88  44:  5.84  45:  5.52  46:  6.86  47:  5.33  48:  4.79
  49:  6.57  50: 10.19  51:  4.90  52: 10.66  53:  6.26  54:  8.42  55:  5.19  56:  6.31
  57:  4.37  58:  4.12  59:  5.09  60:  6.45  61:  6.35  62:  7.43  63:  7.43  64:  5.83
  65:  6.53  66:  7.00  67:  4.47  68:  4.24  69:  4.58  70:  4.51  71:  3.83  72:  4.48
  73:  4.27  74:  4.44  75:  2.88  76:  2.36  77:  2.48  78:  1.87  79:  1.74  80:  1.77
  81:  1.66  82:  1.72  83:  1.96  84: 11.22  85: 11.58  86:  1.76  87:  1.75  88:  1.89
  89:  1.77  90:  1.92  91:  1.93  92:  1.67  93:  1.54  94:  1.59  95:  1.82  96:  1.64
  97:  1.75  98:  1.62  99:  1.62 100:  1.68 101:  1.55 102:  2.09 103:  1.89 104:  1.87
 105:  1.87
 IR intensities (km·mol⁻¹)
   1:  0.19   2:  0.23   3:  0.42   4:  0.13   5:  0.21   6:  0.01   7:  0.59   8:  2.00
   9:  0.46  10:  0.58  11:  0.96  12: 10.80  13:  0.42  14:  0.59  15:  0.25  16:  0.19
  17:  2.10  18: 12.91  19: 11.52  20:  2.28  21:243.11  22: 34.32  23: 23.06  24:  4.77
  25: 23.61  26:  1.09  27: 16.22  28: 12.26  29:  0.90  30:  3.06  31:  7.90  32:  5.08
  33:  2.78  34:  3.84  35: 11.54  36:  4.32  37:  0.58  38:  3.28  39: 41.35  40: 16.26
  41:  6.64  42: 12.33  43: 10.38  44:  7.73  45:  0.26  46:  6.26  47: 30.07  48:  0.74
  49: 11.75  50: 69.80  51:  7.12  52:127.93  53: 34.18  54: 16.72  55: 33.12  56:  0.18
  57:  4.20  58: 36.67  59: 19.03  60: 17.89  61:  2.86  62: 14.81  63:  7.61  64: 21.62
  65: 13.56  66:  5.74  67: 13.76  68: 30.25  69:  4.00  70: 21.22  71: 59.39  72: 15.92
  73: 62.05  74:  3.84  75:  3.81  76:  4.29  77: 13.58  78:  3.77  79:  1.29  80:  1.96
  81:  2.17  82:  4.67  83:  1.12  84: 23.27  85: 28.87  86: 84.10  87: 62.99  88: 33.65
  89: 58.20  90: 25.58  91: 78.53  92: 31.63  93: 63.13  94: 42.20  95: 49.14  96: 75.79
  97: 75.26  98: 41.92  99: 41.66 100: 99.34 101:  7.47 102: 60.68 103: 45.79 104: 45.60
 105: 33.57
 Raman intensities (Ä⁴*amu⁻¹)
   1:  0.00   2:  0.00   3:  0.00   4:  0.00   5:  0.00   6:  0.00   7:  0.00   8:  0.00
   9:  0.00  10:  0.00  11:  0.00  12:  0.00  13:  0.00  14:  0.00  15:  0.00  16:  0.00
  17:  0.00  18:  0.00  19:  0.00  20:  0.00  21:  0.00  22:  0.00  23:  0.00  24:  0.00
  25:  0.00  26:  0.00  27:  0.00  28:  0.00  29:  0.00  30:  0.00  31:  0.00  32:  0.00
  33:  0.00  34:  0.00  35:  0.00  36:  0.00  37:  0.00  38:  0.00  39:  0.00  40:  0.00
  41:  0.00  42:  0.00  43:  0.00  44:  0.00  45:  0.00  46:  0.00  47:  0.00  48:  0.00
  49:  0.00  50:  0.00  51:  0.00  52:  0.00  53:  0.00  54:  0.00  55:  0.00  56:  0.00
  57:  0.00  58:  0.00  59:  0.00  60:  0.00  61:  0.00  62:  0.00  63:  0.00  64:  0.00
  65:  0.00  66:  0.00  67:  0.00  68:  0.00  69:  0.00  70:  0.00  71:  0.00  72:  0.00
  73:  0.00  74:  0.00  75:  0.00  76:  0.00  77:  0.00  78:  0.00  79:  0.00  80:  0.00
  81:  0.00  82:  0.00  83:  0.00  84:  0.00  85:  0.00  86:  0.00  87:  0.00  88:  0.00
  89:  0.00  90:  0.00  91:  0.00  92:  0.00  93:  0.00  94:  0.00  95:  0.00  96:  0.00
  97:  0.00  98:  0.00  99:  0.00 100:  0.00 101:  0.00 102:  0.00 103:  0.00 104:  0.00
 105:  0.00
 output can be read by thermo (or use thermo option).
 writing <g98.out> molden fake output.
 recommended (thermochemical) frequency scaling factor: 1.0
           -------------------------------------------------
          |             Thermodynamic Functions             |
           -------------------------------------------------

Molecule has no symmetry elements
It seems to be the C1 point group
c1  symmetry found (for desy threshold:  0.10E+00) used in thermo

          ...................................................
          :                      SETUP                      :
          :.................................................:
          :  # frequencies                          99      :
          :  # imaginary freq.                       0      :
          :  linear?                             false      :
          :  only rotor calc.                    false      :
          :  symmetry                               c1      :
          :  rotational number                       1      :
          :  scaling factor                  1.0000000      :
          :  rotor cutoff                   50.0000000 cm⁻¹ :
          :  imag. cutoff                  -50.0000000 cm⁻¹ :
          :.................................................:

    mode    ω/cm⁻¹     T·S(HO)/kcal·mol⁻¹    T·S(FR)/kcal·mol⁻¹   T·S(vib)
   ------------------------------------------------------------------------
       1     63.30    -1.29741 ( 71.98%)    -0.98658 ( 28.02%)    -1.21032
       2     83.83    -1.13274 ( 88.76%)    -0.90340 ( 11.24%)    -1.10697
       3     96.96    -1.04787 ( 93.39%)    -0.86031 (  6.61%)    -1.03548
       4    118.63    -0.93100 ( 96.94%)    -0.80056 (  3.06%)    -0.92701
       5    142.99    -0.82392 ( 98.53%)    -0.74523 (  1.47%)    -0.82276
       6    165.02    -0.74283 ( 99.16%)    -0.70279 (  0.84%)    -0.74249
       7    178.99    -0.69736 ( 99.39%)    -0.67872 (  0.61%)    -0.69724
       8    205.54    -0.62103 ( 99.65%)    -0.63775 (  0.35%)    -0.62109
       9    259.74    -0.49597 ( 99.86%)    -0.56842 (  0.14%)    -0.49607
      10    275.59    -0.46538 ( 99.89%)    -0.55088 (  0.11%)    -0.46548
      11    289.65    -0.44006 ( 99.91%)    -0.53613 (  0.09%)    -0.44015
   ------------------------------------------------------------------------

   temp. (K)  partition function   enthalpy   heat capacity  entropy
                                   cal/mol     cal/K/mol   cal/K/mol   J/K/mol
 298.15  VIB  0.188E+05             7683.424     54.339     44.897
         ROT  0.184E+07              888.752      2.981     31.648
         INT  0.347E+11             8572.176     57.319     76.545
         TR   0.291E+28             1481.254      4.968     41.886
         TOT                       10053.4301    62.2876   118.4311   495.5156

       T/K    H(0)-H(T)+PV         H(T)/Eh          T*S/Eh         G(T)/Eh
   ------------------------------------------------------------------------
    298.15    0.160212E-01    0.317687E+00    0.562704E-01    0.261417E+00
   ------------------------------------------------------------------------

         :::::::::::::::::::::::::::::::::::::::::::::::::::::
         ::                  THERMODYNAMIC                  ::
         :::::::::::::::::::::::::::::::::::::::::::::::::::::
         :: total free energy         -45.900914739814 Eh   ::
         ::.................................................::
         :: total energy              -46.162331381017 Eh   ::
         :: zero point energy           0.301665905984 Eh   ::
         :: G(RRHO) w/o ZPVE           -0.040249264781 Eh   ::
         :: G(RRHO) contrib.            0.261416641203 Eh   ::
         :::::::::::::::::::::::::::::::::::::::::::::::::::::

optimized geometry written to: xtbopt.coord


           -------------------------------------------------
          | TOTAL ENERGY              -46.162331381017 Eh   |
          | TOTAL ENTHALPY            -45.844644314302 Eh   |
          | TOTAL FREE ENERGY         -45.900914739814 Eh   |
          | GRADIENT NORM               0.000156854208 Eh/α |
          | HOMO-LUMO GAP               5.132121287990 eV   |
           -------------------------------------------------

------------------------------------------------------------------------
 * finished run on 2026/08/09 at 16:28:48.707     
------------------------------------------------------------------------
 total:
 * wall-time:     0 d,  0 h,  0 min,  1.333 sec
 *  cpu-time:     0 d,  0 h,  0 min, 15.450 sec
 * ratio c/w:    11.587 speedup
 SCF:
 * wall-time:     0 d,  0 h,  0 min,  0.053 sec
 *  cpu-time:     0 d,  0 h,  0 min,  0.600 sec
 * ratio c/w:    11.412 speedup
 ANC optimizer:
 * wall-time:     0 d,  0 h,  0 min,  0.350 sec
 *  cpu-time:     0 d,  0 h,  0 min,  4.190 sec
 * ratio c/w:    11.970 speedup
 analytical hessian:
 * wall-time:     0 d,  0 h,  0 min,  0.905 sec
 *  cpu-time:     0 d,  0 h,  0 min, 10.398 sec
 * ratio c/w:    11.492 speedup

normal termination of xtb
