      -----------------------------------------------------------      
     |                   =====================                   |     
     |                           x T B                           |     
     |                   =====================                   |     
     |                         S. Grimme                         |     
     |          Mulliken Center for Theoretical Chemistry        |     
     |                    University of Bonn                     |     
      -----------------------------------------------------------      

   * xtb version 6.7.1 (edcfbbe) compiled by 'albert@albert-system' on 2024-07-22

   xtb is free software: you can redistribute it and/or modify it under
   the terms of the GNU Lesser General Public License as published by
   the Free Software Foundation, either version 3 of the License, or
   (at your option) any later version.
   
   xtb is distributed in the hope that it will be useful,
   but WITHOUT ANY WARRANTY; without even the implied warranty of
   MERCHANTABILITY or FITNESS FOR A PARTICULAR PURPOSE.  See the
   GNU Lesser General Public License for more details.
   
   Cite this work as:
   * C. Bannwarth, E. Caldeweyher, S. Ehlert, A. Hansen, P. Pracht,
     J. Seibert, S. Spicher, S. Grimme, WIREs Comput. Mol. Sci., 2020, 11,
     e01493. DOI: 10.1002/wcms.1493
   
   for GFN2-xTB:
   * C. Bannwarth, S. Ehlert and S. Grimme., J. Chem. Theory Comput., 2019,
     15, 1652-1671. DOI: 10.1021/acs.jctc.8b01176
   for GFN1-xTB:
   * S. Grimme, C. Bannwarth, P. Shushkov, J. Chem. Theory Comput., 2017,
     13, 1989-2009. DOI: 10.1021/acs.jctc.7b00118
   for GFN0-xTB:
   * P. Pracht, E. Caldeweyher, S. Ehlert, S. Grimme, ChemRxiv, 2019, preprint.
     DOI: 10.26434/chemrxiv.8326202.v1
   for GFN-FF:
   * S. Spicher and S. Grimme, Angew. Chem. Int. Ed., 2020, 59, 15665-15673.
     DOI: 10.1002/anie.202004239
   
   for ALPB and GBSA implicit solvation:
   * S. Ehlert, M. Stahn, S. Spicher, S. Grimme, J. Chem. Theory Comput.,
     2021, 17, 4250-4261. DOI: 10.1021/acs.jctc.1c00471
   
   for ddCOSMO and CPCM-X implicit solvation:
   * M. Stahn, S. Ehlert, S. Grimme, J. Phys. Chem. A,
     2023, XX, XXXX-XXXX. DOI: 10.1021/acs.jpca.3c04382
   
   for DFT-D4:
   * E. Caldeweyher, C. Bannwarth and S. Grimme, J. Chem. Phys., 2017,
     147, 034112. DOI: 10.1063/1.4993215
   * E. Caldeweyher, S. Ehlert, A. Hansen, H. Neugebauer, S. Spicher,
     C. Bannwarth and S. Grimme, J. Chem. Phys., 2019, 150, 154122.
     DOI: 10.1063/1.5090222
   * E. Caldeweyher, J.-M. Mewes, S. Ehlert and S. Grimme, Phys. Chem. Chem. Phys.
     2020, 22, 8499-8512. DOI: 10.1039/D0CP00502A
   
   for sTDA-xTB:
   * S. Grimme and C. Bannwarth, J. Chem. Phys., 2016, 145, 054103.
     DOI: 10.1063/1.4959605
   
   in the mass-spec context:
   * V. Asgeirsson, C. Bauer and S. Grimme, Chem. Sci., 2017, 8, 4879.
     DOI: 10.1039/c7sc00601b
   * J. Koopman and S. Grimme, ACS Omega 2019, 4, 12, 15120-15133.
     DOI: 10.1021/acsomega.9b02011
   
   for metadynamics refer to:
   * S. Grimme, J. Chem. Theory Comput., 2019, 155, 2847-2862
     DOI: 10.1021/acs.jctc.9b00143
   
   for SPH calculations refer to:
   * S. Spicher and S. Grimme, J. Chem. Theory Comput., 2021, 17, 1701-1714
     DOI: 10.1021/acs.jctc.0c01306
   
   for ONIOM refer to:
   * C. Plett, A. Katbashev, S. Ehlert, S. Grimme, M. Bursch,
     Phys. Chem. Chem. Phys., 2023, 25, 17860-17868. DOI: 10.1039/D3CP02178E
   
   for DIPRO refer to:
   * J. Kohn, N. Gildemeister, S. Grimme, D. Fazzi, A. Hansen,
     J. Chem. Phys., 2023, just accepted.
   
   for PTB refer to:
   * S. Grimme, M. Mueller, A. Hansen, J. Chem. Phys., 2023, 158, 124111.
     DOI: 10.1063/5.0137838
   
   with help from (in alphabetical order)
   P. Atkinson, C. Bannwarth, F. Bohle, G. Brandenburg, E. Caldeweyher
   M. Checinski, S. Dohm, S. Ehlert, S. Ehrlich, I. Gerasimov, C. Hölzer
   A. Katbashev, J. Kohn, J. Koopman, C. Lavigne, S. Lehtola, F. März, M. Müller,
   F. Musil, H. Neugebauer, J. Pisarek, C. Plett, P. Pracht, F. Pultar,
   J. Seibert, P. Shushkov, S. Spicher, M. Stahn, M. Steiner, T. Strunk,
   J. Stückrath, T. Rose, and J. Unsleber
   
 * started run on 2026/08/09 at 22:44:41.808     
   ID    Z sym.   atoms
    1    6 c      1-8, 10-18, 20, 21, 24, 27
    2    7 n      9, 19
    3    8 o      22, 25, 26
    4    1 h      23, 28-50

           -------------------------------------------------
          |                Calculation Setup                |
           -------------------------------------------------

          program call               : /home/dinglab/software/xtb_6.7.1/xtb_dist/bin/xtb coord --gfn2 --ohess vtight --alpb chcl3 --chrg 0 --enso --norestart -I xcontrol-inp --parallel 12
          hostname                   : localhost
          coordinate file            : coord
          omp threads                :                    12


           -------------------------------------------------
          |                 G F N 2 - x T B                 |
           -------------------------------------------------

        Reference                      10.1021/acs.jctc.8b01176
      * Hamiltonian:
        H0-scaling (s, p, d)           1.850000    2.230000    2.230000
        zeta-weighting                 0.500000
      * Dispersion:
        s8                             2.700000
        a1                             0.520000
        a2                             5.000000
        s9                             5.000000
      * Repulsion:
        kExp                           1.500000    1.000000
        rExp                           1.000000
      * Coulomb:
        alpha                          2.000000
        third order                    shell-resolved
        anisotropic                    true
        a3                             3.000000
        a5                             4.000000
        cn-shift                       1.200000
        cn-exp                         4.000000
        max-rad                        5.000000

      * Solvation model:               ALPB
        Solvent                        chcl3
        Parameter file                 internal GFN2-xTB/ALPB
        Dielectric constant                4.8100E+00
        Reference state                gsolv [1 M gas/solution]
        Free energy shift                  3.8910E-03 Eh       2.4417E+00 kcal/mol
        Temperature                        2.9815E+02 K
        Density                            1.4900E+00 kg/L
        Solvent mass                       1.1938E+02 g/mol
        Interaction kernel             P16
        Born radius scaling (c1)           1.3274E+00
        Born radii integrator          GBOBC
        Born offset                        0.0000E+00 a0       0.0000E+00 AA
        H-bond correction              false
        Ion screening                  false
        Surface tension                    1.0000E-05 Eh       1.5569E+01 dyn/cm
        Grid points                               974 per atom

          ...................................................
          :                      SETUP                      :
          :.................................................:
          :  # basis functions                 128          :
          :  # atomic orbitals                 128          :
          :  # shells                           76          :
          :  # electrons                       136          :
          :  max. iterations                   250          :
          :  Hamiltonian                  GFN2-xTB          :
          :  restarted?                      false          :
          :  GBSA solvation                   true          :
          :  PC potential                    false          :
          :  electronic temp.          300.0000000     K    :
          :  accuracy                    1.0000000          :
          :  -> integral cutoff          0.2500000E+02      :
          :  -> integral neglect         0.1000000E-07      :
          :  -> SCF convergence          0.1000000E-05 Eh   :
          :  -> wf. convergence          0.1000000E-03 e    :
          :  Broyden damping             0.4000000          :
          :  net charge                          0          :
          :  unpaired electrons                  0          :
          ...................................................

 iter      E             dE          RMSdq      gap      omega  full diag
   1    -76.0376873 -0.760377E+02  0.399E+00    3.40       0.0  T
   2    -76.1973454 -0.159658E+00  0.220E+00    2.86       1.0  T
   3    -76.2015047 -0.415927E-02  0.106E+00    3.19       1.0  T
   4    -76.2048886 -0.338389E-02  0.342E-01    2.70       1.0  T
   5    -76.2079662 -0.307762E-02  0.119E-01    2.82       1.0  T
   6    -76.2082366 -0.270427E-03  0.578E-02    2.90       1.0  T
   7    -76.2082870 -0.504464E-04  0.235E-02    2.92       1.0  T
   8    -76.2082943 -0.720490E-05  0.113E-02    2.92       1.3  T
   9    -76.2082960 -0.170532E-05  0.334E-03    2.92       4.2  T
  10    -76.2082961 -0.114160E-06  0.158E-03    2.91       9.0  T
  11    -76.2082961 -0.227853E-07  0.772E-04    2.91      18.3  T
  12    -76.2082961 -0.390064E-08  0.269E-04    2.91      52.5  T

   *** convergence criteria satisfied after 12 iterations ***

         #    Occupation            Energy/Eh            Energy/eV
      -------------------------------------------------------------
         1        2.0000           -0.7461886             -20.3048
       ...           ...                  ...                  ...
        62        2.0000           -0.4174244             -11.3587
        63        2.0000           -0.4134889             -11.2516
        64        2.0000           -0.4009614             -10.9107
        65        2.0000           -0.3962516             -10.7826
        66        2.0000           -0.3595667              -9.7843
        67        2.0000           -0.3532934              -9.6136
        68        2.0000           -0.3502204              -9.5300 (HOMO)
        69                         -0.2431525              -6.6165 (LUMO)
        70                         -0.2250510              -6.1240
        71                         -0.2169693              -5.9040
        72                         -0.2140637              -5.8250
        73                         -0.1009543              -2.7471
       ...                                ...                  ...
       128                          0.6341712              17.2567
      -------------------------------------------------------------
                  HL-Gap            0.1070679 Eh            2.9135 eV
             Fermi-level           -0.2966864 Eh           -8.0732 eV

 SCC (total)                   0 d,  0 h,  0 min,  0.070 sec
 SCC setup                      ...        0 min,  0.001 sec (  1.477%)
 Dispersion                     ...        0 min,  0.001 sec (  1.142%)
 classical contributions        ...        0 min,  0.000 sec (  0.059%)
 integral evaluation            ...        0 min,  0.003 sec (  4.170%)
 iterations                     ...        0 min,  0.059 sec ( 83.718%)
 molecular gradient             ...        0 min,  0.006 sec (  9.148%)
 printout                       ...        0 min,  0.000 sec (  0.239%)

         :::::::::::::::::::::::::::::::::::::::::::::::::::::
         ::                     SUMMARY                     ::
         :::::::::::::::::::::::::::::::::::::::::::::::::::::
         :: total energy             -75.270275356638 Eh    ::
         :: total w/o Gsasa/hb       -75.251300031323 Eh    ::
         :: gradient norm              0.046552683886 Eh/a0 ::
         :: HOMO-LUMO gap              2.913465146158 eV    ::
         ::.................................................::
         :: SCC energy               -76.206281037019 Eh    ::
         :: -> isotropic ES            0.149085545472 Eh    ::
         :: -> anisotropic ES          0.005413559598 Eh    ::
         :: -> anisotropic XC          0.024938741075 Eh    ::
         :: -> dispersion             -0.066387294672 Eh    ::
         :: -> Gsolv                  -0.045644429000 Eh    ::
         ::    -> Gelec               -0.026669103685 Eh    ::
         ::    -> Gsasa               -0.022866344558 Eh    ::
         ::    -> Ghb                  0.000000000000 Eh    ::
         ::    -> Gshift               0.003891019244 Eh    ::
         :: repulsion energy           0.936005680381 Eh    ::
         :: add. restraining           0.000000000000 Eh    ::
         :: total charge              -0.000000000000 e     ::
         :::::::::::::::::::::::::::::::::::::::::::::::::::::

      ----------------------------------------------------------- 
     |                   =====================                   |
     |                        A N C O P T                        |
     |                   =====================                   |
     |               Approximate Normal Coordinate               |
     |                Rational Function Optimizer                |
      ----------------------------------------------------------- 
      ----------------------------------------------------------- 
     |                   =====================                   |
     |                        A N C O P T                        |
     |                   =====================                   |
     |               Approximate Normal Coordinate               |
     |                Rational Function Optimizer                |
      ----------------------------------------------------------- 

          ...................................................
          :                      SETUP                      :
          :.................................................:
          :   optimization level         verytight          :
          :   max. optcycles                  1000          :
          :   ANC micro-cycles                  20          :
          :   degrees of freedom               144          :
          :.................................................:
          :   RF solver                   davidson          :
          :   write xtbopt.log                true          :
          :   linear?                        false          :
          :   energy convergence         0.1000000E-06 Eh   :
          :   grad. convergence          0.2000000E-03 Eh/α :
          :   maxmium RF displ.          1.0000000          :
          :   Hlow (freq-cutoff)         0.1000000E-01      :
          :   Hmax (freq-cutoff)         5.0000000          :
          :   S6 in model hess.         20.0000000          :
          ...................................................

generating ANC from exact Hessian ...
Using Lindh-Hessian (1995)
 Shifting diagonal of input Hessian by   9.374001212648605E-003
 Lowest  eigenvalues of input Hessian
    0.000000    0.000000    0.000000    0.000000    0.000000    0.000000
    0.010000    0.010448    0.010991    0.011148    0.012538    0.013213
    0.013726    0.014902    0.017070    0.019100    0.019190    0.020528
 Highest eigenvalues
    1.724712    1.849774    1.863413    1.953922    2.016734    2.295069
 

........................................................................
.............................. CYCLE    1 ..............................
........................................................................

 iter      E             dE          RMSdq      gap      omega  full diag
   1    -76.2082961 -0.762083E+02  0.919E-05    2.91       0.0  T
   2    -76.2082961 -0.664926E-10  0.567E-05    2.91     249.2  T
   3    -76.2082961 -0.102460E-10  0.349E-05    2.91     405.0  T
     SCC iter.                  ...        0 min,  0.013 sec
     gradient                   ...        0 min,  0.009 sec
 * total energy  :   -75.2702754 Eh     change       -0.9883365E-09 Eh
   gradient norm :     0.0465541 Eh/α   predicted     0.0000000E+00 (-100.00%)
   displ. norm   :     0.2670059 α      lambda       -0.6566461E-02
   maximum displ.:     0.1031319 α      in ANC's #13, #30, #12, ...

........................................................................
.............................. CYCLE    2 ..............................
........................................................................

 iter      E             dE          RMSdq      gap      omega  full diag
   1    -76.2468266 -0.762468E+02  0.117E-01    2.97       0.0  T
   2    -76.2469072 -0.805612E-04  0.676E-02    2.96       1.0  T
   3    -76.2469074 -0.237993E-06  0.267E-02    2.98       1.0  T
   4    -76.2469099 -0.254216E-05  0.607E-03    2.97       2.3  T
   5    -76.2469113 -0.130276E-05  0.207E-03    2.98       6.8  T
   6    -76.2469113 -0.196081E-07  0.116E-03    2.98      12.2  T
   7    -76.2469113 -0.128739E-07  0.373E-04    2.98      37.9  T
   8    -76.2469113 -0.229723E-08  0.187E-04    2.98      75.7  T
     SCC iter.                  ...        0 min,  0.032 sec
     gradient                   ...        0 min,  0.009 sec
 * total energy  :   -75.2746822 Eh     change       -0.4406860E-02 Eh
   gradient norm :     0.0197556 Eh/α   predicted    -0.3517488E-02 ( -20.18%)
   displ. norm   :     0.2103866 α      lambda       -0.1742029E-02
   maximum displ.:     0.0810275 α      in ANC's #9, #13, #12, ...

........................................................................
.............................. CYCLE    3 ..............................
........................................................................

 iter      E             dE          RMSdq      gap      omega  full diag
   1    -76.2643956 -0.762644E+02  0.728E-02    2.99       0.0  T
   2    -76.2644371 -0.415215E-04  0.427E-02    2.99       1.0  T
   3    -76.2644374 -0.350626E-06  0.190E-02    3.00       1.0  T
   4    -76.2644381 -0.672009E-06  0.516E-03    3.00       2.7  T
   5    -76.2644390 -0.916144E-06  0.138E-03    3.00      10.2  T
   6    -76.2644390 -0.176894E-07  0.782E-04    3.00      18.1  T
   7    -76.2644390 -0.533097E-08  0.309E-04    3.00      45.7  T
     SCC iter.                  ...        0 min,  0.028 sec
     gradient                   ...        0 min,  0.009 sec
 * total energy  :   -75.2756768 Eh     change       -0.9946004E-03 Eh
   gradient norm :     0.0068164 Eh/α   predicted    -0.9097967E-03 (  -8.53%)
   displ. norm   :     0.1023135 α      lambda       -0.2064392E-03
   maximum displ.:     0.0472354 α      in ANC's #9, #8, #13, ...

........................................................................
.............................. CYCLE    4 ..............................
........................................................................

 iter      E             dE          RMSdq      gap      omega  full diag
   1    -76.2640878 -0.762641E+02  0.308E-02    3.00       0.0  T
   2    -76.2640899 -0.212141E-05  0.183E-02    3.00       1.0  T
   3    -76.2640896  0.299040E-06  0.499E-03    3.00       2.8  T
   4    -76.2640900 -0.429017E-06  0.157E-03    3.00       9.0  T
   5    -76.2640901 -0.733613E-07  0.481E-04    3.00      29.4  T
   6    -76.2640901 -0.401180E-08  0.262E-04    3.00      53.9  T
     SCC iter.                  ...        0 min,  0.024 sec
     gradient                   ...        0 min,  0.009 sec
 * total energy  :   -75.2758269 Eh     change       -0.1500718E-03 Eh
   gradient norm :     0.0041663 Eh/α   predicted    -0.1043022E-03 ( -30.50%)
   displ. norm   :     0.1333352 α      lambda       -0.1544454E-03
   maximum displ.:     0.0745862 α      in ANC's #8, #9, #4, ...

........................................................................
.............................. CYCLE    5 ..............................
........................................................................

 iter      E             dE          RMSdq      gap      omega  full diag
   1    -76.2620770 -0.762621E+02  0.375E-02    3.00       0.0  T
   2    -76.2620789 -0.188017E-05  0.221E-02    3.00       1.0  T
   3    -76.2620784  0.498768E-06  0.552E-03    3.00       2.6  T
   4    -76.2620791 -0.714687E-06  0.140E-03    2.99      10.1  T
   5    -76.2620791 -0.478098E-07  0.496E-04    2.99      28.5  T
   6    -76.2620791 -0.125488E-08  0.250E-04    2.99      56.6  T
     SCC iter.                  ...        0 min,  0.024 sec
     gradient                   ...        0 min,  0.009 sec
 * total energy  :   -75.2759229 Eh     change       -0.9604991E-04 Eh
   gradient norm :     0.0028788 Eh/α   predicted    -0.7859730E-04 ( -18.17%)
   displ. norm   :     0.0777683 α      lambda       -0.4473933E-04
   maximum displ.:     0.0442763 α      in ANC's #8, #4, #3, ...

........................................................................
.............................. CYCLE    6 ..............................
........................................................................

 iter      E             dE          RMSdq      gap      omega  full diag
   1    -76.2615568 -0.762616E+02  0.197E-02    2.99       0.0  T
   2    -76.2615576 -0.811144E-06  0.115E-02    2.99       1.2  T
   3    -76.2615575  0.150377E-06  0.353E-03    2.99       4.0  T
   4    -76.2615577 -0.218314E-06  0.928E-04    2.99      15.2  T
   5    -76.2615577 -0.232619E-07  0.280E-04    2.99      50.6  T
     SCC iter.                  ...        0 min,  0.020 sec
     gradient                   ...        0 min,  0.009 sec
 * total energy  :   -75.2759549 Eh     change       -0.3196982E-04 Eh
   gradient norm :     0.0020228 Eh/α   predicted    -0.2250876E-04 ( -29.59%)
   displ. norm   :     0.0861212 α      lambda       -0.3476746E-04
   maximum displ.:     0.0440282 α      in ANC's #8, #4, #3, ...

........................................................................
.............................. CYCLE    7 ..............................
........................................................................

 iter      E             dE          RMSdq      gap      omega  full diag
   1    -76.2619727 -0.762620E+02  0.200E-02    2.99       0.0  T
   2    -76.2619735 -0.825153E-06  0.118E-02    2.99       1.2  T
   3    -76.2619733  0.209819E-06  0.384E-03    2.99       3.7  T
   4    -76.2619736 -0.298561E-06  0.894E-04    2.99      15.8  T
   5    -76.2619736 -0.206400E-07  0.266E-04    2.99      53.2  T
     SCC iter.                  ...        0 min,  0.020 sec
     gradient                   ...        0 min,  0.009 sec
 * total energy  :   -75.2759778 Eh     change       -0.2293014E-04 Eh
   gradient norm :     0.0015946 Eh/α   predicted    -0.1751297E-04 ( -23.62%)
   displ. norm   :     0.0839602 α      lambda       -0.1485807E-04
   maximum displ.:     0.0408209 α      in ANC's #4, #1, #3, ...

........................................................................
.............................. CYCLE    8 ..............................
........................................................................

 iter      E             dE          RMSdq      gap      omega  full diag
   1    -76.2628725 -0.762629E+02  0.181E-02    2.99       0.0  T
   2    -76.2628730 -0.526746E-06  0.107E-02    2.99       1.3  T
   3    -76.2628728  0.252310E-06  0.361E-03    2.98       3.9  T
   4    -76.2628731 -0.331975E-06  0.736E-04    2.99      19.2  T
   5    -76.2628731 -0.133593E-07  0.287E-04    2.99      49.3  T
     SCC iter.                  ...        0 min,  0.020 sec
     gradient                   ...        0 min,  0.009 sec
 * total energy  :   -75.2759903 Eh     change       -0.1246930E-04 Eh
   gradient norm :     0.0015242 Eh/α   predicted    -0.7452617E-05 ( -40.23%)
   displ. norm   :     0.0340443 α      lambda       -0.6051383E-05
   maximum displ.:     0.0206650 α      in ANC's #1, #4, #2, ...

........................................................................
.............................. CYCLE    9 ..............................
........................................................................

 iter      E             dE          RMSdq      gap      omega  full diag
   1    -76.2630134 -0.762630E+02  0.770E-03    2.98       0.0  T
   2    -76.2630136 -0.193132E-06  0.443E-03    2.98       3.2  T
   3    -76.2630135  0.174021E-07  0.147E-03    2.99       9.6  T
   4    -76.2630136 -0.151582E-07  0.617E-04    2.99      22.9  T
   5    -76.2630136 -0.144749E-07  0.129E-04    2.99     109.8  T
     SCC iter.                  ...        0 min,  0.019 sec
     gradient                   ...        0 min,  0.009 sec
 * total energy  :   -75.2759967 Eh     change       -0.6414737E-05 Eh
   gradient norm :     0.0006356 Eh/α   predicted    -0.3031232E-05 ( -52.75%)
   displ. norm   :     0.0452900 α      lambda       -0.4781886E-05
   maximum displ.:     0.0305253 α      in ANC's #1, #4, #2, ...

........................................................................
.............................. CYCLE   10 ..............................
........................................................................

 iter      E             dE          RMSdq      gap      omega  full diag
   1    -76.2627408 -0.762627E+02  0.918E-03    2.98       0.0  T
   2    -76.2627410 -0.152843E-06  0.537E-03    2.98       2.6  T
   3    -76.2627409  0.507924E-07  0.159E-03    2.99       8.9  T
   4    -76.2627410 -0.533614E-07  0.638E-04    2.99      22.2  T
   5    -76.2627410 -0.153328E-07  0.139E-04    2.99     101.8  T
     SCC iter.                  ...        0 min,  0.020 sec
     gradient                   ...        0 min,  0.009 sec
 * total energy  :   -75.2760013 Eh     change       -0.4553240E-05 Eh
   gradient norm :     0.0007096 Eh/α   predicted    -0.2394060E-05 ( -47.42%)
   displ. norm   :     0.0372300 α      lambda       -0.2691864E-05
   maximum displ.:     0.0260005 α      in ANC's #1, #2, #4, ...

........................................................................
.............................. CYCLE   11 ..............................
........................................................................

 iter      E             dE          RMSdq      gap      omega  full diag
   1    -76.2625886 -0.762626E+02  0.654E-03    2.99       0.0  T
   2    -76.2625886 -0.236725E-07  0.386E-03    2.99       3.7  T
   3    -76.2625886  0.129846E-07  0.654E-04    2.99      21.6  T
   4    -76.2625886 -0.182600E-07  0.141E-04    2.99     100.4  T
     SCC iter.                  ...        0 min,  0.016 sec
     gradient                   ...        0 min,  0.009 sec
 * total energy  :   -75.2760044 Eh     change       -0.3101593E-05 Eh
   gradient norm :     0.0007749 Eh/α   predicted    -0.1350218E-05 ( -56.47%)
   displ. norm   :     0.0430722 α      lambda       -0.2796407E-05
   maximum displ.:     0.0311115 α      in ANC's #1, #6, #2, ...

........................................................................
.............................. CYCLE   12 ..............................
........................................................................

 iter      E             dE          RMSdq      gap      omega  full diag
   1    -76.2626177 -0.762626E+02  0.696E-03    2.99       0.0  T
   2    -76.2626177 -0.419514E-07  0.409E-03    2.99       3.5  T
   3    -76.2626177  0.267471E-07  0.101E-03    2.99      14.0  T
   4    -76.2626177 -0.351254E-07  0.242E-04    2.99      58.4  T
   5    -76.2626177 -0.131693E-08  0.121E-04    2.99     117.3  T
     SCC iter.                  ...        0 min,  0.020 sec
     gradient                   ...        0 min,  0.009 sec
 * total energy  :   -75.2760077 Eh     change       -0.3351620E-05 Eh
   gradient norm :     0.0005592 Eh/α   predicted    -0.1401305E-05 ( -58.19%)
   displ. norm   :     0.0423987 α      lambda       -0.2357463E-05
   maximum displ.:     0.0314603 α      in ANC's #1, #6, #2, ...

........................................................................
.............................. CYCLE   13 ..............................
........................................................................

 iter      E             dE          RMSdq      gap      omega  full diag
   1    -76.2626136 -0.762626E+02  0.673E-03    2.99       0.0  T
   2    -76.2626137 -0.620906E-07  0.393E-03    2.99       3.6  T
   3    -76.2626137  0.166928E-07  0.966E-04    2.99      14.6  T
   4    -76.2626137 -0.238902E-07  0.303E-04    2.99      46.7  T
     SCC iter.                  ...        0 min,  0.016 sec
     gradient                   ...        0 min,  0.009 sec
 * total energy  :   -75.2760104 Eh     change       -0.2678102E-05 Eh
   gradient norm :     0.0002967 Eh/α   predicted    -0.1182138E-05 ( -55.86%)
   displ. norm   :     0.0381237 α      lambda       -0.1802426E-05
   maximum displ.:     0.0284801 α      in ANC's #1, #6, #2, ...

........................................................................
.............................. CYCLE   14 ..............................
........................................................................

 iter      E             dE          RMSdq      gap      omega  full diag
   1    -76.2626349 -0.762626E+02  0.623E-03    2.99       0.0  T
   2    -76.2626349 -0.299996E-07  0.367E-03    2.99       3.9  T
   3    -76.2626349  0.191443E-07  0.873E-04    2.99      16.2  T
   4    -76.2626349 -0.247029E-07  0.274E-04    2.99      51.5  T
     SCC iter.                  ...        0 min,  0.016 sec
     gradient                   ...        0 min,  0.009 sec
 * total energy  :   -75.2760126 Eh     change       -0.2161355E-05 Eh
   gradient norm :     0.0004064 Eh/α   predicted    -0.9027849E-06 ( -58.23%)
   displ. norm   :     0.0406115 α      lambda       -0.1776304E-05
   maximum displ.:     0.0296487 α      in ANC's #1, #6, #7, ...

........................................................................
.............................. CYCLE   15 ..............................
........................................................................

 iter      E             dE          RMSdq      gap      omega  full diag
   1    -76.2626808 -0.762627E+02  0.665E-03    2.99       0.0  T
   2    -76.2626808 -0.123956E-07  0.392E-03    2.99       3.6  T
   3    -76.2626808 -0.111328E-09  0.382E-04    2.99      37.0  T
   4    -76.2626808 -0.452596E-08  0.172E-04    2.99      82.1  T
     SCC iter.                  ...        0 min,  0.016 sec
     gradient                   ...        0 min,  0.009 sec
 * total energy  :   -75.2760149 Eh     change       -0.2352100E-05 Eh
   gradient norm :     0.0004970 Eh/α   predicted    -0.8893766E-06 ( -62.19%)
   displ. norm   :     0.0538806 α      lambda       -0.2322011E-05
   maximum displ.:     0.0386161 α      in ANC's #1, #6, #4, ...

........................................................................
.............................. CYCLE   16 ..............................
........................................................................

 iter      E             dE          RMSdq      gap      omega  full diag
   1    -76.2626542 -0.762627E+02  0.898E-03    2.99       0.0  T
   2    -76.2626542 -0.188759E-07  0.530E-03    2.99       2.7  T
   3    -76.2626542  0.204349E-07  0.861E-04    2.99      16.4  T
   4    -76.2626542 -0.287270E-07  0.248E-04    2.99      57.1  T
     SCC iter.                  ...        0 min,  0.016 sec
     gradient                   ...        0 min,  0.009 sec
 * total energy  :   -75.2760178 Eh     change       -0.2926706E-05 Eh
   gradient norm :     0.0004279 Eh/α   predicted    -0.1162880E-05 ( -60.27%)
   displ. norm   :     0.0771787 α      lambda       -0.2702485E-05
   maximum displ.:     0.0549550 α      in ANC's #1, #6, #7, ...

........................................................................
.............................. CYCLE   17 ..............................
........................................................................

 iter      E             dE          RMSdq      gap      omega  full diag
   1    -76.2625573 -0.762626E+02  0.132E-02    2.99       0.0  T
   2    -76.2625574 -0.432801E-07  0.778E-03    2.99       1.8  T
   3    -76.2625572  0.108944E-06  0.179E-03    2.99       7.9  T
   4    -76.2625574 -0.131232E-06  0.341E-04    2.99      41.5  T
   5    -76.2625574 -0.150361E-08  0.181E-04    2.99      78.2  T
     SCC iter.                  ...        0 min,  0.020 sec
     gradient                   ...        0 min,  0.009 sec
 * total energy  :   -75.2760207 Eh     change       -0.2863671E-05 Eh
   gradient norm :     0.0003654 Eh/α   predicted    -0.1356304E-05 ( -52.64%)
   displ. norm   :     0.0630539 α      lambda       -0.1648188E-05
   maximum displ.:     0.0453926 α      in ANC's #1, #6, #7, ...

........................................................................
.............................. CYCLE   18 ..............................
........................................................................

 iter      E             dE          RMSdq      gap      omega  full diag
   1    -76.2626101 -0.762626E+02  0.103E-02    2.99       0.0  T
   2    -76.2626101 -0.209291E-07  0.611E-03    2.99       2.3  T
   3    -76.2626101  0.146860E-07  0.768E-04    2.99      18.4  T
   4    -76.2626101 -0.221784E-07  0.263E-04    2.99      53.7  T
     SCC iter.                  ...        0 min,  0.016 sec
     gradient                   ...        0 min,  0.009 sec
 * total energy  :   -75.2760224 Eh     change       -0.1666760E-05 Eh
   gradient norm :     0.0003066 Eh/α   predicted    -0.8266313E-06 ( -50.40%)
   displ. norm   :     0.0566894 α      lambda       -0.1139563E-05
   maximum displ.:     0.0410359 α      in ANC's #1, #6, #7, ...

........................................................................
.............................. CYCLE   19 ..............................
........................................................................

 iter      E             dE          RMSdq      gap      omega  full diag
   1    -76.2625892 -0.762626E+02  0.911E-03    2.99       0.0  T
   2    -76.2625892 -0.114955E-07  0.540E-03    2.99       2.6  T
   3    -76.2625891  0.390278E-07  0.107E-03    2.99      13.2  T
   4    -76.2625892 -0.474675E-07  0.188E-04    2.99      75.2  T
   5    -76.2625892 -0.139551E-09  0.969E-05    2.99     145.9  T
     SCC iter.                  ...        0 min,  0.019 sec
     gradient                   ...        0 min,  0.009 sec
 * total energy  :   -75.2760236 Eh     change       -0.1218316E-05 Eh
   gradient norm :     0.0002790 Eh/α   predicted    -0.5722164E-06 ( -53.03%)
   displ. norm   :     0.0567341 α      lambda       -0.9850220E-06
   maximum displ.:     0.0396523 α      in ANC's #1, #6, #2, ...

........................................................................
.............................. CYCLE   20 ..............................
........................................................................

 iter      E             dE          RMSdq      gap      omega  full diag
   1    -76.2625958 -0.762626E+02  0.898E-03    2.99       0.0  T
   2    -76.2625959 -0.939249E-08  0.532E-03    2.99       2.7  T
   3    -76.2625959  0.471610E-08  0.493E-04    2.99      28.7  T
   4    -76.2625959 -0.926447E-08  0.180E-04    2.99      78.8  T
     SCC iter.                  ...        0 min,  0.015 sec
     gradient                   ...        0 min,  0.009 sec
 * total energy  :   -75.2760245 Eh     change       -0.9250300E-06 Eh
   gradient norm :     0.0002712 Eh/α   predicted    -0.4958608E-06 ( -46.40%)
   displ. norm   :     0.0526286 α      lambda        0.3290220E-06
   maximum displ.:     0.0368770 α      in ANC's #1, #6, #2, ...
 * RMSD in coord.:     0.1476078 α      energy gain  -0.5749166E-02 Eh

generating ANC from exact Hessian ...
Using Lindh-Hessian (1995)
 Shifting diagonal of input Hessian by   9.316203933014825E-003
 Lowest  eigenvalues of input Hessian
    0.000000    0.000000    0.000000    0.000000    0.000000    0.000000
    0.010000    0.010519    0.011176    0.011282    0.012802    0.013484
    0.014216    0.015431    0.017699    0.019914    0.020089    0.021883
 Highest eigenvalues
    1.801597    1.900702    1.916046    2.018288    2.083084    2.340960
 

........................................................................
.............................. CYCLE   21 ..............................
........................................................................

 iter      E             dE          RMSdq      gap      omega  full diag
   1    -76.2625443 -0.762625E+02  0.837E-03    2.99       0.0  T
   2    -76.2625444 -0.792106E-08  0.496E-03    2.99       2.9  T
   3    -76.2625443  0.685517E-08  0.537E-04    2.99      26.4  T
   4    -76.2625444 -0.110632E-07  0.168E-04    2.99      84.1  T
     SCC iter.                  ...        0 min,  0.016 sec
     gradient                   ...        0 min,  0.008 sec
 * total energy  :   -75.2760243 Eh     change        0.2261634E-06 Eh
   gradient norm :     0.0005037 Eh/α   predicted     0.0000000E+00 (-100.00%)
   displ. norm   :     0.0069518 α      lambda       -0.3051815E-06
   maximum displ.:     0.0036166 α      in ANC's #1, #4, #44, ...

........................................................................
.............................. CYCLE   22 ..............................
........................................................................

 iter      E             dE          RMSdq      gap      omega  full diag
   1    -76.2626806 -0.762627E+02  0.366E-03    2.99       0.0  T
   2    -76.2626807 -0.858330E-08  0.215E-03    2.99       6.6  T
   3    -76.2626807  0.199712E-08  0.328E-04    2.99      43.1  T
   4    -76.2626807 -0.313705E-08  0.103E-04    2.99     137.9  T
     SCC iter.                  ...        0 min,  0.016 sec
     gradient                   ...        0 min,  0.009 sec
 * total energy  :   -75.2760247 Eh     change       -0.4532430E-06 Eh
   gradient norm :     0.0003067 Eh/α   predicted    -0.5121683E-06 (  13.00%)
   displ. norm   :     0.0046971 α      lambda       -0.3307364E-06
   maximum displ.:     0.0032396 α      in ANC's #1, #4, #6, ...

........................................................................
.............................. CYCLE   23 ..............................
........................................................................

 iter      E             dE          RMSdq      gap      omega  full diag
   1    -76.2626736 -0.762627E+02  0.159E-03    2.99       0.0  T
   2    -76.2626736 -0.958650E-09  0.943E-04    2.99      15.0  T
   3    -76.2626736  0.288371E-08  0.289E-04    2.99      48.9  T
     SCC iter.                  ...        0 min,  0.012 sec
     gradient                   ...        0 min,  0.009 sec
 * total energy  :   -75.2760251 Eh     change       -0.3441111E-06 Eh
   gradient norm :     0.0001033 Eh/α   predicted    -0.1662362E-06 ( -51.69%)
   displ. norm   :     0.0089566 α      lambda       -0.2306965E-06
   maximum displ.:     0.0059559 α      in ANC's #1, #4, #6, ...

........................................................................
.............................. CYCLE   24 ..............................
........................................................................

 iter      E             dE          RMSdq      gap      omega  full diag
   1    -76.2626367 -0.762626E+02  0.208E-03    2.99       0.0  T
   2    -76.2626367 -0.173492E-08  0.123E-03    2.99      11.5  T
   3    -76.2626367  0.278150E-08  0.298E-04    2.99      47.4  T
   4    -76.2626367 -0.328880E-08  0.608E-05    2.99     232.5  T
     SCC iter.                  ...        0 min,  0.016 sec
     gradient                   ...        0 min,  0.009 sec
 * total energy  :   -75.2760254 Eh     change       -0.2666674E-06 Eh
   gradient norm :     0.0000956 Eh/α   predicted    -0.1164420E-06 ( -56.33%)
   displ. norm   :     0.0121613 α      lambda       -0.2083753E-06
   maximum displ.:     0.0079007 α      in ANC's #1, #4, #6, ...

........................................................................
.............................. CYCLE   25 ..............................
........................................................................

 iter      E             dE          RMSdq      gap      omega  full diag
   1    -76.2626228 -0.762626E+02  0.267E-03    2.99       0.0  T
   2    -76.2626228 -0.168122E-08  0.158E-03    2.99       9.0  T
   3    -76.2626228  0.442778E-08  0.365E-04    2.99      38.7  T
   4    -76.2626228 -0.522162E-08  0.639E-05    2.99     221.4  T
     SCC iter.                  ...        0 min,  0.016 sec
     gradient                   ...        0 min,  0.009 sec
 * total energy  :   -75.2760256 Eh     change       -0.2476525E-06 Eh
   gradient norm :     0.0001427 Eh/α   predicted    -0.1047307E-06 ( -57.71%)
   displ. norm   :     0.0145986 α      lambda       -0.2009256E-06
   maximum displ.:     0.0092801 α      in ANC's #1, #6, #4, ...

........................................................................
.............................. CYCLE   26 ..............................
........................................................................

 iter      E             dE          RMSdq      gap      omega  full diag
   1    -76.2626256 -0.762626E+02  0.306E-03    2.99       0.0  T
   2    -76.2626256 -0.154130E-08  0.181E-03    2.99       7.8  T
   3    -76.2626256  0.314414E-08  0.316E-04    2.99      44.7  T
   4    -76.2626256 -0.391546E-08  0.674E-05    2.99     209.8  T
     SCC iter.                  ...        0 min,  0.017 sec
     gradient                   ...        0 min,  0.009 sec
 * total energy  :   -75.2760258 Eh     change       -0.2235156E-06 Eh
   gradient norm :     0.0001281 Eh/α   predicted    -0.1017191E-06 ( -54.49%)
   displ. norm   :     0.0126508 α      lambda       -0.1317703E-06
   maximum displ.:     0.0084111 α      in ANC's #1, #6, #4, ...

........................................................................
.............................. CYCLE   27 ..............................
........................................................................

 iter      E             dE          RMSdq      gap      omega  full diag
   1    -76.2626284 -0.762626E+02  0.249E-03    2.99       0.0  T
   2    -76.2626284 -0.774520E-09  0.148E-03    2.99       9.6  T
   3    -76.2626284  0.142198E-08  0.216E-04    2.99      65.5  T
   4    -76.2626284 -0.183870E-08  0.514E-05    2.99     275.1  T
     SCC iter.                  ...        0 min,  0.017 sec
     gradient                   ...        0 min,  0.009 sec
 * total energy  :   -75.2760260 Eh     change       -0.1470399E-06 Eh
   gradient norm :     0.0000761 Eh/α   predicted    -0.6808145E-07 ( -53.70%)
   displ. norm   :     0.0105007 α      lambda       -0.9175009E-07
   maximum displ.:     0.0068748 α      in ANC's #1, #6, #2, ...

........................................................................
.............................. CYCLE   28 ..............................
........................................................................

 iter      E             dE          RMSdq      gap      omega  full diag
   1    -76.2626373 -0.762626E+02  0.181E-03    2.99       0.0  T
   2    -76.2626373 -0.673509E-09  0.107E-03    2.99      13.2  T
   3    -76.2626373  0.247724E-09  0.113E-04    2.99     125.2  T
   4    -76.2626373 -0.428585E-09  0.412E-05    2.99     343.0  T
     SCC iter.                  ...        0 min,  0.017 sec
     gradient                   ...        0 min,  0.009 sec
 * total energy  :   -75.2760261 Eh     change       -0.1064892E-06 Eh
   gradient norm :     0.0000590 Eh/α   predicted    -0.4644190E-07 ( -56.39%)
   displ. norm   :     0.0134047 α      lambda       -0.1092367E-06
   maximum displ.:     0.0087013 α      in ANC's #1, #6, #2, ...

........................................................................
.............................. CYCLE   29 ..............................
........................................................................

 iter      E             dE          RMSdq      gap      omega  full diag
   1    -76.2626479 -0.762626E+02  0.208E-03    2.99       0.0  T
   2    -76.2626479 -0.114687E-08  0.123E-03    2.99      11.5  T
   3    -76.2626479  0.817693E-09  0.179E-04    2.99      78.9  T
   4    -76.2626479 -0.116755E-08  0.431E-05    2.99     327.9  T
     SCC iter.                  ...        0 min,  0.015 sec
     gradient                   ...        0 min,  0.009 sec
 * total energy  :   -75.2760262 Eh     change       -0.1190644E-06 Eh
   gradient norm :     0.0000833 Eh/α   predicted    -0.5639719E-07 ( -52.63%)
   displ. norm   :     0.0138566 α      lambda       -0.9304847E-07
   maximum displ.:     0.0086151 α      in ANC's #1, #6, #2, ...

........................................................................
.............................. CYCLE   30 ..............................
........................................................................

 iter      E             dE          RMSdq      gap      omega  full diag
   1    -76.2626486 -0.762626E+02  0.211E-03    2.99       0.0  T
   2    -76.2626486 -0.133052E-08  0.125E-03    2.99      11.3  T
   3    -76.2626486  0.156923E-08  0.229E-04    2.99      61.8  T
   4    -76.2626486 -0.201511E-08  0.482E-05    2.99     293.6  T
     SCC iter.                  ...        0 min,  0.015 sec
     gradient                   ...        0 min,  0.009 sec
 * total energy  :   -75.2760263 Eh     change       -0.1001638E-06 Eh
   gradient norm :     0.0001002 Eh/α   predicted    -0.4769228E-07 ( -52.39%)
   displ. norm   :     0.0116384 α      lambda       -0.6852747E-07
   maximum displ.:     0.0069223 α      in ANC's #6, #1, #3, ...

........................................................................
.............................. CYCLE   31 ..............................
........................................................................

 iter      E             dE          RMSdq      gap      omega  full diag
   1    -76.2626509 -0.762627E+02  0.181E-03    2.99       0.0  T
   2    -76.2626509 -0.798195E-09  0.107E-03    2.99      13.2  T
   3    -76.2626509  0.482530E-09  0.140E-04    2.99     100.7  T
   4    -76.2626509 -0.772076E-09  0.420E-05    2.99     337.0  T
     SCC iter.                  ...        0 min,  0.016 sec
     gradient                   ...        0 min,  0.009 sec
 * total energy  :   -75.2760264 Eh     change       -0.7883860E-07 Eh
   gradient norm :     0.0000742 Eh/α   predicted    -0.3548379E-07 ( -54.99%)
   displ. norm   :     0.0110750 α      lambda       -0.6893590E-07
   maximum displ.:     0.0064402 α      in ANC's #6, #1, #4, ...

   *** GEOMETRY OPTIMIZATION CONVERGED AFTER 31 ITERATIONS ***

------------------------------------------------------------------------
 total energy gain   :        -0.0057510 Eh       -3.6088 kcal/mol
 total RMSD          :         0.1461589 a0        0.0773 Å
 total power (kW/mol):        -0.4870748 (step)  -12.4244 (real)
------------------------------------------------------------------------

 ANCopt (total)                0 d,  0 h,  0 min,  1.215 sec
 optimizer setup                ...        0 min,  0.000 sec (  0.015%)
 model hessian                  ...        0 min,  0.216 sec ( 17.741%)
 ANC generation                 ...        0 min,  0.006 sec (  0.459%)
 coordinate transformation      ...        0 min,  0.001 sec (  0.075%)
 single point calculation       ...        0 min,  0.978 sec ( 80.510%)
 optimization log               ...        0 min,  0.008 sec (  0.691%)
 hessian update                 ...        0 min,  0.001 sec (  0.056%)
 rational function              ...        0 min,  0.003 sec (  0.266%)

================
 final structure:
================
$coord
       -0.81444307667864        0.06011875565573       -4.70156552860687      c
        2.06173768187558        0.07607258588958       -4.89260597382373      c
       -4.92745031216079        5.99298441051442        1.11586149459755      c
       -7.04058676397257        4.89508795788258        0.03189302568944      c
       -6.85979104850220        2.50352914487549       -0.98490981956108      c
       -4.59559841474192        1.15541306409844       -0.88823878515850      c
       -2.48030145424558        2.19003570750059        0.34020545185489      c
       -2.69976558022908        4.63273062348548        1.27858452577008      c
       -4.42159928100874       -1.17786796345640       -2.04142847463766      n
       -1.89426968984607       -1.87486250140897       -2.80658661111113      c
       -0.28710363969518       -2.03960767831699       -0.37232397610503      c
       -0.11213378216428        0.63132828881503        0.82890989588831      c
        2.40697418640127       -2.75522238189165       -1.18995835512325      c
        3.33089851595135       -0.23490219606700       -2.30215613118262      c
        2.37298428097964        1.62512419424286       -0.32268559308933      c
        6.12865242848991        0.15369125047286       -2.62236683541615      c
        7.45330365602812        1.83126975642215       -1.31533552650372      c
        6.39326068387113        3.23455967348515        0.92241784342994      c
        4.26255148154300        1.68220007435730        1.82808411994983      n
        2.68426950597890        2.58753072498802        3.93383080567883      c
        0.45416016808830        0.75756170053301        3.70960488244790      c
        5.23803011369028       -0.56623878286138        2.55572968764992      o
        2.20688057809531        3.55134292182752       -1.03548819966221      h
       -1.52354267941210       -3.99659396822856        1.30374074821641      c
       -2.77999410518605       -3.57265259216089        3.16433118484850      o
       -1.12289704049511       -6.32105997377214        0.42359159573206      o
       -2.23690499072579       -8.35446089745498        1.80298779768594      c
       -1.62882226735965       -0.31652825362577       -6.56066164077320      h
       -1.44710331577812        1.93532466912400       -4.12068127186892      h
        2.70533311023617       -1.47845083369998       -6.08589170860132      h
        2.66967068223239        1.84010207116873       -5.77575103307083      h
       -5.01535644668826        7.89079696957897        1.85909001347200      h
       -8.80641556167124        5.91402508457842       -0.05799941257942      h
       -8.47361453546826        1.64107148113599       -1.89276522320153      h
       -1.10050983122621        5.52290476927122        2.17052866325682      h
       -5.81112412369130       -1.54796243730238       -3.29656041767575      h
       -1.96122404711293       -3.75787843964216       -3.65718596465644      h
        3.56432986234097       -3.25818315625716        0.43691294992551      h
        2.41138689127967       -4.29368800130442       -2.55250756409772      h
        7.01596809702577       -0.92909355063944       -4.10729563346339      h
        9.43631901533902        2.12491724859839       -1.69168656045783      h
        5.78153553458631        5.15303391656830        0.45607068957620      h
        7.80307108129815        3.30062045026053        2.42779801251870      h
        3.72354983841168        2.34509012245667        5.69342275765831      h
        2.16812074861612        4.56119825271246        3.66474453716013      h
       -1.18629078933715        1.34558967274264        4.79562064896704      h
        1.08310962186040       -1.07813162863546        4.39550175038864      h
       -1.83597379255931      -10.05230665587376        0.72069468062903      h
       -1.40236451513492       -8.47320599308997        3.68476923896758      h
       -4.26868622246313       -8.05430126416482        1.98935318032822      h
$end
 
 Bond Distances (Angstroems)
 ---------------------------
C1-C2=1.5254         C1-C10=1.5429        C1-H28=1.0924        C1-H29=1.0915        C2-C1=1.5254         C2-C14=1.5353        
C2-H30=1.0915        C2-H31=1.0924        C3-C4=1.3846         C3-C8=1.3839         C3-H32=1.0795        C4-C3=1.3846         
C4-C5=1.3785         C4-H33=1.0799        C5-C4=1.3785         C5-C6=1.3954         C5-H34=1.0809        C6-C5=1.3954         
C6-C7=1.4055         C6-N9=1.3804         C7-C6=1.4055         C7-C8=1.3896         C7-C12=1.5224        C8-C3=1.3839         
C8-C7=1.3896         C8-H35=1.0774        N9-C6=1.3804         N9-C10=1.4452        N9-H36=1.0100        C10-C1=1.5429        
C10-N9=1.4452        C10-C11=1.5460       C10-H37=1.0940       C11-C10=1.5460       C11-C12=1.5525       C11-C13=1.5372       
C11-C24=1.5124       C12-C7=1.5224        C12-C11=1.5525       C12-C15=1.5419       C12-C21=1.5550       C13-C11=1.5372       
C13-C14=1.5376       C13-H38=1.0895       C13-H39=1.0875       C14-C2=1.5353        C14-C13=1.5376       C14-C15=1.5241       
C14-C16=1.5043       C15-C12=1.5419       C15-C14=1.5241       C15-N19=1.5153       C15-H23=1.0904       C16-C14=1.5043       
C16-C17=1.3258       C16-H40=1.0799       C17-C16=1.3258       C17-C18=1.5061       C17-H41=1.0793       C18-C17=1.5061       
C18-N19=1.4751       C18-H42=1.0938       C18-H43=1.0920       N19-C15=1.5153       N19-C18=1.4751       N19-C20=1.4727       
N19-O22=1.3529       C20-N19=1.4727       C20-C21=1.5312       C20-H44=1.0890       C20-H45=1.0889       C21-C12=1.5550       
C21-C20=1.5312       C21-H46=1.0866       C21-H47=1.0891       O22-N19=1.3529       H23-C15=1.0904       C24-C11=1.5124       
C24-O25=1.2091       C24-O26=1.3323       O25-C24=1.2091       O26-C24=1.3323       O26-C27=1.4276       C27-O26=1.4276       
C27-H48=1.0864       C27-H49=1.0911       C27-H50=1.0913       H28-C1=1.0924        H29-C1=1.0915        H30-C2=1.0915        
H31-C2=1.0924        H32-C3=1.0795        H33-C4=1.0799        H34-C5=1.0809        H35-C8=1.0774        H36-N9=1.0100        
H37-C10=1.0940       H38-C13=1.0895       H39-C13=1.0875       H40-C16=1.0799       H41-C17=1.0793       H42-C18=1.0938       
H43-C18=1.0920       H44-C20=1.0890       H45-C20=1.0889       H46-C21=1.0866       H47-C21=1.0891       H48-C27=1.0864       
H49-C27=1.0911       H50-C27=1.0913       
 C  H  Rav=1.0876 sigma=0.0052  Rmin=1.0774  Rmax=1.0940    23
 C  C  Rav=1.4835 sigma=0.0728  Rmin=1.3258  Rmax=1.5550    22
 N  H  Rav=1.0100 sigma=0.0000  Rmin=1.0100  Rmax=1.0100     1
 N  C  Rav=1.4577 sigma=0.0447  Rmin=1.3804  Rmax=1.5153     5
 O  C  Rav=1.3230 sigma=0.0895  Rmin=1.2091  Rmax=1.4276     3
 O  N  Rav=1.3529 sigma=0.0000  Rmin=1.3529  Rmax=1.3529     1
 
 selected bond angles (degree)
 --------------------
C10-C1-C2=114.60               H28-C1-C2=109.57               H28-C1-C10=108.55              H29-C1-C2=108.64               
H29-C1-C10=107.86              H29-C1-H28=107.37              C14-C2-C1=112.13               H30-C2-C1=110.21               
H30-C2-C14=107.41              H31-C2-C1=109.08               H31-C2-C14=110.17              H31-C2-H30=107.74              
C8-C3-C4=119.70                H32-C3-C4=120.43               H32-C3-C8=119.86               C5-C4-C3=119.40                
H33-C4-C3=120.50               H33-C4-C5=120.08               C6-C5-C4=120.97                H34-C5-C4=120.42               
H34-C5-C6=118.61               C7-C6-C5=120.11                N9-C6-C5=119.89                N9-C6-C7=119.99                
C8-C7-C6=117.46                C12-C7-C6=121.54               C12-C7-C8=120.80               C7-C8-C3=122.19                
H35-C8-C3=117.96               H35-C8-C7=119.84               C10-N9-C6=114.45               H36-N9-C6=114.56               
H36-N9-C10=116.10              N9-C10-C1=110.82               C11-C10-C1=112.04              C11-C10-N9=106.86              
H37-C10-C1=110.43              H37-C10-N9=108.53              H37-C10-C11=108.02             
 
 selected dihedral angles (degree)
 ---------------------------------
C14-C2-C1-C10=320.11          C14-C2-C1-H28=197.83          C14-C2-C1-H29= 80.80          H30-C2-C1-C10= 79.71          
H30-C2-C1-H28=317.43          H30-C2-C1-H29=200.41          H31-C2-C1-C10=197.80          H31-C2-C1-H28= 75.52          
H31-C2-C1-H29=318.50          C5-C4-C3-C8=356.79            C5-C4-C3-H32=177.72           H33-C4-C3-C8=178.19           
H33-C4-C3-H32=359.11          C6-C5-C4-C3=  1.39            C6-C5-C4-H33=180.00           H34-C5-C4-C3=181.99           
H34-C5-C4-H33=  0.60          C7-C6-C5-C4=  2.39            C7-C6-C5-H34=181.80           N9-C6-C5-C4=183.57            
N9-C6-C5-H34=  2.98           C8-C7-C6-C5=355.80            C8-C7-C6-N9=174.61            C12-C7-C6-C5=170.72           
C12-C7-C6-N9=349.53           C7-C8-C3-C4=  1.29            C7-C8-C3-H32=180.36           H35-C8-C3-C4=181.38           
H35-C8-C3-H32=  0.46          C3-C8-C7-C6=  2.42            C3-C8-C7-C12=187.46           H35-C8-C7-C6=182.32           
H35-C8-C7-C12=  7.36          C10-N9-C6-C5=153.87           C10-N9-C6-C7=335.05           H36-N9-C6-C5= 16.21           
H36-N9-C6-C7=197.39           N9-C10-C1-C2=158.84           N9-C10-C1-H28=281.67          N9-C10-C1-H29= 37.71          
C11-C10-C1-C2= 39.58          C11-C10-C1-H28=162.42         C11-C10-C1-H29=278.46         H37-C10-C1-C2=279.13          
H37-C10-C1-H28= 41.97         H37-C10-C1-H29=158.00         C1-C10-N9-C6=300.25           C1-C10-N9-H36= 77.23          
C11-C10-N9-C6= 62.58          C11-C10-N9-H36=199.56         H37-C10-N9-C6=178.83          H37-C10-N9-H36=315.81         
           -------------------------------------------------
          |                Final Singlepoint                |
           -------------------------------------------------

          ...................................................
          :                      SETUP                      :
          :.................................................:
          :  # basis functions                 128          :
          :  # atomic orbitals                 128          :
          :  # shells                           76          :
          :  # electrons                       136          :
          :  max. iterations                   250          :
          :  Hamiltonian                  GFN2-xTB          :
          :  restarted?                      false          :
          :  GBSA solvation                   true          :
          :  PC potential                    false          :
          :  electronic temp.          300.0000000     K    :
          :  accuracy                    1.0000000          :
          :  -> integral cutoff          0.2500000E+02      :
          :  -> integral neglect         0.1000000E-07      :
          :  -> SCF convergence          0.1000000E-05 Eh   :
          :  -> wf. convergence          0.1000000E-03 e    :
          :  Broyden damping             0.4000000          :
          :  net charge                          0          :
          :  unpaired electrons                  0          :
          ...................................................

 iter      E             dE          RMSdq      gap      omega  full diag
   1    -76.2626509 -0.762627E+02  0.248E-05    2.99       0.0  T
   2    -76.2626509 -0.281375E-11  0.172E-05    2.99     821.6  T
   3    -76.2626509 -0.402167E-11  0.106E-05    2.99    1335.4  T

   *** convergence criteria satisfied after 3 iterations ***

         #    Occupation            Energy/Eh            Energy/eV
      -------------------------------------------------------------
         1        2.0000           -0.7508104             -20.4306
       ...           ...                  ...                  ...
        62        2.0000           -0.4168266             -11.3424
        63        2.0000           -0.4128570             -11.2344
        64        2.0000           -0.4009653             -10.9108
        65        2.0000           -0.3962855             -10.7835
        66        2.0000           -0.3576005              -9.7308
        67        2.0000           -0.3529108              -9.6032
        68        2.0000           -0.3493103              -9.5052 (HOMO)
        69                         -0.2395951              -6.5197 (LUMO)
        70                         -0.2224914              -6.0543
        71                         -0.2133732              -5.8062
        72                         -0.2102954              -5.7224
        73                         -0.0948675              -2.5815
       ...                                ...                  ...
       128                          0.6612740              17.9942
      -------------------------------------------------------------
                  HL-Gap            0.1097152 Eh            2.9855 eV
             Fermi-level           -0.2944527 Eh           -8.0125 eV

 SCC (total)                   0 d,  0 h,  0 min,  0.026 sec
 SCC setup                      ...        0 min,  0.001 sec (  4.452%)
 Dispersion                     ...        0 min,  0.000 sec (  1.637%)
 classical contributions        ...        0 min,  0.000 sec (  0.159%)
 integral evaluation            ...        0 min,  0.003 sec ( 10.884%)
 iterations                     ...        0 min,  0.012 sec ( 47.188%)
 molecular gradient             ...        0 min,  0.009 sec ( 34.360%)
 printout                       ...        0 min,  0.000 sec (  1.146%)

         :::::::::::::::::::::::::::::::::::::::::::::::::::::
         ::                     SUMMARY                     ::
         :::::::::::::::::::::::::::::::::::::::::::::::::::::
         :: total energy             -75.276026383180 Eh    ::
         :: total w/o Gsasa/hb       -75.257271672930 Eh    ::
         :: gradient norm              0.000074197752 Eh/a0 ::
         :: HOMO-LUMO gap              2.985502162315 eV    ::
         ::.................................................::
         :: SCC energy               -76.260633025970 Eh    ::
         :: -> isotropic ES            0.148988875788 Eh    ::
         :: -> anisotropic ES          0.004173102209 Eh    ::
         :: -> anisotropic XC          0.022535383778 Eh    ::
         :: -> dispersion             -0.067216417409 Eh    ::
         :: -> Gsolv                  -0.044639239981 Eh    ::
         ::    -> Gelec               -0.025884529731 Eh    ::
         ::    -> Gsasa               -0.022645729493 Eh    ::
         ::    -> Ghb                  0.000000000000 Eh    ::
         ::    -> Gshift               0.003891019244 Eh    ::
         :: repulsion energy           0.984606642790 Eh    ::
         :: add. restraining           0.000000000000 Eh    ::
         :: total charge              -0.000000000000 e     ::
         :::::::::::::::::::::::::::::::::::::::::::::::::::::

           ------------------------------------------------- 
          |                Numerical Hessian                |
           ------------------------------------------------- 
step length          :   0.00500
SCC accuracy         :   0.30000
Hessian scale factor :   1.00000
frozen atoms in %    :   0.00000    0
RMS gradient         :   0.00007
estimated CPU  time      7.44 min
estimated wall time      0.63 min

writing file <hessian>.

 projected vibrational frequencies (cm⁻¹)
eigval :       -0.00    -0.00    -0.00    -0.00     0.00     0.00
eigval :       35.99    51.98    58.21    85.31    94.42   106.06
eigval :      132.61   164.73   189.16   208.74   220.52   240.02
eigval :      251.95   269.48   279.77   294.76   304.08   320.06
eigval :      330.47   367.34   378.66   391.49   416.27   424.21
eigval :      445.45   457.73   468.72   486.50   508.43   511.11
eigval :      530.07   553.09   557.40   576.19   589.88   604.92
eigval :      630.34   677.71   686.08   699.00   731.79   745.06
eigval :      756.53   772.28   785.53   825.69   829.99   841.37
eigval :      852.61   857.48   888.34   895.56   902.52   907.40
eigval :      915.68   922.62   953.67   959.38   975.24   989.06
eigval :      996.61   999.71  1014.69  1030.73  1040.10  1046.81
eigval :     1057.12  1078.95  1094.77  1097.53  1103.77  1108.10
eigval :     1111.08  1113.68  1122.53  1133.80  1139.61  1141.39
eigval :     1155.80  1158.64  1165.19  1175.93  1176.72  1178.79
eigval :     1185.34  1201.39  1212.34  1222.26  1239.98  1246.17
eigval :     1249.10  1259.58  1270.23  1272.28  1283.79  1285.99
eigval :     1290.68  1299.81  1306.35  1314.27  1332.18  1335.00
eigval :     1342.38  1355.51  1369.64  1376.73  1427.43  1428.91
eigval :     1439.69  1451.62  1452.72  1454.32  1464.98  1478.24
eigval :     1486.34  1491.72  1576.57  1598.23  1701.19  1720.71
eigval :     2921.21  2945.58  2962.84  2966.69  2969.10  2980.07
eigval :     2981.61  2981.65  2984.75  2991.57  2992.15  3010.38
eigval :     3013.19  3016.22  3021.12  3036.10  3045.67  3065.81
eigval :     3073.93  3076.94  3088.81  3089.43  3113.87  3425.76
           -------------------------------------------------
          |                Property Printout                |
           -------------------------------------------------

    * Orbital Energies and Occupations

         #    Occupation            Energy/Eh            Energy/eV
      -------------------------------------------------------------
         1        2.0000           -0.7508104             -20.4306
       ...           ...                  ...                  ...
        56        2.0000           -0.4448496             -12.1050
        57        2.0000           -0.4439378             -12.0802
        58        2.0000           -0.4352073             -11.8426
        59        2.0000           -0.4306298             -11.7180
        60        2.0000           -0.4257287             -11.5847
        61        2.0000           -0.4244632             -11.5502
        62        2.0000           -0.4168266             -11.3424
        63        2.0000           -0.4128570             -11.2344
        64        2.0000           -0.4009654             -10.9108
        65        2.0000           -0.3962855             -10.7835
        66        2.0000           -0.3576005              -9.7308
        67        2.0000           -0.3529108              -9.6032
        68        2.0000           -0.3493104              -9.5052 (HOMO)
        69                         -0.2395952              -6.5197 (LUMO)
        70                         -0.2224914              -6.0543
        71                         -0.2133732              -5.8062
        72                         -0.2102954              -5.7224
        73                         -0.0948675              -2.5815
        74                         -0.0563294              -1.5328
        75                         -0.0181351              -0.4935
        76                         -0.0053382              -0.1453
        77                         -0.0019096              -0.0520
        78                          0.0132629               0.3609
        79                          0.0335881               0.9140
       ...                                ...                  ...
       128                          0.6612740              17.9942
      -------------------------------------------------------------
                  HL-Gap            0.1097152 Eh            2.9855 eV
             Fermi-level           -0.2944528 Eh           -8.0125 eV

     #   Z          covCN         q      C6AA      α(0)
     1   6 c        3.803    -0.070    21.836     6.653
     2   6 c        3.813    -0.066    21.756     6.639
     3   6 c        2.918    -0.052    29.281     8.873
     4   6 c        2.918    -0.036    28.903     8.816
     5   6 c        2.924    -0.064    29.594     8.921
     6   6 c        2.927     0.070    26.432     8.431
     7   6 c        2.971    -0.023    28.576     8.769
     8   6 c        2.926    -0.045    29.129     8.851
     9   7 n        2.697    -0.221    25.816     7.546
    10   6 c        3.818     0.050    19.724     6.321
    11   6 c        3.948    -0.009    20.662     6.459
    12   6 c        3.923     0.014    20.280     6.400
    13   6 c        3.843    -0.066    21.732     6.631
    14   6 c        3.936     0.026    20.079     6.368
    15   6 c        3.911     0.005    20.433     6.425
    16   6 c        2.902    -0.035    28.868     8.810
    17   6 c        2.897    -0.038    28.944     8.821
    18   6 c        3.763    -0.020    20.975     6.528
    19   7 n        3.672     0.289    16.656     6.062
    20   6 c        3.793    -0.021    20.962     6.520
    21   6 c        3.841    -0.053    21.502     6.596
    22   8 o        0.930    -0.728    29.421     7.274
    23   1 h        0.924     0.053     2.288     2.366
    24   6 c        2.727     0.364    20.820     7.470
    25   8 o        0.856    -0.455    22.808     6.403
    26   8 o        1.704    -0.267    18.421     5.795
    27   6 c        3.652     0.027    20.429     6.491
    28   1 h        0.924     0.047     2.358     2.401
    29   1 h        0.924     0.045     2.383     2.414
    30   1 h        0.924     0.052     2.294     2.368
    31   1 h        0.924     0.044     2.392     2.419
    32   1 h        0.926     0.029     2.594     2.519
    33   1 h        0.926     0.032     2.555     2.499
    34   1 h        0.926     0.030     2.592     2.517
    35   1 h        0.926     0.033     2.540     2.492
    36   1 h        0.860     0.168     1.282     1.774
    37   1 h        0.924     0.050     2.325     2.385
    38   1 h        0.925     0.078     1.996     2.209
    39   1 h        0.925     0.050     2.321     2.383
    40   1 h        0.926     0.052     2.299     2.371
    41   1 h        0.926     0.054     2.265     2.354
    42   1 h        0.924     0.057     2.229     2.335
    43   1 h        0.924     0.074     2.045     2.236
    44   1 h        0.925     0.070     2.083     2.257
    45   1 h        0.925     0.053     2.285     2.364
    46   1 h        0.925     0.060     2.205     2.322
    47   1 h        0.925     0.062     2.181     2.310
    48   1 h        0.925     0.088     1.894     2.152
    49   1 h        0.924     0.070     2.085     2.258
    50   1 h        0.924     0.072     2.063     2.246

 Mol. C6AA /au·bohr⁶  :      26022.649273
 Mol. C8AA /au·bohr⁸  :     609536.627570
 Mol. α(0) /au        :        244.824201


Wiberg/Mayer (AO) data.
largest (>0.10) Wiberg bond orders for each atom

 ---------------------------------------------------------------------------
     #   Z sym  total        # sym  WBO       # sym  WBO       # sym  WBO
 ---------------------------------------------------------------------------
     1   6 c    3.995 --     2 c    1.006    10 c    0.978    28 h    0.974
                            29 h    0.970
     2   6 c    3.994 --     1 c    1.006    31 h    0.975    30 h    0.975
                            14 c    0.970
     3   6 c    3.990 --     8 c    1.436     4 c    1.419    32 h    0.971
     4   6 c    3.991 --     5 c    1.464     3 c    1.419    33 h    0.971
                             7 c    0.101
     5   6 c    3.986 --     4 c    1.464     6 c    1.351    34 h    0.967
                             8 c    0.101
     6   6 c    3.972 --     5 c    1.351     7 c    1.319     9 n    1.139
     7   6 c    3.981 --     8 c    1.426     6 c    1.319    12 c    0.988
                             4 c    0.101
     8   6 c    3.991 --     3 c    1.436     7 c    1.426    35 h    0.960
                             5 c    0.101
     9   7 n    3.293 --     6 c    1.139    10 c    0.995    36 h    0.940
    10   6 c    3.976 --     9 n    0.995     1 c    0.978    37 h    0.965
                            11 c    0.942
    11   6 c    3.987 --    13 c    0.970    12 c    0.961    24 c    0.953
                            10 c    0.942
    12   6 c    3.986 --     7 c    0.988    21 c    0.965    15 c    0.964
                            11 c    0.961
    13   6 c    3.986 --    39 h    0.973    11 c    0.970    14 c    0.967
                            38 h    0.958
    14   6 c    3.989 --    16 c    1.002    15 c    0.978     2 c    0.970
                            13 c    0.967
    15   6 c    3.965 --    14 c    0.978    12 c    0.964    23 h    0.962
                            19 n    0.900
    16   6 c    3.988 --    17 c    1.931    14 c    1.002    40 h    0.964
    17   6 c    3.983 --    16 c    1.931    18 c    1.014    41 h    0.965
    18   6 c    3.967 --    17 c    1.014    43 h    0.964    42 h    0.956
                            19 n    0.945
    19   7 n    3.868 --    22 o    1.018    20 c    0.945    18 c    0.945
                            15 c    0.900
    20   6 c    3.965 --    21 c    1.004    44 h    0.972    45 h    0.963
                            19 n    0.945
    21   6 c    3.989 --    20 c    1.004    46 h    0.974    47 h    0.972
                            12 c    0.965
    22   8 o    1.205 --    19 n    1.018
    23   1 h    0.997 --    15 c    0.962
    24   6 c    3.907 --    25 o    1.720    26 o    1.151    11 c    0.953
    25   8 o    2.000 --    24 c    1.720    26 o    0.170
    26   8 o    2.310 --    24 c    1.151    27 c    0.942    25 o    0.170
    27   6 c    3.909 --    48 h    0.979    50 h    0.977    49 h    0.977
                            26 o    0.942
    28   1 h    0.996 --     1 c    0.974
    29   1 h    0.998 --     1 c    0.970
    30   1 h    0.997 --     2 c    0.975
    31   1 h    0.997 --     2 c    0.975
    32   1 h    0.999 --     3 c    0.971
    33   1 h    0.998 --     4 c    0.971
    34   1 h    0.999 --     5 c    0.967
    35   1 h    0.998 --     8 c    0.960
    36   1 h    0.971 --     9 n    0.940
    37   1 h    0.997 --    10 c    0.965
    38   1 h    0.994 --    13 c    0.958
    39   1 h    0.997 --    13 c    0.973
    40   1 h    0.997 --    16 c    0.964
    41   1 h    0.996 --    17 c    0.965
    42   1 h    0.997 --    18 c    0.956
    43   1 h    0.994 --    18 c    0.964
    44   1 h    0.994 --    20 c    0.972
    45   1 h    0.997 --    20 c    0.963
    46   1 h    0.996 --    21 c    0.974
    47   1 h    0.996 --    21 c    0.972
    48   1 h    0.992 --    27 c    0.979
    49   1 h    0.995 --    27 c    0.977
    50   1 h    0.995 --    27 c    0.977
 ---------------------------------------------------------------------------

Topologies differ in total number of bonds
Writing topology from bond orders to xtbtopo.mol

molecular dipole:
                 x           y           z       tot (Debye)
 q only:       -0.365       0.800      -2.015
   full:       -0.437       1.065      -2.093       6.071
molecular quadrupole (traceless):
                xx          xy          yy          xz          yz          zz
 q only:      -12.113      15.969      15.464      -3.156       7.652      -3.351
  q+dip:      -11.377      17.033      16.287       2.276      12.004      -4.910
   full:      -11.779      17.358      15.423       1.372       9.792      -3.644

           -------------------------------------------------
          |                Geometry Summary                 |
           -------------------------------------------------

      molecular mass/u    :      352.4276531
   center of mass at/Å    :        0.0008631       0.0009387       0.0015824
  moments of inertia/u·Å² :        0.1694724E+04   0.2150066E+04   0.2723450E+04
rotational constants/cm⁻¹ :        0.9947127E-02   0.7840518E-02   0.6189807E-02

 * 46 selected distances

     #   Z          #   Z                                           value/Å
     1   6 c        2   6 c                                       1.5253865
     3   6 c        4   6 c                                       1.3845557
     4   6 c        5   6 c                                       1.3785173
     5   6 c        6   6 c                                       1.3953964
     6   6 c        7   6 c                                       1.4054614
     3   6 c        8   6 c                                       1.3839122
     7   6 c        8   6 c                                       1.3895794
     6   6 c        9   7 n                                       1.3803640
     9   7 n       10   6 c                                       1.4452124
    11   6 c       13   6 c                                       1.5372290
     2   6 c       14   6 c                                       1.5353351
    13   6 c       14   6 c                                       1.5375886
    12   6 c       15   6 c                                       1.5418607 (max)
    14   6 c       15   6 c                                       1.5241409
    16   6 c       17   6 c                                       1.3258295
    15   6 c       19   7 n                                       1.5152898
    18   6 c       19   7 n                                       1.4750643
    19   7 n       20   6 c                                       1.4726697
    20   6 c       21   6 c                                       1.5311844
    15   6 c       23   1 h                                       1.0904129
    24   6 c       25   8 o                                       1.2090506
    24   6 c       26   8 o                                       1.3322579
    26   8 o       27   6 c                                       1.4276480
     1   6 c       28   1 h                                       1.0923781
     1   6 c       29   1 h                                       1.0914507
     2   6 c       30   1 h                                       1.0915285
     2   6 c       31   1 h                                       1.0923798
     3   6 c       32   1 h                                       1.0795487
     4   6 c       33   1 h                                       1.0798931
     5   6 c       34   1 h                                       1.0809294
     8   6 c       35   1 h                                       1.0774435
     9   7 n       36   1 h                                       1.0100364 (min)
    10   6 c       37   1 h                                       1.0939709
    13   6 c       38   1 h                                       1.0895337
    13   6 c       39   1 h                                       1.0875122
    16   6 c       40   1 h                                       1.0799321
    17   6 c       41   1 h                                       1.0793425
    18   6 c       42   1 h                                       1.0937763
    18   6 c       43   1 h                                       1.0919658
    20   6 c       44   1 h                                       1.0890058
    20   6 c       45   1 h                                       1.0888946
    21   6 c       46   1 h                                       1.0865913
    21   6 c       47   1 h                                       1.0891031
    27   6 c       48   1 h                                       1.0863977
    27   6 c       49   1 h                                       1.0911398
    27   6 c       50   1 h                                       1.0913071

 * 5 distinct bonds (by element types)

   Z      Z             #   av. dist./Å        max./Å        min./Å
   1 H    6 C          23     1.0875843     1.0939709     1.0774435
   6 C    6 C          14     1.4568555     1.5418607     1.3258295
   1 H    7 N           1     1.0100364     1.0100364     1.0100364
   6 C    7 N           5     1.4577200     1.5152898     1.3803640
   6 C    8 O           3     1.3229855     1.4276480     1.2090506

           -------------------------------------------------
          |               Frequency Printout                |
           -------------------------------------------------
 projected vibrational frequencies (cm⁻¹)
eigval :       -0.00    -0.00    -0.00    -0.00     0.00     0.00
eigval :       35.99    51.98    58.21    85.31    94.42   106.06
eigval :      132.61   164.73   189.16   208.74   220.52   240.02
eigval :      251.95   269.48   279.77   294.76   304.08   320.06
eigval :      330.47   367.34   378.66   391.49   416.27   424.21
eigval :      445.45   457.73   468.72   486.50   508.43   511.11
eigval :      530.07   553.09   557.40   576.19   589.88   604.92
eigval :      630.34   677.71   686.08   699.00   731.79   745.06
eigval :      756.53   772.28   785.53   825.69   829.99   841.37
eigval :      852.61   857.48   888.34   895.56   902.52   907.40
eigval :      915.68   922.62   953.67   959.38   975.24   989.06
eigval :      996.61   999.71  1014.69  1030.73  1040.10  1046.81
eigval :     1057.12  1078.95  1094.77  1097.53  1103.77  1108.10
eigval :     1111.08  1113.68  1122.53  1133.80  1139.61  1141.39
eigval :     1155.80  1158.64  1165.19  1175.93  1176.72  1178.79
eigval :     1185.34  1201.39  1212.34  1222.26  1239.98  1246.17
eigval :     1249.10  1259.58  1270.23  1272.28  1283.79  1285.99
eigval :     1290.68  1299.81  1306.35  1314.27  1332.18  1335.00
eigval :     1342.38  1355.51  1369.64  1376.73  1427.43  1428.91
eigval :     1439.69  1451.62  1452.72  1454.32  1464.98  1478.24
eigval :     1486.34  1491.72  1576.57  1598.23  1701.19  1720.71
eigval :     2921.21  2945.58  2962.84  2966.69  2969.10  2980.07
eigval :     2981.61  2981.65  2984.75  2991.57  2992.15  3010.38
eigval :     3013.19  3016.22  3021.12  3036.10  3045.67  3065.81
eigval :     3073.93  3076.94  3088.81  3089.43  3113.87  3425.76
 reduced masses (amu)
   1: 11.88   2: 11.47   3: 11.90   4: 11.70   5: 11.19   6: 11.97   7: 11.65   8:  7.67
   9:  6.35  10: 11.11  11: 10.54  12: 11.35  13: 10.54  14:  9.95  15: 10.68  16: 10.27
  17: 10.43  18: 10.46  19: 11.55  20: 12.78  21: 10.46  22:  9.58  23: 10.57  24: 10.63
  25: 10.27  26: 11.74  27:  9.98  28: 10.46  29:  9.61  30: 10.44  31: 10.53  32:  8.52
  33:  8.68  34:  9.11  35: 10.12  36:  9.87  37:  9.43  38:  9.76  39: 10.14  40: 10.28
  41:  9.91  42: 10.01  43:  9.95  44: 11.12  45: 10.45  46: 11.16  47:  9.78  48:  9.68
  49:  5.71  50:  3.77  51: 10.55  52:  9.67  53:  8.18  54:  9.84  55:  9.36  56:  3.67
  57:  7.94  58:  4.89  59:  8.13  60:  3.81  61:  3.18  62:  8.31  63: 10.07  64:  9.54
  65:  8.22  66:  8.19  67:  8.74  68:  7.70  69:  7.02  70:  7.83  71:  8.88  72:  9.17
  73:  8.68  74:  7.14  75:  7.51  76:  8.15  77:  6.27  78:  7.35  79:  9.25  80:  3.89
  81:  8.31  82:  8.10  83:  7.06  84:  7.51  85:  7.38  86:  8.38  87:  6.53  88:  6.16
  89:  4.76  90:  7.11  91:  3.21  92:  5.10  93:  5.27  94:  6.48  95:  6.70  96:  5.71
  97:  5.73  98:  4.95  99:  5.96 100:  5.55 101:  5.72 102:  5.26 103:  4.73 104:  4.72
 105:  5.30 106:  6.50 107:  5.70 108: 11.06 109:  5.75 110:  4.51 111:  6.06 112:  2.57
 113:  2.00 114:  1.53 115:  2.68 116:  8.85 117:  1.83 118:  2.03 119:  2.06 120:  2.72
 121:  8.15 122:  2.79 123: 11.52 124: 11.52 125: 11.64 126: 13.40 127:  1.77 128:  1.76
 129:  1.96 130:  1.80 131:  1.79 132:  1.73 133:  1.95 134:  1.71 135:  1.58 136:  1.41
 137:  1.59 138:  1.67 139:  1.72 140:  1.84 141:  1.89 142:  1.65 143:  1.80 144:  1.78
 145:  1.76 146:  1.80 147:  1.89 148:  1.90 149:  1.83 150:  1.84
 IR intensities (km·mol⁻¹)
   1:  0.62   2:  0.23   3:  0.02   4:  0.06   5:  0.73   6:  0.02   7:  3.49   8:  0.12
   9:  0.90  10:  2.92  11:  0.37  12:  1.98  13:  2.65  14:  0.45  15:  2.15  16:  3.31
  17:  8.94  18:  0.69  19:  4.38  20: 17.53  21: 11.46  22:  8.19  23:  3.01  24:  1.35
  25: 17.34  26:  2.72  27: 11.59  28:  5.91  29:  5.45  30:  5.87  31: 15.02  32: 35.08
  33: 13.81  34:  7.49  35:  7.36  36:  3.05  37: 41.38  38: 38.79  39:  3.49  40: 21.14
  41: 40.86  42:  6.94  43: 31.27  44:  4.05  45: 27.19  46:  7.28  47: 28.94  48:  2.91
  49: 14.51  50: 27.09  51: 16.42  52:  3.06  53:  5.24  54:  3.34  55:  0.27  56:  0.95
  57:  4.00  58:  0.39  59:  7.80  60:  3.55  61:  0.12  62:  0.72  63: 75.04  64: 26.95
  65:  3.86  66: 24.59  67: 14.55  68: 46.18  69:  4.26  70:  0.58  71: 10.46  72:  3.62
  73:  2.49  74:  7.57  75: 21.30  76: 19.09  77:  5.65  78:  5.31  79:  6.78  80:  2.81
  81: 35.24  82: 17.32  83:  6.72  84: 17.47  85: 12.33  86:135.69  87: 12.19  88:  8.18
  89: 65.37  90:143.00  91: 19.27  92:  3.78  93: 12.45  94: 94.47  95: 32.48  96:  3.03
  97:  1.25  98:  5.95  99: 36.79 100:  7.18 101: 11.89 102:  8.42 103:  1.37 104: 21.80
 105:  3.79 106: 16.04 107: 12.37 108: 33.78 109:  5.23 110: 49.74 111: 48.27 112: 17.40
 113:  2.21 114:  9.98 115:  3.63 116: 99.14 117: 10.07 118:  6.41 119:  5.49 120: 11.29
 121:101.34 122: 16.38 123: 22.09 124:101.47 125: 12.64 126:568.93 127: 42.97 128: 42.03
 129: 24.17 130: 22.19 131: 73.24 132: 51.84 133:  9.59 134: 27.45 135: 79.03 136: 27.80
 137: 40.63 138: 11.42 139: 26.21 140: 58.06 141: 29.59 142: 30.57 143:  5.47 144: 45.49
 145: 21.52 146: 56.28 147:151.12 148: 61.04 149: 74.81 150:  0.48
 Raman intensities (Ä⁴*amu⁻¹)
   1:  0.00   2:  0.00   3:  0.00   4:  0.00   5:  0.00   6:  0.00   7:  0.00   8:  0.00
   9:  0.00  10:  0.00  11:  0.00  12:  0.00  13:  0.00  14:  0.00  15:  0.00  16:  0.00
  17:  0.00  18:  0.00  19:  0.00  20:  0.00  21:  0.00  22:  0.00  23:  0.00  24:  0.00
  25:  0.00  26:  0.00  27:  0.00  28:  0.00  29:  0.00  30:  0.00  31:  0.00  32:  0.00
  33:  0.00  34:  0.00  35:  0.00  36:  0.00  37:  0.00  38:  0.00  39:  0.00  40:  0.00
  41:  0.00  42:  0.00  43:  0.00  44:  0.00  45:  0.00  46:  0.00  47:  0.00  48:  0.00
  49:  0.00  50:  0.00  51:  0.00  52:  0.00  53:  0.00  54:  0.00  55:  0.00  56:  0.00
  57:  0.00  58:  0.00  59:  0.00  60:  0.00  61:  0.00  62:  0.00  63:  0.00  64:  0.00
  65:  0.00  66:  0.00  67:  0.00  68:  0.00  69:  0.00  70:  0.00  71:  0.00  72:  0.00
  73:  0.00  74:  0.00  75:  0.00  76:  0.00  77:  0.00  78:  0.00  79:  0.00  80:  0.00
  81:  0.00  82:  0.00  83:  0.00  84:  0.00  85:  0.00  86:  0.00  87:  0.00  88:  0.00
  89:  0.00  90:  0.00  91:  0.00  92:  0.00  93:  0.00  94:  0.00  95:  0.00  96:  0.00
  97:  0.00  98:  0.00  99:  0.00 100:  0.00 101:  0.00 102:  0.00 103:  0.00 104:  0.00
 105:  0.00 106:  0.00 107:  0.00 108:  0.00 109:  0.00 110:  0.00 111:  0.00 112:  0.00
 113:  0.00 114:  0.00 115:  0.00 116:  0.00 117:  0.00 118:  0.00 119:  0.00 120:  0.00
 121:  0.00 122:  0.00 123:  0.00 124:  0.00 125:  0.00 126:  0.00 127:  0.00 128:  0.00
 129:  0.00 130:  0.00 131:  0.00 132:  0.00 133:  0.00 134:  0.00 135:  0.00 136:  0.00
 137:  0.00 138:  0.00 139:  0.00 140:  0.00 141:  0.00 142:  0.00 143:  0.00 144:  0.00
 145:  0.00 146:  0.00 147:  0.00 148:  0.00 149:  0.00 150:  0.00
 output can be read by thermo (or use thermo option).
 writing <g98.out> molden fake output.
 recommended (thermochemical) frequency scaling factor: 1.0
           -------------------------------------------------
          |             Thermodynamic Functions             |
           -------------------------------------------------

Molecule has no symmetry elements
It seems to be the C1 point group
c1  symmetry found (for desy threshold:  0.10E+00) used in thermo

          ...................................................
          :                      SETUP                      :
          :.................................................:
          :  # frequencies                         144      :
          :  # imaginary freq.                       0      :
          :  linear?                             false      :
          :  only rotor calc.                    false      :
          :  symmetry                               c1      :
          :  rotational number                       1      :
          :  scaling factor                  1.0000000      :
          :  rotor cutoff                   50.0000000 cm⁻¹ :
          :  imag. cutoff                  -50.0000000 cm⁻¹ :
          :.................................................:

    mode    ω/cm⁻¹     T·S(HO)/kcal·mol⁻¹    T·S(FR)/kcal·mol⁻¹   T·S(vib)
   ------------------------------------------------------------------------
       1     35.99    -1.63044 ( 21.16%)    -1.15390 ( 78.84%)    -1.25474
       2     51.98    -1.41345 ( 53.87%)    -1.04502 ( 46.13%)    -1.24349
       3     58.21    -1.34678 ( 64.74%)    -1.01149 ( 35.26%)    -1.22857
       4     85.31    -1.12249 ( 89.45%)    -0.89825 ( 10.55%)    -1.09882
       5     94.42    -1.06328 ( 92.71%)    -0.86818 (  7.29%)    -1.04906
       6    106.06    -0.99575 ( 95.29%)    -0.83376 (  4.71%)    -0.98813
       7    132.61    -0.86697 ( 98.02%)    -0.76758 (  1.98%)    -0.86500
       8    164.73    -0.74383 ( 99.16%)    -0.70334 (  0.84%)    -0.74349
       9    189.16    -0.66669 ( 99.51%)    -0.66238 (  0.49%)    -0.66667
      10    208.74    -0.61260 ( 99.67%)    -0.63319 (  0.33%)    -0.61267
      11    220.52    -0.58282 ( 99.74%)    -0.61692 (  0.26%)    -0.58291
      12    240.02    -0.53749 ( 99.81%)    -0.59183 (  0.19%)    -0.53759
      13    251.95    -0.51189 ( 99.85%)    -0.57746 (  0.15%)    -0.51200
      14    269.48    -0.47691 ( 99.88%)    -0.55753 (  0.12%)    -0.47700
      15    279.77    -0.45768 ( 99.90%)    -0.54643 (  0.10%)    -0.45777
      16    294.76    -0.43128 ( 99.92%)    -0.53097 (  0.08%)    -0.43136
   ------------------------------------------------------------------------

   temp. (K)  partition function   enthalpy   heat capacity  entropy
                                   cal/mol     cal/K/mol   cal/K/mol   J/K/mol
 298.15  VIB  0.468E+07            11301.548     80.572     66.043
         ROT  0.761E+07              888.752      2.981     34.469
         INT  0.356E+14            12190.301     83.552    100.512
         TR   0.640E+28             1481.254      4.968     43.453
         TOT                       13671.5547    88.5206   143.9654   602.3513

       T/K    H(0)-H(T)+PV         H(T)/Eh          T*S/Eh         G(T)/Eh
   ------------------------------------------------------------------------
    298.15    0.217870E-01    0.433057E+00    0.684026E-01    0.364655E+00
   ------------------------------------------------------------------------

         :::::::::::::::::::::::::::::::::::::::::::::::::::::
         ::                  THERMODYNAMIC                  ::
         :::::::::::::::::::::::::::::::::::::::::::::::::::::
         :: total free energy         -74.911371573169 Eh   ::
         ::.................................................::
         :: total energy              -75.276026383154 Eh   ::
         :: zero point energy           0.411270414248 Eh   ::
         :: G(RRHO) w/o ZPVE           -0.046615604263 Eh   ::
         :: G(RRHO) contrib.            0.364654809985 Eh   ::
         :::::::::::::::::::::::::::::::::::::::::::::::::::::

optimized geometry written to: xtbopt.coord


           -------------------------------------------------
          | TOTAL ENERGY              -75.276026383154 Eh   |
          | TOTAL ENTHALPY            -74.842968959614 Eh   |
          | TOTAL FREE ENERGY         -74.911371573169 Eh   |
          | GRADIENT NORM               0.000074218340 Eh/α |
          | HOMO-LUMO GAP               2.985502362877 eV   |
           -------------------------------------------------

------------------------------------------------------------------------
 * finished run on 2026/08/09 at 22:44:46.255     
------------------------------------------------------------------------
 total:
 * wall-time:     0 d,  0 h,  0 min,  4.447 sec
 *  cpu-time:     0 d,  0 h,  0 min, 46.033 sec
 * ratio c/w:    10.352 speedup
 SCF:
 * wall-time:     0 d,  0 h,  0 min,  0.070 sec
 *  cpu-time:     0 d,  0 h,  0 min,  0.771 sec
 * ratio c/w:    10.968 speedup
 ANC optimizer:
 * wall-time:     0 d,  0 h,  0 min,  1.243 sec
 *  cpu-time:     0 d,  0 h,  0 min, 14.878 sec
 * ratio c/w:    11.968 speedup
 analytical hessian:
 * wall-time:     0 d,  0 h,  0 min,  3.096 sec
 *  cpu-time:     0 d,  0 h,  0 min, 30.001 sec
 * ratio c/w:     9.691 speedup

normal termination of xtb
