      -----------------------------------------------------------      
     |                   =====================                   |     
     |                           x T B                           |     
     |                   =====================                   |     
     |                         S. Grimme                         |     
     |          Mulliken Center for Theoretical Chemistry        |     
     |                    University of Bonn                     |     
      -----------------------------------------------------------      

   * xtb version 6.7.1 (edcfbbe) compiled by 'albert@albert-system' on 2024-07-22

   xtb is free software: you can redistribute it and/or modify it under
   the terms of the GNU Lesser General Public License as published by
   the Free Software Foundation, either version 3 of the License, or
   (at your option) any later version.
   
   xtb is distributed in the hope that it will be useful,
   but WITHOUT ANY WARRANTY; without even the implied warranty of
   MERCHANTABILITY or FITNESS FOR A PARTICULAR PURPOSE.  See the
   GNU Lesser General Public License for more details.
   
   Cite this work as:
   * C. Bannwarth, E. Caldeweyher, S. Ehlert, A. Hansen, P. Pracht,
     J. Seibert, S. Spicher, S. Grimme, WIREs Comput. Mol. Sci., 2020, 11,
     e01493. DOI: 10.1002/wcms.1493
   
   for GFN2-xTB:
   * C. Bannwarth, S. Ehlert and S. Grimme., J. Chem. Theory Comput., 2019,
     15, 1652-1671. DOI: 10.1021/acs.jctc.8b01176
   for GFN1-xTB:
   * S. Grimme, C. Bannwarth, P. Shushkov, J. Chem. Theory Comput., 2017,
     13, 1989-2009. DOI: 10.1021/acs.jctc.7b00118
   for GFN0-xTB:
   * P. Pracht, E. Caldeweyher, S. Ehlert, S. Grimme, ChemRxiv, 2019, preprint.
     DOI: 10.26434/chemrxiv.8326202.v1
   for GFN-FF:
   * S. Spicher and S. Grimme, Angew. Chem. Int. Ed., 2020, 59, 15665-15673.
     DOI: 10.1002/anie.202004239
   
   for ALPB and GBSA implicit solvation:
   * S. Ehlert, M. Stahn, S. Spicher, S. Grimme, J. Chem. Theory Comput.,
     2021, 17, 4250-4261. DOI: 10.1021/acs.jctc.1c00471
   
   for ddCOSMO and CPCM-X implicit solvation:
   * M. Stahn, S. Ehlert, S. Grimme, J. Phys. Chem. A,
     2023, XX, XXXX-XXXX. DOI: 10.1021/acs.jpca.3c04382
   
   for DFT-D4:
   * E. Caldeweyher, C. Bannwarth and S. Grimme, J. Chem. Phys., 2017,
     147, 034112. DOI: 10.1063/1.4993215
   * E. Caldeweyher, S. Ehlert, A. Hansen, H. Neugebauer, S. Spicher,
     C. Bannwarth and S. Grimme, J. Chem. Phys., 2019, 150, 154122.
     DOI: 10.1063/1.5090222
   * E. Caldeweyher, J.-M. Mewes, S. Ehlert and S. Grimme, Phys. Chem. Chem. Phys.
     2020, 22, 8499-8512. DOI: 10.1039/D0CP00502A
   
   for sTDA-xTB:
   * S. Grimme and C. Bannwarth, J. Chem. Phys., 2016, 145, 054103.
     DOI: 10.1063/1.4959605
   
   in the mass-spec context:
   * V. Asgeirsson, C. Bauer and S. Grimme, Chem. Sci., 2017, 8, 4879.
     DOI: 10.1039/c7sc00601b
   * J. Koopman and S. Grimme, ACS Omega 2019, 4, 12, 15120-15133.
     DOI: 10.1021/acsomega.9b02011
   
   for metadynamics refer to:
   * S. Grimme, J. Chem. Theory Comput., 2019, 155, 2847-2862
     DOI: 10.1021/acs.jctc.9b00143
   
   for SPH calculations refer to:
   * S. Spicher and S. Grimme, J. Chem. Theory Comput., 2021, 17, 1701-1714
     DOI: 10.1021/acs.jctc.0c01306
   
   for ONIOM refer to:
   * C. Plett, A. Katbashev, S. Ehlert, S. Grimme, M. Bursch,
     Phys. Chem. Chem. Phys., 2023, 25, 17860-17868. DOI: 10.1039/D3CP02178E
   
   for DIPRO refer to:
   * J. Kohn, N. Gildemeister, S. Grimme, D. Fazzi, A. Hansen,
     J. Chem. Phys., 2023, just accepted.
   
   for PTB refer to:
   * S. Grimme, M. Mueller, A. Hansen, J. Chem. Phys., 2023, 158, 124111.
     DOI: 10.1063/5.0137838
   
   with help from (in alphabetical order)
   P. Atkinson, C. Bannwarth, F. Bohle, G. Brandenburg, E. Caldeweyher
   M. Checinski, S. Dohm, S. Ehlert, S. Ehrlich, I. Gerasimov, C. Hölzer
   A. Katbashev, J. Kohn, J. Koopman, C. Lavigne, S. Lehtola, F. März, M. Müller,
   F. Musil, H. Neugebauer, J. Pisarek, C. Plett, P. Pracht, F. Pultar,
   J. Seibert, P. Shushkov, S. Spicher, M. Stahn, M. Steiner, T. Strunk,
   J. Stückrath, T. Rose, and J. Unsleber
   
 * started run on 2026/08/09 at 15:28:18.148     
   ID    Z sym.   atoms
    1    6 c      1-8, 10-13, 16
    2    8 o      9, 15
    3    1 h      14, 17-35

           -------------------------------------------------
          |                Calculation Setup                |
           -------------------------------------------------

          program call               : /home/dinglab/software/xtb_6.7.1/xtb_dist/bin/xtb coord --gfn2 --ohess vtight --alpb chcl3 --chrg 0 --enso --norestart -I xcontrol-inp --parallel 12
          hostname                   : localhost
          coordinate file            : coord
          omp threads                :                    12


           -------------------------------------------------
          |                 G F N 2 - x T B                 |
           -------------------------------------------------

        Reference                      10.1021/acs.jctc.8b01176
      * Hamiltonian:
        H0-scaling (s, p, d)           1.850000    2.230000    2.230000
        zeta-weighting                 0.500000
      * Dispersion:
        s8                             2.700000
        a1                             0.520000
        a2                             5.000000
        s9                             5.000000
      * Repulsion:
        kExp                           1.500000    1.000000
        rExp                           1.000000
      * Coulomb:
        alpha                          2.000000
        third order                    shell-resolved
        anisotropic                    true
        a3                             3.000000
        a5                             4.000000
        cn-shift                       1.200000
        cn-exp                         4.000000
        max-rad                        5.000000

      * Solvation model:               ALPB
        Solvent                        chcl3
        Parameter file                 internal GFN2-xTB/ALPB
        Dielectric constant                4.8100E+00
        Reference state                gsolv [1 M gas/solution]
        Free energy shift                  3.8910E-03 Eh       2.4417E+00 kcal/mol
        Temperature                        2.9815E+02 K
        Density                            1.4900E+00 kg/L
        Solvent mass                       1.1938E+02 g/mol
        Interaction kernel             P16
        Born radius scaling (c1)           1.3274E+00
        Born radii integrator          GBOBC
        Born offset                        0.0000E+00 a0       0.0000E+00 AA
        H-bond correction              false
        Ion screening                  false
        Surface tension                    1.0000E-05 Eh       1.5569E+01 dyn/cm
        Grid points                               974 per atom

          ...................................................
          :                      SETUP                      :
          :.................................................:
          :  # basis functions                  80          :
          :  # atomic orbitals                  80          :
          :  # shells                           50          :
          :  # electrons                        84          :
          :  max. iterations                   250          :
          :  Hamiltonian                  GFN2-xTB          :
          :  restarted?                      false          :
          :  GBSA solvation                   true          :
          :  PC potential                    false          :
          :  electronic temp.          300.0000000     K    :
          :  accuracy                    1.0000000          :
          :  -> integral cutoff          0.2500000E+02      :
          :  -> integral neglect         0.1000000E-07      :
          :  -> SCF convergence          0.1000000E-05 Eh   :
          :  -> wf. convergence          0.1000000E-03 e    :
          :  Broyden damping             0.4000000          :
          :  net charge                          0          :
          :  unpaired electrons                  0          :
          ...................................................

 iter      E             dE          RMSdq      gap      omega  full diag
   1    -46.7332156 -0.467332E+02  0.349E+00    5.22       0.0  T
   2    -46.7770054 -0.437897E-01  0.199E+00    5.11       1.0  T
   3    -46.7712414  0.576395E-02  0.850E-01    5.02       1.0  T
   4    -46.7797418 -0.850043E-02  0.350E-01    4.99       1.0  T
   5    -46.7817641 -0.202222E-02  0.747E-02    5.02       1.0  T
   6    -46.7817852 -0.211100E-04  0.407E-02    5.03       1.0  T
   7    -46.7817900 -0.485421E-05  0.119E-02    5.03       1.4  T
   8    -46.7817912 -0.113354E-05  0.395E-03    5.03       4.3  T
   9    -46.7817913 -0.114466E-06  0.233E-03    5.03       7.2  T
  10    -46.7817913 -0.572379E-07  0.853E-04    5.03      19.8  T
  11    -46.7817913 -0.343127E-08  0.315E-04    5.03      53.6  T

   *** convergence criteria satisfied after 11 iterations ***

         #    Occupation            Energy/Eh            Energy/eV
      -------------------------------------------------------------
         1        2.0000           -0.7023269             -19.1113
       ...           ...                  ...                  ...
        36        2.0000           -0.4278978             -11.6437
        37        2.0000           -0.4200493             -11.4301
        38        2.0000           -0.4179103             -11.3719
        39        2.0000           -0.4106607             -11.1746
        40        2.0000           -0.3957336             -10.7685
        41        2.0000           -0.3897121             -10.6046
        42        2.0000           -0.3850593             -10.4780 (HOMO)
        43                         -0.2003425              -5.4516 (LUMO)
        44                         -0.1956726              -5.3245
        45                          0.0050515               0.1375
        46                          0.0295388               0.8038
        47                          0.0387703               1.0550
       ...                                ...                  ...
        80                          0.6546735              17.8146
      -------------------------------------------------------------
                  HL-Gap            0.1847168 Eh            5.0264 eV
             Fermi-level           -0.2927009 Eh           -7.9648 eV

 SCC (total)                   0 d,  0 h,  0 min,  0.072 sec
 SCC setup                      ...        0 min,  0.001 sec (  0.893%)
 Dispersion                     ...        0 min,  0.000 sec (  0.500%)
 classical contributions        ...        0 min,  0.000 sec (  0.036%)
 integral evaluation            ...        0 min,  0.001 sec (  1.900%)
 iterations                     ...        0 min,  0.066 sec ( 92.151%)
 molecular gradient             ...        0 min,  0.003 sec (  4.231%)
 printout                       ...        0 min,  0.000 sec (  0.239%)

         :::::::::::::::::::::::::::::::::::::::::::::::::::::
         ::                     SUMMARY                     ::
         :::::::::::::::::::::::::::::::::::::::::::::::::::::
         :: total energy             -46.160101340876 Eh    ::
         :: total w/o Gsasa/hb       -46.147768570259 Eh    ::
         :: gradient norm              0.008866871799 Eh/a0 ::
         :: HOMO-LUMO gap              5.026398621632 eV    ::
         ::.................................................::
         :: SCC energy               -46.781161353140 Eh    ::
         :: -> isotropic ES            0.061118853709 Eh    ::
         :: -> anisotropic ES          0.006022879490 Eh    ::
         :: -> anisotropic XC          0.017025737238 Eh    ::
         :: -> dispersion             -0.036045825584 Eh    ::
         :: -> Gsolv                  -0.019681617879 Eh    ::
         ::    -> Gelec               -0.007348847262 Eh    ::
         ::    -> Gsasa               -0.016223789861 Eh    ::
         ::    -> Ghb                  0.000000000000 Eh    ::
         ::    -> Gshift               0.003891019244 Eh    ::
         :: repulsion energy           0.621060012264 Eh    ::
         :: add. restraining           0.000000000000 Eh    ::
         :: total charge              -0.000000000000 e     ::
         :::::::::::::::::::::::::::::::::::::::::::::::::::::

      ----------------------------------------------------------- 
     |                   =====================                   |
     |                        A N C O P T                        |
     |                   =====================                   |
     |               Approximate Normal Coordinate               |
     |                Rational Function Optimizer                |
      ----------------------------------------------------------- 
      ----------------------------------------------------------- 
     |                   =====================                   |
     |                        A N C O P T                        |
     |                   =====================                   |
     |               Approximate Normal Coordinate               |
     |                Rational Function Optimizer                |
      ----------------------------------------------------------- 

          ...................................................
          :                      SETUP                      :
          :.................................................:
          :   optimization level         verytight          :
          :   max. optcycles                   700          :
          :   ANC micro-cycles                  20          :
          :   degrees of freedom                99          :
          :.................................................:
          :   RF solver                   davidson          :
          :   write xtbopt.log                true          :
          :   linear?                        false          :
          :   energy convergence         0.1000000E-06 Eh   :
          :   grad. convergence          0.2000000E-03 Eh/α :
          :   maxmium RF displ.          1.0000000          :
          :   Hlow (freq-cutoff)         0.1000000E-01      :
          :   Hmax (freq-cutoff)         5.0000000          :
          :   S6 in model hess.         20.0000000          :
          ...................................................

generating ANC from exact Hessian ...
Using Lindh-Hessian (1995)
 Shifting diagonal of input Hessian by   8.822824633956375E-003
 Lowest  eigenvalues of input Hessian
    0.000000    0.000000    0.000000    0.000000    0.000000    0.000000
    0.010000    0.010757    0.011090    0.011994    0.013515    0.014310
    0.016340    0.017029    0.017677    0.019152    0.019415    0.020468
 Highest eigenvalues
    1.492291    1.507323    1.514467    1.534943    1.923492    1.972313
 

........................................................................
.............................. CYCLE    1 ..............................
........................................................................

 iter      E             dE          RMSdq      gap      omega  full diag
   1    -46.7817913 -0.467818E+02  0.802E-05    5.03       0.0  T
   2    -46.7817913 -0.197957E-10  0.496E-05    5.03     340.8  T
   3    -46.7817913  0.159162E-11  0.308E-05    5.03     549.3  T
     SCC iter.                  ...        0 min,  0.005 sec
     gradient                   ...        0 min,  0.003 sec
 * total energy  :   -46.1601013 Eh     change       -0.6516032E-09 Eh
   gradient norm :     0.0088660 Eh/α   predicted     0.0000000E+00 (-100.00%)
   displ. norm   :     0.0278441 α      lambda       -0.8182646E-04
   maximum displ.:     0.0117189 α      in ANC's #6, #17, #7, ...

........................................................................
.............................. CYCLE    2 ..............................
........................................................................

 iter      E             dE          RMSdq      gap      omega  full diag
   1    -46.7805215 -0.467805E+02  0.137E-02    5.02       0.0  T
   2    -46.7805221 -0.636642E-06  0.828E-03    5.02       2.0  T
   3    -46.7805221  0.205619E-07  0.370E-03    5.02       4.6  T
   4    -46.7805222 -0.108193E-06  0.112E-03    5.02      15.0  T
   5    -46.7805222 -0.252904E-07  0.418E-04    5.02      40.5  T
   6    -46.7805222 -0.169993E-08  0.181E-04    5.02      93.2  T
     SCC iter.                  ...        0 min,  0.008 sec
     gradient                   ...        0 min,  0.003 sec
 * total energy  :   -46.1601635 Eh     change       -0.6215677E-04 Eh
   gradient norm :     0.0046116 Eh/α   predicted    -0.4402935E-04 ( -29.16%)
   displ. norm   :     0.0260758 α      lambda       -0.3988018E-04
   maximum displ.:     0.0114126 α      in ANC's #6, #7, #22, ...

........................................................................
.............................. CYCLE    3 ..............................
........................................................................

 iter      E             dE          RMSdq      gap      omega  full diag
   1    -46.7798290 -0.467798E+02  0.129E-02    5.02       0.0  T
   2    -46.7798297 -0.643800E-06  0.778E-03    5.02       2.2  T
   3    -46.7798297 -0.139332E-07  0.349E-03    5.02       4.8  T
   4    -46.7798298 -0.826107E-07  0.955E-04    5.02      17.7  T
   5    -46.7798298 -0.134329E-07  0.465E-04    5.02      36.3  T
     SCC iter.                  ...        0 min,  0.007 sec
     gradient                   ...        0 min,  0.003 sec
 * total energy  :   -46.1601859 Eh     change       -0.2236369E-04 Eh
   gradient norm :     0.0011717 Eh/α   predicted    -0.1996490E-04 ( -10.73%)
   displ. norm   :     0.0185405 α      lambda       -0.4319345E-05
   maximum displ.:     0.0077421 α      in ANC's #16, #2, #4, ...

........................................................................
.............................. CYCLE    4 ..............................
........................................................................

 iter      E             dE          RMSdq      gap      omega  full diag
   1    -46.7800779 -0.467801E+02  0.839E-03    5.02       0.0  T
   2    -46.7800780 -0.102480E-06  0.509E-03    5.02       3.3  T
   3    -46.7800780  0.665185E-08  0.135E-03    5.02      12.5  T
   4    -46.7800781 -0.253766E-07  0.346E-04    5.02      48.8  T
   5    -46.7800781 -0.369909E-09  0.193E-04    5.02      87.8  T
     SCC iter.                  ...        0 min,  0.007 sec
     gradient                   ...        0 min,  0.003 sec
 * total energy  :   -46.1601902 Eh     change       -0.4296787E-05 Eh
   gradient norm :     0.0009205 Eh/α   predicted    -0.2479961E-05 ( -42.28%)
   displ. norm   :     0.0272270 α      lambda       -0.4347618E-05
   maximum displ.:     0.0124827 α      in ANC's #2, #16, #15, ...

........................................................................
.............................. CYCLE    5 ..............................
........................................................................

 iter      E             dE          RMSdq      gap      omega  full diag
   1    -46.7804050 -0.467804E+02  0.112E-02    5.03       0.0  T
   2    -46.7804051 -0.752230E-07  0.678E-03    5.02       2.5  T
   3    -46.7804051  0.262562E-07  0.143E-03    5.02      11.8  T
   4    -46.7804051 -0.445864E-07  0.525E-04    5.02      32.2  T
   5    -46.7804051 -0.357322E-08  0.243E-04    5.02      69.5  T
     SCC iter.                  ...        0 min,  0.007 sec
     gradient                   ...        0 min,  0.003 sec
 * total energy  :   -46.1601943 Eh     change       -0.4133243E-05 Eh
   gradient norm :     0.0012916 Eh/α   predicted    -0.2248776E-05 ( -45.59%)
   displ. norm   :     0.0409189 α      lambda       -0.5320001E-05
   maximum displ.:     0.0196890 α      in ANC's #2, #16, #15, ...

........................................................................
.............................. CYCLE    6 ..............................
........................................................................

 iter      E             dE          RMSdq      gap      omega  full diag
   1    -46.7805057 -0.467805E+02  0.151E-02    5.02       0.0  T
   2    -46.7805058 -0.103698E-06  0.912E-03    5.02       1.9  T
   3    -46.7805058  0.196381E-07  0.163E-03    5.02      10.3  T
   4    -46.7805059 -0.539465E-07  0.677E-04    5.02      25.0  T
   5    -46.7805059 -0.519174E-08  0.287E-04    5.02      58.8  T
     SCC iter.                  ...        0 min,  0.007 sec
     gradient                   ...        0 min,  0.003 sec
 * total energy  :   -46.1602006 Eh     change       -0.6344803E-05 Eh
   gradient norm :     0.0010620 Eh/α   predicted    -0.2681278E-05 ( -57.74%)
   displ. norm   :     0.1049101 α      lambda       -0.1076021E-04
   maximum displ.:     0.0492509 α      in ANC's #2, #15, #16, ...

........................................................................
.............................. CYCLE    7 ..............................
........................................................................

 iter      E             dE          RMSdq      gap      omega  full diag
   1    -46.7799417 -0.467799E+02  0.368E-02    5.02       0.0  T
   2    -46.7799424 -0.722455E-06  0.223E-02    5.02       1.0  T
   3    -46.7799424  0.912503E-08  0.366E-03    5.01       4.6  T
   4    -46.7799426 -0.221835E-06  0.172E-03    5.01       9.8  T
   5    -46.7799426 -0.368532E-07  0.755E-04    5.01      22.4  T
   6    -46.7799426 -0.396540E-08  0.255E-04    5.01      66.4  T
     SCC iter.                  ...        0 min,  0.008 sec
     gradient                   ...        0 min,  0.003 sec
 * total energy  :   -46.1602093 Eh     change       -0.8657862E-05 Eh
   gradient norm :     0.0018919 Eh/α   predicted    -0.5416740E-05 ( -37.44%)
   displ. norm   :     0.0231196 α      lambda       -0.4998184E-05
   maximum displ.:     0.0112900 α      in ANC's #15, #10, #5, ...

........................................................................
.............................. CYCLE    8 ..............................
........................................................................

 iter      E             dE          RMSdq      gap      omega  full diag
   1    -46.7800069 -0.467800E+02  0.729E-03    5.01       0.0  T
   2    -46.7800070 -0.304246E-07  0.441E-03    5.01       3.8  T
   3    -46.7800069  0.199645E-07  0.116E-03    5.01      14.6  T
   4    -46.7800070 -0.313734E-07  0.342E-04    5.01      49.5  T
   5    -46.7800070 -0.979369E-09  0.142E-04    5.01     119.5  T
     SCC iter.                  ...        0 min,  0.007 sec
     gradient                   ...        0 min,  0.003 sec
 * total energy  :   -46.1602147 Eh     change       -0.5413100E-05 Eh
   gradient norm :     0.0011436 Eh/α   predicted    -0.2500844E-05 ( -53.80%)
   displ. norm   :     0.0663759 α      lambda       -0.6861215E-05
   maximum displ.:     0.0349582 α      in ANC's #15, #10, #5, ...

........................................................................
.............................. CYCLE    9 ..............................
........................................................................

 iter      E             dE          RMSdq      gap      omega  full diag
   1    -46.7798202 -0.467798E+02  0.205E-02    5.01       0.0  T
   2    -46.7798206 -0.425768E-06  0.125E-02    5.01       1.4  T
   3    -46.7798205  0.160725E-06  0.367E-03    5.01       4.6  T
   4    -46.7798207 -0.266425E-06  0.124E-03    5.01      13.6  T
   5    -46.7798208 -0.215027E-07  0.497E-04    5.01      34.0  T
   6    -46.7798208 -0.196137E-08  0.187E-04    5.01      90.2  T
     SCC iter.                  ...        0 min,  0.008 sec
     gradient                   ...        0 min,  0.003 sec
 * total energy  :   -46.1602222 Eh     change       -0.7502024E-05 Eh
   gradient norm :     0.0015685 Eh/α   predicted    -0.3440791E-05 ( -54.14%)
   displ. norm   :     0.1107790 α      lambda       -0.1193381E-04
   maximum displ.:     0.0606113 α      in ANC's #15, #10, #6, ...

........................................................................
.............................. CYCLE   10 ..............................
........................................................................

 iter      E             dE          RMSdq      gap      omega  full diag
   1    -46.7793489 -0.467793E+02  0.329E-02    5.00       0.0  T
   2    -46.7793505 -0.158268E-05  0.202E-02    5.00       1.0  T
   3    -46.7793499  0.628272E-06  0.735E-03    5.00       2.3  T
   4    -46.7793509 -0.100114E-05  0.234E-03    5.00       7.2  T
   5    -46.7793510 -0.803626E-07  0.921E-04    5.00      18.4  T
   6    -46.7793510 -0.758878E-08  0.343E-04    5.00      49.3  T
     SCC iter.                  ...        0 min,  0.008 sec
     gradient                   ...        0 min,  0.003 sec
 * total energy  :   -46.1602308 Eh     change       -0.8552299E-05 Eh
   gradient norm :     0.0034342 Eh/α   predicted    -0.6004365E-05 ( -29.79%)
   displ. norm   :     0.0656501 α      lambda       -0.2251530E-04
   maximum displ.:     0.0369009 α      in ANC's #6, #2, #4, ...

........................................................................
.............................. CYCLE   11 ..............................
........................................................................

 iter      E             dE          RMSdq      gap      omega  full diag
   1    -46.7798661 -0.467799E+02  0.224E-02    5.00       0.0  T
   2    -46.7798664 -0.331290E-06  0.133E-02    5.00       1.3  T
   3    -46.7798662  0.241337E-06  0.368E-03    5.00       4.6  T
   4    -46.7798665 -0.319663E-06  0.102E-03    5.00      16.6  T
   5    -46.7798665 -0.141361E-07  0.431E-04    5.00      39.2  T
   6    -46.7798665 -0.152403E-08  0.168E-04    5.00     100.7  T
     SCC iter.                  ...        0 min,  0.008 sec
     gradient                   ...        0 min,  0.003 sec
 * total energy  :   -46.1602413 Eh     change       -0.1055469E-04 Eh
   gradient norm :     0.0016477 Eh/α   predicted    -0.1131670E-04 (   7.22%)
   displ. norm   :     0.0821870 α      lambda       -0.1482111E-04
   maximum displ.:     0.0390075 α      in ANC's #15, #16, #6, ...

........................................................................
.............................. CYCLE   12 ..............................
........................................................................

 iter      E             dE          RMSdq      gap      omega  full diag
   1    -46.7794019 -0.467794E+02  0.279E-02    4.99       0.0  T
   2    -46.7794029 -0.982282E-06  0.171E-02    4.99       1.0  T
   3    -46.7794025  0.404869E-06  0.587E-03    4.99       2.9  T
   4    -46.7794031 -0.659748E-06  0.188E-03    4.99       9.0  T
   5    -46.7794032 -0.523302E-07  0.784E-04    4.99      21.6  T
   6    -46.7794032 -0.410153E-08  0.291E-04    4.99      58.0  T
     SCC iter.                  ...        0 min,  0.008 sec
     gradient                   ...        0 min,  0.003 sec
 * total energy  :   -46.1602567 Eh     change       -0.1539777E-04 Eh
   gradient norm :     0.0027494 Eh/α   predicted    -0.7443676E-05 ( -51.66%)
   displ. norm   :     0.0652622 α      lambda       -0.2863884E-04
   maximum displ.:     0.0386451 α      in ANC's #4, #2, #16, ...

........................................................................
.............................. CYCLE   13 ..............................
........................................................................

 iter      E             dE          RMSdq      gap      omega  full diag
   1    -46.7793950 -0.467794E+02  0.242E-02    4.99       0.0  T
   2    -46.7793953 -0.311159E-06  0.145E-02    4.99       1.2  T
   3    -46.7793951  0.215938E-06  0.367E-03    4.99       4.6  T
   4    -46.7793954 -0.314398E-06  0.112E-03    4.99      15.1  T
   5    -46.7793954 -0.157946E-07  0.513E-04    4.99      33.0  T
   6    -46.7793954 -0.869932E-09  0.158E-04    4.99     107.1  T
     SCC iter.                  ...        0 min,  0.008 sec
     gradient                   ...        0 min,  0.003 sec
 * total energy  :   -46.1602744 Eh     change       -0.1773383E-04 Eh
   gradient norm :     0.0026128 Eh/α   predicted    -0.1438252E-04 ( -18.90%)
   displ. norm   :     0.0711879 α      lambda       -0.1387753E-04
   maximum displ.:     0.0407164 α      in ANC's #4, #2, #15, ...

........................................................................
.............................. CYCLE   14 ..............................
........................................................................

 iter      E             dE          RMSdq      gap      omega  full diag
   1    -46.7793540 -0.467794E+02  0.246E-02    4.99       0.0  T
   2    -46.7793544 -0.409873E-06  0.149E-02    4.99       1.1  T
   3    -46.7793541  0.310393E-06  0.435E-03    4.99       3.9  T
   4    -46.7793545 -0.442094E-06  0.124E-03    4.99      13.6  T
   5    -46.7793546 -0.177407E-07  0.567E-04    4.99      29.8  T
   6    -46.7793546 -0.135292E-08  0.199E-04    4.99      84.9  T
     SCC iter.                  ...        0 min,  0.010 sec
     gradient                   ...        0 min,  0.003 sec
 * total energy  :   -46.1602831 Eh     change       -0.8685162E-05 Eh
   gradient norm :     0.0032897 Eh/α   predicted    -0.6974449E-05 ( -19.70%)
   displ. norm   :     0.0635667 α      lambda       -0.1874656E-04
   maximum displ.:     0.0436768 α      in ANC's #4, #2, #7, ...

........................................................................
.............................. CYCLE   15 ..............................
........................................................................

 iter      E             dE          RMSdq      gap      omega  full diag
   1    -46.7799542 -0.467800E+02  0.200E-02    4.99       0.0  T
   2    -46.7799543 -0.731871E-07  0.119E-02    4.99       1.4  T
   3    -46.7799542  0.548383E-07  0.177E-03    4.99       9.5  T
   4    -46.7799543 -0.790682E-07  0.536E-04    4.99      31.5  T
   5    -46.7799543 -0.327528E-08  0.268E-04    4.99      63.2  T
     SCC iter.                  ...        0 min,  0.007 sec
     gradient                   ...        0 min,  0.004 sec
 * total energy  :   -46.1602908 Eh     change       -0.7700789E-05 Eh
   gradient norm :     0.0012115 Eh/α   predicted    -0.9415022E-05 (  22.26%)
   displ. norm   :     0.0778083 α      lambda       -0.1088032E-04
   maximum displ.:     0.0382422 α      in ANC's #4, #15, #6, ...

........................................................................
.............................. CYCLE   16 ..............................
........................................................................

 iter      E             dE          RMSdq      gap      omega  full diag
   1    -46.7794231 -0.467794E+02  0.252E-02    4.99       0.0  T
   2    -46.7794238 -0.641144E-06  0.154E-02    4.99       1.1  T
   3    -46.7794234  0.365100E-06  0.503E-03    4.98       3.4  T
   4    -46.7794239 -0.534628E-06  0.148E-03    4.98      11.4  T
   5    -46.7794240 -0.312943E-07  0.646E-04    4.98      26.2  T
   6    -46.7794240 -0.251497E-08  0.238E-04    4.98      70.9  T
     SCC iter.                  ...        0 min,  0.008 sec
     gradient                   ...        0 min,  0.003 sec
 * total energy  :   -46.1602992 Eh     change       -0.8373726E-05 Eh
   gradient norm :     0.0027049 Eh/α   predicted    -0.5456139E-05 ( -34.84%)
   displ. norm   :     0.0235177 α      lambda       -0.8209840E-05
   maximum displ.:     0.0148238 α      in ANC's #2, #1, #3, ...

........................................................................
.............................. CYCLE   17 ..............................
........................................................................

 iter      E             dE          RMSdq      gap      omega  full diag
   1    -46.7795042 -0.467795E+02  0.863E-03    4.98       0.0  T
   2    -46.7795042 -0.154027E-07  0.511E-03    4.98       3.3  T
   3    -46.7795042  0.601070E-08  0.795E-04    4.98      21.3  T
   4    -46.7795042 -0.147987E-07  0.290E-04    4.98      58.4  T
     SCC iter.                  ...        0 min,  0.005 sec
     gradient                   ...        0 min,  0.003 sec
 * total energy  :   -46.1603055 Eh     change       -0.6291044E-05 Eh
   gradient norm :     0.0017489 Eh/α   predicted    -0.4107914E-05 ( -34.70%)
   displ. norm   :     0.0822225 α      lambda       -0.1122791E-04
   maximum displ.:     0.0476837 α      in ANC's #1, #2, #7, ...

........................................................................
.............................. CYCLE   18 ..............................
........................................................................

 iter      E             dE          RMSdq      gap      omega  full diag
   1    -46.7793250 -0.467793E+02  0.295E-02    4.98       0.0  T
   2    -46.7793253 -0.288236E-06  0.178E-02    4.98       1.0  T
   3    -46.7793253 -0.166399E-08  0.233E-03    4.98       7.3  T
   4    -46.7793254 -0.967442E-07  0.107E-03    4.98      15.8  T
   5    -46.7793254 -0.118095E-07  0.555E-04    4.98      30.5  T
   6    -46.7793254 -0.181447E-08  0.150E-04    4.98     112.5  T
     SCC iter.                  ...        0 min,  0.008 sec
     gradient                   ...        0 min,  0.003 sec
 * total energy  :   -46.1603158 Eh     change       -0.1026669E-04 Eh
   gradient norm :     0.0017690 Eh/α   predicted    -0.5634356E-05 ( -45.12%)
   displ. norm   :     0.0591189 α      lambda       -0.6586351E-05
   maximum displ.:     0.0369390 α      in ANC's #1, #15, #2, ...

........................................................................
.............................. CYCLE   19 ..............................
........................................................................

 iter      E             dE          RMSdq      gap      omega  full diag
   1    -46.7792987 -0.467793E+02  0.211E-02    4.98       0.0  T
   2    -46.7792989 -0.218859E-06  0.128E-02    4.98       1.3  T
   3    -46.7792988  0.101955E-06  0.273E-03    4.98       6.2  T
   4    -46.7792990 -0.168553E-06  0.923E-04    4.98      18.3  T
   5    -46.7792990 -0.105316E-07  0.442E-04    4.98      38.2  T
     SCC iter.                  ...        0 min,  0.007 sec
     gradient                   ...        0 min,  0.003 sec
 * total energy  :   -46.1603240 Eh     change       -0.8233921E-05 Eh
   gradient norm :     0.0016760 Eh/α   predicted    -0.3298920E-05 ( -59.94%)
   displ. norm   :     0.1155542 α      lambda       -0.1382266E-04
   maximum displ.:     0.0806452 α      in ANC's #1, #2, #15, ...

........................................................................
.............................. CYCLE   20 ..............................
........................................................................

 iter      E             dE          RMSdq      gap      omega  full diag
   1    -46.7796151 -0.467796E+02  0.401E-02    4.98       0.0  T
   2    -46.7796157 -0.591142E-06  0.241E-02    4.97       1.0  T
   3    -46.7796153  0.360535E-06  0.481E-03    4.97       3.5  T
   4    -46.7796158 -0.545273E-06  0.154E-03    4.97      11.0  T
   5    -46.7796159 -0.270634E-07  0.759E-04    4.97      22.3  T
   6    -46.7796159 -0.232800E-08  0.217E-04    4.97      77.9  T
     SCC iter.                  ...        0 min,  0.008 sec
     gradient                   ...        0 min,  0.003 sec
 * total energy  :   -46.1603365 Eh     change       -0.1253715E-04 Eh
   gradient norm :     0.0007808 Eh/α   predicted    -0.6953126E-05 ( -44.54%)
   displ. norm   :     0.0850475 α      lambda       -0.4508420E-05
   maximum displ.:     0.0497299 α      in ANC's #1, #15, #4, ...
 * RMSD in coord.:     0.1431850 α      energy gain  -0.2351960E-03 Eh

generating ANC from exact Hessian ...
Using Lindh-Hessian (1995)
 Shifting diagonal of input Hessian by   8.783384042241289E-003
 Lowest  eigenvalues of input Hessian
    0.000000    0.000000    0.000000    0.000000    0.000000    0.000000
    0.010000    0.010689    0.011029    0.012099    0.013692    0.015959
    0.016611    0.017042    0.017720    0.019219    0.020216    0.020458
 Highest eigenvalues
    1.472304    1.483006    1.509520    1.510498    1.920729    1.969180
 

........................................................................
.............................. CYCLE   21 ..............................
........................................................................

 iter      E             dE          RMSdq      gap      omega  full diag
   1    -46.7792043 -0.467792E+02  0.295E-02    4.97       0.0  T
   2    -46.7792049 -0.526596E-06  0.179E-02    4.97       1.0  T
   3    -46.7792045  0.316060E-06  0.458E-03    4.97       3.7  T
   4    -46.7792050 -0.479800E-06  0.140E-03    4.97      12.0  T
   5    -46.7792050 -0.257764E-07  0.698E-04    4.97      24.2  T
   6    -46.7792050 -0.191869E-08  0.206E-04    4.97      82.1  T
     SCC iter.                  ...        0 min,  0.008 sec
     gradient                   ...        0 min,  0.003 sec
 * total energy  :   -46.1603347 Eh     change        0.1822470E-05 Eh
   gradient norm :     0.0032346 Eh/α   predicted     0.0000000E+00 (-100.00%)
   displ. norm   :     0.0066721 α      lambda       -0.8902572E-05
   maximum displ.:     0.0040659 α      in ANC's #3, #6, #93, ...

........................................................................
.............................. CYCLE   22 ..............................
........................................................................

 iter      E             dE          RMSdq      gap      omega  full diag
   1    -46.7794888 -0.467795E+02  0.334E-03    4.97       0.0  T
   2    -46.7794888 -0.102657E-07  0.200E-03    4.97       8.4  T
   3    -46.7794888 -0.188746E-08  0.469E-04    4.97      36.0  T
   4    -46.7794888 -0.348908E-08  0.231E-04    4.97      73.1  T
     SCC iter.                  ...        0 min,  0.006 sec
     gradient                   ...        0 min,  0.003 sec
 * total energy  :   -46.1603410 Eh     change       -0.6288362E-05 Eh
   gradient norm :     0.0010999 Eh/α   predicted    -0.4592734E-05 ( -26.96%)
   displ. norm   :     0.0124009 α      lambda       -0.2150037E-05
   maximum displ.:     0.0079900 α      in ANC's #3, #6, #4, ...

........................................................................
.............................. CYCLE   23 ..............................
........................................................................

 iter      E             dE          RMSdq      gap      omega  full diag
   1    -46.7797265 -0.467797E+02  0.451E-03    4.97       0.0  T
   2    -46.7797265 -0.149739E-07  0.272E-03    4.97       6.2  T
   3    -46.7797265  0.582171E-08  0.742E-04    4.97      22.8  T
   4    -46.7797265 -0.120741E-07  0.256E-04    4.97      66.0  T
     SCC iter.                  ...        0 min,  0.006 sec
     gradient                   ...        0 min,  0.003 sec
 * total energy  :   -46.1603423 Eh     change       -0.1287956E-05 Eh
   gradient norm :     0.0007559 Eh/α   predicted    -0.1259980E-05 (  -2.17%)
   displ. norm   :     0.0034778 α      lambda       -0.4325174E-06
   maximum displ.:     0.0018649 α      in ANC's #6, #3, #4, ...

........................................................................
.............................. CYCLE   24 ..............................
........................................................................

 iter      E             dE          RMSdq      gap      omega  full diag
   1    -46.7796534 -0.467797E+02  0.150E-03    4.97       0.0  T
   2    -46.7796534 -0.690733E-09  0.881E-04    4.97      19.2  T
   3    -46.7796534 -0.167560E-09  0.918E-05    4.97     184.1  T
     SCC iter.                  ...        0 min,  0.004 sec
     gradient                   ...        0 min,  0.003 sec
 * total energy  :   -46.1603427 Eh     change       -0.4346233E-06 Eh
   gradient norm :     0.0001675 Eh/α   predicted    -0.2316229E-06 ( -46.71%)
   displ. norm   :     0.0033868 α      lambda        0.1129769E-06
   maximum displ.:     0.0018119 α      in ANC's #6, #3, #4, ...

........................................................................
.............................. CYCLE   25 ..............................
........................................................................

 iter      E             dE          RMSdq      gap      omega  full diag
   1    -46.7795809 -0.467796E+02  0.149E-03    4.97       0.0  T
   2    -46.7795809 -0.777760E-09  0.884E-04    4.97      19.1  T
   3    -46.7795809 -0.951133E-10  0.130E-04    4.97     130.3  T
     SCC iter.                  ...        0 min,  0.005 sec
     gradient                   ...        0 min,  0.003 sec
 * total energy  :   -46.1603426 Eh     change        0.8186889E-07 Eh
   gradient norm :     0.0004575 Eh/α   predicted     0.5645072E-07 ( -31.05%)
   displ. norm   :     0.0035367 α      lambda       -0.3078080E-06
   maximum displ.:     0.0020139 α      in ANC's #3, #6, #23, ...

........................................................................
.............................. CYCLE   26 ..............................
........................................................................

 iter      E             dE          RMSdq      gap      omega  full diag
   1    -46.7796166 -0.467796E+02  0.185E-03    4.97       0.0  T
   2    -46.7796166 -0.661792E-09  0.110E-03    4.97      15.3  T
   3    -46.7796166  0.281902E-08  0.342E-04    4.97      49.4  T
   4    -46.7796166 -0.328987E-08  0.368E-05    4.97     459.2  T
     SCC iter.                  ...        0 min,  0.006 sec
     gradient                   ...        0 min,  0.003 sec
 * total energy  :   -46.1603429 Eh     change       -0.2255780E-06 Eh
   gradient norm :     0.0001726 Eh/α   predicted    -0.1543791E-06 ( -31.56%)
   displ. norm   :     0.0049144 α      lambda       -0.1370766E-06
   maximum displ.:     0.0030607 α      in ANC's #3, #4, #6, ...

........................................................................
.............................. CYCLE   27 ..............................
........................................................................

 iter      E             dE          RMSdq      gap      omega  full diag
   1    -46.7796569 -0.467797E+02  0.183E-03    4.97       0.0  T
   2    -46.7796569 -0.350177E-09  0.108E-03    4.97      15.6  T
   3    -46.7796569  0.192543E-09  0.124E-04    4.97     136.2  T
   4    -46.7796569 -0.381036E-09  0.382E-05    4.97     442.2  T
     SCC iter.                  ...        0 min,  0.005 sec
     gradient                   ...        0 min,  0.003 sec
 * total energy  :   -46.1603430 Eh     change       -0.1028079E-06 Eh
   gradient norm :     0.0001596 Eh/α   predicted    -0.7394165E-07 ( -28.08%)
   displ. norm   :     0.0042981 α      lambda       -0.6088920E-07
   maximum displ.:     0.0024312 α      in ANC's #3, #4, #6, ...

........................................................................
.............................. CYCLE   28 ..............................
........................................................................

 iter      E             dE          RMSdq      gap      omega  full diag
   1    -46.7796506 -0.467797E+02  0.143E-03    4.97       0.0  T
   2    -46.7796506 -0.164526E-09  0.844E-04    4.97      20.0  T
   3    -46.7796506  0.416215E-09  0.133E-04    4.97     127.2  T
     SCC iter.                  ...        0 min,  0.004 sec
     gradient                   ...        0 min,  0.003 sec
 * total energy  :   -46.1603430 Eh     change       -0.7046793E-07 Eh
   gradient norm :     0.0000811 Eh/α   predicted    -0.3082165E-07 ( -56.26%)
   displ. norm   :     0.0071058 α      lambda       -0.6594205E-07
   maximum displ.:     0.0035951 α      in ANC's #3, #1, #4, ...

   *** GEOMETRY OPTIMIZATION CONVERGED AFTER 28 ITERATIONS ***

------------------------------------------------------------------------
 total energy gain   :        -0.0002417 Eh       -0.1517 kcal/mol
 total RMSD          :         0.1436205 a0        0.0760 Å
 total power (kW/mol):        -0.0226638 (step)   -1.4468 (real)
------------------------------------------------------------------------

 ANCopt (total)                0 d,  0 h,  0 min,  0.439 sec
 optimizer setup                ...        0 min,  0.000 sec (  0.035%)
 model hessian                  ...        0 min,  0.099 sec ( 22.557%)
 ANC generation                 ...        0 min,  0.003 sec (  0.723%)
 coordinate transformation      ...        0 min,  0.000 sec (  0.103%)
 single point calculation       ...        0 min,  0.327 sec ( 74.641%)
 optimization log               ...        0 min,  0.004 sec (  0.889%)
 hessian update                 ...        0 min,  0.000 sec (  0.111%)
 rational function              ...        0 min,  0.003 sec (  0.600%)

================
 final structure:
================
$coord
       -0.04450153389379       -1.04203823912089        0.52895606387477      c
       -1.91767688464784        1.08432849686356        1.29121505836204      c
       -0.62572021539586        3.69735321105706        1.17340218516763      c
        1.14648072749156        4.10032647092874       -1.07344015305045      c
        2.78896181031423        1.75866106901604       -1.50445326563083      c
        1.05034300020043       -0.48465010066802       -2.10413577560236      c
        2.31962838589699       -0.90412598113892        2.22453307515180      c
        4.02302607340472        0.97552629871315        0.93842904960361      c
        2.43195111130965       -2.50424249942309       -3.19438678378562      o
       -1.35701700001542       -3.61965409510179        0.71263404456095      c
        6.21863440491459        1.79502711073785        1.79567366440794      c
       -4.42990621869958        1.00977854859436       -0.08839675777431      c
       -4.83978788805262        1.89783594556980       -2.39278584523076      c
       -2.36601596020496        0.74625198850131        3.28622443385777      h
        0.43383119574660       -5.60802062170250        0.44577012294127      o
       -6.59520098429376       -0.01098211052915        1.44331752202850      c
       -2.08441824129882        5.15604389846334        1.17144230097191      h
        0.48466205146834        3.93544006795694        2.89540816479271      h
        0.09039783453795        4.50755633884859       -2.79496860737670      h
        2.35455063957450        5.72717110467114       -0.68493051569778      h
        4.15475605754337        2.08313230303202       -3.01549223609777      h
       -0.42724284985808        0.01841188872757       -3.46262735635852      h
        3.23889627231279       -2.75139925909582        2.28858492368863      h
        1.86817919667844       -0.36390182957207        4.16057435187248      h
        2.33745582280556       -3.93250546710823       -2.05078720121009      h
       -2.79478679585032       -3.75471901321503       -0.77347975942393      h
       -2.27410160921721       -3.78644346987427        2.56642696762555      h
        6.97798768964193        1.16665722282329        3.57732651936908      h
        7.34803644016015        3.12308106821773        0.74595496276796      h
       -6.69589976202183        1.82195173666571       -3.22966200719465      h
       -3.40042556704790        2.74378137555968       -3.54635994993634      h
       -0.46146384313881       -7.18986859784124        0.32456666852082      h
       -8.30840202265548       -0.11976026911953        0.31553266906393      h
       -6.17429057375913       -1.87994386714102        2.18726127852873      h
       -6.95026114359185        1.23415130368929        3.04631242348351      h
$end
 
 Bond Distances (Angstroems)
 ---------------------------
C1-C2=1.5529         C1-C6=1.5376         C1-C7=1.5413         C1-C10=1.5338        C2-C1=1.5529         C2-C3=1.5438         
C2-C12=1.5172        C2-H14=1.0967        C3-C2=1.5438         C3-C4=1.5293         C3-H17=1.0916        C3-H18=1.0916        
C4-C3=1.5293         C4-C5=1.5307         C4-H19=1.0903        C4-H20=1.0918        C5-C4=1.5307         C5-C6=1.5351         
C5-C8=1.5064         C5-H21=1.0914        C6-C1=1.5376         C6-C5=1.5351         C6-O9=1.4176         C6-H22=1.0950        
C7-C1=1.5413         C7-C8=1.5050         C7-H23=1.0924        C7-H24=1.0901        C8-C5=1.5064         C8-C7=1.5050         
C8-C11=1.3205        O9-C6=1.4176         O9-H25=0.9695        C10-C1=1.5338        C10-O15=1.4231       C10-H26=1.0966       
C10-H27=1.0980       C11-C8=1.3205        C11-H28=1.0775       C11-H29=1.0769       C12-C2=1.5172        C12-C13=1.3247       
C12-C16=1.5039       C13-C12=1.3247       C13-H30=1.0782       C13-H31=1.0739       H14-C2=1.0967        O15-C10=1.4231       
O15-H32=0.9640       C16-C12=1.5039       C16-H33=1.0869       C16-H34=1.0875       C16-H35=1.0904       H17-C3=1.0916        
H18-C3=1.0916        H19-C4=1.0903        H20-C4=1.0918        H21-C5=1.0914        H22-C6=1.0950        H23-C7=1.0924        
H24-C7=1.0901        H25-O9=0.9695        H26-C10=1.0966       H27-C10=1.0980       H28-C11=1.0775       H29-C11=1.0769       
H30-C13=1.0782       H31-C13=1.0739       H32-O15=0.9640       H33-C16=1.0869       H34-C16=1.0875       H35-C16=1.0904       
 C  H  Rav=1.0887 sigma=0.0071  Rmin=1.0739  Rmax=1.0980    18
 C  C  Rav=1.4987 sigma=0.0733  Rmin=1.3205  Rmax=1.5529    14
 O  H  Rav=0.9668 sigma=0.0028  Rmin=0.9640  Rmax=0.9695     2
 O  C  Rav=1.4203 sigma=0.0027  Rmin=1.4176  Rmax=1.4231     2
 
 selected bond angles (degree)
 --------------------
C6-C1-C2=109.69                C7-C1-C2=109.43                C7-C1-C6=102.28                C10-C1-C2=109.81               
C10-C1-C6=113.49               C10-C1-C7=111.89               C3-C2-C1=110.85                C12-C2-C1=114.55               
C12-C2-C3=113.07               H14-C2-C1=105.66               H14-C2-C3=106.31               H14-C2-C12=105.63              
C4-C3-C2=115.33                H17-C3-C2=108.68               H17-C3-C4=109.53               H18-C3-C2=107.94               
H18-C3-C4=107.63               H18-C3-H17=107.45              C5-C4-C3=110.56                H19-C4-C3=111.28               
H19-C4-C5=109.06               H20-C4-C3=108.82               H20-C4-C5=109.51               H20-C4-H19=107.55              
C6-C5-C4=108.45                C8-C5-C4=109.94                C8-C5-C6=102.97                H21-C5-C4=110.97               
H21-C5-C6=111.54               H21-C5-C8=112.64               C5-C6-C1=100.77                O9-C6-C1=114.74                
O9-C6-C5=110.98                H22-C6-C1=111.87               H22-C6-C5=112.07               H22-C6-O9=106.52               
C8-C7-C1=104.73                H23-C7-C1=109.70               H23-C7-C8=109.80               H24-C7-C1=112.44               
H24-C7-C8=112.51               H24-C7-H23=107.64              C7-C8-C5=108.07                C11-C8-C5=125.86               
C11-C8-C7=126.06               H25-O9-C6=107.88               O15-C10-C1=110.47              H26-C10-C1=109.07              
H26-C10-O15=110.04             H27-C10-C1=109.16              H27-C10-O15=108.88             H27-C10-H26=109.20             
 
 selected dihedral angles (degree)
 ---------------------------------
C3-C2-C1-C6=304.25            C3-C2-C1-C7= 55.70            C3-C2-C1-C10=178.87           C12-C2-C1-C6= 73.66           
C12-C2-C1-C7=185.11           C12-C2-C1-C10=308.29          H14-C2-C1-C6=189.49           H14-C2-C1-C7=300.94           
H14-C2-C1-C10= 64.11          C4-C3-C2-C1= 40.26            C4-C3-C2-C12=270.06           C4-C3-C2-H14=154.61           
H17-C3-C2-C1=163.65           H17-C3-C2-C12= 33.45          H17-C3-C2-H14=278.01          H18-C3-C2-C1=279.89           
H18-C3-C2-C12=149.69          H18-C3-C2-H14= 34.24          C5-C4-C3-C2=316.90            C5-C4-C3-H17=193.95           
C5-C4-C3-H18= 77.43           H19-C4-C3-C2= 78.25           H19-C4-C3-H17=315.31          H19-C4-C3-H18=198.79          
H20-C4-C3-C2=196.59           H20-C4-C3-H17= 73.65          H20-C4-C3-H18=317.13          C6-C5-C4-C3= 61.35            
C6-C5-C4-H19=298.69           C6-C5-C4-H20=181.25           C8-C5-C4-C3=309.47            C8-C5-C4-H19=186.81           
C8-C5-C4-H20= 69.36           H21-C5-C4-C3=184.19           H21-C5-C4-H19= 61.53          H21-C5-C4-H20=304.09          
C5-C6-C1-C2= 71.44            C5-C6-C1-C7=315.37            C5-C6-C1-C10=194.67           O9-C6-C1-C2=190.71            
O9-C6-C1-C7= 74.65            O9-C6-C1-C10=313.94           H22-C6-C1-C2=312.20           H22-C6-C1-C7=196.14           
H22-C6-C1-C10= 75.43          C1-C6-C5-C4=285.74            C1-C6-C5-C8= 42.21            C1-C6-C5-H21=163.25           
O9-C6-C5-C4=163.79            O9-C6-C5-C8=280.26            O9-C6-C5-H21= 41.30           H22-C6-C5-C4= 44.84           
H22-C6-C5-C8=161.31           H22-C6-C5-H21=282.34          C8-C7-C1-C2=274.00            C8-C7-C1-C6= 30.26            
C8-C7-C1-C10=152.07           H23-C7-C1-C2=156.22           H23-C7-C1-C6=272.47           H23-C7-C1-C10= 34.28          
H24-C7-C1-C2= 36.47           H24-C7-C1-C6=152.73           H24-C7-C1-C10=274.54          C7-C8-C5-C4= 91.40            
C7-C8-C5-C6=335.99            C7-C8-C5-H21=215.71           C11-C8-C5-C4=271.29           C11-C8-C5-C6=155.89           
C11-C8-C5-H21= 35.61          C5-C8-C7-C1=356.07            C5-C8-C7-H23=113.79           C5-C8-C7-H24=233.65           
C11-C8-C7-C1=176.17           C11-C8-C7-H23=293.89          C11-C8-C7-H24= 53.75          H25-O9-C6-C1=  2.98           
H25-O9-C6-C5=116.38           H25-O9-C6-H22=238.62          O15-C10-C1-C2=189.97          O15-C10-C1-C6= 66.80          
O15-C10-C1-C7=311.68          H26-C10-C1-C2= 68.90          H26-C10-C1-C6=305.73          H26-C10-C1-C7=190.62          
H27-C10-C1-C2=309.66          H27-C10-C1-C6=186.49          H27-C10-C1-C7= 71.38          
           -------------------------------------------------
          |                Final Singlepoint                |
           -------------------------------------------------

          ...................................................
          :                      SETUP                      :
          :.................................................:
          :  # basis functions                  80          :
          :  # atomic orbitals                  80          :
          :  # shells                           50          :
          :  # electrons                        84          :
          :  max. iterations                   250          :
          :  Hamiltonian                  GFN2-xTB          :
          :  restarted?                      false          :
          :  GBSA solvation                   true          :
          :  PC potential                    false          :
          :  electronic temp.          300.0000000     K    :
          :  accuracy                    1.0000000          :
          :  -> integral cutoff          0.2500000E+02      :
          :  -> integral neglect         0.1000000E-07      :
          :  -> SCF convergence          0.1000000E-05 Eh   :
          :  -> wf. convergence          0.1000000E-03 e    :
          :  Broyden damping             0.4000000          :
          :  net charge                          0          :
          :  unpaired electrons                  0          :
          ...................................................

 iter      E             dE          RMSdq      gap      omega  full diag
   1    -46.7796506 -0.467797E+02  0.193E-05    4.97       0.0  T
   2    -46.7796506 -0.217426E-11  0.127E-05    4.97    1326.0  T
   3    -46.7796506 -0.157740E-11  0.756E-06    4.97    2236.6  T

   *** convergence criteria satisfied after 3 iterations ***

         #    Occupation            Energy/Eh            Energy/eV
      -------------------------------------------------------------
         1        2.0000           -0.7085210             -19.2798
       ...           ...                  ...                  ...
        36        2.0000           -0.4287678             -11.6674
        37        2.0000           -0.4184738             -11.3873
        38        2.0000           -0.4145021             -11.2792
        39        2.0000           -0.4100619             -11.1584
        40        2.0000           -0.3988825             -10.8541
        41        2.0000           -0.3896715             -10.6035
        42        2.0000           -0.3842611             -10.4563 (HOMO)
        43                         -0.2015262              -5.4838 (LUMO)
        44                         -0.1940769              -5.2811
        45                         -0.0062962              -0.1713
        46                          0.0284065               0.7730
        47                          0.0338175               0.9202
       ...                                ...                  ...
        80                          0.6547222              17.8159
      -------------------------------------------------------------
                  HL-Gap            0.1827350 Eh            4.9725 eV
             Fermi-level           -0.2928936 Eh           -7.9700 eV

 SCC (total)                   0 d,  0 h,  0 min,  0.009 sec
 SCC setup                      ...        0 min,  0.001 sec (  5.925%)
 Dispersion                     ...        0 min,  0.000 sec (  1.921%)
 classical contributions        ...        0 min,  0.000 sec (  0.242%)
 integral evaluation            ...        0 min,  0.001 sec ( 11.542%)
 iterations                     ...        0 min,  0.004 sec ( 45.600%)
 molecular gradient             ...        0 min,  0.003 sec ( 33.099%)
 printout                       ...        0 min,  0.000 sec (  1.281%)

         :::::::::::::::::::::::::::::::::::::::::::::::::::::
         ::                     SUMMARY                     ::
         :::::::::::::::::::::::::::::::::::::::::::::::::::::
         :: total energy             -46.160343042837 Eh    ::
         :: total w/o Gsasa/hb       -46.148011395956 Eh    ::
         :: gradient norm              0.000081042471 Eh/a0 ::
         :: HOMO-LUMO gap              4.972471569625 eV    ::
         ::.................................................::
         :: SCC energy               -46.779019807685 Eh    ::
         :: -> isotropic ES            0.063101051531 Eh    ::
         :: -> anisotropic ES          0.005369321381 Eh    ::
         :: -> anisotropic XC          0.017207134317 Eh    ::
         :: -> dispersion             -0.036012969396 Eh    ::
         :: -> Gsolv                  -0.020385899080 Eh    ::
         ::    -> Gelec               -0.008054252200 Eh    ::
         ::    -> Gsasa               -0.016222666124 Eh    ::
         ::    -> Ghb                  0.000000000000 Eh    ::
         ::    -> Gshift               0.003891019244 Eh    ::
         :: repulsion energy           0.618676764848 Eh    ::
         :: add. restraining           0.000000000000 Eh    ::
         :: total charge              -0.000000000000 e     ::
         :::::::::::::::::::::::::::::::::::::::::::::::::::::

           ------------------------------------------------- 
          |                Numerical Hessian                |
           ------------------------------------------------- 
step length          :   0.00500
SCC accuracy         :   0.30000
Hessian scale factor :   1.00000
frozen atoms in %    :   0.00000    0
RMS gradient         :   0.00008
estimated CPU  time      1.58 min
estimated wall time      0.13 min

writing file <hessian>.

 projected vibrational frequencies (cm⁻¹)
eigval :       -0.00    -0.00    -0.00    -0.00    -0.00     0.00
eigval :       51.04    90.22   105.52   119.56   127.94   156.01
eigval :      177.67   221.93   248.29   272.51   275.28   287.14
eigval :      298.09   317.38   338.63   347.92   361.11   418.49
eigval :      438.26   465.18   496.43   548.67   575.18   580.67
eigval :      670.68   691.94   716.91   722.59   801.48   826.60
eigval :      878.95   881.99   890.03   897.33   925.29   930.48
eigval :      944.35   955.19   965.63  1006.57  1011.74  1034.25
eigval :     1041.86  1054.55  1062.92  1079.21  1092.70  1111.24
eigval :     1125.43  1138.32  1170.43  1174.77  1192.66  1198.00
eigval :     1228.43  1232.92  1241.76  1250.45  1263.79  1269.03
eigval :     1277.55  1298.17  1323.62  1330.26  1342.73  1351.66
eigval :     1360.76  1364.79  1396.30  1412.75  1421.51  1459.08
eigval :     1472.16  1480.71  1481.52  1487.69  1494.48  1719.90
eigval :     1739.91  2887.04  2909.87  2920.23  2927.77  2965.36
eigval :     2965.95  2971.68  2974.68  2987.93  2988.72  2993.77
eigval :     2995.53  3031.26  3043.08  3095.71  3097.29  3118.41
eigval :     3148.62  3420.10  3541.14
           -------------------------------------------------
          |                Property Printout                |
           -------------------------------------------------

    * Orbital Energies and Occupations

         #    Occupation            Energy/Eh            Energy/eV
      -------------------------------------------------------------
         1        2.0000           -0.7085210             -19.2798
       ...           ...                  ...                  ...
        30        2.0000           -0.4630663             -12.6007
        31        2.0000           -0.4581001             -12.4655
        32        2.0000           -0.4573832             -12.4460
        33        2.0000           -0.4456821             -12.1276
        34        2.0000           -0.4386875             -11.9373
        35        2.0000           -0.4314942             -11.7416
        36        2.0000           -0.4287677             -11.6674
        37        2.0000           -0.4184737             -11.3873
        38        2.0000           -0.4145021             -11.2792
        39        2.0000           -0.4100619             -11.1584
        40        2.0000           -0.3988825             -10.8541
        41        2.0000           -0.3896715             -10.6035
        42        2.0000           -0.3842611             -10.4563 (HOMO)
        43                         -0.2015262              -5.4838 (LUMO)
        44                         -0.1940769              -5.2811
        45                         -0.0062962              -0.1713
        46                          0.0284065               0.7730
        47                          0.0338175               0.9202
        48                          0.0603987               1.6435
        49                          0.0651810               1.7737
        50                          0.0813036               2.2124
        51                          0.0854868               2.3262
        52                          0.0942237               2.5640
        53                          0.0988203               2.6890
       ...                                ...                  ...
        80                          0.6547222              17.8159
      -------------------------------------------------------------
                  HL-Gap            0.1827350 Eh            4.9725 eV
             Fermi-level           -0.2928937 Eh           -7.9700 eV

     #   Z          covCN         q      C6AA      α(0)
     1   6 c        3.936     0.000    20.512     6.436
     2   6 c        3.858    -0.037    21.194     6.547
     3   6 c        3.803    -0.062    21.689     6.630
     4   6 c        3.808    -0.059    21.632     6.621
     5   6 c        3.891    -0.033    21.117     6.533
     6   6 c        3.769     0.113    18.766     6.174
     7   6 c        3.833    -0.071    21.826     6.647
     8   6 c        2.974     0.016    27.655     8.626
     9   8 o        1.654    -0.507    23.053     6.482
    10   6 c        3.676     0.083    19.412     6.313
    11   6 c        2.838    -0.113    30.864     9.104
    12   6 c        2.936     0.007    27.856     8.656
    13   6 c        2.844    -0.110    30.779     9.092
    14   1 h        0.924     0.046     2.366     2.406
    15   8 o        1.654    -0.476    22.372     6.385
    16   6 c        3.761    -0.117    22.783     6.804
    17   1 h        0.924     0.042     2.420     2.433
    18   1 h        0.924     0.043     2.404     2.425
    19   1 h        0.924     0.037     2.484     2.465
    20   1 h        0.924     0.042     2.429     2.437
    21   1 h        0.924     0.042     2.418     2.432
    22   1 h        0.924     0.027     2.628     2.535
    23   1 h        0.924     0.063     2.168     2.302
    24   1 h        0.925     0.050     2.324     2.384
    25   1 h        0.804     0.326     0.649     1.266
    26   1 h        0.924     0.031     2.578     2.511
    27   1 h        0.923     0.031     2.570     2.507
    28   1 h        0.926     0.033     2.550     2.497
    29   1 h        0.926     0.033     2.551     2.498
    30   1 h        0.926     0.033     2.547     2.495
    31   1 h        0.926     0.035     2.515     2.480
    32   1 h        0.805     0.311     0.688     1.303
    33   1 h        0.925     0.046     2.370     2.408
    34   1 h        0.925     0.045     2.388     2.417
    35   1 h        0.924     0.051     2.305     2.374

 Mol. C6AA /au·bohr⁶  :      10392.165541
 Mol. C8AA /au·bohr⁸  :     233668.751865
 Mol. α(0) /au        :        153.622692


Wiberg/Mayer (AO) data.
largest (>0.10) Wiberg bond orders for each atom

 ---------------------------------------------------------------------------
     #   Z sym  total        # sym  WBO       # sym  WBO       # sym  WBO
 ---------------------------------------------------------------------------
     1   6 c    3.988 --    10 c    0.985     7 c    0.982     6 c    0.971
                             2 c    0.957
     2   6 c    3.992 --    12 c    0.997     3 c    0.985    14 h    0.963
                             1 c    0.957
     3   6 c    3.996 --     4 c    1.009     2 c    0.985    18 h    0.977
                            17 h    0.976
     4   6 c    3.996 --     3 c    1.009     5 c    0.980    20 h    0.976
                            19 h    0.970
     5   6 c    3.995 --     8 c    0.996     4 c    0.980     6 c    0.971
                            21 h    0.963
     6   6 c    3.953 --     9 o    0.984     5 c    0.971     1 c    0.971
                            22 h    0.955
     7   6 c    3.995 --     8 c    1.008     1 c    0.982    24 h    0.964
                            23 h    0.955
     8   6 c    3.986 --    11 c    1.935     7 c    1.008     5 c    0.996
     9   8 o    1.920 --     6 c    0.984    25 h    0.850
    10   6 c    3.945 --     1 c    0.985    15 o    0.977    26 h    0.971
                            27 h    0.968
    11   6 c    3.987 --     8 c    1.935    28 h    0.975    29 h    0.975
    12   6 c    3.986 --    13 c    1.930    16 c    1.024     2 c    0.997
    13   6 c    3.988 --    12 c    1.930    30 h    0.974    31 h    0.966
    14   1 h    0.998 --     2 c    0.963
    15   8 o    1.958 --    10 c    0.977    32 h    0.887
    16   6 c    3.996 --    12 c    1.024    33 h    0.984    34 h    0.972
                            35 h    0.969
    17   1 h    0.998 --     3 c    0.976
    18   1 h    0.998 --     3 c    0.977
    19   1 h    0.999 --     4 c    0.970
    20   1 h    0.998 --     4 c    0.976
    21   1 h    0.998 --     5 c    0.963
    22   1 h    0.999 --     6 c    0.955
    23   1 h    0.995 --     7 c    0.955
    24   1 h    0.998 --     7 c    0.964
    25   1 h    0.894 --     9 o    0.850
    26   1 h    0.999 --    10 c    0.971
    27   1 h    0.999 --    10 c    0.968
    28   1 h    0.998 --    11 c    0.975
    29   1 h    0.998 --    11 c    0.975
    30   1 h    0.998 --    13 c    0.974
    31   1 h    0.999 --    13 c    0.966
    32   1 h    0.902 --    15 o    0.887
    33   1 h    0.997 --    16 c    0.984
    34   1 h    0.998 --    16 c    0.972
    35   1 h    0.997 --    16 c    0.969
 ---------------------------------------------------------------------------

Topologies differ in total number of bonds
Writing topology from bond orders to xtbtopo.mol

molecular dipole:
                 x           y           z       tot (Debye)
 q only:       -1.062      -0.070       0.964
   full:       -1.349      -0.319       1.098       4.496
molecular quadrupole (traceless):
                xx          xy          yy          xz          yz          zz
 q only:       -2.201       4.840       6.881       0.919      -2.684      -4.680
  q+dip:       -2.802       8.238       6.618       3.135      -5.131      -3.816
   full:       -3.153       7.221       8.439       2.107      -4.111      -5.286

           -------------------------------------------------
          |                Geometry Summary                 |
           -------------------------------------------------

      molecular mass/u    :      208.2971915
   center of mass at/Å    :        0.0139407       0.0049789      -0.0039182
  moments of inertia/u·Å² :        0.6122650E+03   0.8630752E+03   0.1114332E+04
rotational constants/cm⁻¹ :        0.2753323E-01   0.1953205E-01   0.1512802E-01

 * 30 selected distances

     #   Z          #   Z                                           value/Å
     3   6 c        4   6 c                                       1.5292567
     4   6 c        5   6 c                                       1.5306779
     1   6 c        6   6 c                                       1.5375799
     5   6 c        6   6 c                                       1.5350574
     1   6 c        7   6 c                                       1.5412701 (max)
     6   6 c        9   8 o                                       1.4175869
     1   6 c       10   6 c                                       1.5337505
     8   6 c       11   6 c                                       1.3205222
    12   6 c       13   6 c                                       1.3247261
     2   6 c       14   1 h                                       1.0967339
    10   6 c       15   8 o                                       1.4230791
     3   6 c       17   1 h                                       1.0916431
     3   6 c       18   1 h                                       1.0915605
     4   6 c       19   1 h                                       1.0902602
     4   6 c       20   1 h                                       1.0918244
     5   6 c       21   1 h                                       1.0914291
     6   6 c       22   1 h                                       1.0950045
     7   6 c       23   1 h                                       1.0924114
     7   6 c       24   1 h                                       1.0901442
     9   8 o       25   1 h                                       0.9695192
    10   6 c       26   1 h                                       1.0965542
    10   6 c       27   1 h                                       1.0980155
    11   6 c       28   1 h                                       1.0774643
    11   6 c       29   1 h                                       1.0768706
    13   6 c       30   1 h                                       1.0781812
    13   6 c       31   1 h                                       1.0738675
    15   8 o       32   1 h                                       0.9639871 (min)
    16   6 c       33   1 h                                       1.0869138
    16   6 c       34   1 h                                       1.0875379
    16   6 c       35   1 h                                       1.0904156

 * 4 distinct bonds (by element types)

   Z      Z             #   av. dist./Å        max./Å        min./Å
   1 H    6 C          18     1.0887129     1.0980155     1.0738675
   6 C    6 C           8     1.4816051     1.5412701     1.3205222
   1 H    8 O           2     0.9667531     0.9695192     0.9639871
   6 C    8 O           2     1.4203330     1.4230791     1.4175869

           -------------------------------------------------
          |               Frequency Printout                |
           -------------------------------------------------
 projected vibrational frequencies (cm⁻¹)
eigval :       -0.00    -0.00    -0.00    -0.00    -0.00     0.00
eigval :       51.04    90.22   105.52   119.56   127.94   156.01
eigval :      177.67   221.93   248.29   272.51   275.28   287.14
eigval :      298.09   317.38   338.63   347.92   361.11   418.49
eigval :      438.26   465.18   496.43   548.67   575.18   580.67
eigval :      670.68   691.94   716.91   722.59   801.48   826.60
eigval :      878.95   881.99   890.03   897.33   925.29   930.48
eigval :      944.35   955.19   965.63  1006.57  1011.74  1034.25
eigval :     1041.86  1054.55  1062.92  1079.21  1092.70  1111.24
eigval :     1125.43  1138.32  1170.43  1174.77  1192.66  1198.00
eigval :     1228.43  1232.92  1241.76  1250.45  1263.79  1269.03
eigval :     1277.55  1298.17  1323.62  1330.26  1342.73  1351.66
eigval :     1360.76  1364.79  1396.30  1412.75  1421.51  1459.08
eigval :     1472.16  1480.71  1481.52  1487.69  1494.48  1719.90
eigval :     1739.91  2887.04  2909.87  2920.23  2927.77  2965.36
eigval :     2965.95  2971.68  2974.68  2987.93  2988.72  2993.77
eigval :     2995.53  3031.26  3043.08  3095.71  3097.29  3118.41
eigval :     3148.62  3420.10  3541.14
 reduced masses (amu)
   1: 10.36   2: 10.78   3: 11.60   4: 11.45   5: 11.37   6: 12.19   7: 10.98   8: 10.16
   9: 10.52  10:  8.88  11:  6.13  12:  7.91  13: 10.38  14:  5.01  15: 10.61  16:  8.03
  17:  8.31  18:  7.63  19:  8.80  20:  8.26  21: 10.22  22:  7.77  23:  8.52  24:  9.00
  25:  9.98  26:  9.88  27:  8.42  28:  9.20  29:  8.32  30:  9.48  31: 10.18  32:  4.31
  33:  4.08  34:  5.55  35:  9.81  36:  7.69  37:  8.21  38:  7.08  39:  5.19  40:  4.00
  41:  7.78  42:  7.03  43:  6.40  44:  5.58  45:  5.59  46:  6.57  47:  6.66  48:  6.82
  49:  4.80  50:  9.06  51:  6.26  52:  9.66  53:  6.42  54:  8.05  55:  6.09  56:  6.94
  57:  3.60  58:  4.48  59:  5.48  60:  5.41  61:  7.02  62:  6.06  63:  4.33  64:  6.74
  65:  5.91  66:  5.08  67:  6.21  68:  4.78  69:  5.10  70:  5.18  71:  3.74  72:  4.64
  73:  4.09  74:  4.53  75:  2.95  76:  2.38  77:  2.45  78:  1.90  79:  1.72  80:  1.78
  81:  1.70  82:  1.67  83:  1.96  84: 11.23  85: 11.58  86:  1.89  87:  1.76  88:  1.53
  89:  1.72  90:  1.95  91:  1.93  92:  1.77  93:  1.93  94:  1.54  95:  1.55  96:  1.54
  97:  1.81  98:  1.72  99:  1.59 100:  1.71 101:  1.53 102:  2.08 103:  1.89 104:  1.88
 105:  1.88
 IR intensities (km·mol⁻¹)
   1:  0.69   2:  0.21   3:  0.04   4:  0.19   5:  0.14   6:  0.69   7:  5.78   8:  1.94
   9: 15.10  10:  1.11  11:  2.01  12:  0.70  13:  1.71  14: 55.72  15: 12.53  16: 34.07
  17:  1.77  18: 19.54  19:  0.72  20: 31.73  21: 10.24  22:100.06  23: 64.03  24:  3.73
  25:  2.73  26:  0.70  27:  3.15  28: 10.25  29:  6.06  30:  1.32  31:  1.17  32:  2.68
  33:  2.84  34:  1.07  35:  6.27  36:  5.07  37:  3.08  38:  4.19  39: 39.32  40: 14.93
  41:  3.04  42: 15.42  43:  3.98  44:  0.91  45:  1.26  46:  4.58  47: 35.37  48:  8.51
  49:  0.51  50: 12.35  51: 56.82  52: 57.15  53: 23.57  54:107.60  55:  5.48  56:  5.27
  57: 41.49  58: 34.72  59: 21.69  60: 17.99  61: 20.74  62:  4.54  63:  8.31  64: 17.35
  65: 17.72  66:  3.09  67: 33.65  68: 19.39  69:  6.36  70: 39.26  71: 23.91  72: 14.80
  73: 15.64  74:  4.16  75:  2.44  76:  5.97  77: 13.21  78:  2.88  79:  3.15  80:  1.25
  81:  1.70  82:  2.17  83:  0.72  84: 25.28  85: 32.03  86: 61.25  87: 68.60  88: 46.46
  89: 89.92  90: 32.42  91:  6.94  92: 45.04  93: 91.78  94: 15.34  95:113.90  96:107.66
  97: 42.96  98: 45.19  99: 43.16 100: 73.42 101: 39.75 102: 64.40 103: 44.42 104:285.68
 105: 21.36
 Raman intensities (Ä⁴*amu⁻¹)
   1:  0.00   2:  0.00   3:  0.00   4:  0.00   5:  0.00   6:  0.00   7:  0.00   8:  0.00
   9:  0.00  10:  0.00  11:  0.00  12:  0.00  13:  0.00  14:  0.00  15:  0.00  16:  0.00
  17:  0.00  18:  0.00  19:  0.00  20:  0.00  21:  0.00  22:  0.00  23:  0.00  24:  0.00
  25:  0.00  26:  0.00  27:  0.00  28:  0.00  29:  0.00  30:  0.00  31:  0.00  32:  0.00
  33:  0.00  34:  0.00  35:  0.00  36:  0.00  37:  0.00  38:  0.00  39:  0.00  40:  0.00
  41:  0.00  42:  0.00  43:  0.00  44:  0.00  45:  0.00  46:  0.00  47:  0.00  48:  0.00
  49:  0.00  50:  0.00  51:  0.00  52:  0.00  53:  0.00  54:  0.00  55:  0.00  56:  0.00
  57:  0.00  58:  0.00  59:  0.00  60:  0.00  61:  0.00  62:  0.00  63:  0.00  64:  0.00
  65:  0.00  66:  0.00  67:  0.00  68:  0.00  69:  0.00  70:  0.00  71:  0.00  72:  0.00
  73:  0.00  74:  0.00  75:  0.00  76:  0.00  77:  0.00  78:  0.00  79:  0.00  80:  0.00
  81:  0.00  82:  0.00  83:  0.00  84:  0.00  85:  0.00  86:  0.00  87:  0.00  88:  0.00
  89:  0.00  90:  0.00  91:  0.00  92:  0.00  93:  0.00  94:  0.00  95:  0.00  96:  0.00
  97:  0.00  98:  0.00  99:  0.00 100:  0.00 101:  0.00 102:  0.00 103:  0.00 104:  0.00
 105:  0.00
 output can be read by thermo (or use thermo option).
 writing <g98.out> molden fake output.
 recommended (thermochemical) frequency scaling factor: 1.0
           -------------------------------------------------
          |             Thermodynamic Functions             |
           -------------------------------------------------

Molecule has no symmetry elements
It seems to be the C1 point group
c1  symmetry found (for desy threshold:  0.10E+00) used in thermo

          ...................................................
          :                      SETUP                      :
          :.................................................:
          :  # frequencies                          99      :
          :  # imaginary freq.                       0      :
          :  linear?                             false      :
          :  only rotor calc.                    false      :
          :  symmetry                               c1      :
          :  rotational number                       1      :
          :  scaling factor                  1.0000000      :
          :  rotor cutoff                   50.0000000 cm⁻¹ :
          :  imag. cutoff                  -50.0000000 cm⁻¹ :
          :.................................................:

    mode    ω/cm⁻¹     T·S(HO)/kcal·mol⁻¹    T·S(FR)/kcal·mol⁻¹   T·S(vib)
   ------------------------------------------------------------------------
       1     51.04    -1.42411 ( 52.07%)    -1.05031 ( 47.93%)    -1.24494
       2     90.22    -1.08980 ( 91.38%)    -0.88162 (  8.62%)    -1.07186
       3    105.52    -0.99870 ( 95.20%)    -0.83523 (  4.80%)    -0.99086
       4    119.56    -0.92652 ( 97.03%)    -0.79825 (  2.97%)    -0.92271
       5    127.94    -0.88754 ( 97.72%)    -0.77818 (  2.28%)    -0.88505
       6    156.01    -0.77449 ( 98.96%)    -0.71943 (  1.04%)    -0.77391
       7    177.67    -0.70146 ( 99.38%)    -0.68091 (  0.62%)    -0.70133
       8    221.93    -0.57938 ( 99.74%)    -0.61502 (  0.26%)    -0.57947
       9    248.29    -0.51958 ( 99.84%)    -0.58178 (  0.16%)    -0.51968
      10    272.51    -0.47115 ( 99.89%)    -0.55421 (  0.11%)    -0.47125
      11    275.28    -0.46596 ( 99.89%)    -0.55121 (  0.11%)    -0.46605
      12    287.14    -0.44446 ( 99.91%)    -0.53871 (  0.09%)    -0.44455
      13    298.09    -0.42564 ( 99.92%)    -0.52763 (  0.08%)    -0.42572
   ------------------------------------------------------------------------

   temp. (K)  partition function   enthalpy   heat capacity  entropy
                                   cal/mol     cal/K/mol   cal/K/mol   J/K/mol
 298.15  VIB  0.261E+05             7799.293     54.410     45.659
         ROT  0.185E+07              888.752      2.981     31.662
         INT  0.483E+11             8688.045     57.391     77.322
         TR   0.291E+28             1481.254      4.968     41.886
         TOT                       10169.2988    62.3594   119.2081   498.7668

       T/K    H(0)-H(T)+PV         H(T)/Eh          T*S/Eh         G(T)/Eh
   ------------------------------------------------------------------------
    298.15    0.162058E-01    0.317378E+00    0.566396E-01    0.260738E+00
   ------------------------------------------------------------------------

         :::::::::::::::::::::::::::::::::::::::::::::::::::::
         ::                  THERMODYNAMIC                  ::
         :::::::::::::::::::::::::::::::::::::::::::::::::::::
         :: total free energy         -45.899604762997 Eh   ::
         ::.................................................::
         :: total energy              -46.160343042815 Eh   ::
         :: zero point energy           0.301172101893 Eh   ::
         :: G(RRHO) w/o ZPVE           -0.040433822075 Eh   ::
         :: G(RRHO) contrib.            0.260738279817 Eh   ::
         :::::::::::::::::::::::::::::::::::::::::::::::::::::

optimized geometry written to: xtbopt.coord


           -------------------------------------------------
          | TOTAL ENERGY              -46.160343042815 Eh   |
          | TOTAL ENTHALPY            -45.842965131678 Eh   |
          | TOTAL FREE ENERGY         -45.899604762997 Eh   |
          | GRADIENT NORM               0.000081139115 Eh/α |
          | HOMO-LUMO GAP               4.972471850304 eV   |
           -------------------------------------------------

------------------------------------------------------------------------
 * finished run on 2026/08/09 at 15:28:19.424     
------------------------------------------------------------------------
 total:
 * wall-time:     0 d,  0 h,  0 min,  1.274 sec
 *  cpu-time:     0 d,  0 h,  0 min, 15.027 sec
 * ratio c/w:    11.792 speedup
 SCF:
 * wall-time:     0 d,  0 h,  0 min,  0.072 sec
 *  cpu-time:     0 d,  0 h,  0 min,  0.801 sec
 * ratio c/w:    11.050 speedup
 ANC optimizer:
 * wall-time:     0 d,  0 h,  0 min,  0.449 sec
 *  cpu-time:     0 d,  0 h,  0 min,  5.372 sec
 * ratio c/w:    11.965 speedup
 analytical hessian:
 * wall-time:     0 d,  0 h,  0 min,  0.715 sec
 *  cpu-time:     0 d,  0 h,  0 min,  8.525 sec
 * ratio c/w:    11.930 speedup

normal termination of xtb
