      -----------------------------------------------------------      
     |                   =====================                   |     
     |                           x T B                           |     
     |                   =====================                   |     
     |                         S. Grimme                         |     
     |          Mulliken Center for Theoretical Chemistry        |     
     |                    University of Bonn                     |     
      -----------------------------------------------------------      

   * xtb version 6.7.1 (edcfbbe) compiled by 'albert@albert-system' on 2024-07-22

   xtb is free software: you can redistribute it and/or modify it under
   the terms of the GNU Lesser General Public License as published by
   the Free Software Foundation, either version 3 of the License, or
   (at your option) any later version.
   
   xtb is distributed in the hope that it will be useful,
   but WITHOUT ANY WARRANTY; without even the implied warranty of
   MERCHANTABILITY or FITNESS FOR A PARTICULAR PURPOSE.  See the
   GNU Lesser General Public License for more details.
   
   Cite this work as:
   * C. Bannwarth, E. Caldeweyher, S. Ehlert, A. Hansen, P. Pracht,
     J. Seibert, S. Spicher, S. Grimme, WIREs Comput. Mol. Sci., 2020, 11,
     e01493. DOI: 10.1002/wcms.1493
   
   for GFN2-xTB:
   * C. Bannwarth, S. Ehlert and S. Grimme., J. Chem. Theory Comput., 2019,
     15, 1652-1671. DOI: 10.1021/acs.jctc.8b01176
   for GFN1-xTB:
   * S. Grimme, C. Bannwarth, P. Shushkov, J. Chem. Theory Comput., 2017,
     13, 1989-2009. DOI: 10.1021/acs.jctc.7b00118
   for GFN0-xTB:
   * P. Pracht, E. Caldeweyher, S. Ehlert, S. Grimme, ChemRxiv, 2019, preprint.
     DOI: 10.26434/chemrxiv.8326202.v1
   for GFN-FF:
   * S. Spicher and S. Grimme, Angew. Chem. Int. Ed., 2020, 59, 15665-15673.
     DOI: 10.1002/anie.202004239
   
   for ALPB and GBSA implicit solvation:
   * S. Ehlert, M. Stahn, S. Spicher, S. Grimme, J. Chem. Theory Comput.,
     2021, 17, 4250-4261. DOI: 10.1021/acs.jctc.1c00471
   
   for ddCOSMO and CPCM-X implicit solvation:
   * M. Stahn, S. Ehlert, S. Grimme, J. Phys. Chem. A,
     2023, XX, XXXX-XXXX. DOI: 10.1021/acs.jpca.3c04382
   
   for DFT-D4:
   * E. Caldeweyher, C. Bannwarth and S. Grimme, J. Chem. Phys., 2017,
     147, 034112. DOI: 10.1063/1.4993215
   * E. Caldeweyher, S. Ehlert, A. Hansen, H. Neugebauer, S. Spicher,
     C. Bannwarth and S. Grimme, J. Chem. Phys., 2019, 150, 154122.
     DOI: 10.1063/1.5090222
   * E. Caldeweyher, J.-M. Mewes, S. Ehlert and S. Grimme, Phys. Chem. Chem. Phys.
     2020, 22, 8499-8512. DOI: 10.1039/D0CP00502A
   
   for sTDA-xTB:
   * S. Grimme and C. Bannwarth, J. Chem. Phys., 2016, 145, 054103.
     DOI: 10.1063/1.4959605
   
   in the mass-spec context:
   * V. Asgeirsson, C. Bauer and S. Grimme, Chem. Sci., 2017, 8, 4879.
     DOI: 10.1039/c7sc00601b
   * J. Koopman and S. Grimme, ACS Omega 2019, 4, 12, 15120-15133.
     DOI: 10.1021/acsomega.9b02011
   
   for metadynamics refer to:
   * S. Grimme, J. Chem. Theory Comput., 2019, 155, 2847-2862
     DOI: 10.1021/acs.jctc.9b00143
   
   for SPH calculations refer to:
   * S. Spicher and S. Grimme, J. Chem. Theory Comput., 2021, 17, 1701-1714
     DOI: 10.1021/acs.jctc.0c01306
   
   for ONIOM refer to:
   * C. Plett, A. Katbashev, S. Ehlert, S. Grimme, M. Bursch,
     Phys. Chem. Chem. Phys., 2023, 25, 17860-17868. DOI: 10.1039/D3CP02178E
   
   for DIPRO refer to:
   * J. Kohn, N. Gildemeister, S. Grimme, D. Fazzi, A. Hansen,
     J. Chem. Phys., 2023, just accepted.
   
   for PTB refer to:
   * S. Grimme, M. Mueller, A. Hansen, J. Chem. Phys., 2023, 158, 124111.
     DOI: 10.1063/5.0137838
   
   with help from (in alphabetical order)
   P. Atkinson, C. Bannwarth, F. Bohle, G. Brandenburg, E. Caldeweyher
   M. Checinski, S. Dohm, S. Ehlert, S. Ehrlich, I. Gerasimov, C. Hölzer
   A. Katbashev, J. Kohn, J. Koopman, C. Lavigne, S. Lehtola, F. März, M. Müller,
   F. Musil, H. Neugebauer, J. Pisarek, C. Plett, P. Pracht, F. Pultar,
   J. Seibert, P. Shushkov, S. Spicher, M. Stahn, M. Steiner, T. Strunk,
   J. Stückrath, T. Rose, and J. Unsleber
   
 * started run on 2026/08/09 at 15:28:22.030     
   ID    Z sym.   atoms
    1    6 c      1-8, 10-13, 16
    2    8 o      9, 15
    3    1 h      14, 17-35

           -------------------------------------------------
          |                Calculation Setup                |
           -------------------------------------------------

          program call               : /home/dinglab/software/xtb_6.7.1/xtb_dist/bin/xtb coord --gfn2 --ohess vtight --alpb chcl3 --chrg 0 --enso --norestart -I xcontrol-inp --parallel 12
          hostname                   : localhost
          coordinate file            : coord
          omp threads                :                    12


           -------------------------------------------------
          |                 G F N 2 - x T B                 |
           -------------------------------------------------

        Reference                      10.1021/acs.jctc.8b01176
      * Hamiltonian:
        H0-scaling (s, p, d)           1.850000    2.230000    2.230000
        zeta-weighting                 0.500000
      * Dispersion:
        s8                             2.700000
        a1                             0.520000
        a2                             5.000000
        s9                             5.000000
      * Repulsion:
        kExp                           1.500000    1.000000
        rExp                           1.000000
      * Coulomb:
        alpha                          2.000000
        third order                    shell-resolved
        anisotropic                    true
        a3                             3.000000
        a5                             4.000000
        cn-shift                       1.200000
        cn-exp                         4.000000
        max-rad                        5.000000

      * Solvation model:               ALPB
        Solvent                        chcl3
        Parameter file                 internal GFN2-xTB/ALPB
        Dielectric constant                4.8100E+00
        Reference state                gsolv [1 M gas/solution]
        Free energy shift                  3.8910E-03 Eh       2.4417E+00 kcal/mol
        Temperature                        2.9815E+02 K
        Density                            1.4900E+00 kg/L
        Solvent mass                       1.1938E+02 g/mol
        Interaction kernel             P16
        Born radius scaling (c1)           1.3274E+00
        Born radii integrator          GBOBC
        Born offset                        0.0000E+00 a0       0.0000E+00 AA
        H-bond correction              false
        Ion screening                  false
        Surface tension                    1.0000E-05 Eh       1.5569E+01 dyn/cm
        Grid points                               974 per atom

          ...................................................
          :                      SETUP                      :
          :.................................................:
          :  # basis functions                  80          :
          :  # atomic orbitals                  80          :
          :  # shells                           50          :
          :  # electrons                        84          :
          :  max. iterations                   250          :
          :  Hamiltonian                  GFN2-xTB          :
          :  restarted?                      false          :
          :  GBSA solvation                   true          :
          :  PC potential                    false          :
          :  electronic temp.          300.0000000     K    :
          :  accuracy                    1.0000000          :
          :  -> integral cutoff          0.2500000E+02      :
          :  -> integral neglect         0.1000000E-07      :
          :  -> SCF convergence          0.1000000E-05 Eh   :
          :  -> wf. convergence          0.1000000E-03 e    :
          :  Broyden damping             0.4000000          :
          :  net charge                          0          :
          :  unpaired electrons                  0          :
          ...................................................

 iter      E             dE          RMSdq      gap      omega  full diag
   1    -46.7333401 -0.467333E+02  0.340E+00    5.18       0.0  T
   2    -46.7759726 -0.426325E-01  0.193E+00    5.08       1.0  T
   3    -46.7716147  0.435788E-02  0.796E-01    5.01       1.0  T
   4    -46.7781626 -0.654784E-02  0.346E-01    4.93       1.0  T
   5    -46.7802692 -0.210664E-02  0.763E-02    4.95       1.0  T
   6    -46.7802978 -0.286214E-04  0.412E-02    4.95       1.0  T
   7    -46.7803036 -0.575728E-05  0.119E-02    4.95       1.4  T
   8    -46.7803045 -0.943084E-06  0.374E-03    4.95       4.5  T
   9    -46.7803046 -0.976995E-07  0.222E-03    4.95       7.6  T
  10    -46.7803047 -0.537056E-07  0.853E-04    4.95      19.8  T
  11    -46.7803047 -0.414860E-08  0.330E-04    4.95      51.2  T

   *** convergence criteria satisfied after 11 iterations ***

         #    Occupation            Energy/Eh            Energy/eV
      -------------------------------------------------------------
         1        2.0000           -0.6986710             -19.0118
       ...           ...                  ...                  ...
        36        2.0000           -0.4304071             -11.7120
        37        2.0000           -0.4218240             -11.4784
        38        2.0000           -0.4180425             -11.3755
        39        2.0000           -0.4107367             -11.1767
        40        2.0000           -0.4040968             -10.9960
        41        2.0000           -0.3937611             -10.7148
        42        2.0000           -0.3869472             -10.5294 (HOMO)
        43                         -0.2051920              -5.5836 (LUMO)
        44                         -0.1946079              -5.2956
        45                          0.0140718               0.3829
        46                          0.0208905               0.5685
        47                          0.0402454               1.0951
       ...                                ...                  ...
        80                          0.6563759              17.8609
      -------------------------------------------------------------
                  HL-Gap            0.1817552 Eh            4.9458 eV
             Fermi-level           -0.2960696 Eh           -8.0565 eV

 SCC (total)                   0 d,  0 h,  0 min,  0.090 sec
 SCC setup                      ...        0 min,  0.001 sec (  1.034%)
 Dispersion                     ...        0 min,  0.000 sec (  0.546%)
 classical contributions        ...        0 min,  0.000 sec (  0.037%)
 integral evaluation            ...        0 min,  0.002 sec (  1.840%)
 iterations                     ...        0 min,  0.083 sec ( 92.251%)
 molecular gradient             ...        0 min,  0.004 sec (  4.065%)
 printout                       ...        0 min,  0.000 sec (  0.176%)

         :::::::::::::::::::::::::::::::::::::::::::::::::::::
         ::                     SUMMARY                     ::
         :::::::::::::::::::::::::::::::::::::::::::::::::::::
         :: total energy             -46.158368968288 Eh    ::
         :: total w/o Gsasa/hb       -46.146326475193 Eh    ::
         :: gradient norm              0.008159085137 Eh/a0 ::
         :: HOMO-LUMO gap              4.945810952796 eV    ::
         ::.................................................::
         :: SCC energy               -46.779642538828 Eh    ::
         :: -> isotropic ES            0.062554354745 Eh    ::
         :: -> anisotropic ES          0.007246169396 Eh    ::
         :: -> anisotropic XC          0.016933068130 Eh    ::
         :: -> dispersion             -0.036223908979 Eh    ::
         :: -> Gsolv                  -0.020375611887 Eh    ::
         ::    -> Gelec               -0.008333118792 Eh    ::
         ::    -> Gsasa               -0.015933512338 Eh    ::
         ::    -> Ghb                  0.000000000000 Eh    ::
         ::    -> Gshift               0.003891019244 Eh    ::
         :: repulsion energy           0.621273570541 Eh    ::
         :: add. restraining           0.000000000000 Eh    ::
         :: total charge               0.000000000000 e     ::
         :::::::::::::::::::::::::::::::::::::::::::::::::::::

      ----------------------------------------------------------- 
     |                   =====================                   |
     |                        A N C O P T                        |
     |                   =====================                   |
     |               Approximate Normal Coordinate               |
     |                Rational Function Optimizer                |
      ----------------------------------------------------------- 
      ----------------------------------------------------------- 
     |                   =====================                   |
     |                        A N C O P T                        |
     |                   =====================                   |
     |               Approximate Normal Coordinate               |
     |                Rational Function Optimizer                |
      ----------------------------------------------------------- 

          ...................................................
          :                      SETUP                      :
          :.................................................:
          :   optimization level         verytight          :
          :   max. optcycles                   700          :
          :   ANC micro-cycles                  20          :
          :   degrees of freedom                99          :
          :.................................................:
          :   RF solver                   davidson          :
          :   write xtbopt.log                true          :
          :   linear?                        false          :
          :   energy convergence         0.1000000E-06 Eh   :
          :   grad. convergence          0.2000000E-03 Eh/α :
          :   maxmium RF displ.          1.0000000          :
          :   Hlow (freq-cutoff)         0.1000000E-01      :
          :   Hmax (freq-cutoff)         5.0000000          :
          :   S6 in model hess.         20.0000000          :
          ...................................................

generating ANC from exact Hessian ...
Using Lindh-Hessian (1995)
 Shifting diagonal of input Hessian by   8.828528376584086E-003
 Lowest  eigenvalues of input Hessian
    0.000000    0.000000    0.000000    0.000000    0.000000    0.000000
    0.010000    0.010771    0.011237    0.012743    0.013321    0.014677
    0.015068    0.016893    0.017564    0.018995    0.019542    0.020452
 Highest eigenvalues
    1.502631    1.504826    1.511564    1.530667    1.919288    1.973650
 

........................................................................
.............................. CYCLE    1 ..............................
........................................................................

 iter      E             dE          RMSdq      gap      omega  full diag
   1    -46.7803047 -0.467803E+02  0.838E-05    4.95       0.0  T
   2    -46.7803047 -0.229576E-10  0.521E-05    4.95     324.6  T
   3    -46.7803047  0.158451E-11  0.335E-05    4.95     504.3  T
     SCC iter.                  ...        0 min,  0.005 sec
     gradient                   ...        0 min,  0.003 sec
 * total energy  :   -46.1583690 Eh     change       -0.7092424E-09 Eh
   gradient norm :     0.0081595 Eh/α   predicted     0.0000000E+00 (-100.00%)
   displ. norm   :     0.0219378 α      lambda       -0.7113464E-04
   maximum displ.:     0.0080621 α      in ANC's #4, #7, #23, ...

........................................................................
.............................. CYCLE    2 ..............................
........................................................................

 iter      E             dE          RMSdq      gap      omega  full diag
   1    -46.7789269 -0.467789E+02  0.123E-02    4.94       0.0  T
   2    -46.7789274 -0.439499E-06  0.731E-03    4.94       2.3  T
   3    -46.7789273  0.584409E-07  0.363E-03    4.94       4.7  T
   4    -46.7789274 -0.133517E-06  0.106E-03    4.94      15.9  T
   5    -46.7789275 -0.251752E-07  0.353E-04    4.94      47.9  T
   6    -46.7789275 -0.884917E-09  0.158E-04    4.94     107.0  T
     SCC iter.                  ...        0 min,  0.008 sec
     gradient                   ...        0 min,  0.003 sec
 * total energy  :   -46.1584214 Eh     change       -0.5244076E-04 Eh
   gradient norm :     0.0040746 Eh/α   predicted    -0.3714641E-04 ( -29.16%)
   displ. norm   :     0.0257350 α      lambda       -0.2864188E-04
   maximum displ.:     0.0128455 α      in ANC's #4, #2, #7, ...

........................................................................
.............................. CYCLE    3 ..............................
........................................................................

 iter      E             dE          RMSdq      gap      omega  full diag
   1    -46.7782296 -0.467782E+02  0.123E-02    4.94       0.0  T
   2    -46.7782300 -0.426274E-06  0.723E-03    4.94       2.3  T
   3    -46.7782300  0.332878E-07  0.328E-03    4.94       5.2  T
   4    -46.7782301 -0.982052E-07  0.912E-04    4.94      18.5  T
   5    -46.7782301 -0.175675E-07  0.333E-04    4.94      50.8  T
     SCC iter.                  ...        0 min,  0.007 sec
     gradient                   ...        0 min,  0.003 sec
 * total energy  :   -46.1584392 Eh     change       -0.1777231E-04 Eh
   gradient norm :     0.0010816 Eh/α   predicted    -0.1622601E-04 (  -8.70%)
   displ. norm   :     0.0194536 α      lambda       -0.3285280E-05
   maximum displ.:     0.0107682 α      in ANC's #2, #4, #10, ...

........................................................................
.............................. CYCLE    4 ..............................
........................................................................

 iter      E             dE          RMSdq      gap      omega  full diag
   1    -46.7784609 -0.467785E+02  0.801E-03    4.94       0.0  T
   2    -46.7784610 -0.445975E-07  0.477E-03    4.94       3.5  T
   3    -46.7784610  0.226169E-07  0.121E-03    4.94      14.0  T
   4    -46.7784610 -0.307205E-07  0.305E-04    4.94      55.5  T
   5    -46.7784610 -0.182709E-08  0.121E-04    4.94     139.9  T
     SCC iter.                  ...        0 min,  0.007 sec
     gradient                   ...        0 min,  0.003 sec
 * total energy  :   -46.1584419 Eh     change       -0.2712948E-05 Eh
   gradient norm :     0.0007502 Eh/α   predicted    -0.1913815E-05 ( -29.46%)
   displ. norm   :     0.0222853 α      lambda       -0.2607315E-05
   maximum displ.:     0.0144182 α      in ANC's #2, #4, #3, ...

........................................................................
.............................. CYCLE    5 ..............................
........................................................................

 iter      E             dE          RMSdq      gap      omega  full diag
   1    -46.7787330 -0.467787E+02  0.909E-03    4.94       0.0  T
   2    -46.7787330 -0.840141E-08  0.537E-03    4.94       3.1  T
   3    -46.7787330  0.182495E-08  0.456E-04    4.94      37.0  T
   4    -46.7787330 -0.487731E-08  0.172E-04    4.94      98.4  T
     SCC iter.                  ...        0 min,  0.005 sec
     gradient                   ...        0 min,  0.003 sec
 * total energy  :   -46.1584440 Eh     change       -0.2136897E-05 Eh
   gradient norm :     0.0007956 Eh/α   predicted    -0.1304385E-05 ( -38.96%)
   displ. norm   :     0.0173793 α      lambda       -0.1390204E-05
   maximum displ.:     0.0115022 α      in ANC's #2, #4, #3, ...

........................................................................
.............................. CYCLE    6 ..............................
........................................................................

 iter      E             dE          RMSdq      gap      omega  full diag
   1    -46.7787417 -0.467787E+02  0.662E-03    4.94       0.0  T
   2    -46.7787417 -0.145506E-07  0.390E-03    4.94       4.3  T
   3    -46.7787417  0.162130E-07  0.880E-04    4.94      19.2  T
   4    -46.7787417 -0.194726E-07  0.205E-04    4.94      82.5  T
     SCC iter.                  ...        0 min,  0.005 sec
     gradient                   ...        0 min,  0.003 sec
 * total energy  :   -46.1584456 Eh     change       -0.1573755E-05 Eh
   gradient norm :     0.0004992 Eh/α   predicted    -0.6954713E-06 ( -55.81%)
   displ. norm   :     0.0329424 α      lambda       -0.1642484E-05
   maximum displ.:     0.0211365 α      in ANC's #2, #4, #3, ...

........................................................................
.............................. CYCLE    7 ..............................
........................................................................

 iter      E             dE          RMSdq      gap      omega  full diag
   1    -46.7785907 -0.467786E+02  0.125E-02    4.94       0.0  T
   2    -46.7785908 -0.180060E-07  0.736E-03    4.94       2.3  T
   3    -46.7785907  0.389680E-07  0.127E-03    4.94      13.4  T
   4    -46.7785908 -0.466116E-07  0.224E-04    4.94      75.3  T
   5    -46.7785908 -0.611799E-09  0.112E-04    4.94     150.7  T
     SCC iter.                  ...        0 min,  0.007 sec
     gradient                   ...        0 min,  0.003 sec
 * total energy  :   -46.1584471 Eh     change       -0.1494193E-05 Eh
   gradient norm :     0.0002485 Eh/α   predicted    -0.8231237E-06 ( -44.91%)
   displ. norm   :     0.0187449 α      lambda       -0.5139387E-06
   maximum displ.:     0.0119418 α      in ANC's #2, #4, #5, ...

........................................................................
.............................. CYCLE    8 ..............................
........................................................................

 iter      E             dE          RMSdq      gap      omega  full diag
   1    -46.7785563 -0.467786E+02  0.712E-03    4.94       0.0  T
   2    -46.7785563 -0.291968E-08  0.420E-03    4.94       4.0  T
   3    -46.7785563  0.569018E-08  0.513E-04    4.94      32.9  T
   4    -46.7785563 -0.748616E-08  0.103E-04    4.94     164.6  T
     SCC iter.                  ...        0 min,  0.006 sec
     gradient                   ...        0 min,  0.003 sec
 * total energy  :   -46.1584473 Eh     change       -0.1852682E-06 Eh
   gradient norm :     0.0002495 Eh/α   predicted    -0.2576624E-06 (  39.08%)
   displ. norm   :     0.0040422 α      lambda       -0.2703494E-06
   maximum displ.:     0.0025548 α      in ANC's #2, #1, #7, ...

........................................................................
.............................. CYCLE    9 ..............................
........................................................................

 iter      E             dE          RMSdq      gap      omega  full diag
   1    -46.7786098 -0.467786E+02  0.187E-03    4.94       0.0  T
   2    -46.7786098 -0.670440E-09  0.111E-03    4.94      15.2  T
   3    -46.7786098  0.415454E-10  0.111E-04    4.94     152.8  T
   4    -46.7786098 -0.261174E-09  0.476E-05    4.94     355.0  T
     SCC iter.                  ...        0 min,  0.006 sec
     gradient                   ...        0 min,  0.003 sec
 * total energy  :   -46.1584475 Eh     change       -0.2375096E-06 Eh
   gradient norm :     0.0000737 Eh/α   predicted    -0.1391100E-06 ( -41.43%)
   displ. norm   :     0.0042022 α      lambda       -0.5954699E-07
   maximum displ.:     0.0024224 α      in ANC's #2, #1, #9, ...

........................................................................
.............................. CYCLE   10 ..............................
........................................................................

 iter      E             dE          RMSdq      gap      omega  full diag
   1    -46.7786207 -0.467786E+02  0.112E-03    4.94       0.0  T
   2    -46.7786207 -0.160362E-09  0.669E-04    4.94      25.3  T
   3    -46.7786207  0.206938E-09  0.105E-04    4.94     160.6  T
     SCC iter.                  ...        0 min,  0.004 sec
     gradient                   ...        0 min,  0.003 sec
 * total energy  :   -46.1584476 Eh     change       -0.8154765E-07 Eh
   gradient norm :     0.0000516 Eh/α   predicted    -0.3430721E-07 ( -57.93%)
   displ. norm   :     0.0096672 α      lambda       -0.1241441E-06
   maximum displ.:     0.0046268 α      in ANC's #1, #9, #2, ...

   *** GEOMETRY OPTIMIZATION CONVERGED AFTER 10 ITERATIONS ***

------------------------------------------------------------------------
 total energy gain   :        -0.0000786 Eh       -0.0493 kcal/mol
 total RMSD          :         0.0245564 a0        0.0130 Å
 total power (kW/mol):        -0.0206459 (step)   -1.2439 (real)
------------------------------------------------------------------------

 ANCopt (total)                0 d,  0 h,  0 min,  0.166 sec
 optimizer setup                ...        0 min,  0.000 sec (  0.092%)
 model hessian                  ...        0 min,  0.049 sec ( 29.587%)
 ANC generation                 ...        0 min,  0.002 sec (  1.078%)
 coordinate transformation      ...        0 min,  0.000 sec (  0.089%)
 single point calculation       ...        0 min,  0.112 sec ( 67.613%)
 optimization log               ...        0 min,  0.001 sec (  0.784%)
 hessian update                 ...        0 min,  0.000 sec (  0.081%)
 rational function              ...        0 min,  0.001 sec (  0.365%)

================
 final structure:
================
$coord
        0.16418219123478       -1.18789413411471        0.20014404892535      c
       -1.77910816345023        0.75486999099694        1.23321902024920      c
       -0.59916053863452        3.41975510552374        1.39163897230432      c
        1.10058958026745        4.15848126880786       -0.82598719554455      c
        2.82762656705389        1.95631549289631       -1.55712835004343      c
        1.17796376255145       -0.27238391016803       -2.37612406725085      c
        2.56751696379792       -1.14075030725949        1.84268188427517      c
        4.15238070231294        0.95478173726581        0.75565294925492      c
        2.73203330005082       -2.05982829969675       -3.62784088676565      o
       -0.95911689544724       -3.85604129927015        0.04899520248127      c
        6.32245010846897        1.78268012551223        1.66689614202546      c
       -4.31988205688430        0.73372043184349       -0.09999432208685      c
       -4.81182763217941        1.88545666630977       -2.26806278057230      c
       -2.16070803631554        0.19851081684318        3.19429666790655      h
       -1.56763189769785       -4.90559074969157        2.42372502764336      o
       -6.41035430488713       -0.59628674315294        1.29683461344140      c
       -2.11633105562016        4.80396352042916        1.58885578430922      h
        0.54375635485359        3.50541276974688        3.10675344530451      h
       -0.00995294392878        4.72282491650354       -2.46711466919605      h
        2.25251874497335        5.77667064563435       -0.26953070517909      h
        4.14459018759075        2.50905251912350       -3.04430118974912      h
       -0.35229917479542        0.30201870659452       -3.64316970477783      h
        3.56853693104488       -2.93603178606184        1.65124184778188      h
        2.16296014295240       -0.86837945366965        3.84376260382446      h
        1.68208513064079       -3.37476889717362       -4.32482646103880      h
        0.44122049557009       -5.15267215033452       -0.74288136337289      h
       -2.62758871941222       -3.84575017509235       -1.19222250476649      h
        7.14878348672023        0.99281135982466        3.35145141183174      h
        7.36481118164438        3.27648150791506        0.75950147132057      h
       -6.67862567696383        1.83340721366166       -3.08262420156670      h
       -3.43274044194332        2.93578854212624       -3.32330190963278      h
       -2.66376752987133       -3.73930799401301        3.30398278130348      h
       -6.58610462943669        0.16381170766598        3.20333988837366      h
       -8.20559972808738       -0.34265952170445        0.33019862905867      h
       -6.05467390217978       -2.61786904324568        1.44969108612277      h
$end
 
 Bond Distances (Angstroems)
 ---------------------------
C1-C2=1.5535         C1-C6=1.5431         C1-C7=1.5406         C1-C10=1.5340        C2-C1=1.5535         C2-C3=1.5445         
C2-C12=1.5184        C2-H14=1.0975        C3-C2=1.5445         C3-C4=1.5294         C3-H17=1.0918        C3-H18=1.0916        
C4-C3=1.5294         C4-C5=1.5307         C4-H19=1.0903        C4-H20=1.0916        C5-C4=1.5307         C5-C6=1.5300         
C5-C8=1.5067         C5-H21=1.0911        C6-C1=1.5431         C6-C5=1.5300         C6-O9=1.4177         C6-H22=1.0944        
C7-C1=1.5406         C7-C8=1.5046         C7-H23=1.0924        C7-H24=1.0899        C8-C5=1.5067         C8-C7=1.5046         
C8-C11=1.3203        O9-C6=1.4177         O9-H25=0.9638        C10-C1=1.5340        C10-O15=1.4111       C10-H26=1.0934       
C10-H27=1.1005       C11-C8=1.3203        C11-H28=1.0773       C11-H29=1.0769       C12-C2=1.5184        C12-C13=1.3250       
C12-C16=1.5051       C13-C12=1.3250       C13-H30=1.0782       C13-H31=1.0739       H14-C2=1.0975        O15-C10=1.4111       
O15-H32=0.9666       C16-C12=1.5051       C16-H33=1.0901       C16-H34=1.0873       C16-H35=1.0892       H17-C3=1.0918        
H18-C3=1.0916        H19-C4=1.0903        H20-C4=1.0916        H21-C5=1.0911        H22-C6=1.0944        H23-C7=1.0924        
H24-C7=1.0899        H25-O9=0.9638        H26-C10=1.0934       H27-C10=1.1005       H28-C11=1.0773       H29-C11=1.0769       
H30-C13=1.0782       H31-C13=1.0739       H32-O15=0.9666       H33-C16=1.0901       H34-C16=1.0873       H35-C16=1.0892       
 C  H  Rav=1.0887 sigma=0.0072  Rmin=1.0739  Rmax=1.1005    18
 C  C  Rav=1.4990 sigma=0.0735  Rmin=1.3203  Rmax=1.5535    14
 O  H  Rav=0.9652 sigma=0.0014  Rmin=0.9638  Rmax=0.9666     2
 O  C  Rav=1.4144 sigma=0.0033  Rmin=1.4111  Rmax=1.4177     2
 
 selected bond angles (degree)
 --------------------
C6-C1-C2=109.47                C7-C1-C2=109.71                C7-C1-C6=101.91                C10-C1-C2=111.77               
C10-C1-C6=112.19               C10-C1-C7=111.36               C3-C2-C1=110.84                C12-C2-C1=114.69               
C12-C2-C3=112.95               H14-C2-C1=106.08               H14-C2-C3=105.55               H14-C2-C12=105.93              
C4-C3-C2=115.44                H17-C3-C2=108.69               H17-C3-C4=109.53               H18-C3-C2=107.88               
H18-C3-C4=107.55               H18-C3-H17=107.46              C5-C4-C3=110.52                H19-C4-C3=111.36               
H19-C4-C5=109.21               H20-C4-C3=108.78               H20-C4-C5=109.39               H20-C4-H19=107.52              
C6-C5-C4=108.53                C8-C5-C4=109.89                C8-C5-C6=102.97                H21-C5-C4=111.07               
H21-C5-C6=111.52               H21-C5-C8=112.52               C5-C6-C1=100.96                O9-C6-C1=113.89                
O9-C6-C5=108.40                H22-C6-C1=111.79               H22-C6-C5=112.44               H22-C6-O9=109.17               
C8-C7-C1=104.85                H23-C7-C1=109.50               H23-C7-C8=109.58               H24-C7-C1=112.84               
H24-C7-C8=112.55               H24-C7-H23=107.48              C7-C8-C5=108.09                C11-C8-C5=125.78               
C11-C8-C7=126.14               H25-O9-C6=109.03               O15-C10-C1=113.84              H26-C10-C1=109.57              
H26-C10-O15=104.42             H27-C10-C1=109.72              H27-C10-O15=110.51             H27-C10-H26=108.55             
 
 selected dihedral angles (degree)
 ---------------------------------
C3-C2-C1-C6=304.40            C3-C2-C1-C7= 55.44            C3-C2-C1-C10=179.47           C12-C2-C1-C6= 73.76           
C12-C2-C1-C7=184.80           C12-C2-C1-C10=308.84          H14-C2-C1-C6=190.31           H14-C2-C1-C7=301.35           
H14-C2-C1-C10= 65.38          C4-C3-C2-C1= 40.38            C4-C3-C2-C12=270.09           C4-C3-C2-H14=154.80           
H17-C3-C2-C1=163.86           H17-C3-C2-C12= 33.58          H17-C3-C2-H14=278.29          H18-C3-C2-C1=280.10           
H18-C3-C2-C12=149.81          H18-C3-C2-H14= 34.52          C5-C4-C3-C2=316.94            C5-C4-C3-H17=193.90           
C5-C4-C3-H18= 77.41           H19-C4-C3-C2= 78.51           H19-C4-C3-H17=315.47          H19-C4-C3-H18=198.98          
H20-C4-C3-C2=196.83           H20-C4-C3-H17= 73.79          H20-C4-C3-H18=317.29          C6-C5-C4-C3= 61.29            
C6-C5-C4-H19=298.45           C6-C5-C4-H20=181.03           C8-C5-C4-C3=309.39            C8-C5-C4-H19=186.55           
C8-C5-C4-H20= 69.13           H21-C5-C4-C3=184.22           H21-C5-C4-H19= 61.39          H21-C5-C4-H20=303.97          
C5-C6-C1-C2= 71.38            C5-C6-C1-C7=315.28            C5-C6-C1-C10=196.07           O9-C6-C1-C2=187.33            
O9-C6-C1-C7= 71.22            O9-C6-C1-C10=312.01           H22-C6-C1-C2=311.64           H22-C6-C1-C7=195.54           
H22-C6-C1-C10= 76.33          C1-C6-C5-C4=285.73            C1-C6-C5-C8= 42.18            C1-C6-C5-H21=163.06           
O9-C6-C5-C4=165.78            O9-C6-C5-C8=282.23            O9-C6-C5-H21= 43.11           H22-C6-C5-C4= 45.00           
H22-C6-C5-C8=161.46           H22-C6-C5-H21=282.34          C8-C7-C1-C2=274.45            C8-C7-C1-C6= 30.39            
C8-C7-C1-C10=150.18           H23-C7-C1-C2=156.95           H23-C7-C1-C6=272.88           H23-C7-C1-C10= 32.67          
H24-C7-C1-C2= 37.28           H24-C7-C1-C6=153.22           H24-C7-C1-C10=273.01          C7-C8-C5-C4= 91.67            
C7-C8-C5-C6=336.19            C7-C8-C5-H21=216.00           C11-C8-C5-C4=271.85           C11-C8-C5-C6=156.37           
C11-C8-C5-H21= 36.18          C5-C8-C7-C1=355.70            C5-C8-C7-H23=113.15           C5-C8-C7-H24=232.68           
C11-C8-C7-C1=175.52           C11-C8-C7-H23=292.97          C11-C8-C7-H24= 52.50          H25-O9-C6-C1= 75.18           
H25-O9-C6-C5=186.68           H25-O9-C6-H22=309.46          O15-C10-C1-C2=294.63          O15-C10-C1-C6=171.23          
O15-C10-C1-C7= 57.72          H26-C10-C1-C2=178.14          H26-C10-C1-C6= 54.74          H26-C10-C1-C7=301.24          
H27-C10-C1-C2= 59.05          H27-C10-C1-C6=295.65          H27-C10-C1-C7=182.15          
           -------------------------------------------------
          |                Final Singlepoint                |
           -------------------------------------------------

          ...................................................
          :                      SETUP                      :
          :.................................................:
          :  # basis functions                  80          :
          :  # atomic orbitals                  80          :
          :  # shells                           50          :
          :  # electrons                        84          :
          :  max. iterations                   250          :
          :  Hamiltonian                  GFN2-xTB          :
          :  restarted?                      false          :
          :  GBSA solvation                   true          :
          :  PC potential                    false          :
          :  electronic temp.          300.0000000     K    :
          :  accuracy                    1.0000000          :
          :  -> integral cutoff          0.2500000E+02      :
          :  -> integral neglect         0.1000000E-07      :
          :  -> SCF convergence          0.1000000E-05 Eh   :
          :  -> wf. convergence          0.1000000E-03 e    :
          :  Broyden damping             0.4000000          :
          :  net charge                          0          :
          :  unpaired electrons                  0          :
          ...................................................

 iter      E             dE          RMSdq      gap      omega  full diag
   1    -46.7786207 -0.467786E+02  0.263E-05    4.94       0.0  T
   2    -46.7786207 -0.194689E-11  0.174E-05    4.94     970.5  T
   3    -46.7786207 -0.639488E-12  0.123E-05    4.94    1375.6  T

   *** convergence criteria satisfied after 3 iterations ***

         #    Occupation            Energy/Eh            Energy/eV
      -------------------------------------------------------------
         1        2.0000           -0.6978600             -18.9897
       ...           ...                  ...                  ...
        36        2.0000           -0.4308206             -11.7232
        37        2.0000           -0.4220107             -11.4835
        38        2.0000           -0.4181943             -11.3796
        39        2.0000           -0.4109340             -11.1821
        40        2.0000           -0.4044336             -11.0052
        41        2.0000           -0.3939395             -10.7196
        42        2.0000           -0.3869233             -10.5287 (HOMO)
        43                         -0.2054584              -5.5908 (LUMO)
        44                         -0.1948438              -5.3020
        45                          0.0119152               0.3242
        46                          0.0163680               0.4454
        47                          0.0396855               1.0799
       ...                                ...                  ...
        80                          0.6545294              17.8107
      -------------------------------------------------------------
                  HL-Gap            0.1814650 Eh            4.9379 eV
             Fermi-level           -0.2961908 Eh           -8.0598 eV

 SCC (total)                   0 d,  0 h,  0 min,  0.009 sec
 SCC setup                      ...        0 min,  0.001 sec (  6.615%)
 Dispersion                     ...        0 min,  0.000 sec (  1.722%)
 classical contributions        ...        0 min,  0.000 sec (  0.375%)
 integral evaluation            ...        0 min,  0.001 sec ( 11.972%)
 iterations                     ...        0 min,  0.004 sec ( 43.666%)
 molecular gradient             ...        0 min,  0.003 sec ( 34.186%)
 printout                       ...        0 min,  0.000 sec (  1.102%)

         :::::::::::::::::::::::::::::::::::::::::::::::::::::
         ::                     SUMMARY                     ::
         :::::::::::::::::::::::::::::::::::::::::::::::::::::
         :: total energy             -46.158447604480 Eh    ::
         :: total w/o Gsasa/hb       -46.146381354979 Eh    ::
         :: gradient norm              0.000051659256 Eh/a0 ::
         :: HOMO-LUMO gap              4.937913652785 eV    ::
         ::.................................................::
         :: SCC energy               -46.777959174154 Eh    ::
         :: -> isotropic ES            0.063132016781 Eh    ::
         :: -> anisotropic ES          0.007234758970 Eh    ::
         :: -> anisotropic XC          0.017126298565 Eh    ::
         :: -> dispersion             -0.036170367619 Eh    ::
         :: -> Gsolv                  -0.020561290537 Eh    ::
         ::    -> Gelec               -0.008495041036 Eh    ::
         ::    -> Gsasa               -0.015957268745 Eh    ::
         ::    -> Ghb                  0.000000000000 Eh    ::
         ::    -> Gshift               0.003891019244 Eh    ::
         :: repulsion energy           0.619511569674 Eh    ::
         :: add. restraining           0.000000000000 Eh    ::
         :: total charge              -0.000000000000 e     ::
         :::::::::::::::::::::::::::::::::::::::::::::::::::::

           ------------------------------------------------- 
          |                Numerical Hessian                |
           ------------------------------------------------- 
step length          :   0.00500
SCC accuracy         :   0.30000
Hessian scale factor :   1.00000
frozen atoms in %    :   0.00000    0
RMS gradient         :   0.00005
estimated CPU  time      2.19 min
estimated wall time      0.20 min

writing file <hessian>.

 projected vibrational frequencies (cm⁻¹)
eigval :       -0.00     0.00     0.00     0.00     0.00     0.00
eigval :       61.98    86.67    98.39   121.94   144.36   167.73
eigval :      172.04   204.66   252.78   274.62   283.09   305.32
eigval :      311.29   315.34   330.15   360.26   372.77   421.75
eigval :      438.27   463.99   506.34   538.89   556.80   604.31
eigval :      677.49   686.49   715.64   722.85   801.81   825.56
eigval :      878.35   887.71   894.77   898.75   910.33   927.91
eigval :      942.88   952.04   956.12   994.34  1016.39  1037.95
eigval :     1044.74  1054.16  1063.67  1079.41  1088.52  1113.61
eigval :     1118.42  1134.26  1153.56  1169.12  1192.66  1195.39
eigval :     1220.15  1231.68  1248.70  1257.79  1265.25  1279.70
eigval :     1290.90  1304.51  1308.70  1327.70  1347.63  1350.25
eigval :     1351.83  1364.35  1400.34  1412.57  1421.78  1456.51
eigval :     1477.53  1479.59  1484.21  1488.89  1494.51  1717.82
eigval :     1741.22  2865.09  2898.36  2927.64  2963.39  2967.02
eigval :     2969.84  2973.71  2976.06  2987.91  2991.80  2994.15
eigval :     2997.43  3012.73  3042.12  3096.35  3098.68  3119.22
eigval :     3148.38  3493.84  3543.62
           -------------------------------------------------
          |                Property Printout                |
           -------------------------------------------------

    * Orbital Energies and Occupations

         #    Occupation            Energy/Eh            Energy/eV
      -------------------------------------------------------------
         1        2.0000           -0.6978599             -18.9897
       ...           ...                  ...                  ...
        30        2.0000           -0.4645809             -12.6419
        31        2.0000           -0.4609473             -12.5430
        32        2.0000           -0.4563207             -12.4171
        33        2.0000           -0.4465497             -12.1512
        34        2.0000           -0.4458415             -12.1320
        35        2.0000           -0.4320448             -11.7565
        36        2.0000           -0.4308206             -11.7232
        37        2.0000           -0.4220107             -11.4835
        38        2.0000           -0.4181943             -11.3796
        39        2.0000           -0.4109340             -11.1821
        40        2.0000           -0.4044336             -11.0052
        41        2.0000           -0.3939396             -10.7196
        42        2.0000           -0.3869233             -10.5287 (HOMO)
        43                         -0.2054584              -5.5908 (LUMO)
        44                         -0.1948437              -5.3020
        45                          0.0119152               0.3242
        46                          0.0163680               0.4454
        47                          0.0396855               1.0799
        48                          0.0434781               1.1831
        49                          0.0603680               1.6427
        50                          0.0701481               1.9088
        51                          0.0832311               2.2648
        52                          0.0885078               2.4084
        53                          0.0956908               2.6039
       ...                                ...                  ...
        80                          0.6545294              17.8107
      -------------------------------------------------------------
                  HL-Gap            0.1814649 Eh            4.9379 eV
             Fermi-level           -0.2961908 Eh           -8.0598 eV

     #   Z          covCN         q      C6AA      α(0)
     1   6 c        3.934    -0.008    20.647     6.457
     2   6 c        3.856    -0.033    21.120     6.536
     3   6 c        3.803    -0.062    21.693     6.631
     4   6 c        3.809    -0.060    21.638     6.622
     5   6 c        3.891    -0.028    21.019     6.518
     6   6 c        3.771     0.112    18.785     6.176
     7   6 c        3.834    -0.067    21.757     6.636
     8   6 c        2.975     0.017    27.618     8.620
     9   8 o        1.655    -0.482    22.506     6.404
    10   6 c        3.677     0.082    19.435     6.316
    11   6 c        2.838    -0.113    30.853     9.103
    12   6 c        2.935     0.008    27.832     8.652
    13   6 c        2.844    -0.111    30.790     9.094
    14   1 h        0.924     0.043     2.405     2.425
    15   8 o        1.655    -0.484    22.544     6.410
    16   6 c        3.761    -0.115    22.751     6.800
    17   1 h        0.924     0.042     2.427     2.436
    18   1 h        0.924     0.043     2.408     2.427
    19   1 h        0.924     0.038     2.477     2.461
    20   1 h        0.924     0.043     2.407     2.426
    21   1 h        0.924     0.046     2.367     2.406
    22   1 h        0.924     0.021     2.721     2.580
    23   1 h        0.924     0.057     2.231     2.336
    24   1 h        0.925     0.050     2.315     2.380
    25   1 h        0.805     0.304     0.709     1.323
    26   1 h        0.924     0.048     2.349     2.397
    27   1 h        0.923     0.019     2.753     2.595
    28   1 h        0.926     0.034     2.529     2.487
    29   1 h        0.926     0.034     2.536     2.490
    30   1 h        0.926     0.032     2.561     2.503
    31   1 h        0.926     0.034     2.525     2.485
    32   1 h        0.805     0.312     0.686     1.301
    33   1 h        0.925     0.046     2.365     2.405
    34   1 h        0.925     0.045     2.382     2.414
    35   1 h        0.925     0.051     2.311     2.377

 Mol. C6AA /au·bohr⁶  :      10391.594434
 Mol. C8AA /au·bohr⁸  :     233594.479609
 Mol. α(0) /au        :        153.626873


Wiberg/Mayer (AO) data.
largest (>0.10) Wiberg bond orders for each atom

 ---------------------------------------------------------------------------
     #   Z sym  total        # sym  WBO       # sym  WBO       # sym  WBO
 ---------------------------------------------------------------------------
     1   6 c    3.989 --     7 c    0.983    10 c    0.980     6 c    0.959
                             2 c    0.958
     2   6 c    3.993 --    12 c    0.997     3 c    0.984    14 h    0.958
                             1 c    0.958
     3   6 c    3.996 --     4 c    1.009     2 c    0.984    18 h    0.977
                            17 h    0.976
     4   6 c    3.996 --     3 c    1.009     5 c    0.980    20 h    0.975
                            19 h    0.970
     5   6 c    3.994 --     8 c    0.994     4 c    0.980     6 c    0.978
                            21 h    0.963
     6   6 c    3.947 --     9 o    0.978     5 c    0.978     1 c    0.959
                            22 h    0.958
     7   6 c    3.996 --     8 c    1.008     1 c    0.983    24 h    0.965
                            23 h    0.957
     8   6 c    3.986 --    11 c    1.937     7 c    1.008     5 c    0.994
     9   8 o    1.941 --     6 c    0.978    25 h    0.890
    10   6 c    3.952 --    15 o    0.994     1 c    0.980    26 h    0.967
                            27 h    0.966
    11   6 c    3.988 --     8 c    1.937    28 h    0.975    29 h    0.975
    12   6 c    3.986 --    13 c    1.930    16 c    1.023     2 c    0.997
    13   6 c    3.989 --    12 c    1.930    30 h    0.974    31 h    0.966
    14   1 h    0.998 --     2 c    0.958
    15   8 o    1.936 --    10 c    0.994    32 h    0.876
    16   6 c    3.996 --    12 c    1.023    34 h    0.983    33 h    0.972
                            35 h    0.964
    17   1 h    0.998 --     3 c    0.976
    18   1 h    0.998 --     3 c    0.977
    19   1 h    0.999 --     4 c    0.970
    20   1 h    0.997 --     4 c    0.975
    21   1 h    0.997 --     5 c    0.963
    22   1 h    0.999 --     6 c    0.958
    23   1 h    0.996 --     7 c    0.957
    24   1 h    0.997 --     7 c    0.965
    25   1 h    0.907 --     9 o    0.890
    26   1 h    0.997 --    10 c    0.967
    27   1 h    0.999 --    10 c    0.966
    28   1 h    0.998 --    11 c    0.975
    29   1 h    0.998 --    11 c    0.975
    30   1 h    0.998 --    13 c    0.974
    31   1 h    0.999 --    13 c    0.966
    32   1 h    0.903 --    15 o    0.876
    33   1 h    0.998 --    16 c    0.972
    34   1 h    0.998 --    16 c    0.983
    35   1 h    0.997 --    16 c    0.964
 ---------------------------------------------------------------------------

Topologies differ in total number of bonds
Writing topology from bond orders to xtbtopo.mol

molecular dipole:
                 x           y           z       tot (Debye)
 q only:       -0.870       0.597       0.209
   full:       -1.176       0.614       0.105       3.384
molecular quadrupole (traceless):
                xx          xy          yy          xz          yz          zz
 q only:       -0.586       1.766      -2.396       0.442       3.589       2.982
  q+dip:        0.278       2.763      -4.956       2.924       3.539       4.677
   full:       -0.337       2.275      -4.002       1.614       4.630       4.339

           -------------------------------------------------
          |                Geometry Summary                 |
           -------------------------------------------------

      molecular mass/u    :      208.2971915
   center of mass at/Å    :        0.0003854      -0.0000759       0.0004485
  moments of inertia/u·Å² :        0.5820596E+03   0.9155417E+03   0.1087366E+04
rotational constants/cm⁻¹ :        0.2896204E-01   0.1841274E-01   0.1550318E-01

 * 30 selected distances

     #   Z          #   Z                                           value/Å
     3   6 c        4   6 c                                       1.5293802
     4   6 c        5   6 c                                       1.5306637
     1   6 c        6   6 c                                       1.5430821 (max)
     5   6 c        6   6 c                                       1.5299760
     1   6 c        7   6 c                                       1.5406395
     6   6 c        9   8 o                                       1.4176504
     1   6 c       10   6 c                                       1.5340351
     8   6 c       11   6 c                                       1.3202926
    12   6 c       13   6 c                                       1.3249554
     2   6 c       14   1 h                                       1.0974503
    10   6 c       15   8 o                                       1.4111468
     3   6 c       17   1 h                                       1.0917908
     3   6 c       18   1 h                                       1.0915958
     4   6 c       19   1 h                                       1.0902962
     4   6 c       20   1 h                                       1.0915840
     5   6 c       21   1 h                                       1.0911315
     6   6 c       22   1 h                                       1.0943928
     7   6 c       23   1 h                                       1.0924308
     7   6 c       24   1 h                                       1.0899223
     9   8 o       25   1 h                                       0.9638073 (min)
    10   6 c       26   1 h                                       1.0933966
    10   6 c       27   1 h                                       1.1004502
    11   6 c       28   1 h                                       1.0772944
    11   6 c       29   1 h                                       1.0768886
    13   6 c       30   1 h                                       1.0781660
    13   6 c       31   1 h                                       1.0739311
    15   8 o       32   1 h                                       0.9666118
    16   6 c       33   1 h                                       1.0900795
    16   6 c       34   1 h                                       1.0872781
    16   6 c       35   1 h                                       1.0892145

 * 4 distinct bonds (by element types)

   Z      Z             #   av. dist./Å        max./Å        min./Å
   1 H    6 C          18     1.0887385     1.1004502     1.0739311
   6 C    6 C           8     1.4816281     1.5430821     1.3202926
   1 H    8 O           2     0.9652096     0.9666118     0.9638073
   6 C    8 O           2     1.4143986     1.4176504     1.4111468

           -------------------------------------------------
          |               Frequency Printout                |
           -------------------------------------------------
 projected vibrational frequencies (cm⁻¹)
eigval :       -0.00     0.00     0.00     0.00     0.00     0.00
eigval :       61.98    86.67    98.39   121.94   144.36   167.73
eigval :      172.04   204.66   252.78   274.62   283.09   305.32
eigval :      311.29   315.34   330.15   360.26   372.77   421.75
eigval :      438.27   463.99   506.34   538.89   556.80   604.31
eigval :      677.49   686.49   715.64   722.85   801.81   825.56
eigval :      878.35   887.71   894.77   898.75   910.33   927.91
eigval :      942.88   952.04   956.12   994.34  1016.39  1037.95
eigval :     1044.74  1054.16  1063.67  1079.41  1088.52  1113.61
eigval :     1118.42  1134.26  1153.56  1169.12  1192.66  1195.39
eigval :     1220.15  1231.68  1248.70  1257.79  1265.25  1279.70
eigval :     1290.90  1304.51  1308.70  1327.70  1347.63  1350.25
eigval :     1351.83  1364.35  1400.34  1412.57  1421.78  1456.51
eigval :     1477.53  1479.59  1484.21  1488.89  1494.51  1717.82
eigval :     1741.22  2865.09  2898.36  2927.64  2963.39  2967.02
eigval :     2969.84  2973.71  2976.06  2987.91  2991.80  2994.15
eigval :     2997.43  3012.73  3042.12  3096.35  3098.68  3119.22
eigval :     3148.38  3493.84  3543.62
 reduced masses (amu)
   1: 11.59   2: 11.75   3: 10.72   4: 11.08   5: 11.26   6: 11.65   7:  9.51   8:  9.31
   9: 10.58  10:  9.58  11: 11.97  12:  5.55  13: 12.09  14:  8.92  15: 11.78  16:  7.56
  17:  8.06  18:  7.43  19:  7.51  20:  5.73  21:  6.88  22:  5.97  23:  8.02  24: 10.13
  25: 10.89  26:  9.17  27:  8.51  28:  9.26  29:  8.47  30:  9.62  31:  8.27  32:  5.61
  33:  5.18  34:  5.11  35:  9.87  36:  7.44  37:  8.55  38:  5.12  39:  6.81  40:  4.26
  41:  5.90  42:  7.26  43:  6.84  44:  6.00  45:  5.35  46:  6.53  47:  5.17  48:  4.88
  49:  5.84  50: 11.11  51:  5.97  52:  9.64  53:  7.56  54:  8.08  55:  5.84  56:  4.99
  57:  3.87  58:  3.56  59:  7.14  60:  5.62  61:  7.08  62:  6.37  63:  7.67  64:  5.40
  65:  5.54  66:  7.47  67:  4.49  68:  4.00  69:  5.02  70:  4.47  71:  4.76  72:  3.98
  73:  3.94  74:  4.36  75:  2.85  76:  2.38  77:  2.48  78:  1.91  79:  1.76  80:  1.83
  81:  1.63  82:  1.65  83:  1.96  84: 11.22  85: 11.58  86:  1.74  87:  1.75  88:  1.73
  89:  1.91  90:  1.95  91:  1.69  92:  1.77  93:  1.92  94:  1.57  95:  1.56  96:  1.52
  97:  1.90  98:  1.63  99:  1.60 100:  1.71 101:  1.52 102:  2.09 103:  1.89 104:  1.87
 105:  1.88
 IR intensities (km·mol⁻¹)
   1:  0.09   2:  0.05   3:  0.50   4:  0.24   5:  0.09   6:  0.12   7:  0.40   8:  0.61
   9:  0.59  10:  0.65  11:  1.40  12: 14.39  13:  3.72  14:  1.87  15: 27.92  16:  1.09
  17: 29.61  18: 22.73  19: 14.42  20: 82.90  21: 58.08  22:106.01  23: 24.28  24:  1.24
  25:  8.74  26:  0.92  27:  3.09  28: 11.75  29:  1.70  30:  1.62  31:  7.07  32:  5.29
  33:  3.01  34:  2.19  35:  4.89  36:  4.05  37:  0.37  38: 15.96  39: 18.49  40: 15.08
  41: 12.50  42: 11.35  43: 12.18  44:  2.30  45:  1.58  46: 10.83  47: 25.35  48:  0.74
  49:  8.31  50: 68.30  51: 41.64  52: 58.94  53: 56.42  54: 14.00  55: 26.26  56:  7.97
  57: 19.19  58: 21.49  59:  1.49  60: 50.81  61: 18.93  62: 23.52  63: 25.36  64: 15.62
  65: 21.00  66:  6.64  67:  8.68  68: 25.02  69:  7.34  70: 10.25  71: 10.93  72: 32.43
  73: 44.25  74:  6.24  75:  4.14  76:  4.61  77: 12.26  78:  2.73  79:  4.04  80:  1.48
  81:  3.34  82:  3.64  83:  0.73  84: 23.38  85: 30.76  86: 91.18  87: 66.84  88: 73.39
  89: 17.93  90: 13.14  91: 49.82  92: 37.77  93: 90.20  94: 78.20  95: 48.58  96:110.42
  97: 44.65  98: 42.57  99: 41.06 100: 70.07 101: 39.23 102: 63.53 103: 45.06 104: 54.41
 105: 27.13
 Raman intensities (Ä⁴*amu⁻¹)
   1:  0.00   2:  0.00   3:  0.00   4:  0.00   5:  0.00   6:  0.00   7:  0.00   8:  0.00
   9:  0.00  10:  0.00  11:  0.00  12:  0.00  13:  0.00  14:  0.00  15:  0.00  16:  0.00
  17:  0.00  18:  0.00  19:  0.00  20:  0.00  21:  0.00  22:  0.00  23:  0.00  24:  0.00
  25:  0.00  26:  0.00  27:  0.00  28:  0.00  29:  0.00  30:  0.00  31:  0.00  32:  0.00
  33:  0.00  34:  0.00  35:  0.00  36:  0.00  37:  0.00  38:  0.00  39:  0.00  40:  0.00
  41:  0.00  42:  0.00  43:  0.00  44:  0.00  45:  0.00  46:  0.00  47:  0.00  48:  0.00
  49:  0.00  50:  0.00  51:  0.00  52:  0.00  53:  0.00  54:  0.00  55:  0.00  56:  0.00
  57:  0.00  58:  0.00  59:  0.00  60:  0.00  61:  0.00  62:  0.00  63:  0.00  64:  0.00
  65:  0.00  66:  0.00  67:  0.00  68:  0.00  69:  0.00  70:  0.00  71:  0.00  72:  0.00
  73:  0.00  74:  0.00  75:  0.00  76:  0.00  77:  0.00  78:  0.00  79:  0.00  80:  0.00
  81:  0.00  82:  0.00  83:  0.00  84:  0.00  85:  0.00  86:  0.00  87:  0.00  88:  0.00
  89:  0.00  90:  0.00  91:  0.00  92:  0.00  93:  0.00  94:  0.00  95:  0.00  96:  0.00
  97:  0.00  98:  0.00  99:  0.00 100:  0.00 101:  0.00 102:  0.00 103:  0.00 104:  0.00
 105:  0.00
 output can be read by thermo (or use thermo option).
 writing <g98.out> molden fake output.
 recommended (thermochemical) frequency scaling factor: 1.0
           -------------------------------------------------
          |             Thermodynamic Functions             |
           -------------------------------------------------

Molecule has no symmetry elements
It seems to be the C1 point group
c1  symmetry found (for desy threshold:  0.10E+00) used in thermo

          ...................................................
          :                      SETUP                      :
          :.................................................:
          :  # frequencies                          99      :
          :  # imaginary freq.                       0      :
          :  linear?                             false      :
          :  only rotor calc.                    false      :
          :  symmetry                               c1      :
          :  rotational number                       1      :
          :  scaling factor                  1.0000000      :
          :  rotor cutoff                   50.0000000 cm⁻¹ :
          :  imag. cutoff                  -50.0000000 cm⁻¹ :
          :.................................................:

    mode    ω/cm⁻¹     T·S(HO)/kcal·mol⁻¹    T·S(FR)/kcal·mol⁻¹   T·S(vib)
   ------------------------------------------------------------------------
       1     61.98    -1.30979 ( 70.25%)    -0.99282 ( 29.75%)    -1.21550
       2     86.67    -1.11328 ( 90.03%)    -0.89354 (  9.97%)    -1.09136
       3     98.39    -1.03935 ( 93.75%)    -0.85597 (  6.25%)    -1.02788
       4    121.94    -0.91513 ( 97.25%)    -0.79240 (  2.75%)    -0.91175
       5    144.36    -0.81849 ( 98.58%)    -0.74240 (  1.42%)    -0.81741
       6    167.73    -0.73368 ( 99.22%)    -0.69796 (  0.78%)    -0.73340
       7    172.04    -0.71945 ( 99.29%)    -0.69044 (  0.71%)    -0.71924
       8    204.66    -0.62336 ( 99.65%)    -0.63902 (  0.35%)    -0.62342
       9    252.78    -0.51016 ( 99.85%)    -0.57646 (  0.15%)    -0.51026
      10    274.62    -0.46718 ( 99.89%)    -0.55192 (  0.11%)    -0.46728
      11    283.09    -0.45167 ( 99.90%)    -0.54292 (  0.10%)    -0.45176
   ------------------------------------------------------------------------

   temp. (K)  partition function   enthalpy   heat capacity  entropy
                                   cal/mol     cal/K/mol   cal/K/mol   J/K/mol
 298.15  VIB  0.203E+05             7741.547     54.493     45.235
         ROT  0.184E+07              888.752      2.981     31.646
         INT  0.373E+11             8630.299     57.473     76.881
         TR   0.291E+28             1481.254      4.968     41.886
         TOT                       10111.5531    62.4416   118.7673   496.9222

       T/K    H(0)-H(T)+PV         H(T)/Eh          T*S/Eh         G(T)/Eh
   ------------------------------------------------------------------------
    298.15    0.161138E-01    0.317561E+00    0.564302E-01    0.261131E+00
   ------------------------------------------------------------------------

         :::::::::::::::::::::::::::::::::::::::::::::::::::::
         ::                  THERMODYNAMIC                  ::
         :::::::::::::::::::::::::::::::::::::::::::::::::::::
         :: total free energy         -45.897316604205 Eh   ::
         ::.................................................::
         :: total energy              -46.158447604280 Eh   ::
         :: zero point energy           0.301447375119 Eh   ::
         :: G(RRHO) w/o ZPVE           -0.040316375043 Eh   ::
         :: G(RRHO) contrib.            0.261131000076 Eh   ::
         :::::::::::::::::::::::::::::::::::::::::::::::::::::

optimized geometry written to: xtbopt.coord


           -------------------------------------------------
          | TOTAL ENERGY              -46.158447604280 Eh   |
          | TOTAL ENTHALPY            -45.840886443662 Eh   |
          | TOTAL FREE ENERGY         -45.897316604205 Eh   |
          | GRADIENT NORM               0.000051624007 Eh/α |
          | HOMO-LUMO GAP               4.937912382777 eV   |
           -------------------------------------------------

------------------------------------------------------------------------
 * finished run on 2026/08/09 at 15:28:23.383     
------------------------------------------------------------------------
 total:
 * wall-time:     0 d,  0 h,  0 min,  1.353 sec
 *  cpu-time:     0 d,  0 h,  0 min, 14.944 sec
 * ratio c/w:    11.047 speedup
 SCF:
 * wall-time:     0 d,  0 h,  0 min,  0.091 sec
 *  cpu-time:     0 d,  0 h,  0 min,  0.993 sec
 * ratio c/w:    10.969 speedup
 ANC optimizer:
 * wall-time:     0 d,  0 h,  0 min,  0.177 sec
 *  cpu-time:     0 d,  0 h,  0 min,  2.113 sec
 * ratio c/w:    11.968 speedup
 analytical hessian:
 * wall-time:     0 d,  0 h,  0 min,  1.044 sec
 *  cpu-time:     0 d,  0 h,  0 min, 11.537 sec
 * ratio c/w:    11.052 speedup

normal termination of xtb
