      -----------------------------------------------------------      
     |                   =====================                   |     
     |                           x T B                           |     
     |                   =====================                   |     
     |                         S. Grimme                         |     
     |          Mulliken Center for Theoretical Chemistry        |     
     |                    University of Bonn                     |     
      -----------------------------------------------------------      

   * xtb version 6.7.1 (edcfbbe) compiled by 'albert@albert-system' on 2024-07-22

   xtb is free software: you can redistribute it and/or modify it under
   the terms of the GNU Lesser General Public License as published by
   the Free Software Foundation, either version 3 of the License, or
   (at your option) any later version.
   
   xtb is distributed in the hope that it will be useful,
   but WITHOUT ANY WARRANTY; without even the implied warranty of
   MERCHANTABILITY or FITNESS FOR A PARTICULAR PURPOSE.  See the
   GNU Lesser General Public License for more details.
   
   Cite this work as:
   * C. Bannwarth, E. Caldeweyher, S. Ehlert, A. Hansen, P. Pracht,
     J. Seibert, S. Spicher, S. Grimme, WIREs Comput. Mol. Sci., 2020, 11,
     e01493. DOI: 10.1002/wcms.1493
   
   for GFN2-xTB:
   * C. Bannwarth, S. Ehlert and S. Grimme., J. Chem. Theory Comput., 2019,
     15, 1652-1671. DOI: 10.1021/acs.jctc.8b01176
   for GFN1-xTB:
   * S. Grimme, C. Bannwarth, P. Shushkov, J. Chem. Theory Comput., 2017,
     13, 1989-2009. DOI: 10.1021/acs.jctc.7b00118
   for GFN0-xTB:
   * P. Pracht, E. Caldeweyher, S. Ehlert, S. Grimme, ChemRxiv, 2019, preprint.
     DOI: 10.26434/chemrxiv.8326202.v1
   for GFN-FF:
   * S. Spicher and S. Grimme, Angew. Chem. Int. Ed., 2020, 59, 15665-15673.
     DOI: 10.1002/anie.202004239
   
   for ALPB and GBSA implicit solvation:
   * S. Ehlert, M. Stahn, S. Spicher, S. Grimme, J. Chem. Theory Comput.,
     2021, 17, 4250-4261. DOI: 10.1021/acs.jctc.1c00471
   
   for ddCOSMO and CPCM-X implicit solvation:
   * M. Stahn, S. Ehlert, S. Grimme, J. Phys. Chem. A,
     2023, XX, XXXX-XXXX. DOI: 10.1021/acs.jpca.3c04382
   
   for DFT-D4:
   * E. Caldeweyher, C. Bannwarth and S. Grimme, J. Chem. Phys., 2017,
     147, 034112. DOI: 10.1063/1.4993215
   * E. Caldeweyher, S. Ehlert, A. Hansen, H. Neugebauer, S. Spicher,
     C. Bannwarth and S. Grimme, J. Chem. Phys., 2019, 150, 154122.
     DOI: 10.1063/1.5090222
   * E. Caldeweyher, J.-M. Mewes, S. Ehlert and S. Grimme, Phys. Chem. Chem. Phys.
     2020, 22, 8499-8512. DOI: 10.1039/D0CP00502A
   
   for sTDA-xTB:
   * S. Grimme and C. Bannwarth, J. Chem. Phys., 2016, 145, 054103.
     DOI: 10.1063/1.4959605
   
   in the mass-spec context:
   * V. Asgeirsson, C. Bauer and S. Grimme, Chem. Sci., 2017, 8, 4879.
     DOI: 10.1039/c7sc00601b
   * J. Koopman and S. Grimme, ACS Omega 2019, 4, 12, 15120-15133.
     DOI: 10.1021/acsomega.9b02011
   
   for metadynamics refer to:
   * S. Grimme, J. Chem. Theory Comput., 2019, 155, 2847-2862
     DOI: 10.1021/acs.jctc.9b00143
   
   for SPH calculations refer to:
   * S. Spicher and S. Grimme, J. Chem. Theory Comput., 2021, 17, 1701-1714
     DOI: 10.1021/acs.jctc.0c01306
   
   for ONIOM refer to:
   * C. Plett, A. Katbashev, S. Ehlert, S. Grimme, M. Bursch,
     Phys. Chem. Chem. Phys., 2023, 25, 17860-17868. DOI: 10.1039/D3CP02178E
   
   for DIPRO refer to:
   * J. Kohn, N. Gildemeister, S. Grimme, D. Fazzi, A. Hansen,
     J. Chem. Phys., 2023, just accepted.
   
   for PTB refer to:
   * S. Grimme, M. Mueller, A. Hansen, J. Chem. Phys., 2023, 158, 124111.
     DOI: 10.1063/5.0137838
   
   with help from (in alphabetical order)
   P. Atkinson, C. Bannwarth, F. Bohle, G. Brandenburg, E. Caldeweyher
   M. Checinski, S. Dohm, S. Ehlert, S. Ehrlich, I. Gerasimov, C. Hölzer
   A. Katbashev, J. Kohn, J. Koopman, C. Lavigne, S. Lehtola, F. März, M. Müller,
   F. Musil, H. Neugebauer, J. Pisarek, C. Plett, P. Pracht, F. Pultar,
   J. Seibert, P. Shushkov, S. Spicher, M. Stahn, M. Steiner, T. Strunk,
   J. Stückrath, T. Rose, and J. Unsleber
   
 * started run on 2026/08/09 at 00:35:00.185     
   ID    Z sym.   atoms
    1    6 c      1-10, 12, 16-19
    2    8 o      11
    3    1 h      13-15, 20-42

           -------------------------------------------------
          |                Calculation Setup                |
           -------------------------------------------------

          program call               : /home/dinglab/software/xtb_6.7.1/xtb_dist/bin/xtb coord --opt normal --orca -I opt.inp
          hostname                   : localhost
          coordinate file            : coord
          omp threads                :                    12

           -------------------------------------------------
          |                   Orca driver                   |
           -------------------------------------------------
orca executable           : /home/dinglab/software/orca_6.1.1/orca
orca input file           : inp
orca input line           : 
orca parallel             : true
orca number of threads    : 12
                         * ORCA takes the control...
  ------------------------------------------------------------------------

                                 *****************
                                 * O   R   C   A *
                                 *****************

                                            #,                                       
                                            ###                                      
                                            ####                                     
                                            #####                                    
                                            ######                                   
                                           ########,                                 
                                     ,,################,,,,,                         
                               ,,#################################,,                 
                          ,,##########################################,,             
                       ,#########################################, ''#####,          
                    ,#############################################,,   '####,        
                  ,##################################################,,,,####,       
                ,###########''''           ''''###############################       
              ,#####''   ,,,,##########,,,,          '''####'''          '####       
            ,##' ,,,,###########################,,,                        '##       
           ' ,,###''''                  '''############,,,                           
         ,,##''                                '''############,,,,        ,,,,,,###''
      ,#''                                            '''#######################'''  
     '                                                          ''''####''''         
             ,#######,   #######,   ,#######,      ##                                
            ,#'     '#,  ##    ##  ,#'     '#,    #''#        ,####,    ,#,          
            ##       ##  ##   ,#'  ##            #'  '#       #'       ,# #          
            ##       ##  #######   ##           ,######,      #####,      #          
            '#,     ,#'  ##    ##  '#,     ,#' ,#      #,     #,   #      #          
             '#######'   ##     ##  '#######'  #'      '#     '####' #    #          



                #########################################################
                #                        -***-                          #
                #          Department of theory and spectroscopy        #
                #                                                       #
                #                      Frank Neese                      #
                #                                                       #
                #     Directorship, Architecture, Infrastructure        #
                #                    SHARK, DRIVERS                     #
                #        Core code/Algorithms in most modules           #
                #                                                       #
                #        Max Planck Institute fuer Kohlenforschung      #
                #                Kaiser Wilhelm Platz 1                 #
                #                 D-45470 Muelheim/Ruhr                 #
                #                      Germany                          #
                #                                                       #
                #                  All rights reserved                  #
                #                        -***-                          #
                #########################################################


                         Program Version 6.1.1  -  RELEASE   -
                                (GIT: $487d211c$)
                          ($2025-11-21 10:33:24 +0100$)


 With contributions from (in alphabetic order):
[Max-Planck-Institut fuer Kohlenforschung]                               
  Daniel Aravena         : Magnetic Suceptibility                        
  Michael Atanasov       : Ab Initio Ligand Field Theory (pilot matlab implementation)
  Alexander A. Auer      : GIAO ZORA, VPT2 properties, NMR spectrum      
  Ute Becker             : All parallelization in ORCA, NUMFREQ, NUMCALC 
  Giovanni Bistoni       : ED, misc. LED, open-shell LED, HFLD           
  Dmytro Bykov           : pre 5.0 version of the SCF Hessian            
  Marcos Casanova-Páez   : Triplet and SCS-CIS(D). UHF-(DLPNO)-IP/EA/STEOM-CCSD. UHF-CVS-IP/STEOM-CCSD   
  Vijay G. Chilkuri      : MRCI spin determinant printing, contributions to CSF-ICE 
  Pauline Colinet        : FMM embedding                                 
  Dipayan Datta          : RHF DLPNO-CCSD density                        
  Achintya Kumar Dutta   : EOM-CC, STEOM-CC                              
  Nicolas Foglia         : Exact transition moments, OPA infrastructure, MCD improvements    
  Dmitry Ganyushin       : Spin-Orbit,Spin-Spin,Magnetic field MRCI      
  Miquel Garcia-Rates    : C-PCM and meta-GGA Hessian, CCSD/C-PCM, Gaussian charge scheme 
  Tiago L. C. Gouveia    : GS-ROHF, GS-ROCIS                             
  Yang Guo               : DLPNO-NEVPT2, F12-NEVPT2, CIM, IAO-localization        
  Andreas Hansen         : Spin unrestricted coupled pair/coupled cluster methods 
  Ingolf Harden          : AUTO-CI MPn and infrastructure                
  Benjamin Helmich-Paris : MC-RPA, TRAH-(SCF,CASSCF), AVAS, COSX integrals, SCF dyn. polar., MC-PDFT, srDFT 
  Lee Huntington         : MR-EOM, pCC                                   
  Robert Izsak           : Overlap fitted RIJCOSX, COSX-SCS-MP3, EOM     
  Riya Kayal             : Wick's Theorem for AUTO-CI, AUTO-CI UHF-CCSDT 
  Emily Kempfer          : AUTO-CI RHF CISDT and CCSDT, approximate NEVPT4
  Christian Kollmar      : KDIIS, OOCD, Brueckner-CCSD(T), CCSD density, CASPT2, CASPT2-K, improved NEVPT2 
  Axel Koslowski         : Symmetry handling                             
  Simone Kossmann        : meta-GGA functionals, TD-DFT gradient, OOMP2, (MP2 Hessian; deprecated post 5.0) 
  Lucas Lang             : DCDCAS, Hyperfine gauge corrections, ICE-SOC+SSC
  Marvin Lechner         : AUTO-CI (C++ implementation), FIC-MRCC        
  Spencer Leger          : CASSCF response                               
  Dagmar Lenk            : GEPOL surface, SMD, ORCA-2-JSON               
  Dimitrios Liakos       : Extrapolation schemes; Compound Job, Property file
  Dimitrios Manganas     : Further ROCIS development; embedding schemes. LFT, Crystal Embedding 
  Dimitrios Pantazis     : SARC Basis sets                               
  Anastasios Papadopoulos: AUTO-CI, single reference methods and gradients 
  Taras Petrenko         : pre 6.0 DFT Hessian and TD-DFT gradient,  ECA, NRVS 
  Petra Pikulova         : Analytic Raman intensities                    
  Peter Pinski           : DLPNO-MP2, DLPNO-MP2 Gradient                 
  Shashank Vittal Rao    : ES-AILFT, MagRelax                            
  Christoph Reimann      : Effective Core Potentials                     
  Marius Retegan         : Local ZFS, SOC                                
  Christoph Riplinger    : Optimizer, TS searches, QM/MM, DLPNO-CCSD(T), (RO)-DLPNO pert. Triples 
  Michael Roemelt        : Original ROCIS implementation, recursive CI coupling coefficients
  Masaaki Saitow         : Open-shell DLPNO-CCSD energy and density      
  Barbara Sandhoefer     : DKH picture change effects                    
  Yorick L. A. Schmerwitz: GMF and freeze-and-release deltaSCF, NEB S-IDPP initial path                    
  Kantharuban Sivalingam : CASSCF convergence/infrastructure, NEVPT2, NEVPT3, NEVPT4(SD), FIC-MRCI and CEPA variants
  Bernardo de Souza      : ESD, SOC TD-DFT                               
  Georgi L. Stoychev     : AutoAux, RI-MP2 NMR, DLPNO-MP2 response, X2C  
  Van Anh Tran           : RI-MP2 g-tensors                              
  Willem Van den Heuvel  : Paramagnetic NMR                              
  Zikuan Wang            : NOTCH, Electric field optimization            
  Frank Wennmohs         : Technical directorship and infrastructure     
  Hang Xu                : AUTO-CI-Response properties                   
                                                                         
[FACCTs GmbH]                                                            
  Markus Bursch, Nicolas Foglia, Miquel Garcia-Rates, Ingolf Harden, Hagen Neugebauer, Anastasios Papadopoulos, 
  Christoph Riplinger, Bernardo de Souza, Georgi L. Stoychev                                                    
                                                                 
  APM, various basis sets, CI-OPT, improved COSX, DLPNO-Multilevel,           
  DOCKER, DRACO, updates on ESD, Fragmentator, GOAT, IRC, LR-CPCM, L-BFGS, MBIS, meta-GGA TD-DFT gradient, ML-optimized integration grids, 
  MM, NACMEs, nearIR, NEB, NEB-TS, NL-DFT gradient (VV10), 2- and 3-layer-ONIOM, interface openCOSMO-RS, QMMM,   
  Crystal-QMMM, RESP, rigid body optimization, SF, symmetry and pop. for TD-DFT, various functionals, SOLVATOR                                   
                                                                         
[Other institutions]                                                     
  V. Asgeirsson          : NEB                                           
  Christoph Bannwarth    : sTDA-DFT, sTD-DFT, PBEh-3c, B97-3c, D3        
  Giovanni Bistoni       : ETS/NOCV, ADLD/ADEX, COVALED                  
  Martin Brehm           : Molecular dynamics                            
  Ronald Cardenas        : ETS/NOCV                                      
  Martina Colucci        : COVALED                                       
  Sebastian Ehlert       : rSCAN, r2SCAN, r2SCAN-3c, D4, dhf basis sets  
  Marvin Friede          : D4 for Fr, Ra, Ac-Lr                          
  Lars Goerigk           : TD-DFT with DH, B97 family of functionals     
  Stefan Grimme          : VdW corrections, initial TS optimization, DFT functionals, gCP, sTDA/sTD-DF 
  Waldemar Hujo          : DFT-NL                                        
  H. Jonsson             : NEB                                           
  Holger Kruse           : gCP                                           
  Marcel Mueller         : wB97X-3c, vDZP basis set                      
  Hagen Neugebauer       : wr2SCAN, Native XTB                           
  Gianluca Regni         : ADLD/ADEX                                     
  Tobias Risthaus        : pre 6.0 range-separated hybrid DFT and stability analysis
  Lukas Wittmann         : regularized MP2, r2SCAN double-hybrids, wr2SCAN        
                                                                         
We gratefully acknowledge several colleagues who have allowed us to      
interface, adapt or use parts of their codes:                            
  Ed Valeev, F. Pavosevic, A. Kumar             : LibInt (2-el integral package), F12 methods 
  Garnet Chan, S. Sharma, J. Yang, R. Olivares  : DMRG                   
  Ulf Ekstrom                                   : XCFun DFT Library      
  Mihaly Kallay                                 : mrcc  (arbitrary order and MRCC methods)
  Frank Weinhold                                : gennbo (NPA and NBO analysis)           
  Simon Mueller                                 : openCOSMO-RS                            
  Christopher J. Cramer and Donald G. Truhlar   : smd solvation model                     
  S Lehtola, MJT Oliveira, MAL Marques          : LibXC Library                           
  Liviu Ungur et al                             : ANISO software                          


 Your calculation uses the libint2 library for the computation of 2-el integrals
 For citations please refer to: http://libint.valeyev.net

 Your ORCA version has been built with support for libXC version: 7.0.0
 For citations please refer to: https://libxc.gitlab.io

 This ORCA versions uses:
   CBLAS   interface :  Fast vector & matrix operations
   LAPACKE interface :  Fast linear algebra routines
   SCALAPACK package :  Parallel linear algebra routines
   Shared memory     :  Shared parallel matrices
   BLAS/LAPACK       :  OpenBLAS 0.3.29  USE64BITINT DYNAMIC_ARCH NO_AFFINITY Haswell SINGLE_THREADED
        Core in use  :  Haswell
   Copyright (c) 2011-2014, The OpenBLAS Project


  ***********************************
  * Starting time: Sun Aug  9 00:35:00 2026
  * Host name:     localhost.localdomain
  * Process ID:    2656925
  * Working dir.:  /home/dinglab/calculation/templates/NMR_modules/DP4plus/rev_eid_screening/CONF1/hf-3c
  ***********************************

NOTE: MaxCore=2500 MB was set to SCF,MP2,MDCI,CIPSI,MRCI,RASCI and CIS
      => If you want to overwrite this, your respective input block should be placed after the MaxCore statement


***************************************
The coordinates will be read from file: inp.xyz
***************************************


Your calculation utilizes the geometrical counterpoise correction gCP
Please cite in your paper:
H.Kruse, S. Grimme J.Chem.Phys., 136, (2012), 154101 
   

Your calculation utilizes the atom-pairwise dispersion correction
with the Becke-Johnson damping scheme (D3BJ)


================================================================================

----- Orbital basis set information -----
Your calculation utilizes the basis: MINIX,
   a combination of small basis sets by S. Grimme (see manual for definitions).

================================================================================
                                        WARNINGS
                       Please study these warnings very carefully!
================================================================================

WARNING: Old DensityContainer found on disk!
         Will remove this file - 
         If you want to keep old densities, please start your calculation with a different basename. 


WARNING: Gradients are needed
  ===> : At least TightSCF should be used for SCF convergence

================================================================================
                                       INPUT FILE
================================================================================
NAME = inp
|  1> ! hf-3c
|  2> ! DEFGRID2
|  3> ! scfconv6
|  4> ! miniprint nopop noautostart
|  5> %MaxCore 2500
|  6> ! ENGRAD
|  7> %pal
|  8>     nprocs 12
|  9> end
| 10> * xyzfile 0 1 inp.xyz
| 11> 
| 12>                          ****END OF INPUT****
================================================================================

                     *******************************
                     * Energy+Gradient Calculation *
                     *******************************

---------------------------------
CARTESIAN COORDINATES (ANGSTROEM)
---------------------------------
  C      0.957364    1.543255    0.013449
  C      2.242249    1.016865    0.695154
  C      3.002432   -0.039720   -0.153685
  C      2.583292   -1.497202    0.171928
  C      1.177837   -1.917686   -0.327966
  C      0.094414   -0.916440    0.137796
  C      0.119307    0.425570   -0.639318
  C     -0.033459    2.170653    1.024595
  C     -1.386583    2.171535    0.274992
  C     -1.361852    0.889727   -0.603155
  O     -1.198580   -1.439258   -0.118402
  C     -2.142670   -0.371955   -0.069756
  H      0.448770    0.233722   -1.648062
  H     -1.722479    1.115881   -1.595185
  H      0.221510   -0.730274    1.205099
  C      0.850961   -3.341196    0.184075
  C     -3.321154   -0.744246   -1.007275
  C     -2.669083   -0.222669    1.387026
  C      1.336065    2.584196   -1.066970
  H      2.891073    1.861472    0.889504
  H      1.995679    0.584278    1.654687
  H      2.861808    0.158742   -1.207850
  H      4.063846    0.050765    0.045832
  H      2.624017   -1.636881    1.244912
  H      3.306576   -2.177001   -0.262910
  H      1.175775   -1.926573   -1.410569
  H      0.271486    3.160074    1.337709
  H     -0.096242    1.545457    1.904930
  H     -2.229709    2.204481    0.948422
  H     -1.448867    3.043287   -0.362706
  H      0.823652   -3.350856    1.266971
  H     -0.116533   -3.660132   -0.186285
  H      1.606812   -4.043490   -0.147058
  H     -2.953674   -0.911361   -2.012990
  H     -4.049618    0.058016   -1.025685
  H     -3.803475   -1.649322   -0.656185
  H     -3.474597    0.498854    1.432811
  H     -3.048092   -1.183288    1.716619
  H     -1.881773    0.088819    2.060223
  H      2.025381    2.150986   -1.780303
  H      0.457950    2.917359   -1.603821
  H      1.810060    3.444611   -0.611560

----------------------------
CARTESIAN COORDINATES (A.U.)
----------------------------
  NO LB      ZA    FRAG     MASS         X           Y           Z
   0 C     6.0000    0    12.011    1.809156    2.916329    0.025415
   1 C     6.0000    0    12.011    4.237237    1.921596    1.313651
   2 C     6.0000    0    12.011    5.673775   -0.075060   -0.290422
   3 C     6.0000    0    12.011    4.881714   -2.829301    0.324897
   4 C     6.0000    0    12.011    2.225789   -3.623901   -0.619767
   5 C     6.0000    0    12.011    0.178416   -1.731821    0.260397
   6 C     6.0000    0    12.011    0.225457    0.804211   -1.208136
   7 C     6.0000    0    12.011   -0.063229    4.101940    1.936204
   8 C     6.0000    0    12.011   -2.620263    4.103606    0.519660
   9 C     6.0000    0    12.011   -2.573527    1.681340   -1.139797
  10 O     8.0000    0    15.999   -2.264987   -2.719804   -0.223747
  11 C     6.0000    0    12.011   -4.049060   -0.702894   -0.131820
  12 H     1.0000    0     1.008    0.848052    0.441671   -3.114385
  13 H     1.0000    0     1.008   -3.255014    2.108710   -3.014463
  14 H     1.0000    0     1.008    0.418594   -1.380018    2.277307
  15 C     6.0000    0    12.011    1.608084   -6.313946    0.347852
  16 C     6.0000    0    12.011   -6.276072   -1.406421   -1.903473
  17 C     6.0000    0    12.011   -5.043837   -0.420783    2.621098
  18 C     6.0000    0    12.011    2.524798    4.883422   -2.016281
  19 H     1.0000    0     1.008    5.463336    3.517672    1.680920
  20 H     1.0000    0     1.008    3.771287    1.104126    3.126905
  21 H     1.0000    0     1.008    5.408033    0.299978   -2.282506
  22 H     1.0000    0     1.008    7.679557    0.095933    0.086610
  23 H     1.0000    0     1.008    4.958674   -3.093256    2.352543
  24 H     1.0000    0     1.008    6.248523   -4.113936   -0.496828
  25 H     1.0000    0     1.008    2.221893   -3.640695   -2.665589
  26 H     1.0000    0     1.008    0.513033    5.971674    2.527904
  27 H     1.0000    0     1.008   -0.181872    2.920490    3.599796
  28 H     1.0000    0     1.008   -4.213540    4.165865    1.792257
  29 H     1.0000    0     1.008   -2.737962    5.750978   -0.685414
  30 H     1.0000    0     1.008    1.556477   -6.332200    2.394228
  31 H     1.0000    0     1.008   -0.220215   -6.916647   -0.352027
  32 H     1.0000    0     1.008    3.036435   -7.641090   -0.277899
  33 H     1.0000    0     1.008   -5.581635   -1.722223   -3.804000
  34 H     1.0000    0     1.008   -7.652669    0.109635   -1.938265
  35 H     1.0000    0     1.008   -7.187526   -3.116766   -1.240010
  36 H     1.0000    0     1.008   -6.566037    0.942697    2.707620
  37 H     1.0000    0     1.008   -5.760059   -2.236091    3.243940
  38 H     1.0000    0     1.008   -3.556036    0.167843    3.893257
  39 H     1.0000    0     1.008    3.827415    4.064774   -3.364286
  40 H     1.0000    0     1.008    0.865400    5.513009   -3.030783
  41 H     1.0000    0     1.008    3.420518    6.509371   -1.155680



           ************************************************************
           *        Program running with 12 parallel MPI-processes    *
           *              working on a common directory               *
           ************************************************************
------------------------------------------------------------------------------
                   ___                                                        
                  /   \      - P O W E R E D   B Y -                         
                 /     \                                                     
                 |  |  |   _    _      __       _____    __    __             
                 |  |  |  | |  | |    /  \     |  _  \  |  |  /  |          
                  \  \/   | |  | |   /    \    | | | |  |  | /  /          
                 / \  \   | |__| |  /  /\  \   | |_| |  |  |/  /          
                |  |  |   |  __  | /  /__\  \  |    /   |      \           
                |  |  |   | |  | | |   __   |  |    \   |  |\   \          
                \     /   | |  | | |  |  |  |  | |\  \  |  | \   \       
                 \___/    |_|  |_| |__|  |__|  |_| \__\ |__|  \__/        
                                                                              
                      - O R C A' S   B I G   F R I E N D -                    
                                      &                                       
                       - I N T E G R A L  F E E D E R -                       
                                                                              
 v1 FN, 2020, v2 2021, v3 2022-2024                                           
------------------------------------------------------------------------------


----------------------
SHARK INTEGRAL PACKAGE
----------------------

Number of atoms                             ...     42
Number of basis functions                   ...    106
Number of shells                            ...     74
Maximum angular momentum                    ...      1
Integral batch strategy                     ... SHARK/LIBINT Hybrid
RI-J (if used) integral strategy            ... SPLIT-RIJ (Revised 2003 algorithm where possible)
Printlevel                                  ...      1
Contraction scheme used                     ... SEGMENTED contraction
Prescreening option                         ... SCHWARTZ
   Thresh                                   ... 1.000e-10
   Tcut                                     ... 1.000e-11
   Tpresel                                  ... 1.000e-11 
Coulomb Range Separation                    ... NOT USED
Exchange Range Separation                   ... NOT USED
Multipole approximations                    ... NOT USED
Finite Nucleus Model                        ... NOT USED
CABS basis                                  ... NOT available
Auxiliary Coulomb fitting basis             ... NOT available
Auxiliary J/K fitting basis                 ... NOT available
Auxiliary Correlation fitting basis         ... NOT available
Auxiliary 'external' fitting basis          ... NOT available

Checking pre-screening integrals            ... done (  0.0 sec) Dimension = 74
   => SHARK Basis and OBASIS are compatible. Storing Pre-screening
Shell pair information
Shell pair cut-off parameter TPreSel        ...   1.0e-11
Total number of shell pairs                 ...      2775
Shell pairs after pre-screening             ...      2565
Total number of primitive shell pairs       ...     24975
Primitive shell pairs kept                  ...     14245
          la=0 lb=0:   1516 shell pairs
          la=1 lb=0:    913 shell pairs
          la=1 lb=1:    136 shell pairs

Checking whether 4 symmetric matrices of dimension 106 fit in memory
:Max Core in MB      =   2500.00
 MB in use           =      5.11
 MB left             =   2494.89
 MB needed           =      0.17
 Data fit in memory  = YES
Calculating Nuclear repulsion               ... done (  0.0 sec) ENN=   1283.600058241358 Eh
Entering conventional section               ... 
Calculating 4-index integrals               ...     -> SHARK/Ints2Disk: Thresh =     1.000000e-10 TCut=    1.000000e-11 
    -> calling libint FockFlag=2 Lmax_loc=1
    ->Total LIBINT loop time =    0.001 sec
    -> L=0 0 0 0:     0.112 sec done=    885528 (=100.0%) skipped=         0 
    -> L=1 0 0 0:     0.141 sec done=   1165577 (=100.0%) skipped=         0 
    -> L=1 0 1 0:     0.065 sec done=    377390 (=100.0%) skipped=         0 
    -> L=1 1 0 0:     0.037 sec done=    190961 (=100.0%) skipped=         0 
    -> L=1 1 1 0:     0.047 sec done=    120001 (=100.0%) skipped=         0 
    -> L=1 1 1 1:     0.011 sec done=      9290 (=100.0%) skipped=         0 
    ->Total SHARK integral loop time =    0.442 sec
    -> Total Integral generation matrix time =    0.457 sec
    -> Number of small integrals   =   2150583
    -> Number of medium integrals  =   3784041
    -> Number of large integrals   =   6116699
    -> Number of MB stored         =       113 MB

done (  0.5 sec)
Leaving conventional section

Diagonalization of the overlap matrix:
Smallest eigenvalue                        ... 2.048e-01
Time for diagonalization                   ...    0.002 sec
Threshold for overlap eigenvalues          ... 1.000e-07
Number of eigenvalues below threshold      ... 0
Time for construction of square roots      ...    0.001 sec
Total time needed                          ...    0.004 sec

-------------------
DFT GRID GENERATION
-------------------

General Integration Accuracy     IntAcc      ... 4.388
Radial Grid Type                 RadialGrid  ... OptM3 with GC (2021)
Angular Grid (max. ang.)         AngularGrid ... 4 (Lebedev-302)
Angular grid pruning method      GridPruning ... 4 (adaptive)
Weight generation scheme         WeightScheme... mBecke (2022)
Basis function cutoff            BFCut       ... 1.0000e-10
Integration weight cutoff        WCut        ... 1.0000e-14
Partially contracted basis set               ... off
Rotationally invariant grid construction     ... off
Angular grids for H and He will be reduced by one unit

Total number of grid points                  ...   176218
Total number of batches                      ...     2770
Average number of points per batch           ...       63
Average number of grid points per atom       ...     4196
Grids setup in   1.0 sec
Initializing property integral containers    ... done (  0.0 sec)

SHARK setup successfully completed in   1.6 seconds

Maximum memory used throughout the entire STARTUP-calculation: 37.2 MB


           ************************************************************
           *        Program running with 12 parallel MPI-processes    *
           *              working on a common directory               *
           ************************************************************
             **** ENERGY FILE WAS UPDATED (inp.en.tmp) ****
Finished Guess after   0.1 sec
Maximum memory used throughout the entire GUESS-calculation: 6.6 MB


           ************************************************************
           *        Program running with 12 parallel MPI-processes    *
           *              working on a common directory               *
           ************************************************************

 InCore treatment chosen for four center integrals:
   Memory dedicated               ...    2500 MB
   Memory needed                  ...      9 MB
   Number of tiny    integrals    ... 2150583
   Number of small   integrals    ... 3784041
   Number of regular integrals    ... 6116699

----------------------------------------D-I-I-S--------------------------------------------
Iteration    Energy (Eh)           Delta-E    RMSDP     MaxDP     DIISErr   Damp  Time(sec)
-------------------------------------------------------------------------------------------
    1    -653.0573622533934213     0.00e+00  1.50e-02  9.57e-02  1.99e-01  0.700   0.1
    2    -653.2360455049633856    -1.79e-01  1.25e-02  7.70e-02  1.44e-01  0.700   0.1
                               ***Turning on AO-DIIS***
    3    -653.3652289861929603    -1.29e-01  9.17e-03  5.30e-02  1.03e-01  0.700   0.1
    4    -653.4574065076708393    -9.22e-02  6.87e-03  4.13e-02  7.25e-02  0.700   0.1
    5    -653.5233875091746540    -6.60e-02  1.70e-02  1.08e-01  5.07e-02  0.000   0.1
    6    -653.6839508263035441    -1.61e-01  1.45e-03  1.37e-02  5.34e-03  0.000   0.1
                              *** Initializing SOSCF ***
---------------------------------------S-O-S-C-F--------------------------------------
Iteration    Energy (Eh)           Delta-E    RMSDP     MaxDP     MaxGrad    Time(sec)
--------------------------------------------------------------------------------------
    7    -653.6841742375768263    -2.23e-04  9.20e-04  9.44e-03  2.48e-03     0.1
    8    -653.6842359860247598    -6.17e-05  3.34e-04  3.34e-03  8.10e-04     0.1
    9    -653.6842446603609460    -8.67e-06  2.54e-04  2.39e-03  2.97e-04     0.1
   10    -653.6842466175896789    -1.96e-06  1.90e-05  1.02e-04  2.81e-05     0.1
                  *** Gradient check signals convergence ***

               *****************************************************
               *                     SUCCESS                       *
               *           SCF CONVERGED AFTER  10 CYCLES          *
               *****************************************************

             **** ENERGY FILE WAS UPDATED (inp.en.tmp) ****

----------------
TOTAL SCF ENERGY
----------------

Total Energy       :       -653.68424664592771 Eh          -17787.65266 eV

Components:
Nuclear Repulsion  :       1283.60005824135828 Eh           34928.53332 eV
Electronic Energy  :      -1937.28430488728600 Eh          -52716.18598 eV
One Electron Energy:      -3437.65839546160532 Eh          -93543.44060 eV
Two Electron Energy:       1500.37409057431933 Eh           40827.25462 eV

Virial components:
Potential Energy   :      -1305.23401618671369 Eh          -35517.22324 eV
Kinetic Energy     :        651.54976954078609 Eh           17729.57058 eV
Virial Ratio       :          2.00327600009228

---------------
SCF CONVERGENCE
---------------

  Last Energy change         ...    1.9572e-06  Tolerance :   1.0000e-06
  Last MAX-Density change    ...    1.0150e-04  Tolerance :   1.0000e-07
  Last RMS-Density change    ...    1.9010e-05  Tolerance :   5.0000e-09
  Last DIIS Error            ...    2.4795e-03  Tolerance :   1.0000e-06
  Last Orbital Gradient      ...    2.8097e-05  Tolerance :   3.3300e-04
  Last Orbital Rotation      ...    1.9765e-05  Tolerance :   3.3300e-04


----------------
ORBITAL ENERGIES
----------------

  NO   OCC          E(Eh)            E(eV) 
   0   2.0000     -20.278259      -551.7995 
   1   2.0000     -11.220780      -305.3329 
   2   2.0000     -11.202651      -304.8396 
   3   2.0000     -11.167958      -303.8956 
   4   2.0000     -11.159279      -303.6594 
   5   2.0000     -11.151936      -303.4596 
   6   2.0000     -11.149542      -303.3944 
   7   2.0000     -11.148083      -303.3548 
   8   2.0000     -11.146986      -303.3249 
   9   2.0000     -11.146394      -303.3088 
  10   2.0000     -11.145485      -303.2841 
  11   2.0000     -11.144698      -303.2627 
  12   2.0000     -11.139692      -303.1264 
  13   2.0000     -11.138184      -303.0854 
  14   2.0000     -11.137289      -303.0610 
  15   2.0000     -11.129111      -302.8385 
  16   2.0000      -1.358468       -36.9658 
  17   2.0000      -1.154929       -31.4272 
  18   2.0000      -1.101417       -29.9711 
  19   2.0000      -1.049227       -28.5509 
  20   2.0000      -1.041679       -28.3455 
  21   2.0000      -0.988401       -26.8958 
  22   2.0000      -0.983523       -26.7630 
  23   2.0000      -0.937976       -25.5236 
  24   2.0000      -0.927295       -25.2330 
  25   2.0000      -0.909600       -24.7515 
  26   2.0000      -0.865271       -23.5452 
  27   2.0000      -0.828239       -22.5375 
  28   2.0000      -0.792504       -21.5651 
  29   2.0000      -0.770110       -20.9558 
  30   2.0000      -0.733129       -19.9495 
  31   2.0000      -0.724859       -19.7244 
  32   2.0000      -0.667294       -18.1580 
  33   2.0000      -0.661982       -18.0134 
  34   2.0000      -0.642322       -17.4785 
  35   2.0000      -0.628144       -17.0927 
  36   2.0000      -0.615937       -16.7605 
  37   2.0000      -0.607381       -16.5277 
  38   2.0000      -0.589958       -16.0536 
  39   2.0000      -0.585565       -15.9340 
  40   2.0000      -0.576393       -15.6844 
  41   2.0000      -0.559356       -15.2208 
  42   2.0000      -0.553307       -15.0562 
  43   2.0000      -0.543137       -14.7795 
  44   2.0000      -0.541609       -14.7379 
  45   2.0000      -0.532669       -14.4947 
  46   2.0000      -0.526080       -14.3154 
  47   2.0000      -0.519702       -14.1418 
  48   2.0000      -0.515702       -14.0330 
  49   2.0000      -0.502261       -13.6672 
  50   2.0000      -0.500320       -13.6144 
  51   2.0000      -0.493434       -13.4270 
  52   2.0000      -0.469424       -12.7737 
  53   2.0000      -0.461821       -12.5668 
  54   2.0000      -0.454087       -12.3563 
  55   2.0000      -0.446678       -12.1547 
  56   2.0000      -0.435178       -11.8418 
  57   2.0000      -0.431491       -11.7415 
  58   2.0000      -0.426811       -11.6141 
  59   2.0000      -0.421484       -11.4692 
  60   2.0000      -0.402646       -10.9566 
  61   2.0000      -0.369982       -10.0677 
  62   0.0000       0.440924        11.9982 
  63   0.0000       0.472875        12.8676 
  64   0.0000       0.478588        13.0230 
  65   0.0000       0.528801        14.3894 
  66   0.0000       0.536649        14.6030 
  67   0.0000       0.554766        15.0960 
  68   0.0000       0.560590        15.2544 
  69   0.0000       0.568742        15.4763 
  70   0.0000       0.575742        15.6667 
  71   0.0000       0.590609        16.0713 
  72   0.0000       0.597681        16.2637 
*Only the first 10 virtual orbitals were printed.
Total SCF time: 0 days 0 hours 0 min 0 sec 
Finished LeanSCF after   0.8 sec

Maximum memory used throughout the entire LEANSCF-calculation: 65.0 MB


-------------------------------------------------------------------------------
                          DFT DISPERSION CORRECTION                            
                                                                               
                              DFTD3 V3.1  Rev 1                                
                          USING Becke-Johnson damping                          
-------------------------------------------------------------------------------
-------------------------   ----------------
Dispersion correction           -0.211002283
-------------------------   ----------------

------------------   -----------------
gCP+bas correction         0.004011983
------------------   -----------------
----------------------------   ----------------
Total correction to HF/MINIX       -0.206990300
----------------------------   ----------------


-------------------------   --------------------
FINAL SINGLE POINT ENERGY      -653.891236945836
-------------------------   --------------------



           ************************************************************
           *        Program running with 12 parallel MPI-processes    *
           *              working on a common directory               *
           ************************************************************
------------------------------------------------------------------------------
                         ORCA SCF GRADIENT CALCULATION
------------------------------------------------------------------------------

Nuc. rep. gradient        (SHARK) ... done (  0.0 sec)
HCore & Overlap gradient  (SHARK) ... done (  0.1 sec)
Two-electron gradient     (SHARK) ... done (  1.2 sec)
Dispersion correction             ... done (  0.1 sec)

-------------------
DISPERSION GRADIENT
-------------------

   1   C   :    0.000921080    0.001713724    0.000182387
   2   C   :    0.002730152    0.001194896    0.002048377
   3   C   :    0.003439936   -0.000012591   -0.000373549
   4   C   :    0.002693767   -0.001484331    0.000215684
   5   C   :    0.000286598   -0.002128975   -0.000968452
   6   C   :   -0.000947679   -0.001723839    0.000151984
   7   C   :   -0.000602007   -0.000331375   -0.002162803
   8   C   :   -0.000412027    0.002398408    0.002644868
   9   C   :   -0.001884456    0.002970471    0.000338430
  10   C   :   -0.001187596    0.001055919   -0.002157494
  11   O   :   -0.000656214   -0.001746914   -0.000108915
  12   C   :   -0.001482646   -0.001418465   -0.000369221
  13   H   :   -0.000142559   -0.000276685   -0.002189498
  14   H   :   -0.000580520    0.000774942   -0.001749330
  15   H   :   -0.000228884   -0.000979361    0.001773363
  16   C   :   -0.000353218   -0.002869467    0.000230121
  17   C   :   -0.002246191   -0.001097210   -0.001799057
  18   C   :   -0.001984895   -0.000770607    0.002969040
  19   C   :    0.001358775    0.002741618   -0.002357022
  20   H   :    0.001306238    0.000722679    0.001151385
  21   H   :    0.000972873    0.000444979    0.001931066
  22   H   :    0.001714358   -0.000078200   -0.001400241
  23   H   :    0.001549019    0.000196112   -0.000243107
  24   H   :    0.001228969   -0.000778406    0.001323838
  25   H   :    0.001410695   -0.000806752   -0.000138888
  26   H   :    0.000123428   -0.000814614   -0.001839265
  27   H   :    0.000018486    0.001357184    0.001451061
  28   H   :    0.000050187    0.000856198    0.002130289
  29   H   :   -0.001107395    0.001688515    0.000468704
  30   H   :   -0.001296974    0.001549767   -0.000254450
  31   H   :   -0.000252548   -0.001305606    0.001023777
  32   H   :   -0.000518850   -0.001435325   -0.000086898
  33   H   :    0.000112289   -0.001447578   -0.000071437
  34   H   :   -0.000723639   -0.000577661   -0.001260184
  35   H   :   -0.001413010    0.000127839   -0.000777562
  36   H   :   -0.001066055   -0.000898718   -0.000574533
  37   H   :   -0.001193503    0.000216334    0.001255337
  38   H   :   -0.000625239   -0.000575223    0.001325579
  39   H   :   -0.000778077   -0.000433156    0.002005245
  40   H   :    0.000644167    0.001069003   -0.001505681
  41   H   :    0.000445007    0.001427285   -0.001569702
  42   H   :    0.000678161    0.001485188   -0.000663248

Difference to translation invariance:
           :    0.0000000000   -0.0000000000    0.0000000000

Difference to rotation invariance:
           :   -0.0000000000    0.0000000000    0.0000000000

Norm of the Dispersion gradient    ...    0.0152731605
RMS gradient                       ...    0.0013606413
MAX gradient                       ...    0.0034399362
gCP correction                   ... done

------------------
CARTESIAN GRADIENT
------------------

   1   C   :    0.000010668   -0.000158778   -0.000030214
   2   C   :    0.000045141   -0.000003257    0.000033656
   3   C   :    0.000061385   -0.000000717   -0.000092890
   4   C   :   -0.000040971   -0.000007359    0.000072999
   5   C   :   -0.000028044   -0.000003340   -0.000061681
   6   C   :    0.000064206    0.000030841    0.000111730
   7   C   :    0.000025396   -0.000022484   -0.000138053
   8   C   :   -0.000009235   -0.000006046   -0.000029029
   9   C   :   -0.000178125    0.000102463    0.000112053
  10   C   :    0.000075923   -0.000064586    0.000022335
  11   O   :    0.000094379    0.000095694   -0.000000667
  12   C   :    0.000023620    0.000063312   -0.000016532
  13   H   :    0.000003234    0.000009278    0.000010385
  14   H   :   -0.000009098    0.000021321    0.000035229
  15   H   :   -0.000012111   -0.000006264   -0.000011670
  16   C   :    0.000002269   -0.000052092   -0.000011499
  17   C   :   -0.000092360   -0.000033965   -0.000007078
  18   C   :   -0.000058861   -0.000006928    0.000018725
  19   C   :   -0.000026668    0.000092230   -0.000001278
  20   H   :    0.000041072    0.000055578   -0.000032511
  21   H   :    0.000007774   -0.000016320    0.000058810
  22   H   :   -0.000024831    0.000024169   -0.000017816
  23   H   :    0.000018953    0.000013264   -0.000013146
  24   H   :   -0.000011348    0.000015546    0.000002341
  25   H   :   -0.000005888   -0.000002290   -0.000008880
  26   H   :   -0.000025348    0.000013721    0.000026226
  27   H   :   -0.000019428    0.000013892    0.000022299
  28   H   :    0.000011167   -0.000030311   -0.000008982
  29   H   :   -0.000015337    0.000023559   -0.000029372
  30   H   :    0.000075369   -0.000052169    0.000007003
  31   H   :    0.000001529    0.000044543   -0.000010012
  32   H   :   -0.000017445    0.000001655    0.000020126
  33   H   :   -0.000011486   -0.000003705    0.000014268
  34   H   :    0.000050060    0.000004691   -0.000014343
  35   H   :   -0.000002873   -0.000020415   -0.000031130
  36   H   :    0.000003203   -0.000017035   -0.000029078
  37   H   :   -0.000044370    0.000035154    0.000015576
  38   H   :   -0.000047951   -0.000082823   -0.000001289
  39   H   :    0.000024287   -0.000012231    0.000045960
  40   H   :    0.000006950   -0.000056374    0.000006813
  41   H   :    0.000013564    0.000030791   -0.000028419
  42   H   :    0.000021630   -0.000032212   -0.000010967

Difference to translation invariance:
           :    0.0000000000    0.0000000000   -0.0000000000

Difference to rotation invariance:
           :    0.0000027352   -0.0000032591   -0.0000005449

Norm of the Cartesian gradient     ...    0.0005149542
RMS gradient                       ...    0.0000458758
MAX gradient                       ...    0.0001781254

-------
TIMINGS
-------

Total SCF gradient time     ....        1.355 sec

Densities                   ....       0.000 sec  (  0.0%)
One electron gradient       ....       0.067 sec  (  5.0%)
Two electron gradient       ....       1.220 sec  ( 90.0%)

Maximum memory used throughout the entire SCFGRAD-calculation: 27.4 MB


           ************************************************************
           *        Program running with 12 parallel MPI-processes    *
           *              working on a common directory               *
           ************************************************************

------------------------------------------------------------------------------
                              ORCA PROPERTY CALCULATIONS
------------------------------------------------------------------------------

GBWName                                 ... inp.gbw
Number of atoms                         ...     42
Number of basis functions               ...    106
Max core memory                         ...   2500 MB

Electric properties:
Dipole moment                           ... YES
Quadrupole moment                       ...  NO
Static polarizability (Dipole/Dipole)   ...  NO
Static polarizability (Dipole/Quad.)    ...  NO
Static polarizability (Quad./Quad.)     ...  NO
Static polarizability (Velocity)        ...  NO
Static hyperpolarizability              ...  NO

Atomic electric properties:
Dipole moment                           ...  NO
Quadrupole moment                       ...  NO
Static polarizability                   ...  NO

Choice of electric origin               ... Center of mass
Position of electric origin             ...     0.000023    -0.001163    -0.003716

General magnetic properties:
Magnetizability                         ...  NO

EPR properties:
g-Tensor (aka g-matrix)                 ...  NO
Zero-Field splitting spin-orbit         ...  NO
Zero-field splitting spin-spin          ...  NO
Hyperfine couplings                     ...  NO (   0 nuclei)
Quadrupole couplings                    ...  NO (   0 nuclei)
Contact density                         ...  NO (   0 nuclei)

NMR properties:
Chemical shifts                         ...  NO (   0 nuclei)
Spin-rotation constants                 ...  NO (   0 nuclei)
Spin-spin couplings                     ...  NO (   0 nuclei,    0 pairs)

Choice of magnetic origin               ... GIAO
Position of magnetic origin             ...     0.000000     0.000000     0.000000

Properties with geometric perturbations:
SCF Hessian                             ...  NO
IR spectrum                             ...  NO
VCD spectrum                            ...  NO
X-ray spectroscopy properties:
SCF XES/XAS/RIXS spectra                ...  NO

SCF SOC stabilization energy            ...  NO
Diagonal Born-Oppenheimer correction    ...  NO

-------------
DIPOLE MOMENT
-------------

Method             : SCF
Type of density    : Electron Density
Multiplicity       :   1
Irrep              :   0
Energy             :  -653.6842466459277148 Eh
Basis              : AO
                                X                 Y                 Z
Electronic contribution:     -1.438929526      -1.106440280      -1.113965741
Nuclear contribution   :      1.632545055       1.727127470       1.168818045
                        -----------------------------------------
Total Dipole Moment    :      0.193615528       0.620687190       0.054852305
                        -----------------------------------------
Magnitude (a.u.)       :      0.652493936
Magnitude (Debye)      :      1.658507781



--------------------
Rotational spectrum 
--------------------
 
Rotational constants in cm-1:             0.022662             0.018388             0.011952 
Rotational constants in MHz :           679.389745           551.264144           358.307688 

Dipole components along the rotational axes: 
x,y,z [a.u.] :     0.178438    -0.625313     0.053778 
x,y,z [Debye]:     0.453554    -1.589419     0.136692 

 

Dipole moment calculation done in   0.0 sec 

Maximum memory used throughout the entire PROP-calculation: 5.6 MB

--------------------------------
SUGGESTED CITATIONS FOR THIS RUN
--------------------------------

Below you find a list of papers that are relevant to this ORCA run
We neither can nor want to force you to cite these papers, but we appreciate if you do
You receive ORCA, which is the product of decades of hard work by many enthusiastic individuals, for free
The only thing we kindly ask in return is that you cite our papers,
We deeply appreciate it, if you show your appreciation for ORCA by not just citing the generic ORCA reference.

Please note that relegating all ORCA citations to the supporting information does *not* help us.
SI sections are not indexed - citations you put there will not count into any citation statistics
But we need these citations in order to attract the funding resources that allow us to do what we are doing

Therefore, if you are a happy ORCA user, please consider citing a few of the papers listed below in the main body of your paper

In addition to the list printed below, the program has created the file inp.bibtex that contains the list in bibtex format
You can import this file easily into all common literature databanks and citation aid programs

It goes without saying that in many instances, there are alternative algorithms to achieve similar
results as the ones you have gotten from ORCA. It is, of course, also the case that in some instances
ORCA just re-implements algorithms worked out by others. We are fully aware of that and we are also
fully appreciative of our colleagues work. Hence this citation list should not be read as indicating
that the listed papers, which are focused on our own work, are the only ones worth citing. It simply
meant to make it easier for users to cite ORCA specific papers. It is not a substitute for doing your
own literature research and citing the relevant literature in a scientifically appropriate manner.

List of essential papers. We consider these as the minimum necessary citations

  1. Neese, F.
     Software update: the ORCA program system, version 6.0
     WIRES Comput. Molec. Sci. 2025 15(1), e70019
     doi.org/10.1002/wcms.70019

List of papers to cite with high priority. The work reported in these papers was absolutely
necessary for this run to complete.
Our perspective: the developers of density functionals and basis sets usually get cited in chemistry papers
Good! But without the algorithms to do something with them, the functionals or basis sets would not do anything.
Hence, in our opinion, the algorithm design and method developments papers are equally worthy of getting cited

  1. Grimme, S.; Antony, J.; Ehrlich, S.; Krieg, H.
     A consistent and accurate ab initio parametrization of density functional dispersion correction (DFT-D) for the 94 elements H-Pu
     J. Chem. Phys. 2010 132 , 154104
     doi.org/10.1063/1.3382344
  2. Grimme, S.; Ehrlich, S.; Goerigk, L.
     Effect of the damping function in dispersion corrected density functional theory
     J. Comput. Chem. 2011 32(7), 1456-1465
     doi.org/10.1002/jcc.21759
  3. Neese, F.
     The SHARK Integral Generation and Digestion System
     J. Comp. Chem. 2022 44(3), 381
     doi.org/10.1002/jcc.26942

List of suggested additional citations. These are papers that are important in the 'surrounding' of 
of this run, or papers that preceded the highly important papers. If you like your results we are grateful for a citation.

  1. Neese, F.
     The ORCA program system
     WIRES Comput. Molec. Sci. 2012 2(1), 73-78
     doi.org/10.1002/wcms.81
  2. Neese, F.
     Software update: the ORCA program system, version 4.0
     WIRES Comput. Molec. Sci. 2018 8(1), 1-6
     doi.org/10.1002/wcms.1327
  3. Neese, F.; Wennmohs, F.; Becker, U.; Riplinger, C.
     The ORCA quantum chemistry program package
     J. Chem. Phys. 2020 152(22), 224108
     doi.org/10.1063/5.0004608
  4. Neese, F.
     Software update: The ORCA program system—Version 5.0
     WIRES Comput. Molec. Sci. 2022 12(1), e1606
     doi.org/10.1002/wcms.1606

List of optional additional citations

  1. Neese, F.
     Approximate second-order SCF convergence for spin unrestricted wavefunctions
     Chem. Phys. Lett. 2000 325(1-3), 93-98
     doi.org/10.1016/s0009-2614(00)00662-x

Timings for individual modules:

Sum of individual times          ...        4.844 sec (=   0.081 min)
Startup calculation              ...        1.796 sec (=   0.030 min)  37.1 %
SCF iterations                   ...        1.227 sec (=   0.020 min)  25.3 %
Property calculations            ...        0.251 sec (=   0.004 min)   5.2 %
SCF Gradient evaluation          ...        1.571 sec (=   0.026 min)  32.4 %
                             ****ORCA TERMINATED NORMALLY****
TOTAL RUN TIME: 0 days 0 hours 0 minutes 5 seconds 221 msec
  ------------------------------------------------------------------------
          * successful ORCA run, taking over control again...

         :::::::::::::::::::::::::::::::::::::::::::::::::::::
         ::                  ORCA SUMMARY                   ::
         :::::::::::::::::::::::::::::::::::::::::::::::::::::
         :: total energy            -653.891236945836 Eh    ::
         :: gradient norm              0.000514954177 Eh/a0 ::
         :: HOMO-LUMO gap              0.000000000000 eV    ::
         :::::::::::::::::::::::::::::::::::::::::::::::::::::

      ----------------------------------------------------------- 
     |                       L-ANC optimizer                     |
      ----------------------------------------------------------- 
          low memory version by Sebastian Ehlert

          ...................................................
          :                      SETUP                      :
          :.................................................:
          :   energy convergence        0.5000000E-05 Eh    :
          :   grad. convergence         0.1000000E-02 Eh/a0 :
          :   optimization log               true           :
          :   writing optlog all                1     steps :
          :   Hessian reset                     8     steps :
          :   maximium step len.        1.0000000     a0    :
          :   LBFGS images                      8           :
          ...................................................
 * calculating model hessian...
Using Lindh-Hessian (1995)
 Shifting diagonal of input Hessian by   1.000000000000000E-002
 Lowest  eigenvalues of input Hessian
    0.000000    0.000000    0.000000    0.000000    0.000000    0.000000
    0.011214    0.012909    0.012919    0.013915    0.014862    0.016456
    0.017157    0.018525    0.019031    0.019572    0.019843    0.020106
 Highest eigenvalues
    1.232115    1.241887    1.245988    1.264695    1.274881    1.464387
 

........................................................................
.............................. CYCLE    1 ..............................
........................................................................
                         * ORCA takes the control...
  ------------------------------------------------------------------------

                                 *****************
                                 * O   R   C   A *
                                 *****************

                                            #,                                       
                                            ###                                      
                                            ####                                     
                                            #####                                    
                                            ######                                   
                                           ########,                                 
                                     ,,################,,,,,                         
                               ,,#################################,,                 
                          ,,##########################################,,             
                       ,#########################################, ''#####,          
                    ,#############################################,,   '####,        
                  ,##################################################,,,,####,       
                ,###########''''           ''''###############################       
              ,#####''   ,,,,##########,,,,          '''####'''          '####       
            ,##' ,,,,###########################,,,                        '##       
           ' ,,###''''                  '''############,,,                           
         ,,##''                                '''############,,,,        ,,,,,,###''
      ,#''                                            '''#######################'''  
     '                                                          ''''####''''         
             ,#######,   #######,   ,#######,      ##                                
            ,#'     '#,  ##    ##  ,#'     '#,    #''#        ,####,    ,#,          
            ##       ##  ##   ,#'  ##            #'  '#       #'       ,# #          
            ##       ##  #######   ##           ,######,      #####,      #          
            '#,     ,#'  ##    ##  '#,     ,#' ,#      #,     #,   #      #          
             '#######'   ##     ##  '#######'  #'      '#     '####' #    #          



                #########################################################
                #                        -***-                          #
                #          Department of theory and spectroscopy        #
                #                                                       #
                #                      Frank Neese                      #
                #                                                       #
                #     Directorship, Architecture, Infrastructure        #
                #                    SHARK, DRIVERS                     #
                #        Core code/Algorithms in most modules           #
                #                                                       #
                #        Max Planck Institute fuer Kohlenforschung      #
                #                Kaiser Wilhelm Platz 1                 #
                #                 D-45470 Muelheim/Ruhr                 #
                #                      Germany                          #
                #                                                       #
                #                  All rights reserved                  #
                #                        -***-                          #
                #########################################################


                         Program Version 6.1.1  -  RELEASE   -
                                (GIT: $487d211c$)
                          ($2025-11-21 10:33:24 +0100$)


 With contributions from (in alphabetic order):
[Max-Planck-Institut fuer Kohlenforschung]                               
  Daniel Aravena         : Magnetic Suceptibility                        
  Michael Atanasov       : Ab Initio Ligand Field Theory (pilot matlab implementation)
  Alexander A. Auer      : GIAO ZORA, VPT2 properties, NMR spectrum      
  Ute Becker             : All parallelization in ORCA, NUMFREQ, NUMCALC 
  Giovanni Bistoni       : ED, misc. LED, open-shell LED, HFLD           
  Dmytro Bykov           : pre 5.0 version of the SCF Hessian            
  Marcos Casanova-Páez   : Triplet and SCS-CIS(D). UHF-(DLPNO)-IP/EA/STEOM-CCSD. UHF-CVS-IP/STEOM-CCSD   
  Vijay G. Chilkuri      : MRCI spin determinant printing, contributions to CSF-ICE 
  Pauline Colinet        : FMM embedding                                 
  Dipayan Datta          : RHF DLPNO-CCSD density                        
  Achintya Kumar Dutta   : EOM-CC, STEOM-CC                              
  Nicolas Foglia         : Exact transition moments, OPA infrastructure, MCD improvements    
  Dmitry Ganyushin       : Spin-Orbit,Spin-Spin,Magnetic field MRCI      
  Miquel Garcia-Rates    : C-PCM and meta-GGA Hessian, CCSD/C-PCM, Gaussian charge scheme 
  Tiago L. C. Gouveia    : GS-ROHF, GS-ROCIS                             
  Yang Guo               : DLPNO-NEVPT2, F12-NEVPT2, CIM, IAO-localization        
  Andreas Hansen         : Spin unrestricted coupled pair/coupled cluster methods 
  Ingolf Harden          : AUTO-CI MPn and infrastructure                
  Benjamin Helmich-Paris : MC-RPA, TRAH-(SCF,CASSCF), AVAS, COSX integrals, SCF dyn. polar., MC-PDFT, srDFT 
  Lee Huntington         : MR-EOM, pCC                                   
  Robert Izsak           : Overlap fitted RIJCOSX, COSX-SCS-MP3, EOM     
  Riya Kayal             : Wick's Theorem for AUTO-CI, AUTO-CI UHF-CCSDT 
  Emily Kempfer          : AUTO-CI RHF CISDT and CCSDT, approximate NEVPT4
  Christian Kollmar      : KDIIS, OOCD, Brueckner-CCSD(T), CCSD density, CASPT2, CASPT2-K, improved NEVPT2 
  Axel Koslowski         : Symmetry handling                             
  Simone Kossmann        : meta-GGA functionals, TD-DFT gradient, OOMP2, (MP2 Hessian; deprecated post 5.0) 
  Lucas Lang             : DCDCAS, Hyperfine gauge corrections, ICE-SOC+SSC
  Marvin Lechner         : AUTO-CI (C++ implementation), FIC-MRCC        
  Spencer Leger          : CASSCF response                               
  Dagmar Lenk            : GEPOL surface, SMD, ORCA-2-JSON               
  Dimitrios Liakos       : Extrapolation schemes; Compound Job, Property file
  Dimitrios Manganas     : Further ROCIS development; embedding schemes. LFT, Crystal Embedding 
  Dimitrios Pantazis     : SARC Basis sets                               
  Anastasios Papadopoulos: AUTO-CI, single reference methods and gradients 
  Taras Petrenko         : pre 6.0 DFT Hessian and TD-DFT gradient,  ECA, NRVS 
  Petra Pikulova         : Analytic Raman intensities                    
  Peter Pinski           : DLPNO-MP2, DLPNO-MP2 Gradient                 
  Shashank Vittal Rao    : ES-AILFT, MagRelax                            
  Christoph Reimann      : Effective Core Potentials                     
  Marius Retegan         : Local ZFS, SOC                                
  Christoph Riplinger    : Optimizer, TS searches, QM/MM, DLPNO-CCSD(T), (RO)-DLPNO pert. Triples 
  Michael Roemelt        : Original ROCIS implementation, recursive CI coupling coefficients
  Masaaki Saitow         : Open-shell DLPNO-CCSD energy and density      
  Barbara Sandhoefer     : DKH picture change effects                    
  Yorick L. A. Schmerwitz: GMF and freeze-and-release deltaSCF, NEB S-IDPP initial path                    
  Kantharuban Sivalingam : CASSCF convergence/infrastructure, NEVPT2, NEVPT3, NEVPT4(SD), FIC-MRCI and CEPA variants
  Bernardo de Souza      : ESD, SOC TD-DFT                               
  Georgi L. Stoychev     : AutoAux, RI-MP2 NMR, DLPNO-MP2 response, X2C  
  Van Anh Tran           : RI-MP2 g-tensors                              
  Willem Van den Heuvel  : Paramagnetic NMR                              
  Zikuan Wang            : NOTCH, Electric field optimization            
  Frank Wennmohs         : Technical directorship and infrastructure     
  Hang Xu                : AUTO-CI-Response properties                   
                                                                         
[FACCTs GmbH]                                                            
  Markus Bursch, Nicolas Foglia, Miquel Garcia-Rates, Ingolf Harden, Hagen Neugebauer, Anastasios Papadopoulos, 
  Christoph Riplinger, Bernardo de Souza, Georgi L. Stoychev                                                    
                                                                 
  APM, various basis sets, CI-OPT, improved COSX, DLPNO-Multilevel,           
  DOCKER, DRACO, updates on ESD, Fragmentator, GOAT, IRC, LR-CPCM, L-BFGS, MBIS, meta-GGA TD-DFT gradient, ML-optimized integration grids, 
  MM, NACMEs, nearIR, NEB, NEB-TS, NL-DFT gradient (VV10), 2- and 3-layer-ONIOM, interface openCOSMO-RS, QMMM,   
  Crystal-QMMM, RESP, rigid body optimization, SF, symmetry and pop. for TD-DFT, various functionals, SOLVATOR                                   
                                                                         
[Other institutions]                                                     
  V. Asgeirsson          : NEB                                           
  Christoph Bannwarth    : sTDA-DFT, sTD-DFT, PBEh-3c, B97-3c, D3        
  Giovanni Bistoni       : ETS/NOCV, ADLD/ADEX, COVALED                  
  Martin Brehm           : Molecular dynamics                            
  Ronald Cardenas        : ETS/NOCV                                      
  Martina Colucci        : COVALED                                       
  Sebastian Ehlert       : rSCAN, r2SCAN, r2SCAN-3c, D4, dhf basis sets  
  Marvin Friede          : D4 for Fr, Ra, Ac-Lr                          
  Lars Goerigk           : TD-DFT with DH, B97 family of functionals     
  Stefan Grimme          : VdW corrections, initial TS optimization, DFT functionals, gCP, sTDA/sTD-DF 
  Waldemar Hujo          : DFT-NL                                        
  H. Jonsson             : NEB                                           
  Holger Kruse           : gCP                                           
  Marcel Mueller         : wB97X-3c, vDZP basis set                      
  Hagen Neugebauer       : wr2SCAN, Native XTB                           
  Gianluca Regni         : ADLD/ADEX                                     
  Tobias Risthaus        : pre 6.0 range-separated hybrid DFT and stability analysis
  Lukas Wittmann         : regularized MP2, r2SCAN double-hybrids, wr2SCAN        
                                                                         
We gratefully acknowledge several colleagues who have allowed us to      
interface, adapt or use parts of their codes:                            
  Ed Valeev, F. Pavosevic, A. Kumar             : LibInt (2-el integral package), F12 methods 
  Garnet Chan, S. Sharma, J. Yang, R. Olivares  : DMRG                   
  Ulf Ekstrom                                   : XCFun DFT Library      
  Mihaly Kallay                                 : mrcc  (arbitrary order and MRCC methods)
  Frank Weinhold                                : gennbo (NPA and NBO analysis)           
  Simon Mueller                                 : openCOSMO-RS                            
  Christopher J. Cramer and Donald G. Truhlar   : smd solvation model                     
  S Lehtola, MJT Oliveira, MAL Marques          : LibXC Library                           
  Liviu Ungur et al                             : ANISO software                          


 Your calculation uses the libint2 library for the computation of 2-el integrals
 For citations please refer to: http://libint.valeyev.net

 Your ORCA version has been built with support for libXC version: 7.0.0
 For citations please refer to: https://libxc.gitlab.io

 This ORCA versions uses:
   CBLAS   interface :  Fast vector & matrix operations
   LAPACKE interface :  Fast linear algebra routines
   SCALAPACK package :  Parallel linear algebra routines
   Shared memory     :  Shared parallel matrices
   BLAS/LAPACK       :  OpenBLAS 0.3.29  USE64BITINT DYNAMIC_ARCH NO_AFFINITY Haswell SINGLE_THREADED
        Core in use  :  Haswell
   Copyright (c) 2011-2014, The OpenBLAS Project


  ***********************************
  * Starting time: Sun Aug  9 00:35:05 2026
  * Host name:     localhost.localdomain
  * Process ID:    2657686
  * Working dir.:  /home/dinglab/calculation/templates/NMR_modules/DP4plus/rev_eid_screening/CONF1/hf-3c
  ***********************************

NOTE: MaxCore=2500 MB was set to SCF,MP2,MDCI,CIPSI,MRCI,RASCI and CIS
      => If you want to overwrite this, your respective input block should be placed after the MaxCore statement


***************************************
The coordinates will be read from file: inp.xyz
***************************************


Your calculation utilizes the geometrical counterpoise correction gCP
Please cite in your paper:
H.Kruse, S. Grimme J.Chem.Phys., 136, (2012), 154101 
   

Your calculation utilizes the atom-pairwise dispersion correction
with the Becke-Johnson damping scheme (D3BJ)


================================================================================

----- Orbital basis set information -----
Your calculation utilizes the basis: MINIX,
   a combination of small basis sets by S. Grimme (see manual for definitions).

================================================================================
                                        WARNINGS
                       Please study these warnings very carefully!
================================================================================

WARNING: Old DensityContainer found on disk!
         Will remove this file - 
         If you want to keep old densities, please start your calculation with a different basename. 


WARNING: Gradients are needed
  ===> : At least TightSCF should be used for SCF convergence

================================================================================
                                       INPUT FILE
================================================================================
NAME = inp
|  1> ! hf-3c
|  2> ! DEFGRID2
|  3> ! scfconv6
|  4> ! miniprint nopop noautostart
|  5> %MaxCore 2500
|  6> ! ENGRAD
|  7> %pal
|  8>     nprocs 12
|  9> end
| 10> * xyzfile 0 1 inp.xyz
| 11> 
| 12>                          ****END OF INPUT****
================================================================================

                     *******************************
                     * Energy+Gradient Calculation *
                     *******************************

---------------------------------
CARTESIAN COORDINATES (ANGSTROEM)
---------------------------------
  C      0.957093    1.543545    0.013503
  C      2.241442    1.016673    0.695522
  C      3.002168   -0.039845   -0.152754
  C      2.583490   -1.497531    0.171966
  C      1.178101   -1.917915   -0.328112
  C      0.094121   -0.917006    0.137210
  C      0.119215    0.425500   -0.639115
  C     -0.033601    2.171121    1.024408
  C     -1.386347    2.171296    0.274218
  C     -1.361957    0.889515   -0.603843
  O     -1.198895   -1.439952   -0.118947
  C     -2.142467   -0.372229   -0.070082
  H      0.448886    0.233699   -1.647826
  H     -1.722316    1.115311   -1.596085
  H      0.221212   -0.730896    1.204565
  C      0.851337   -3.341485    0.183686
  C     -3.321593   -0.743886   -1.006726
  C     -2.667776   -0.221933    1.386827
  C      1.335862    2.584293   -1.066914
  H      2.890230    1.860972    0.890788
  H      1.994197    0.583855    1.654653
  H      2.862361    0.158585   -1.207010
  H      4.063438    0.050651    0.047383
  H      2.624127   -1.637624    1.244898
  H      3.307017   -2.177013   -0.262939
  H      1.176499   -1.926845   -1.410759
  H      0.271451    3.160615    1.337078
  H     -0.096537    1.546349    1.905021
  H     -2.229182    2.203698    0.948074
  H     -1.449757    3.043298   -0.363165
  H      0.823672   -3.351900    1.266591
  H     -0.115901   -3.660487   -0.187249
  H      1.607427   -4.043456   -0.147607
  H     -2.955337   -0.911436   -2.012774
  H     -4.049566    0.058854   -1.024430
  H     -3.804150   -1.648542   -0.654899
  H     -3.473382    0.499357    1.432488
  H     -3.046415   -1.182181    1.717478
  H     -1.880262    0.090226    2.059310
  H      2.025538    2.151892   -1.780336
  H      0.457434    2.916732   -1.603651
  H      1.808999    3.445176   -0.611409

----------------------------
CARTESIAN COORDINATES (A.U.)
----------------------------
  NO LB      ZA    FRAG     MASS         X           Y           Z
   0 C     6.0000    0    12.011    1.808644    2.916877    0.025517
   1 C     6.0000    0    12.011    4.235711    1.921234    1.314347
   2 C     6.0000    0    12.011    5.673275   -0.075295   -0.288663
   3 C     6.0000    0    12.011    4.882089   -2.829923    0.324968
   4 C     6.0000    0    12.011    2.226289   -3.624334   -0.620041
   5 C     6.0000    0    12.011    0.177864   -1.732890    0.259290
   6 C     6.0000    0    12.011    0.225283    0.804079   -1.207752
   7 C     6.0000    0    12.011   -0.063498    4.102823    1.935851
   8 C     6.0000    0    12.011   -2.619816    4.103155    0.518198
   9 C     6.0000    0    12.011   -2.573726    1.680941   -1.141097
  10 O     8.0000    0    15.999   -2.265583   -2.721114   -0.224777
  11 C     6.0000    0    12.011   -4.048676   -0.703410   -0.132435
  12 H     1.0000    0     1.008    0.848272    0.441628   -3.113941
  13 H     1.0000    0     1.008   -3.254706    2.107633   -3.016163
  14 H     1.0000    0     1.008    0.418030   -1.381193    2.276298
  15 C     6.0000    0    12.011    1.608795   -6.314491    0.347116
  16 C     6.0000    0    12.011   -6.276900   -1.405741   -1.902436
  17 C     6.0000    0    12.011   -5.041366   -0.419392    2.620723
  18 C     6.0000    0    12.011    2.524413    4.883606   -2.016175
  19 H     1.0000    0     1.008    5.461743    3.516727    1.683345
  20 H     1.0000    0     1.008    3.768487    1.103326    3.126841
  21 H     1.0000    0     1.008    5.409077    0.299681   -2.280918
  22 H     1.0000    0     1.008    7.678785    0.095717    0.089541
  23 H     1.0000    0     1.008    4.958881   -3.094662    2.352517
  24 H     1.0000    0     1.008    6.249357   -4.113959   -0.496883
  25 H     1.0000    0     1.008    2.223260   -3.641210   -2.665948
  26 H     1.0000    0     1.008    0.512967    5.972696    2.526711
  27 H     1.0000    0     1.008   -0.182428    2.922176    3.599968
  28 H     1.0000    0     1.008   -4.212543    4.164386    1.791601
  29 H     1.0000    0     1.008   -2.739643    5.751000   -0.686282
  30 H     1.0000    0     1.008    1.556515   -6.334173    2.393510
  31 H     1.0000    0     1.008   -0.219021   -6.917319   -0.353849
  32 H     1.0000    0     1.008    3.037597   -7.641024   -0.278936
  33 H     1.0000    0     1.008   -5.584777   -1.722364   -3.803591
  34 H     1.0000    0     1.008   -7.652571    0.111218   -1.935891
  35 H     1.0000    0     1.008   -7.188802   -3.115293   -1.237580
  36 H     1.0000    0     1.008   -6.563740    0.943647    2.707010
  37 H     1.0000    0     1.008   -5.756890   -2.233998    3.245562
  38 H     1.0000    0     1.008   -3.553180    0.170502    3.891531
  39 H     1.0000    0     1.008    3.827711    4.066487   -3.364347
  40 H     1.0000    0     1.008    0.864425    5.511825   -3.030462
  41 H     1.0000    0     1.008    3.418512    6.510439   -1.155395



           ************************************************************
           *        Program running with 12 parallel MPI-processes    *
           *              working on a common directory               *
           ************************************************************
------------------------------------------------------------------------------
                   ___                                                        
                  /   \      - P O W E R E D   B Y -                         
                 /     \                                                     
                 |  |  |   _    _      __       _____    __    __             
                 |  |  |  | |  | |    /  \     |  _  \  |  |  /  |          
                  \  \/   | |  | |   /    \    | | | |  |  | /  /          
                 / \  \   | |__| |  /  /\  \   | |_| |  |  |/  /          
                |  |  |   |  __  | /  /__\  \  |    /   |      \           
                |  |  |   | |  | | |   __   |  |    \   |  |\   \          
                \     /   | |  | | |  |  |  |  | |\  \  |  | \   \       
                 \___/    |_|  |_| |__|  |__|  |_| \__\ |__|  \__/        
                                                                              
                      - O R C A' S   B I G   F R I E N D -                    
                                      &                                       
                       - I N T E G R A L  F E E D E R -                       
                                                                              
 v1 FN, 2020, v2 2021, v3 2022-2024                                           
------------------------------------------------------------------------------


----------------------
SHARK INTEGRAL PACKAGE
----------------------

Number of atoms                             ...     42
Number of basis functions                   ...    106
Number of shells                            ...     74
Maximum angular momentum                    ...      1
Integral batch strategy                     ... SHARK/LIBINT Hybrid
RI-J (if used) integral strategy            ... SPLIT-RIJ (Revised 2003 algorithm where possible)
Printlevel                                  ...      1
Contraction scheme used                     ... SEGMENTED contraction
Prescreening option                         ... SCHWARTZ
   Thresh                                   ... 1.000e-10
   Tcut                                     ... 1.000e-11
   Tpresel                                  ... 1.000e-11 
Coulomb Range Separation                    ... NOT USED
Exchange Range Separation                   ... NOT USED
Multipole approximations                    ... NOT USED
Finite Nucleus Model                        ... NOT USED
CABS basis                                  ... NOT available
Auxiliary Coulomb fitting basis             ... NOT available
Auxiliary J/K fitting basis                 ... NOT available
Auxiliary Correlation fitting basis         ... NOT available
Auxiliary 'external' fitting basis          ... NOT available

Checking pre-screening integrals            ... done (  0.0 sec) Dimension = 74
   => SHARK Basis and OBASIS are compatible. Storing Pre-screening
Shell pair information
Shell pair cut-off parameter TPreSel        ...   1.0e-11
Total number of shell pairs                 ...      2775
Shell pairs after pre-screening             ...      2565
Total number of primitive shell pairs       ...     24975
Primitive shell pairs kept                  ...     14244
          la=0 lb=0:   1516 shell pairs
          la=1 lb=0:    913 shell pairs
          la=1 lb=1:    136 shell pairs

Checking whether 4 symmetric matrices of dimension 106 fit in memory
:Max Core in MB      =   2500.00
 MB in use           =      5.11
 MB left             =   2494.89
 MB needed           =      0.17
 Data fit in memory  = YES
Calculating Nuclear repulsion               ... done (  0.0 sec) ENN=   1283.619633481662 Eh
Entering conventional section               ... 
Calculating 4-index integrals               ...     -> SHARK/Ints2Disk: Thresh =     1.000000e-10 TCut=    1.000000e-11 
    -> calling libint FockFlag=2 Lmax_loc=1
    ->Total LIBINT loop time =    0.001 sec
    -> L=0 0 0 0:     0.090 sec done=    885566 (=100.0%) skipped=         0 
    -> L=1 0 0 0:     0.114 sec done=   1165610 (=100.0%) skipped=         0 
    -> L=1 0 1 0:     0.064 sec done=    377387 (=100.0%) skipped=         0 
    -> L=1 1 0 0:     0.037 sec done=    190960 (=100.0%) skipped=         0 
    -> L=1 1 1 0:     0.047 sec done=    120003 (=100.0%) skipped=         0 
    -> L=1 1 1 1:     0.011 sec done=      9290 (=100.0%) skipped=         0 
    ->Total SHARK integral loop time =    0.387 sec
    -> Total Integral generation matrix time =    0.400 sec
    -> Number of small integrals   =   2150252
    -> Number of medium integrals  =   3784195
    -> Number of large integrals   =   6116802
    -> Number of MB stored         =       113 MB

done (  0.4 sec)
Leaving conventional section

Diagonalization of the overlap matrix:
Smallest eigenvalue                        ... 2.048e-01
Time for diagonalization                   ...    0.003 sec
Threshold for overlap eigenvalues          ... 1.000e-07
Number of eigenvalues below threshold      ... 0
Time for construction of square roots      ...    0.001 sec
Total time needed                          ...    0.004 sec

-------------------
DFT GRID GENERATION
-------------------

General Integration Accuracy     IntAcc      ... 4.388
Radial Grid Type                 RadialGrid  ... OptM3 with GC (2021)
Angular Grid (max. ang.)         AngularGrid ... 4 (Lebedev-302)
Angular grid pruning method      GridPruning ... 4 (adaptive)
Weight generation scheme         WeightScheme... mBecke (2022)
Basis function cutoff            BFCut       ... 1.0000e-10
Integration weight cutoff        WCut        ... 1.0000e-14
Partially contracted basis set               ... off
Rotationally invariant grid construction     ... off
Angular grids for H and He will be reduced by one unit

Total number of grid points                  ...   176216
Total number of batches                      ...     2772
Average number of points per batch           ...       63
Average number of grid points per atom       ...     4196
Grids setup in   1.1 sec
Initializing property integral containers    ... done (  0.0 sec)

SHARK setup successfully completed in   1.6 seconds

Maximum memory used throughout the entire STARTUP-calculation: 37.2 MB


           ************************************************************
           *        Program running with 12 parallel MPI-processes    *
           *              working on a common directory               *
           ************************************************************
             **** ENERGY FILE WAS UPDATED (inp.en.tmp) ****
Finished Guess after   0.1 sec
Maximum memory used throughout the entire GUESS-calculation: 6.6 MB


           ************************************************************
           *        Program running with 12 parallel MPI-processes    *
           *              working on a common directory               *
           ************************************************************

 InCore treatment chosen for four center integrals:
   Memory dedicated               ...    2500 MB
   Memory needed                  ...      9 MB
   Number of tiny    integrals    ... 2150252
   Number of small   integrals    ... 3784195
   Number of regular integrals    ... 6116802

----------------------------------------D-I-I-S--------------------------------------------
Iteration    Energy (Eh)           Delta-E    RMSDP     MaxDP     DIISErr   Damp  Time(sec)
-------------------------------------------------------------------------------------------
    1    -653.0571054558820379     0.00e+00  1.50e-02  9.58e-02  1.99e-01  0.700   0.1
    2    -653.2358594198994979    -1.79e-01  1.25e-02  7.70e-02  1.44e-01  0.700   0.1
                               ***Turning on AO-DIIS***
    3    -653.3650920780219167    -1.29e-01  9.17e-03  5.30e-02  1.03e-01  0.700   0.1
    4    -653.4573037734962782    -9.22e-02  6.87e-03  4.13e-02  7.25e-02  0.700   0.1
    5    -653.5233089611158448    -6.60e-02  1.70e-02  1.08e-01  5.07e-02  0.000   0.1
    6    -653.6839299194898558    -1.61e-01  1.45e-03  1.37e-02  5.34e-03  0.000   0.1
                              *** Initializing SOSCF ***
---------------------------------------S-O-S-C-F--------------------------------------
Iteration    Energy (Eh)           Delta-E    RMSDP     MaxDP     MaxGrad    Time(sec)
--------------------------------------------------------------------------------------
    7    -653.6841533186036486    -2.23e-04  9.20e-04  9.44e-03  2.48e-03     0.1
    8    -653.6842150466382009    -6.17e-05  3.33e-04  3.34e-03  8.09e-04     0.1
    9    -653.6842237190733158    -8.67e-06  2.54e-04  2.39e-03  2.97e-04     0.1
   10    -653.6842256756590359    -1.96e-06  1.90e-05  1.02e-04  2.81e-05     0.1
                  *** Gradient check signals convergence ***

               *****************************************************
               *                     SUCCESS                       *
               *           SCF CONVERGED AFTER  10 CYCLES          *
               *****************************************************

             **** ENERGY FILE WAS UPDATED (inp.en.tmp) ****

----------------
TOTAL SCF ENERGY
----------------

Total Energy       :       -653.68422570400799 Eh          -17787.65209 eV

Components:
Nuclear Repulsion  :       1283.61963348166159 Eh           34929.06599 eV
Electronic Energy  :      -1937.30385918566958 Eh          -52716.71807 eV
One Electron Energy:      -3437.69515450713970 Eh          -93544.44086 eV
Two Electron Energy:       1500.39129532147012 Eh           40827.72279 eV

Virial components:
Potential Energy   :      -1305.23507568307809 Eh          -35517.25207 eV
Kinetic Energy     :        651.55084997907011 Eh           17729.59998 eV
Virial Ratio       :          2.00327430426191

---------------
SCF CONVERGENCE
---------------

  Last Energy change         ...    1.9566e-06  Tolerance :   1.0000e-06
  Last MAX-Density change    ...    1.0152e-04  Tolerance :   1.0000e-07
  Last RMS-Density change    ...    1.9012e-05  Tolerance :   5.0000e-09
  Last DIIS Error            ...    2.4790e-03  Tolerance :   1.0000e-06
  Last Orbital Gradient      ...    2.8136e-05  Tolerance :   3.3300e-04
  Last Orbital Rotation      ...    1.9794e-05  Tolerance :   3.3300e-04


----------------
ORBITAL ENERGIES
----------------

  NO   OCC          E(Eh)            E(eV) 
   0   2.0000     -20.278400      -551.8033 
   1   2.0000     -11.220800      -305.3335 
   2   2.0000     -11.202652      -304.8397 
   3   2.0000     -11.167972      -303.8960 
   4   2.0000     -11.159277      -303.6594 
   5   2.0000     -11.151935      -303.4596 
   6   2.0000     -11.149527      -303.3941 
   7   2.0000     -11.148075      -303.3546 
   8   2.0000     -11.146988      -303.3250 
   9   2.0000     -11.146357      -303.3078 
  10   2.0000     -11.145477      -303.2839 
  11   2.0000     -11.144719      -303.2632 
  12   2.0000     -11.139711      -303.1269 
  13   2.0000     -11.138188      -303.0855 
  14   2.0000     -11.137312      -303.0617 
  15   2.0000     -11.129104      -302.8383 
  16   2.0000      -1.358508       -36.9669 
  17   2.0000      -1.154972       -31.4284 
  18   2.0000      -1.101438       -29.9716 
  19   2.0000      -1.049309       -28.5531 
  20   2.0000      -1.041691       -28.3458 
  21   2.0000      -0.988438       -26.8968 
  22   2.0000      -0.983550       -26.7638 
  23   2.0000      -0.938047       -25.5255 
  24   2.0000      -0.927348       -25.2344 
  25   2.0000      -0.909608       -24.7517 
  26   2.0000      -0.865274       -23.5453 
  27   2.0000      -0.828237       -22.5375 
  28   2.0000      -0.792539       -21.5661 
  29   2.0000      -0.770083       -20.9550 
  30   2.0000      -0.733151       -19.9500 
  31   2.0000      -0.724867       -19.7246 
  32   2.0000      -0.667332       -18.1590 
  33   2.0000      -0.662006       -18.0141 
  34   2.0000      -0.642379       -17.4800 
  35   2.0000      -0.628190       -17.0939 
  36   2.0000      -0.615934       -16.7604 
  37   2.0000      -0.607422       -16.5288 
  38   2.0000      -0.589972       -16.0539 
  39   2.0000      -0.585583       -15.9345 
  40   2.0000      -0.576409       -15.6849 
  41   2.0000      -0.559361       -15.2210 
  42   2.0000      -0.553314       -15.0565 
  43   2.0000      -0.543156       -14.7800 
  44   2.0000      -0.541609       -14.7379 
  45   2.0000      -0.532677       -14.4949 
  46   2.0000      -0.526064       -14.3149 
  47   2.0000      -0.519712       -14.1421 
  48   2.0000      -0.515711       -14.0332 
  49   2.0000      -0.502340       -13.6694 
  50   2.0000      -0.500334       -13.6148 
  51   2.0000      -0.493455       -13.4276 
  52   2.0000      -0.469422       -12.7736 
  53   2.0000      -0.461814       -12.5666 
  54   2.0000      -0.454139       -12.3577 
  55   2.0000      -0.446689       -12.1550 
  56   2.0000      -0.435181       -11.8419 
  57   2.0000      -0.431484       -11.7413 
  58   2.0000      -0.426791       -11.6136 
  59   2.0000      -0.421481       -11.4691 
  60   2.0000      -0.402736       -10.9590 
  61   2.0000      -0.370031       -10.0691 
  62   0.0000       0.441027        12.0009 
  63   0.0000       0.472750        12.8642 
  64   0.0000       0.478590        13.0231 
  65   0.0000       0.528823        14.3900 
  66   0.0000       0.536738        14.6054 
  67   0.0000       0.554793        15.0967 
  68   0.0000       0.560706        15.2576 
  69   0.0000       0.568730        15.4759 
  70   0.0000       0.575813        15.6687 
  71   0.0000       0.590619        16.0716 
  72   0.0000       0.597640        16.2626 
*Only the first 10 virtual orbitals were printed.
Total SCF time: 0 days 0 hours 0 min 0 sec 
Finished LeanSCF after   0.8 sec

Maximum memory used throughout the entire LEANSCF-calculation: 65.1 MB


-------------------------------------------------------------------------------
                          DFT DISPERSION CORRECTION                            
                                                                               
                              DFTD3 V3.1  Rev 1                                
                          USING Becke-Johnson damping                          
-------------------------------------------------------------------------------
-------------------------   ----------------
Dispersion correction           -0.211016939
-------------------------   ----------------

------------------   -----------------
gCP+bas correction         0.004004474
------------------   -----------------
----------------------------   ----------------
Total correction to HF/MINIX       -0.207012464
----------------------------   ----------------


-------------------------   --------------------
FINAL SINGLE POINT ENERGY      -653.891238168159
-------------------------   --------------------



           ************************************************************
           *        Program running with 12 parallel MPI-processes    *
           *              working on a common directory               *
           ************************************************************
------------------------------------------------------------------------------
                         ORCA SCF GRADIENT CALCULATION
------------------------------------------------------------------------------

Nuc. rep. gradient        (SHARK) ... done (  0.0 sec)
HCore & Overlap gradient  (SHARK) ... done (  0.1 sec)
Two-electron gradient     (SHARK) ... done (  1.2 sec)
Dispersion correction             ... done (  0.0 sec)

-------------------
DISPERSION GRADIENT
-------------------

   1   C   :    0.000921355    0.001713917    0.000182430
   2   C   :    0.002729243    0.001194569    0.002048765
   3   C   :    0.003439626   -0.000011582   -0.000371983
   4   C   :    0.002693781   -0.001483426    0.000215660
   5   C   :    0.000286923   -0.002128544   -0.000968838
   6   C   :   -0.000947519   -0.001724412    0.000150399
   7   C   :   -0.000600734   -0.000331568   -0.002163118
   8   C   :   -0.000411522    0.002399222    0.002644517
   9   C   :   -0.001884355    0.002971036    0.000336927
  10   C   :   -0.001187039    0.001054933   -0.002159936
  11   O   :   -0.000656680   -0.001748607   -0.000110174
  12   C   :   -0.001482592   -0.001419861   -0.000369872
  13   H   :   -0.000141902   -0.000276858   -0.002189147
  14   H   :   -0.000580000    0.000774177   -0.001750390
  15   H   :   -0.000228375   -0.000979816    0.001772430
  16   C   :   -0.000353036   -0.002869298    0.000229698
  17   C   :   -0.002247535   -0.001097271   -0.001798084
  18   C   :   -0.001985429   -0.000770817    0.002970729
  19   C   :    0.001359710    0.002741293   -0.002357186
  20   H   :    0.001305780    0.000722367    0.001151595
  21   H   :    0.000972200    0.000444435    0.001931440
  22   H   :    0.001714394   -0.000077493   -0.001399198
  23   H   :    0.001548940    0.000196506   -0.000242171
  24   H   :    0.001228633   -0.000778158    0.001323698
  25   H   :    0.001410871   -0.000806555   -0.000138949
  26   H   :    0.000123754   -0.000813857   -0.001839187
  27   H   :    0.000018168    0.001357766    0.001451061
  28   H   :    0.000050286    0.000856636    0.002129890
  29   H   :   -0.001107655    0.001689103    0.000468521
  30   H   :   -0.001297163    0.001549586   -0.000254811
  31   H   :   -0.000252649   -0.001305337    0.001023374
  32   H   :   -0.000518639   -0.001435333   -0.000087406
  33   H   :    0.000112339   -0.001447754   -0.000071683
  34   H   :   -0.000724161   -0.000577450   -0.001259520
  35   H   :   -0.001414021    0.000128029   -0.000777346
  36   H   :   -0.001066885   -0.000898546   -0.000573719
  37   H   :   -0.001193610    0.000216582    0.001256727
  38   H   :   -0.000624839   -0.000574801    0.001326419
  39   H   :   -0.000778669   -0.000433722    0.002007110
  40   H   :    0.000644621    0.001068425   -0.001504770
  41   H   :    0.000445771    0.001427557   -0.001570536
  42   H   :    0.000678615    0.001484925   -0.000663362

Difference to translation invariance:
           :   -0.0000000000    0.0000000000   -0.0000000000

Difference to rotation invariance:
           :    0.0000000000    0.0000000000    0.0000000000

Norm of the Dispersion gradient    ...    0.0152743757
RMS gradient                       ...    0.0013607495
MAX gradient                       ...    0.0034396261
gCP correction                   ... done

------------------
CARTESIAN GRADIENT
------------------

   1   C   :   -0.000111695    0.000197783   -0.000045404
   2   C   :   -0.000016568    0.000036049   -0.000028473
   3   C   :   -0.000052072   -0.000014472    0.000072996
   4   C   :    0.000087864   -0.000074244   -0.000106249
   5   C   :    0.000012187    0.000035873    0.000049028
   6   C   :   -0.000141452   -0.000072954   -0.000173461
   7   C   :    0.000002573    0.000041841    0.000222718
   8   C   :    0.000006961    0.000060113    0.000160732
   9   C   :    0.000237305   -0.000101820   -0.000086149
  10   C   :   -0.000184531    0.000022226   -0.000091274
  11   O   :   -0.000048671   -0.000093171    0.000069485
  12   C   :    0.000068572   -0.000097518    0.000012122
  13   H   :   -0.000026612   -0.000022974   -0.000001242
  14   H   :   -0.000017762    0.000003619   -0.000008049
  15   H   :    0.000030092    0.000037197   -0.000002154
  16   C   :    0.000005736    0.000039149    0.000043094
  17   C   :    0.000059921    0.000012492   -0.000067742
  18   C   :    0.000010658    0.000046396    0.000000449
  19   C   :    0.000056175   -0.000023206   -0.000016355
  20   H   :   -0.000024150   -0.000013630   -0.000021371
  21   H   :    0.000040602    0.000017796   -0.000032194
  22   H   :   -0.000011172   -0.000012476    0.000007325
  23   H   :   -0.000001413   -0.000025108   -0.000027097
  24   H   :   -0.000008460    0.000027548   -0.000008243
  25   H   :    0.000007377   -0.000010736    0.000027995
  26   H   :   -0.000002654    0.000019657   -0.000004428
  27   H   :    0.000027961   -0.000025723    0.000022152
  28   H   :    0.000009050   -0.000013391    0.000001925
  29   H   :    0.000006999   -0.000012565    0.000030645
  30   H   :   -0.000008180    0.000022052   -0.000013425
  31   H   :   -0.000002870   -0.000013952    0.000017745
  32   H   :   -0.000000354    0.000015636    0.000003985
  33   H   :   -0.000005810    0.000006681    0.000000692
  34   H   :    0.000005315   -0.000000964    0.000000431
  35   H   :   -0.000003419   -0.000003089   -0.000007422
  36   H   :    0.000027059   -0.000004401    0.000002122
  37   H   :    0.000005196   -0.000017181    0.000003996
  38   H   :   -0.000007595    0.000030947   -0.000034812
  39   H   :   -0.000038690   -0.000031443    0.000013381
  40   H   :   -0.000011872    0.000017965   -0.000010980
  41   H   :    0.000001819   -0.000008148    0.000023438
  42   H   :    0.000016584    0.000002144    0.000000066

Difference to translation invariance:
           :   -0.0000000000   -0.0000000000   -0.0000000000

Difference to rotation invariance:
           :    0.0000027281   -0.0000032548   -0.0000005476

Norm of the Cartesian gradient     ...    0.0006471145
RMS gradient                       ...    0.0000576495
MAX gradient                       ...    0.0002373051

-------
TIMINGS
-------

Total SCF gradient time     ....        1.382 sec

Densities                   ....       0.000 sec  (  0.0%)
One electron gradient       ....       0.115 sec  (  8.4%)
Two electron gradient       ....       1.200 sec  ( 86.8%)

Maximum memory used throughout the entire SCFGRAD-calculation: 27.4 MB


           ************************************************************
           *        Program running with 12 parallel MPI-processes    *
           *              working on a common directory               *
           ************************************************************

------------------------------------------------------------------------------
                              ORCA PROPERTY CALCULATIONS
------------------------------------------------------------------------------

GBWName                                 ... inp.gbw
Number of atoms                         ...     42
Number of basis functions               ...    106
Max core memory                         ...   2500 MB

Electric properties:
Dipole moment                           ... YES
Quadrupole moment                       ...  NO
Static polarizability (Dipole/Dipole)   ...  NO
Static polarizability (Dipole/Quad.)    ...  NO
Static polarizability (Quad./Quad.)     ...  NO
Static polarizability (Velocity)        ...  NO
Static hyperpolarizability              ...  NO

Atomic electric properties:
Dipole moment                           ...  NO
Quadrupole moment                       ...  NO
Static polarizability                   ...  NO

Choice of electric origin               ... Center of mass
Position of electric origin             ...    -0.000020    -0.001304    -0.003888

General magnetic properties:
Magnetizability                         ...  NO

EPR properties:
g-Tensor (aka g-matrix)                 ...  NO
Zero-Field splitting spin-orbit         ...  NO
Zero-field splitting spin-spin          ...  NO
Hyperfine couplings                     ...  NO (   0 nuclei)
Quadrupole couplings                    ...  NO (   0 nuclei)
Contact density                         ...  NO (   0 nuclei)

NMR properties:
Chemical shifts                         ...  NO (   0 nuclei)
Spin-rotation constants                 ...  NO (   0 nuclei)
Spin-spin couplings                     ...  NO (   0 nuclei,    0 pairs)

Choice of magnetic origin               ... GIAO
Position of magnetic origin             ...     0.000000     0.000000     0.000000

Properties with geometric perturbations:
SCF Hessian                             ...  NO
IR spectrum                             ...  NO
VCD spectrum                            ...  NO
X-ray spectroscopy properties:
SCF XES/XAS/RIXS spectra                ...  NO

SCF SOC stabilization energy            ...  NO
Diagonal Born-Oppenheimer correction    ...  NO

-------------
DIPOLE MOMENT
-------------

Method             : SCF
Type of density    : Electron Density
Multiplicity       :   1
Irrep              :   0
Energy             :  -653.6842257040079858 Eh
Basis              : AO
                                X                 Y                 Z
Electronic contribution:     -1.439919372      -1.108894595      -1.117446944
Nuclear contribution   :      1.633421652       1.730134739       1.172565732
                        -----------------------------------------
Total Dipole Moment    :      0.193502281       0.621240143       0.055118789
                        -----------------------------------------
Magnitude (a.u.)       :      0.653008828
Magnitude (Debye)      :      1.659816533



--------------------
Rotational spectrum 
--------------------
 
Rotational constants in cm-1:             0.022660             0.018391             0.011952 
Rotational constants in MHz :           679.317340           551.349863           358.308694 

Dipole components along the rotational axes: 
x,y,z [a.u.] :     0.177948    -0.625972     0.053978 
x,y,z [Debye]:     0.452307    -1.591096     0.137201 

 

Dipole moment calculation done in   0.0 sec 

Maximum memory used throughout the entire PROP-calculation: 5.6 MB

--------------------------------
SUGGESTED CITATIONS FOR THIS RUN
--------------------------------

Below you find a list of papers that are relevant to this ORCA run
We neither can nor want to force you to cite these papers, but we appreciate if you do
You receive ORCA, which is the product of decades of hard work by many enthusiastic individuals, for free
The only thing we kindly ask in return is that you cite our papers,
We deeply appreciate it, if you show your appreciation for ORCA by not just citing the generic ORCA reference.

Please note that relegating all ORCA citations to the supporting information does *not* help us.
SI sections are not indexed - citations you put there will not count into any citation statistics
But we need these citations in order to attract the funding resources that allow us to do what we are doing

Therefore, if you are a happy ORCA user, please consider citing a few of the papers listed below in the main body of your paper

In addition to the list printed below, the program has created the file inp.bibtex that contains the list in bibtex format
You can import this file easily into all common literature databanks and citation aid programs

It goes without saying that in many instances, there are alternative algorithms to achieve similar
results as the ones you have gotten from ORCA. It is, of course, also the case that in some instances
ORCA just re-implements algorithms worked out by others. We are fully aware of that and we are also
fully appreciative of our colleagues work. Hence this citation list should not be read as indicating
that the listed papers, which are focused on our own work, are the only ones worth citing. It simply
meant to make it easier for users to cite ORCA specific papers. It is not a substitute for doing your
own literature research and citing the relevant literature in a scientifically appropriate manner.

List of essential papers. We consider these as the minimum necessary citations

  1. Neese, F.
     Software update: the ORCA program system, version 6.0
     WIRES Comput. Molec. Sci. 2025 15(1), e70019
     doi.org/10.1002/wcms.70019

List of papers to cite with high priority. The work reported in these papers was absolutely
necessary for this run to complete.
Our perspective: the developers of density functionals and basis sets usually get cited in chemistry papers
Good! But without the algorithms to do something with them, the functionals or basis sets would not do anything.
Hence, in our opinion, the algorithm design and method developments papers are equally worthy of getting cited

  1. Grimme, S.; Antony, J.; Ehrlich, S.; Krieg, H.
     A consistent and accurate ab initio parametrization of density functional dispersion correction (DFT-D) for the 94 elements H-Pu
     J. Chem. Phys. 2010 132 , 154104
     doi.org/10.1063/1.3382344
  2. Grimme, S.; Ehrlich, S.; Goerigk, L.
     Effect of the damping function in dispersion corrected density functional theory
     J. Comput. Chem. 2011 32(7), 1456-1465
     doi.org/10.1002/jcc.21759
  3. Neese, F.
     The SHARK Integral Generation and Digestion System
     J. Comp. Chem. 2022 44(3), 381
     doi.org/10.1002/jcc.26942

List of suggested additional citations. These are papers that are important in the 'surrounding' of 
of this run, or papers that preceded the highly important papers. If you like your results we are grateful for a citation.

  1. Neese, F.
     The ORCA program system
     WIRES Comput. Molec. Sci. 2012 2(1), 73-78
     doi.org/10.1002/wcms.81
  2. Neese, F.
     Software update: the ORCA program system, version 4.0
     WIRES Comput. Molec. Sci. 2018 8(1), 1-6
     doi.org/10.1002/wcms.1327
  3. Neese, F.; Wennmohs, F.; Becker, U.; Riplinger, C.
     The ORCA quantum chemistry program package
     J. Chem. Phys. 2020 152(22), 224108
     doi.org/10.1063/5.0004608
  4. Neese, F.
     Software update: The ORCA program system—Version 5.0
     WIRES Comput. Molec. Sci. 2022 12(1), e1606
     doi.org/10.1002/wcms.1606

List of optional additional citations

  1. Neese, F.
     Approximate second-order SCF convergence for spin unrestricted wavefunctions
     Chem. Phys. Lett. 2000 325(1-3), 93-98
     doi.org/10.1016/s0009-2614(00)00662-x

Timings for individual modules:

Sum of individual times          ...        4.946 sec (=   0.082 min)
Startup calculation              ...        1.763 sec (=   0.029 min)  35.6 %
SCF iterations                   ...        1.318 sec (=   0.022 min)  26.6 %
Property calculations            ...        0.223 sec (=   0.004 min)   4.5 %
SCF Gradient evaluation          ...        1.642 sec (=   0.027 min)  33.2 %
                             ****ORCA TERMINATED NORMALLY****
TOTAL RUN TIME: 0 days 0 hours 0 minutes 5 seconds 393 msec
  ------------------------------------------------------------------------
          * successful ORCA run, taking over control again...
av. E:   -653.8912382 ->   -653.8912382
av. G:      0.0005150 ->      0.0005150
 * total energy  :  -653.8912382 Eh     change       -0.1222323E-05 Eh
   gradient norm :     0.0006471 Eh/a0  converged?    E=T G=T D=F
   step length   :     0.0134257 a0

   *** GEOMETRY OPTIMIZATION CONVERGED AFTER 1 CYCLES ***

------------------------------------------------------------------------
 total energy gain   :        -0.0000012 Eh       -0.0008 kcal/mol
 total RMSD          :         0.0020716 a0        0.0011 Å
 total power (kW/mol):        -0.0032092 (step)   -0.0006 (real)
------------------------------------------------------------------------

 L-ANCopt (total)              0 d,  0 h,  0 min,  5.500 sec
 setup                          ...        0 min,  0.001 sec (  0.013%)
 model hessian                  ...        0 min,  0.075 sec (  1.369%)
 ANC generation                 ...        0 min,  0.005 sec (  0.093%)
 coordinate transformation      ...        0 min,  0.000 sec (  0.001%)
 Rational function              ...        0 min,  0.000 sec (  0.002%)
 singlepoint calculation        ...        0 min,  5.418 sec ( 98.511%)
 optimization log               ...        0 min,  0.000 sec (  0.007%)
                                ...        0 min,  0.000 sec (  0.000%)

================
 final structure:
================
$coord
        1.80864356171528        2.91687691895820        0.02551736409478      c
        4.23571110498699        1.92123369468395        1.31434682156485      c
        5.67327477182805       -0.07529523495968       -0.28866342188266      c
        4.88208927561127       -2.82992289447333        0.32496789859569      c
        2.22628872326104       -3.62433390118947       -0.62004090026506      c
        0.17786355136183       -1.73289041766657        0.25929004989873      c
        0.22528320916636        0.80407875694535       -1.20775240131381      c
       -0.06349753316820        4.10282319337670        1.93585091119110      c
       -2.61981643451158        4.10315490793231        0.51819753395417      c
       -2.57372558825614        1.68094055246301       -1.14109700228807      c
       -2.26558331953143       -2.72111442540935       -0.22477670380352      o
       -4.04867608344329       -0.70341044471284       -0.13243505917572      c
        0.84827179738852        0.44162751489040       -3.11394072113144      h
       -3.25470633521893        2.10763319845907       -3.01616303538674      h
        0.41803041988849       -1.38119308320698        2.27629805657268      h
        1.60879460209669       -6.31449060738286        0.34711561692957      c
       -6.27690018748698       -1.40574057278100       -1.90243601425960      c
       -5.04136578505151       -0.41939216164807        2.62072299672305      c
        2.52441266783354        4.88360566747689       -2.01617465371226      c
        5.46174323542871        3.51672658255787        1.68334458619558      h
        3.76848657526507        1.10332601308921        3.12684066411514      h
        5.40907746698899        0.29968147634248       -2.28091804956408      h
        7.67878458743063        0.09571679351317        0.08954125249423      h
        4.95888072267155       -3.09466150118813        2.35251662261458      h
        6.24935653899218       -4.11395855437902       -0.49688306584328      h
        2.22326035767742       -3.64120993163653       -2.66594804530173      h
        0.51296730172064        5.97269585991998        2.52671114581611      h
       -0.18242815017620        2.92217616198697        3.59996797276045      h
       -4.21254260796825        4.16438639843780        1.79160087450991      h
       -2.73964293686848        5.75100018854197       -0.68628242086289      h
        1.55651504586092       -6.33417277230367        2.39351016746650      h
       -0.21902101181448       -6.91731856889642       -0.35384897764944      h
        3.03759701243466       -7.64102362644709       -0.27893597337427      h
       -5.58477734346244       -1.72236368707251       -3.80359089907537      h
       -7.65257054826951        0.11121824282118       -1.93589134289911      h
       -7.18880149025173       -3.11529303907741       -1.23758013727525      h
       -6.56374015390564        0.94364727080089        2.70701023649578      h
       -5.75688982242123       -2.23399847330302        3.24556213912084      h
       -3.55318045593558        0.17050213101858        3.89153123000848      h
        3.82771132995025        4.06648664243034       -3.36434715638377      h
        0.86442534743792        5.51182478519253       -3.03046204542734      h
        3.41851206882862        6.51043939343204       -1.15539490659603      h
$end
 
 Bond Distances (Angstroems)
 ---------------------------
C1-C2=1.5467         C1-C7=1.5421         C1-C8=1.5483         C1-C19=1.5472        C2-C1=1.5467         C2-C3=1.5539         
C2-H20=1.0825        C2-H21=1.0809        C3-C2=1.5539         C3-C4=1.5510         C3-H22=1.0818        C3-H23=1.0838        
C4-C3=1.5510         C4-C5=1.5498         C4-H24=1.0828        C4-H25=1.0837        C5-C4=1.5498         C5-C6=1.5470         
C5-C16=1.5477        C5-H26=1.0827        C6-C5=1.5470         C6-C7=1.5510         C6-O11=1.4181        C6-H15=1.0909        
C7-C1=1.5421         C7-C6=1.5510         C7-C10=1.5526        C7-H13=1.0784        C8-C1=1.5483         C8-C9=1.5468         
C8-H27=1.0816        C8-H28=1.0816        C9-C8=1.5468         C9-C10=1.5539        C9-H29=1.0796        C9-H30=1.0820        
C10-C7=1.5526        C10-C9=1.5539        C10-C12=1.5767       C10-H14=1.0795       O11-C6=1.4181        O11-C12=1.4257       
C12-C10=1.5767       C12-O11=1.4257       C12-C17=1.5511       C12-C18=1.5560       H13-C7=1.0784        H14-C10=1.0795       
H15-C6=1.0909        C16-C5=1.5477        C16-H31=1.0833       C16-H32=1.0839       C16-H33=1.0836       C17-C12=1.5511       
C17-H34=1.0837       C17-H35=1.0838       C17-H36=1.0840       C18-C12=1.5560       C18-H37=1.0823       C18-H38=1.0839       
C18-H39=1.0816       C19-C1=1.5472        C19-H40=1.0824       C19-H41=1.0818       C19-H42=1.0828       H20-C2=1.0825        
H21-C2=1.0809        H22-C3=1.0818        H23-C3=1.0838        H24-C4=1.0828        H25-C4=1.0837        H26-C5=1.0827        
H27-C8=1.0816        H28-C8=1.0816        H29-C9=1.0796        H30-C9=1.0820        H31-C16=1.0833       H32-C16=1.0839       
H33-C16=1.0836       H34-C17=1.0837       H35-C17=1.0838       H36-C17=1.0840       H37-C18=1.0823       H38-C18=1.0839       
H39-C18=1.0816       H40-C19=1.0824       H41-C19=1.0818       H42-C19=1.0828       
 C  H  Rav=1.0826 sigma=0.0022  Rmin=1.0784  Rmax=1.0909    26
 C  C  Rav=1.5514 sigma=0.0074  Rmin=1.5421  Rmax=1.5767    16
 O  C  Rav=1.4219 sigma=0.0038  Rmin=1.4181  Rmax=1.4257     2
 
 selected bond angles (degree)
 --------------------
C7-C1-C2=113.01                C8-C1-C2=112.43                C8-C1-C7=102.86                C19-C1-C2=109.50               
C19-C1-C7=108.98               C19-C1-C8=109.87               C3-C2-C1=113.42                H20-C2-C1=108.15               
H20-C2-C3=109.59               H21-C2-C1=109.74               H21-C2-C3=108.91               H21-C2-H20=106.82              
C4-C3-C2=113.11                H22-C3-C2=110.12               H22-C3-C4=109.97               H23-C3-C2=108.77               
H23-C3-C4=107.71               H23-C3-H22=106.93              C5-C4-C3=115.60                H24-C4-C3=108.60               
H24-C4-C5=108.58               H25-C4-C3=108.97               H25-C4-C5=107.81               H25-C4-H24=106.95              
C6-C5-C4=111.27                C16-C5-C4=109.53               C16-C5-C6=110.35               H26-C5-C4=109.04               
H26-C5-C6=107.76               H26-C5-C16=108.83              C7-C6-C5=113.46                O11-C6-C5=110.24               
O11-C6-C7=104.10               H15-C6-C5=108.85               H15-C6-C7=109.89               H15-C6-O11=110.24              
C6-C7-C1=115.12                C10-C7-C1=106.98               C10-C7-C6=103.41               H13-C7-C1=111.02               
H13-C7-C6=108.61               H13-C7-C10=111.47              C9-C8-C1=104.06                H27-C8-C1=112.28               
H27-C8-C9=112.75               H28-C8-C1=109.55               H28-C8-C9=110.12               H28-C8-H27=108.03              
C10-C9-C8=105.08               H29-C9-C8=112.34               H29-C9-C10=112.94              H30-C9-C8=109.70               
H30-C9-C10=109.44              H30-C9-H29=107.32              C9-C10-C7=105.92               C12-C10-C7=103.93              
C12-C10-C9=117.45              H14-C10-C7=111.11              H14-C10-C9=109.98              H14-C10-C12=108.26             
 
 selected dihedral angles (degree)
 ---------------------------------
C3-C2-C1-C7= 43.44            C3-C2-C1-C8=159.34            C3-C2-C1-C19=281.76           H20-C2-C1-C7=165.21           
H20-C2-C1-C8=281.11           H20-C2-C1-C19= 43.54          H21-C2-C1-C7=281.39           H21-C2-C1-C8= 37.29           
H21-C2-C1-C19=159.71          C4-C3-C2-C1=267.81            C4-C3-C2-H20=146.84           C4-C3-C2-H21= 30.32           
H22-C3-C2-C1= 31.30           H22-C3-C2-H20=270.34          H22-C3-C2-H21=153.81          H23-C3-C2-C1=148.18           
H23-C3-C2-H20= 27.21          H23-C3-C2-H21=270.69          C5-C4-C3-C2= 72.24            C5-C4-C3-H22=308.66           
C5-C4-C3-H23=192.48           H24-C4-C3-C2=309.96           H24-C4-C3-H22=186.38          H24-C4-C3-H23= 70.19          
H25-C4-C3-C2=193.80           H25-C4-C3-H22= 70.22          H25-C4-C3-H23=314.03          C6-C5-C4-C3=307.60            
C6-C5-C4-H24= 69.89           C6-C5-C4-H25=185.42           C16-C5-C4-C3=185.33           C16-C5-C4-H24=307.62          
C16-C5-C4-H25= 63.15          H26-C5-C4-C3= 66.33           H26-C5-C4-H24=188.62          H26-C5-C4-H25=304.16          
C7-C6-C5-C4= 74.22            C7-C6-C5-C16=196.02           C7-C6-C5-H26=314.73           O11-C6-C5-C4=190.52           
O11-C6-C5-C16=312.32          O11-C6-C5-H26= 71.02          H15-C6-C5-C4=311.54           H15-C6-C5-C16= 73.34          
H15-C6-C5-H26=192.05          C6-C7-C1-C2= 36.72            C6-C7-C1-C8=275.25            C6-C7-C1-C19=158.69           
C10-C7-C1-C2=150.99           C10-C7-C1-C8= 29.52           C10-C7-C1-C19=272.95          H13-C7-C1-C2=272.81           
H13-C7-C1-C8=151.34           H13-C7-C1-C19= 34.78          C1-C7-C6-C5=266.78            C1-C7-C6-O11=146.92           
C1-C7-C6-H15= 28.89           C10-C7-C6-C5=150.46           C10-C7-C6-O11= 30.60          C10-C7-C6-H15=272.57          
H13-C7-C6-C5= 31.95           H13-C7-C6-O11=272.09          H13-C7-C6-H15=154.05          C9-C8-C1-C2=199.08            
C9-C8-C1-C7=320.95            C9-C8-C1-C19= 76.87           H27-C8-C1-C2= 76.85           H27-C8-C1-C7=198.71           
H27-C8-C1-C19=314.63          H28-C8-C1-C2=316.82           H28-C8-C1-C7= 78.68           H28-C8-C1-C19=194.60          
C10-C9-C8-C1= 33.99           C10-C9-C8-H27=155.92          C10-C9-C8-H28=276.65          H29-C9-C8-C1=157.16           
H29-C9-C8-H27=279.08          H29-C9-C8-H28= 39.82          H30-C9-C8-C1=276.43           H30-C9-C8-H27= 38.36          
H30-C9-C8-H28=159.10          C9-C10-C7-C1=351.17           C9-C10-C7-C6=113.12           C9-C10-C7-H13=229.63          
C12-C10-C7-C1=226.79          C12-C10-C7-C6=348.73          C12-C10-C7-H13=105.25         H14-C10-C7-C1=110.57          
H14-C10-C7-C6=232.52          H14-C10-C7-H13=349.03         C7-C10-C9-C8=344.50           C7-C10-C9-H29=221.72          
C7-C10-C9-H30=102.23          C12-C10-C9-C8= 99.99          C12-C10-C9-H29=337.21         C12-C10-C9-H30=217.72         
H14-C10-C9-C8=224.36          H14-C10-C9-H29=101.58         H14-C10-C9-H30=342.09         
           -------------------------------------------------
          |                Final Singlepoint                |
           -------------------------------------------------
                         * ORCA takes the control...
  ------------------------------------------------------------------------

                                 *****************
                                 * O   R   C   A *
                                 *****************

                                            #,                                       
                                            ###                                      
                                            ####                                     
                                            #####                                    
                                            ######                                   
                                           ########,                                 
                                     ,,################,,,,,                         
                               ,,#################################,,                 
                          ,,##########################################,,             
                       ,#########################################, ''#####,          
                    ,#############################################,,   '####,        
                  ,##################################################,,,,####,       
                ,###########''''           ''''###############################       
              ,#####''   ,,,,##########,,,,          '''####'''          '####       
            ,##' ,,,,###########################,,,                        '##       
           ' ,,###''''                  '''############,,,                           
         ,,##''                                '''############,,,,        ,,,,,,###''
      ,#''                                            '''#######################'''  
     '                                                          ''''####''''         
             ,#######,   #######,   ,#######,      ##                                
            ,#'     '#,  ##    ##  ,#'     '#,    #''#        ,####,    ,#,          
            ##       ##  ##   ,#'  ##            #'  '#       #'       ,# #          
            ##       ##  #######   ##           ,######,      #####,      #          
            '#,     ,#'  ##    ##  '#,     ,#' ,#      #,     #,   #      #          
             '#######'   ##     ##  '#######'  #'      '#     '####' #    #          



                #########################################################
                #                        -***-                          #
                #          Department of theory and spectroscopy        #
                #                                                       #
                #                      Frank Neese                      #
                #                                                       #
                #     Directorship, Architecture, Infrastructure        #
                #                    SHARK, DRIVERS                     #
                #        Core code/Algorithms in most modules           #
                #                                                       #
                #        Max Planck Institute fuer Kohlenforschung      #
                #                Kaiser Wilhelm Platz 1                 #
                #                 D-45470 Muelheim/Ruhr                 #
                #                      Germany                          #
                #                                                       #
                #                  All rights reserved                  #
                #                        -***-                          #
                #########################################################


                         Program Version 6.1.1  -  RELEASE   -
                                (GIT: $487d211c$)
                          ($2025-11-21 10:33:24 +0100$)


 With contributions from (in alphabetic order):
[Max-Planck-Institut fuer Kohlenforschung]                               
  Daniel Aravena         : Magnetic Suceptibility                        
  Michael Atanasov       : Ab Initio Ligand Field Theory (pilot matlab implementation)
  Alexander A. Auer      : GIAO ZORA, VPT2 properties, NMR spectrum      
  Ute Becker             : All parallelization in ORCA, NUMFREQ, NUMCALC 
  Giovanni Bistoni       : ED, misc. LED, open-shell LED, HFLD           
  Dmytro Bykov           : pre 5.0 version of the SCF Hessian            
  Marcos Casanova-Páez   : Triplet and SCS-CIS(D). UHF-(DLPNO)-IP/EA/STEOM-CCSD. UHF-CVS-IP/STEOM-CCSD   
  Vijay G. Chilkuri      : MRCI spin determinant printing, contributions to CSF-ICE 
  Pauline Colinet        : FMM embedding                                 
  Dipayan Datta          : RHF DLPNO-CCSD density                        
  Achintya Kumar Dutta   : EOM-CC, STEOM-CC                              
  Nicolas Foglia         : Exact transition moments, OPA infrastructure, MCD improvements    
  Dmitry Ganyushin       : Spin-Orbit,Spin-Spin,Magnetic field MRCI      
  Miquel Garcia-Rates    : C-PCM and meta-GGA Hessian, CCSD/C-PCM, Gaussian charge scheme 
  Tiago L. C. Gouveia    : GS-ROHF, GS-ROCIS                             
  Yang Guo               : DLPNO-NEVPT2, F12-NEVPT2, CIM, IAO-localization        
  Andreas Hansen         : Spin unrestricted coupled pair/coupled cluster methods 
  Ingolf Harden          : AUTO-CI MPn and infrastructure                
  Benjamin Helmich-Paris : MC-RPA, TRAH-(SCF,CASSCF), AVAS, COSX integrals, SCF dyn. polar., MC-PDFT, srDFT 
  Lee Huntington         : MR-EOM, pCC                                   
  Robert Izsak           : Overlap fitted RIJCOSX, COSX-SCS-MP3, EOM     
  Riya Kayal             : Wick's Theorem for AUTO-CI, AUTO-CI UHF-CCSDT 
  Emily Kempfer          : AUTO-CI RHF CISDT and CCSDT, approximate NEVPT4
  Christian Kollmar      : KDIIS, OOCD, Brueckner-CCSD(T), CCSD density, CASPT2, CASPT2-K, improved NEVPT2 
  Axel Koslowski         : Symmetry handling                             
  Simone Kossmann        : meta-GGA functionals, TD-DFT gradient, OOMP2, (MP2 Hessian; deprecated post 5.0) 
  Lucas Lang             : DCDCAS, Hyperfine gauge corrections, ICE-SOC+SSC
  Marvin Lechner         : AUTO-CI (C++ implementation), FIC-MRCC        
  Spencer Leger          : CASSCF response                               
  Dagmar Lenk            : GEPOL surface, SMD, ORCA-2-JSON               
  Dimitrios Liakos       : Extrapolation schemes; Compound Job, Property file
  Dimitrios Manganas     : Further ROCIS development; embedding schemes. LFT, Crystal Embedding 
  Dimitrios Pantazis     : SARC Basis sets                               
  Anastasios Papadopoulos: AUTO-CI, single reference methods and gradients 
  Taras Petrenko         : pre 6.0 DFT Hessian and TD-DFT gradient,  ECA, NRVS 
  Petra Pikulova         : Analytic Raman intensities                    
  Peter Pinski           : DLPNO-MP2, DLPNO-MP2 Gradient                 
  Shashank Vittal Rao    : ES-AILFT, MagRelax                            
  Christoph Reimann      : Effective Core Potentials                     
  Marius Retegan         : Local ZFS, SOC                                
  Christoph Riplinger    : Optimizer, TS searches, QM/MM, DLPNO-CCSD(T), (RO)-DLPNO pert. Triples 
  Michael Roemelt        : Original ROCIS implementation, recursive CI coupling coefficients
  Masaaki Saitow         : Open-shell DLPNO-CCSD energy and density      
  Barbara Sandhoefer     : DKH picture change effects                    
  Yorick L. A. Schmerwitz: GMF and freeze-and-release deltaSCF, NEB S-IDPP initial path                    
  Kantharuban Sivalingam : CASSCF convergence/infrastructure, NEVPT2, NEVPT3, NEVPT4(SD), FIC-MRCI and CEPA variants
  Bernardo de Souza      : ESD, SOC TD-DFT                               
  Georgi L. Stoychev     : AutoAux, RI-MP2 NMR, DLPNO-MP2 response, X2C  
  Van Anh Tran           : RI-MP2 g-tensors                              
  Willem Van den Heuvel  : Paramagnetic NMR                              
  Zikuan Wang            : NOTCH, Electric field optimization            
  Frank Wennmohs         : Technical directorship and infrastructure     
  Hang Xu                : AUTO-CI-Response properties                   
                                                                         
[FACCTs GmbH]                                                            
  Markus Bursch, Nicolas Foglia, Miquel Garcia-Rates, Ingolf Harden, Hagen Neugebauer, Anastasios Papadopoulos, 
  Christoph Riplinger, Bernardo de Souza, Georgi L. Stoychev                                                    
                                                                 
  APM, various basis sets, CI-OPT, improved COSX, DLPNO-Multilevel,           
  DOCKER, DRACO, updates on ESD, Fragmentator, GOAT, IRC, LR-CPCM, L-BFGS, MBIS, meta-GGA TD-DFT gradient, ML-optimized integration grids, 
  MM, NACMEs, nearIR, NEB, NEB-TS, NL-DFT gradient (VV10), 2- and 3-layer-ONIOM, interface openCOSMO-RS, QMMM,   
  Crystal-QMMM, RESP, rigid body optimization, SF, symmetry and pop. for TD-DFT, various functionals, SOLVATOR                                   
                                                                         
[Other institutions]                                                     
  V. Asgeirsson          : NEB                                           
  Christoph Bannwarth    : sTDA-DFT, sTD-DFT, PBEh-3c, B97-3c, D3        
  Giovanni Bistoni       : ETS/NOCV, ADLD/ADEX, COVALED                  
  Martin Brehm           : Molecular dynamics                            
  Ronald Cardenas        : ETS/NOCV                                      
  Martina Colucci        : COVALED                                       
  Sebastian Ehlert       : rSCAN, r2SCAN, r2SCAN-3c, D4, dhf basis sets  
  Marvin Friede          : D4 for Fr, Ra, Ac-Lr                          
  Lars Goerigk           : TD-DFT with DH, B97 family of functionals     
  Stefan Grimme          : VdW corrections, initial TS optimization, DFT functionals, gCP, sTDA/sTD-DF 
  Waldemar Hujo          : DFT-NL                                        
  H. Jonsson             : NEB                                           
  Holger Kruse           : gCP                                           
  Marcel Mueller         : wB97X-3c, vDZP basis set                      
  Hagen Neugebauer       : wr2SCAN, Native XTB                           
  Gianluca Regni         : ADLD/ADEX                                     
  Tobias Risthaus        : pre 6.0 range-separated hybrid DFT and stability analysis
  Lukas Wittmann         : regularized MP2, r2SCAN double-hybrids, wr2SCAN        
                                                                         
We gratefully acknowledge several colleagues who have allowed us to      
interface, adapt or use parts of their codes:                            
  Ed Valeev, F. Pavosevic, A. Kumar             : LibInt (2-el integral package), F12 methods 
  Garnet Chan, S. Sharma, J. Yang, R. Olivares  : DMRG                   
  Ulf Ekstrom                                   : XCFun DFT Library      
  Mihaly Kallay                                 : mrcc  (arbitrary order and MRCC methods)
  Frank Weinhold                                : gennbo (NPA and NBO analysis)           
  Simon Mueller                                 : openCOSMO-RS                            
  Christopher J. Cramer and Donald G. Truhlar   : smd solvation model                     
  S Lehtola, MJT Oliveira, MAL Marques          : LibXC Library                           
  Liviu Ungur et al                             : ANISO software                          


 Your calculation uses the libint2 library for the computation of 2-el integrals
 For citations please refer to: http://libint.valeyev.net

 Your ORCA version has been built with support for libXC version: 7.0.0
 For citations please refer to: https://libxc.gitlab.io

 This ORCA versions uses:
   CBLAS   interface :  Fast vector & matrix operations
   LAPACKE interface :  Fast linear algebra routines
   SCALAPACK package :  Parallel linear algebra routines
   Shared memory     :  Shared parallel matrices
   BLAS/LAPACK       :  OpenBLAS 0.3.29  USE64BITINT DYNAMIC_ARCH NO_AFFINITY Haswell SINGLE_THREADED
        Core in use  :  Haswell
   Copyright (c) 2011-2014, The OpenBLAS Project


  ***********************************
  * Starting time: Sun Aug  9 00:35:10 2026
  * Host name:     localhost.localdomain
  * Process ID:    2658463
  * Working dir.:  /home/dinglab/calculation/templates/NMR_modules/DP4plus/rev_eid_screening/CONF1/hf-3c
  ***********************************

NOTE: MaxCore=2500 MB was set to SCF,MP2,MDCI,CIPSI,MRCI,RASCI and CIS
      => If you want to overwrite this, your respective input block should be placed after the MaxCore statement


***************************************
The coordinates will be read from file: inp.xyz
***************************************


Your calculation utilizes the geometrical counterpoise correction gCP
Please cite in your paper:
H.Kruse, S. Grimme J.Chem.Phys., 136, (2012), 154101 
   

Your calculation utilizes the atom-pairwise dispersion correction
with the Becke-Johnson damping scheme (D3BJ)


================================================================================

----- Orbital basis set information -----
Your calculation utilizes the basis: MINIX,
   a combination of small basis sets by S. Grimme (see manual for definitions).

================================================================================
                                        WARNINGS
                       Please study these warnings very carefully!
================================================================================

WARNING: Old DensityContainer found on disk!
         Will remove this file - 
         If you want to keep old densities, please start your calculation with a different basename. 


WARNING: Gradients are needed
  ===> : At least TightSCF should be used for SCF convergence

================================================================================
                                       INPUT FILE
================================================================================
NAME = inp
|  1> ! hf-3c
|  2> ! DEFGRID2
|  3> ! scfconv6
|  4> ! miniprint nopop noautostart
|  5> %MaxCore 2500
|  6> ! ENGRAD
|  7> %pal
|  8>     nprocs 12
|  9> end
| 10> * xyzfile 0 1 inp.xyz
| 11> 
| 12>                          ****END OF INPUT****
================================================================================

                     *******************************
                     * Energy+Gradient Calculation *
                     *******************************

---------------------------------
CARTESIAN COORDINATES (ANGSTROEM)
---------------------------------
  C      0.957093    1.543545    0.013503
  C      2.241442    1.016673    0.695522
  C      3.002168   -0.039845   -0.152754
  C      2.583490   -1.497531    0.171966
  C      1.178101   -1.917915   -0.328112
  C      0.094121   -0.917006    0.137210
  C      0.119215    0.425500   -0.639115
  C     -0.033601    2.171121    1.024408
  C     -1.386347    2.171296    0.274218
  C     -1.361957    0.889515   -0.603843
  O     -1.198895   -1.439952   -0.118947
  C     -2.142467   -0.372229   -0.070082
  H      0.448886    0.233699   -1.647826
  H     -1.722316    1.115311   -1.596085
  H      0.221212   -0.730896    1.204565
  C      0.851337   -3.341485    0.183686
  C     -3.321593   -0.743886   -1.006726
  C     -2.667776   -0.221933    1.386827
  C      1.335862    2.584293   -1.066914
  H      2.890230    1.860972    0.890788
  H      1.994197    0.583855    1.654653
  H      2.862361    0.158585   -1.207010
  H      4.063438    0.050651    0.047383
  H      2.624127   -1.637624    1.244898
  H      3.307017   -2.177013   -0.262939
  H      1.176499   -1.926845   -1.410759
  H      0.271451    3.160615    1.337078
  H     -0.096537    1.546349    1.905021
  H     -2.229182    2.203698    0.948074
  H     -1.449757    3.043298   -0.363165
  H      0.823672   -3.351900    1.266591
  H     -0.115901   -3.660487   -0.187249
  H      1.607427   -4.043456   -0.147607
  H     -2.955337   -0.911436   -2.012774
  H     -4.049566    0.058854   -1.024430
  H     -3.804150   -1.648542   -0.654899
  H     -3.473382    0.499357    1.432488
  H     -3.046415   -1.182181    1.717478
  H     -1.880262    0.090226    2.059310
  H      2.025538    2.151892   -1.780336
  H      0.457434    2.916732   -1.603651
  H      1.808999    3.445176   -0.611409

----------------------------
CARTESIAN COORDINATES (A.U.)
----------------------------
  NO LB      ZA    FRAG     MASS         X           Y           Z
   0 C     6.0000    0    12.011    1.808644    2.916877    0.025517
   1 C     6.0000    0    12.011    4.235711    1.921234    1.314347
   2 C     6.0000    0    12.011    5.673275   -0.075295   -0.288663
   3 C     6.0000    0    12.011    4.882089   -2.829923    0.324968
   4 C     6.0000    0    12.011    2.226289   -3.624334   -0.620041
   5 C     6.0000    0    12.011    0.177864   -1.732890    0.259290
   6 C     6.0000    0    12.011    0.225283    0.804079   -1.207752
   7 C     6.0000    0    12.011   -0.063498    4.102823    1.935851
   8 C     6.0000    0    12.011   -2.619816    4.103155    0.518198
   9 C     6.0000    0    12.011   -2.573726    1.680941   -1.141097
  10 O     8.0000    0    15.999   -2.265583   -2.721114   -0.224777
  11 C     6.0000    0    12.011   -4.048676   -0.703410   -0.132435
  12 H     1.0000    0     1.008    0.848272    0.441628   -3.113941
  13 H     1.0000    0     1.008   -3.254706    2.107633   -3.016163
  14 H     1.0000    0     1.008    0.418030   -1.381193    2.276298
  15 C     6.0000    0    12.011    1.608795   -6.314491    0.347116
  16 C     6.0000    0    12.011   -6.276900   -1.405741   -1.902436
  17 C     6.0000    0    12.011   -5.041366   -0.419392    2.620723
  18 C     6.0000    0    12.011    2.524413    4.883606   -2.016175
  19 H     1.0000    0     1.008    5.461743    3.516727    1.683345
  20 H     1.0000    0     1.008    3.768487    1.103326    3.126841
  21 H     1.0000    0     1.008    5.409077    0.299681   -2.280918
  22 H     1.0000    0     1.008    7.678785    0.095717    0.089541
  23 H     1.0000    0     1.008    4.958881   -3.094662    2.352517
  24 H     1.0000    0     1.008    6.249357   -4.113959   -0.496883
  25 H     1.0000    0     1.008    2.223260   -3.641210   -2.665948
  26 H     1.0000    0     1.008    0.512967    5.972696    2.526711
  27 H     1.0000    0     1.008   -0.182428    2.922176    3.599968
  28 H     1.0000    0     1.008   -4.212543    4.164386    1.791601
  29 H     1.0000    0     1.008   -2.739643    5.751000   -0.686282
  30 H     1.0000    0     1.008    1.556515   -6.334173    2.393510
  31 H     1.0000    0     1.008   -0.219021   -6.917319   -0.353849
  32 H     1.0000    0     1.008    3.037597   -7.641024   -0.278936
  33 H     1.0000    0     1.008   -5.584777   -1.722364   -3.803591
  34 H     1.0000    0     1.008   -7.652571    0.111218   -1.935891
  35 H     1.0000    0     1.008   -7.188802   -3.115293   -1.237580
  36 H     1.0000    0     1.008   -6.563740    0.943647    2.707010
  37 H     1.0000    0     1.008   -5.756890   -2.233998    3.245562
  38 H     1.0000    0     1.008   -3.553180    0.170502    3.891531
  39 H     1.0000    0     1.008    3.827711    4.066487   -3.364347
  40 H     1.0000    0     1.008    0.864425    5.511825   -3.030462
  41 H     1.0000    0     1.008    3.418512    6.510439   -1.155395



           ************************************************************
           *        Program running with 12 parallel MPI-processes    *
           *              working on a common directory               *
           ************************************************************
------------------------------------------------------------------------------
                   ___                                                        
                  /   \      - P O W E R E D   B Y -                         
                 /     \                                                     
                 |  |  |   _    _      __       _____    __    __             
                 |  |  |  | |  | |    /  \     |  _  \  |  |  /  |          
                  \  \/   | |  | |   /    \    | | | |  |  | /  /          
                 / \  \   | |__| |  /  /\  \   | |_| |  |  |/  /          
                |  |  |   |  __  | /  /__\  \  |    /   |      \           
                |  |  |   | |  | | |   __   |  |    \   |  |\   \          
                \     /   | |  | | |  |  |  |  | |\  \  |  | \   \       
                 \___/    |_|  |_| |__|  |__|  |_| \__\ |__|  \__/        
                                                                              
                      - O R C A' S   B I G   F R I E N D -                    
                                      &                                       
                       - I N T E G R A L  F E E D E R -                       
                                                                              
 v1 FN, 2020, v2 2021, v3 2022-2024                                           
------------------------------------------------------------------------------


----------------------
SHARK INTEGRAL PACKAGE
----------------------

Number of atoms                             ...     42
Number of basis functions                   ...    106
Number of shells                            ...     74
Maximum angular momentum                    ...      1
Integral batch strategy                     ... SHARK/LIBINT Hybrid
RI-J (if used) integral strategy            ... SPLIT-RIJ (Revised 2003 algorithm where possible)
Printlevel                                  ...      1
Contraction scheme used                     ... SEGMENTED contraction
Prescreening option                         ... SCHWARTZ
   Thresh                                   ... 1.000e-10
   Tcut                                     ... 1.000e-11
   Tpresel                                  ... 1.000e-11 
Coulomb Range Separation                    ... NOT USED
Exchange Range Separation                   ... NOT USED
Multipole approximations                    ... NOT USED
Finite Nucleus Model                        ... NOT USED
CABS basis                                  ... NOT available
Auxiliary Coulomb fitting basis             ... NOT available
Auxiliary J/K fitting basis                 ... NOT available
Auxiliary Correlation fitting basis         ... NOT available
Auxiliary 'external' fitting basis          ... NOT available

Checking pre-screening integrals            ... done (  0.0 sec) Dimension = 74
   => SHARK Basis and OBASIS are compatible. Storing Pre-screening
Shell pair information
Shell pair cut-off parameter TPreSel        ...   1.0e-11
Total number of shell pairs                 ...      2775
Shell pairs after pre-screening             ...      2565
Total number of primitive shell pairs       ...     24975
Primitive shell pairs kept                  ...     14244
          la=0 lb=0:   1516 shell pairs
          la=1 lb=0:    913 shell pairs
          la=1 lb=1:    136 shell pairs

Checking whether 4 symmetric matrices of dimension 106 fit in memory
:Max Core in MB      =   2500.00
 MB in use           =      5.11
 MB left             =   2494.89
 MB needed           =      0.17
 Data fit in memory  = YES
Calculating Nuclear repulsion               ... done (  0.0 sec) ENN=   1283.619633481662 Eh
Entering conventional section               ... 
Calculating 4-index integrals               ...     -> SHARK/Ints2Disk: Thresh =     1.000000e-10 TCut=    1.000000e-11 
    -> calling libint FockFlag=2 Lmax_loc=1
    ->Total LIBINT loop time =    0.000 sec
    -> L=0 0 0 0:     0.062 sec done=    885566 (=100.0%) skipped=         0 
    -> L=1 0 0 0:     0.112 sec done=   1165610 (=100.0%) skipped=         0 
    -> L=1 0 1 0:     0.064 sec done=    377387 (=100.0%) skipped=         0 
    -> L=1 1 0 0:     0.035 sec done=    190960 (=100.0%) skipped=         0 
    -> L=1 1 1 0:     0.047 sec done=    120003 (=100.0%) skipped=         0 
    -> L=1 1 1 1:     0.011 sec done=      9290 (=100.0%) skipped=         0 
    ->Total SHARK integral loop time =    0.352 sec
    -> Total Integral generation matrix time =    0.363 sec
    -> Number of small integrals   =   2150252
    -> Number of medium integrals  =   3784195
    -> Number of large integrals   =   6116802
    -> Number of MB stored         =       113 MB

done (  0.4 sec)
Leaving conventional section

Diagonalization of the overlap matrix:
Smallest eigenvalue                        ... 2.048e-01
Time for diagonalization                   ...    0.003 sec
Threshold for overlap eigenvalues          ... 1.000e-07
Number of eigenvalues below threshold      ... 0
Time for construction of square roots      ...    0.001 sec
Total time needed                          ...    0.004 sec

-------------------
DFT GRID GENERATION
-------------------

General Integration Accuracy     IntAcc      ... 4.388
Radial Grid Type                 RadialGrid  ... OptM3 with GC (2021)
Angular Grid (max. ang.)         AngularGrid ... 4 (Lebedev-302)
Angular grid pruning method      GridPruning ... 4 (adaptive)
Weight generation scheme         WeightScheme... mBecke (2022)
Basis function cutoff            BFCut       ... 1.0000e-10
Integration weight cutoff        WCut        ... 1.0000e-14
Partially contracted basis set               ... off
Rotationally invariant grid construction     ... off
Angular grids for H and He will be reduced by one unit

Total number of grid points                  ...   176216
Total number of batches                      ...     2772
Average number of points per batch           ...       63
Average number of grid points per atom       ...     4196
Grids setup in   1.1 sec
Initializing property integral containers    ... done (  0.0 sec)

SHARK setup successfully completed in   1.5 seconds

Maximum memory used throughout the entire STARTUP-calculation: 37.2 MB


           ************************************************************
           *        Program running with 12 parallel MPI-processes    *
           *              working on a common directory               *
           ************************************************************
             **** ENERGY FILE WAS UPDATED (inp.en.tmp) ****
Finished Guess after   0.1 sec
Maximum memory used throughout the entire GUESS-calculation: 6.6 MB


           ************************************************************
           *        Program running with 12 parallel MPI-processes    *
           *              working on a common directory               *
           ************************************************************

 InCore treatment chosen for four center integrals:
   Memory dedicated               ...    2500 MB
   Memory needed                  ...      9 MB
   Number of tiny    integrals    ... 2150252
   Number of small   integrals    ... 3784195
   Number of regular integrals    ... 6116802

----------------------------------------D-I-I-S--------------------------------------------
Iteration    Energy (Eh)           Delta-E    RMSDP     MaxDP     DIISErr   Damp  Time(sec)
-------------------------------------------------------------------------------------------
    1    -653.0571054558820379     0.00e+00  1.50e-02  9.58e-02  1.99e-01  0.700   0.1
    2    -653.2358594198994979    -1.79e-01  1.25e-02  7.70e-02  1.44e-01  0.700   0.1
                               ***Turning on AO-DIIS***
    3    -653.3650920780219167    -1.29e-01  9.17e-03  5.30e-02  1.03e-01  0.700   0.1
    4    -653.4573037734962782    -9.22e-02  6.87e-03  4.13e-02  7.25e-02  0.700   0.1
    5    -653.5233089611158448    -6.60e-02  1.70e-02  1.08e-01  5.07e-02  0.000   0.1
    6    -653.6839299194898558    -1.61e-01  1.45e-03  1.37e-02  5.34e-03  0.000   0.1
                              *** Initializing SOSCF ***
---------------------------------------S-O-S-C-F--------------------------------------
Iteration    Energy (Eh)           Delta-E    RMSDP     MaxDP     MaxGrad    Time(sec)
--------------------------------------------------------------------------------------
    7    -653.6841533186036486    -2.23e-04  9.20e-04  9.44e-03  2.48e-03     0.1
    8    -653.6842150466382009    -6.17e-05  3.33e-04  3.34e-03  8.09e-04     0.1
    9    -653.6842237190733158    -8.67e-06  2.54e-04  2.39e-03  2.97e-04     0.1
   10    -653.6842256756590359    -1.96e-06  1.90e-05  1.02e-04  2.81e-05     0.1
                  *** Gradient check signals convergence ***

               *****************************************************
               *                     SUCCESS                       *
               *           SCF CONVERGED AFTER  10 CYCLES          *
               *****************************************************

             **** ENERGY FILE WAS UPDATED (inp.en.tmp) ****

----------------
TOTAL SCF ENERGY
----------------

Total Energy       :       -653.68422570400799 Eh          -17787.65209 eV

Components:
Nuclear Repulsion  :       1283.61963348166159 Eh           34929.06599 eV
Electronic Energy  :      -1937.30385918566958 Eh          -52716.71807 eV
One Electron Energy:      -3437.69515450713970 Eh          -93544.44086 eV
Two Electron Energy:       1500.39129532147012 Eh           40827.72279 eV

Virial components:
Potential Energy   :      -1305.23507568307809 Eh          -35517.25207 eV
Kinetic Energy     :        651.55084997907011 Eh           17729.59998 eV
Virial Ratio       :          2.00327430426191

---------------
SCF CONVERGENCE
---------------

  Last Energy change         ...    1.9566e-06  Tolerance :   1.0000e-06
  Last MAX-Density change    ...    1.0152e-04  Tolerance :   1.0000e-07
  Last RMS-Density change    ...    1.9012e-05  Tolerance :   5.0000e-09
  Last DIIS Error            ...    2.4790e-03  Tolerance :   1.0000e-06
  Last Orbital Gradient      ...    2.8136e-05  Tolerance :   3.3300e-04
  Last Orbital Rotation      ...    1.9794e-05  Tolerance :   3.3300e-04


----------------
ORBITAL ENERGIES
----------------

  NO   OCC          E(Eh)            E(eV) 
   0   2.0000     -20.278400      -551.8033 
   1   2.0000     -11.220800      -305.3335 
   2   2.0000     -11.202652      -304.8397 
   3   2.0000     -11.167972      -303.8960 
   4   2.0000     -11.159277      -303.6594 
   5   2.0000     -11.151935      -303.4596 
   6   2.0000     -11.149527      -303.3941 
   7   2.0000     -11.148075      -303.3546 
   8   2.0000     -11.146988      -303.3250 
   9   2.0000     -11.146357      -303.3078 
  10   2.0000     -11.145477      -303.2839 
  11   2.0000     -11.144719      -303.2632 
  12   2.0000     -11.139711      -303.1269 
  13   2.0000     -11.138188      -303.0855 
  14   2.0000     -11.137312      -303.0617 
  15   2.0000     -11.129104      -302.8383 
  16   2.0000      -1.358508       -36.9669 
  17   2.0000      -1.154972       -31.4284 
  18   2.0000      -1.101438       -29.9716 
  19   2.0000      -1.049309       -28.5531 
  20   2.0000      -1.041691       -28.3458 
  21   2.0000      -0.988438       -26.8968 
  22   2.0000      -0.983550       -26.7638 
  23   2.0000      -0.938047       -25.5255 
  24   2.0000      -0.927348       -25.2344 
  25   2.0000      -0.909608       -24.7517 
  26   2.0000      -0.865274       -23.5453 
  27   2.0000      -0.828237       -22.5375 
  28   2.0000      -0.792539       -21.5661 
  29   2.0000      -0.770083       -20.9550 
  30   2.0000      -0.733151       -19.9500 
  31   2.0000      -0.724867       -19.7246 
  32   2.0000      -0.667332       -18.1590 
  33   2.0000      -0.662006       -18.0141 
  34   2.0000      -0.642379       -17.4800 
  35   2.0000      -0.628190       -17.0939 
  36   2.0000      -0.615934       -16.7604 
  37   2.0000      -0.607422       -16.5288 
  38   2.0000      -0.589972       -16.0539 
  39   2.0000      -0.585583       -15.9345 
  40   2.0000      -0.576409       -15.6849 
  41   2.0000      -0.559361       -15.2210 
  42   2.0000      -0.553314       -15.0565 
  43   2.0000      -0.543156       -14.7800 
  44   2.0000      -0.541609       -14.7379 
  45   2.0000      -0.532677       -14.4949 
  46   2.0000      -0.526064       -14.3149 
  47   2.0000      -0.519712       -14.1421 
  48   2.0000      -0.515711       -14.0332 
  49   2.0000      -0.502340       -13.6694 
  50   2.0000      -0.500334       -13.6148 
  51   2.0000      -0.493455       -13.4276 
  52   2.0000      -0.469422       -12.7736 
  53   2.0000      -0.461814       -12.5666 
  54   2.0000      -0.454139       -12.3577 
  55   2.0000      -0.446689       -12.1550 
  56   2.0000      -0.435181       -11.8419 
  57   2.0000      -0.431484       -11.7413 
  58   2.0000      -0.426791       -11.6136 
  59   2.0000      -0.421481       -11.4691 
  60   2.0000      -0.402736       -10.9590 
  61   2.0000      -0.370031       -10.0691 
  62   0.0000       0.441027        12.0009 
  63   0.0000       0.472750        12.8642 
  64   0.0000       0.478590        13.0231 
  65   0.0000       0.528823        14.3900 
  66   0.0000       0.536738        14.6054 
  67   0.0000       0.554793        15.0967 
  68   0.0000       0.560706        15.2576 
  69   0.0000       0.568730        15.4759 
  70   0.0000       0.575813        15.6687 
  71   0.0000       0.590619        16.0716 
  72   0.0000       0.597640        16.2626 
*Only the first 10 virtual orbitals were printed.
Total SCF time: 0 days 0 hours 0 min 0 sec 
Finished LeanSCF after   0.8 sec

Maximum memory used throughout the entire LEANSCF-calculation: 65.1 MB


-------------------------------------------------------------------------------
                          DFT DISPERSION CORRECTION                            
                                                                               
                              DFTD3 V3.1  Rev 1                                
                          USING Becke-Johnson damping                          
-------------------------------------------------------------------------------
-------------------------   ----------------
Dispersion correction           -0.211016939
-------------------------   ----------------

------------------   -----------------
gCP+bas correction         0.004004474
------------------   -----------------
----------------------------   ----------------
Total correction to HF/MINIX       -0.207012464
----------------------------   ----------------


-------------------------   --------------------
FINAL SINGLE POINT ENERGY      -653.891238168159
-------------------------   --------------------



           ************************************************************
           *        Program running with 12 parallel MPI-processes    *
           *              working on a common directory               *
           ************************************************************
------------------------------------------------------------------------------
                         ORCA SCF GRADIENT CALCULATION
------------------------------------------------------------------------------

Nuc. rep. gradient        (SHARK) ... done (  0.0 sec)
HCore & Overlap gradient  (SHARK) ... done (  0.1 sec)
Two-electron gradient     (SHARK) ... done (  1.2 sec)
Dispersion correction             ... done (  0.0 sec)

-------------------
DISPERSION GRADIENT
-------------------

   1   C   :    0.000921355    0.001713917    0.000182430
   2   C   :    0.002729243    0.001194569    0.002048765
   3   C   :    0.003439626   -0.000011582   -0.000371983
   4   C   :    0.002693781   -0.001483426    0.000215660
   5   C   :    0.000286923   -0.002128544   -0.000968838
   6   C   :   -0.000947519   -0.001724412    0.000150399
   7   C   :   -0.000600734   -0.000331568   -0.002163118
   8   C   :   -0.000411522    0.002399222    0.002644517
   9   C   :   -0.001884355    0.002971036    0.000336927
  10   C   :   -0.001187039    0.001054933   -0.002159936
  11   O   :   -0.000656680   -0.001748607   -0.000110174
  12   C   :   -0.001482592   -0.001419861   -0.000369872
  13   H   :   -0.000141902   -0.000276858   -0.002189147
  14   H   :   -0.000580000    0.000774177   -0.001750390
  15   H   :   -0.000228375   -0.000979816    0.001772430
  16   C   :   -0.000353036   -0.002869298    0.000229698
  17   C   :   -0.002247535   -0.001097271   -0.001798084
  18   C   :   -0.001985429   -0.000770817    0.002970729
  19   C   :    0.001359710    0.002741293   -0.002357186
  20   H   :    0.001305780    0.000722367    0.001151595
  21   H   :    0.000972200    0.000444435    0.001931440
  22   H   :    0.001714394   -0.000077493   -0.001399198
  23   H   :    0.001548940    0.000196506   -0.000242171
  24   H   :    0.001228633   -0.000778158    0.001323698
  25   H   :    0.001410871   -0.000806555   -0.000138949
  26   H   :    0.000123754   -0.000813857   -0.001839187
  27   H   :    0.000018168    0.001357766    0.001451061
  28   H   :    0.000050286    0.000856636    0.002129890
  29   H   :   -0.001107655    0.001689103    0.000468521
  30   H   :   -0.001297163    0.001549586   -0.000254811
  31   H   :   -0.000252649   -0.001305337    0.001023374
  32   H   :   -0.000518639   -0.001435333   -0.000087406
  33   H   :    0.000112339   -0.001447754   -0.000071683
  34   H   :   -0.000724161   -0.000577450   -0.001259520
  35   H   :   -0.001414021    0.000128029   -0.000777346
  36   H   :   -0.001066885   -0.000898546   -0.000573719
  37   H   :   -0.001193610    0.000216582    0.001256727
  38   H   :   -0.000624839   -0.000574801    0.001326419
  39   H   :   -0.000778669   -0.000433722    0.002007110
  40   H   :    0.000644621    0.001068425   -0.001504770
  41   H   :    0.000445771    0.001427557   -0.001570536
  42   H   :    0.000678615    0.001484925   -0.000663362

Difference to translation invariance:
           :   -0.0000000000    0.0000000000   -0.0000000000

Difference to rotation invariance:
           :    0.0000000000    0.0000000000    0.0000000000

Norm of the Dispersion gradient    ...    0.0152743757
RMS gradient                       ...    0.0013607495
MAX gradient                       ...    0.0034396261
gCP correction                   ... done

------------------
CARTESIAN GRADIENT
------------------

   1   C   :   -0.000111695    0.000197783   -0.000045404
   2   C   :   -0.000016568    0.000036049   -0.000028473
   3   C   :   -0.000052072   -0.000014472    0.000072996
   4   C   :    0.000087864   -0.000074244   -0.000106249
   5   C   :    0.000012187    0.000035873    0.000049028
   6   C   :   -0.000141452   -0.000072954   -0.000173461
   7   C   :    0.000002573    0.000041841    0.000222718
   8   C   :    0.000006961    0.000060113    0.000160732
   9   C   :    0.000237305   -0.000101820   -0.000086149
  10   C   :   -0.000184531    0.000022226   -0.000091274
  11   O   :   -0.000048671   -0.000093171    0.000069485
  12   C   :    0.000068572   -0.000097518    0.000012122
  13   H   :   -0.000026612   -0.000022974   -0.000001242
  14   H   :   -0.000017762    0.000003619   -0.000008049
  15   H   :    0.000030092    0.000037197   -0.000002154
  16   C   :    0.000005736    0.000039149    0.000043094
  17   C   :    0.000059921    0.000012492   -0.000067742
  18   C   :    0.000010658    0.000046396    0.000000449
  19   C   :    0.000056175   -0.000023206   -0.000016355
  20   H   :   -0.000024150   -0.000013630   -0.000021371
  21   H   :    0.000040602    0.000017796   -0.000032194
  22   H   :   -0.000011172   -0.000012476    0.000007325
  23   H   :   -0.000001413   -0.000025108   -0.000027097
  24   H   :   -0.000008460    0.000027548   -0.000008243
  25   H   :    0.000007377   -0.000010736    0.000027995
  26   H   :   -0.000002654    0.000019657   -0.000004428
  27   H   :    0.000027961   -0.000025723    0.000022152
  28   H   :    0.000009050   -0.000013391    0.000001925
  29   H   :    0.000006999   -0.000012565    0.000030645
  30   H   :   -0.000008180    0.000022052   -0.000013425
  31   H   :   -0.000002870   -0.000013952    0.000017745
  32   H   :   -0.000000354    0.000015636    0.000003985
  33   H   :   -0.000005810    0.000006681    0.000000692
  34   H   :    0.000005315   -0.000000964    0.000000431
  35   H   :   -0.000003419   -0.000003089   -0.000007422
  36   H   :    0.000027059   -0.000004401    0.000002122
  37   H   :    0.000005196   -0.000017181    0.000003996
  38   H   :   -0.000007595    0.000030947   -0.000034812
  39   H   :   -0.000038690   -0.000031443    0.000013381
  40   H   :   -0.000011872    0.000017965   -0.000010980
  41   H   :    0.000001819   -0.000008148    0.000023438
  42   H   :    0.000016584    0.000002144    0.000000066

Difference to translation invariance:
           :   -0.0000000000   -0.0000000000   -0.0000000000

Difference to rotation invariance:
           :    0.0000027281   -0.0000032548   -0.0000005476

Norm of the Cartesian gradient     ...    0.0006471145
RMS gradient                       ...    0.0000576495
MAX gradient                       ...    0.0002373051

-------
TIMINGS
-------

Total SCF gradient time     ....        1.376 sec

Densities                   ....       0.000 sec  (  0.0%)
One electron gradient       ....       0.108 sec  (  7.9%)
Two electron gradient       ....       1.201 sec  ( 87.3%)

Maximum memory used throughout the entire SCFGRAD-calculation: 27.4 MB


           ************************************************************
           *        Program running with 12 parallel MPI-processes    *
           *              working on a common directory               *
           ************************************************************

------------------------------------------------------------------------------
                              ORCA PROPERTY CALCULATIONS
------------------------------------------------------------------------------

GBWName                                 ... inp.gbw
Number of atoms                         ...     42
Number of basis functions               ...    106
Max core memory                         ...   2500 MB

Electric properties:
Dipole moment                           ... YES
Quadrupole moment                       ...  NO
Static polarizability (Dipole/Dipole)   ...  NO
Static polarizability (Dipole/Quad.)    ...  NO
Static polarizability (Quad./Quad.)     ...  NO
Static polarizability (Velocity)        ...  NO
Static hyperpolarizability              ...  NO

Atomic electric properties:
Dipole moment                           ...  NO
Quadrupole moment                       ...  NO
Static polarizability                   ...  NO

Choice of electric origin               ... Center of mass
Position of electric origin             ...    -0.000020    -0.001304    -0.003888

General magnetic properties:
Magnetizability                         ...  NO

EPR properties:
g-Tensor (aka g-matrix)                 ...  NO
Zero-Field splitting spin-orbit         ...  NO
Zero-field splitting spin-spin          ...  NO
Hyperfine couplings                     ...  NO (   0 nuclei)
Quadrupole couplings                    ...  NO (   0 nuclei)
Contact density                         ...  NO (   0 nuclei)

NMR properties:
Chemical shifts                         ...  NO (   0 nuclei)
Spin-rotation constants                 ...  NO (   0 nuclei)
Spin-spin couplings                     ...  NO (   0 nuclei,    0 pairs)

Choice of magnetic origin               ... GIAO
Position of magnetic origin             ...     0.000000     0.000000     0.000000

Properties with geometric perturbations:
SCF Hessian                             ...  NO
IR spectrum                             ...  NO
VCD spectrum                            ...  NO
X-ray spectroscopy properties:
SCF XES/XAS/RIXS spectra                ...  NO

SCF SOC stabilization energy            ...  NO
Diagonal Born-Oppenheimer correction    ...  NO

-------------
DIPOLE MOMENT
-------------

Method             : SCF
Type of density    : Electron Density
Multiplicity       :   1
Irrep              :   0
Energy             :  -653.6842257040079858 Eh
Basis              : AO
                                X                 Y                 Z
Electronic contribution:     -1.439919372      -1.108894595      -1.117446944
Nuclear contribution   :      1.633421652       1.730134739       1.172565732
                        -----------------------------------------
Total Dipole Moment    :      0.193502281       0.621240143       0.055118789
                        -----------------------------------------
Magnitude (a.u.)       :      0.653008828
Magnitude (Debye)      :      1.659816533



--------------------
Rotational spectrum 
--------------------
 
Rotational constants in cm-1:             0.022660             0.018391             0.011952 
Rotational constants in MHz :           679.317340           551.349863           358.308694 

Dipole components along the rotational axes: 
x,y,z [a.u.] :     0.177948    -0.625972     0.053978 
x,y,z [Debye]:     0.452307    -1.591096     0.137201 

 

Dipole moment calculation done in   0.0 sec 

Maximum memory used throughout the entire PROP-calculation: 5.6 MB

--------------------------------
SUGGESTED CITATIONS FOR THIS RUN
--------------------------------

Below you find a list of papers that are relevant to this ORCA run
We neither can nor want to force you to cite these papers, but we appreciate if you do
You receive ORCA, which is the product of decades of hard work by many enthusiastic individuals, for free
The only thing we kindly ask in return is that you cite our papers,
We deeply appreciate it, if you show your appreciation for ORCA by not just citing the generic ORCA reference.

Please note that relegating all ORCA citations to the supporting information does *not* help us.
SI sections are not indexed - citations you put there will not count into any citation statistics
But we need these citations in order to attract the funding resources that allow us to do what we are doing

Therefore, if you are a happy ORCA user, please consider citing a few of the papers listed below in the main body of your paper

In addition to the list printed below, the program has created the file inp.bibtex that contains the list in bibtex format
You can import this file easily into all common literature databanks and citation aid programs

It goes without saying that in many instances, there are alternative algorithms to achieve similar
results as the ones you have gotten from ORCA. It is, of course, also the case that in some instances
ORCA just re-implements algorithms worked out by others. We are fully aware of that and we are also
fully appreciative of our colleagues work. Hence this citation list should not be read as indicating
that the listed papers, which are focused on our own work, are the only ones worth citing. It simply
meant to make it easier for users to cite ORCA specific papers. It is not a substitute for doing your
own literature research and citing the relevant literature in a scientifically appropriate manner.

List of essential papers. We consider these as the minimum necessary citations

  1. Neese, F.
     Software update: the ORCA program system, version 6.0
     WIRES Comput. Molec. Sci. 2025 15(1), e70019
     doi.org/10.1002/wcms.70019

List of papers to cite with high priority. The work reported in these papers was absolutely
necessary for this run to complete.
Our perspective: the developers of density functionals and basis sets usually get cited in chemistry papers
Good! But without the algorithms to do something with them, the functionals or basis sets would not do anything.
Hence, in our opinion, the algorithm design and method developments papers are equally worthy of getting cited

  1. Grimme, S.; Antony, J.; Ehrlich, S.; Krieg, H.
     A consistent and accurate ab initio parametrization of density functional dispersion correction (DFT-D) for the 94 elements H-Pu
     J. Chem. Phys. 2010 132 , 154104
     doi.org/10.1063/1.3382344
  2. Grimme, S.; Ehrlich, S.; Goerigk, L.
     Effect of the damping function in dispersion corrected density functional theory
     J. Comput. Chem. 2011 32(7), 1456-1465
     doi.org/10.1002/jcc.21759
  3. Neese, F.
     The SHARK Integral Generation and Digestion System
     J. Comp. Chem. 2022 44(3), 381
     doi.org/10.1002/jcc.26942

List of suggested additional citations. These are papers that are important in the 'surrounding' of 
of this run, or papers that preceded the highly important papers. If you like your results we are grateful for a citation.

  1. Neese, F.
     The ORCA program system
     WIRES Comput. Molec. Sci. 2012 2(1), 73-78
     doi.org/10.1002/wcms.81
  2. Neese, F.
     Software update: the ORCA program system, version 4.0
     WIRES Comput. Molec. Sci. 2018 8(1), 1-6
     doi.org/10.1002/wcms.1327
  3. Neese, F.; Wennmohs, F.; Becker, U.; Riplinger, C.
     The ORCA quantum chemistry program package
     J. Chem. Phys. 2020 152(22), 224108
     doi.org/10.1063/5.0004608
  4. Neese, F.
     Software update: The ORCA program system—Version 5.0
     WIRES Comput. Molec. Sci. 2022 12(1), e1606
     doi.org/10.1002/wcms.1606

List of optional additional citations

  1. Neese, F.
     Approximate second-order SCF convergence for spin unrestricted wavefunctions
     Chem. Phys. Lett. 2000 325(1-3), 93-98
     doi.org/10.1016/s0009-2614(00)00662-x

Timings for individual modules:

Sum of individual times          ...        4.876 sec (=   0.081 min)
Startup calculation              ...        1.733 sec (=   0.029 min)  35.5 %
SCF iterations                   ...        1.291 sec (=   0.022 min)  26.5 %
Property calculations            ...        0.220 sec (=   0.004 min)   4.5 %
SCF Gradient evaluation          ...        1.632 sec (=   0.027 min)  33.5 %
                             ****ORCA TERMINATED NORMALLY****
TOTAL RUN TIME: 0 days 0 hours 0 minutes 5 seconds 156 msec
  ------------------------------------------------------------------------
          * successful ORCA run, taking over control again...

         :::::::::::::::::::::::::::::::::::::::::::::::::::::
         ::                  ORCA SUMMARY                   ::
         :::::::::::::::::::::::::::::::::::::::::::::::::::::
         :: total energy            -653.891238168159 Eh    ::
         :: gradient norm              0.000647114475 Eh/a0 ::
         :: HOMO-LUMO gap              0.000000000000 eV    ::
         :::::::::::::::::::::::::::::::::::::::::::::::::::::

           -------------------------------------------------
          |                Property Printout                |
           -------------------------------------------------
           -------------------------------------------------
          |                Geometry Summary                 |
           -------------------------------------------------

      molecular mass/u    :      222.3669029
   center of mass at/Å    :       -0.0000150      -0.0006954      -0.0020579
  moments of inertia/u·Å² :        0.7439309E+03   0.9165955E+03   0.1410419E+04
rotational constants/cm⁻¹ :        0.2266021E-01   0.1839157E-01   0.1195221E-01

 * 28 selected distances

     #   Z          #   Z                                           value/Å
     6   6 c       11   8 o                                       1.4180904
    11   8 o       12   6 c                                       1.4257450 (max)
     7   6 c       13   1 h                                       1.0784108 (min)
    10   6 c       14   1 h                                       1.0795312
     6   6 c       15   1 h                                       1.0908874
     2   6 c       20   1 h                                       1.0825409
     2   6 c       21   1 h                                       1.0809222
     3   6 c       22   1 h                                       1.0818390
     3   6 c       23   1 h                                       1.0837614
     4   6 c       24   1 h                                       1.0828029
     4   6 c       25   1 h                                       1.0836649
     5   6 c       26   1 h                                       1.0826856
     8   6 c       27   1 h                                       1.0816274
     8   6 c       28   1 h                                       1.0815634
     9   6 c       29   1 h                                       1.0795841
     9   6 c       30   1 h                                       1.0819733
    16   6 c       31   1 h                                       1.0833089
    16   6 c       32   1 h                                       1.0839306
    16   6 c       33   1 h                                       1.0836003
    17   6 c       34   1 h                                       1.0836736
    17   6 c       35   1 h                                       1.0838129
    17   6 c       36   1 h                                       1.0839957
    18   6 c       37   1 h                                       1.0822866
    18   6 c       38   1 h                                       1.0838701
    18   6 c       39   1 h                                       1.0815980
    19   6 c       40   1 h                                       1.0824023
    19   6 c       41   1 h                                       1.0817755
    19   6 c       42   1 h                                       1.0828037

 * 2 distinct bonds (by element types)

   Z      Z             #   av. dist./Å        max./Å        min./Å
   1 H    6 C          26     1.0826482     1.0908874     1.0784108
   6 C    8 O           2     1.4219177     1.4257450     1.4180904


optimized geometry written to: xtbopt.coord


           -------------------------------------------------
          | TOTAL ENERGY             -653.891238168159 Eh   |
          | GRADIENT NORM               0.000647114475 Eh/α |
           -------------------------------------------------

------------------------------------------------------------------------
 * finished run on 2026/08/09 at 00:35:16.124     
------------------------------------------------------------------------
 total:
 * wall-time:     0 d,  0 h,  0 min, 15.938 sec
 *  cpu-time:     0 d,  0 h,  0 min,  4.501 sec
 * ratio c/w:     0.282 speedup
 SCF:
 * wall-time:     0 d,  0 h,  0 min,  5.246 sec
 *  cpu-time:     0 d,  0 h,  0 min,  2.168 sec
 * ratio c/w:     0.413 speedup
 ANC optimizer:
 * wall-time:     0 d,  0 h,  0 min, 10.685 sec
 *  cpu-time:     0 d,  0 h,  0 min,  2.317 sec
 * ratio c/w:     0.217 speedup

normal termination of xtb
