
                                 *****************
                                 * O   R   C   A *
                                 *****************

                                            #,                                       
                                            ###                                      
                                            ####                                     
                                            #####                                    
                                            ######                                   
                                           ########,                                 
                                     ,,################,,,,,                         
                               ,,#################################,,                 
                          ,,##########################################,,             
                       ,#########################################, ''#####,          
                    ,#############################################,,   '####,        
                  ,##################################################,,,,####,       
                ,###########''''           ''''###############################       
              ,#####''   ,,,,##########,,,,          '''####'''          '####       
            ,##' ,,,,###########################,,,                        '##       
           ' ,,###''''                  '''############,,,                           
         ,,##''                                '''############,,,,        ,,,,,,###''
      ,#''                                            '''#######################'''  
     '                                                          ''''####''''         
             ,#######,   #######,   ,#######,      ##                                
            ,#'     '#,  ##    ##  ,#'     '#,    #''#        ,####,    ,#,          
            ##       ##  ##   ,#'  ##            #'  '#       #'       ,# #          
            ##       ##  #######   ##           ,######,      #####,      #          
            '#,     ,#'  ##    ##  '#,     ,#' ,#      #,     #,   #      #          
             '#######'   ##     ##  '#######'  #'      '#     '####' #    #          



                #########################################################
                #                        -***-                          #
                #          Department of theory and spectroscopy        #
                #                                                       #
                #                      Frank Neese                      #
                #                                                       #
                #     Directorship, Architecture, Infrastructure        #
                #                    SHARK, DRIVERS                     #
                #        Core code/Algorithms in most modules           #
                #                                                       #
                #        Max Planck Institute fuer Kohlenforschung      #
                #                Kaiser Wilhelm Platz 1                 #
                #                 D-45470 Muelheim/Ruhr                 #
                #                      Germany                          #
                #                                                       #
                #                  All rights reserved                  #
                #                        -***-                          #
                #########################################################


                         Program Version 6.1.1  -  RELEASE   -
                                (GIT: $487d211c$)
                          ($2025-11-21 10:33:24 +0100$)


 With contributions from (in alphabetic order):
[Max-Planck-Institut fuer Kohlenforschung]                               
  Daniel Aravena         : Magnetic Suceptibility                        
  Michael Atanasov       : Ab Initio Ligand Field Theory (pilot matlab implementation)
  Alexander A. Auer      : GIAO ZORA, VPT2 properties, NMR spectrum      
  Ute Becker             : All parallelization in ORCA, NUMFREQ, NUMCALC 
  Giovanni Bistoni       : ED, misc. LED, open-shell LED, HFLD           
  Dmytro Bykov           : pre 5.0 version of the SCF Hessian            
  Marcos Casanova-Páez   : Triplet and SCS-CIS(D). UHF-(DLPNO)-IP/EA/STEOM-CCSD. UHF-CVS-IP/STEOM-CCSD   
  Vijay G. Chilkuri      : MRCI spin determinant printing, contributions to CSF-ICE 
  Pauline Colinet        : FMM embedding                                 
  Dipayan Datta          : RHF DLPNO-CCSD density                        
  Achintya Kumar Dutta   : EOM-CC, STEOM-CC                              
  Nicolas Foglia         : Exact transition moments, OPA infrastructure, MCD improvements    
  Dmitry Ganyushin       : Spin-Orbit,Spin-Spin,Magnetic field MRCI      
  Miquel Garcia-Rates    : C-PCM and meta-GGA Hessian, CCSD/C-PCM, Gaussian charge scheme 
  Tiago L. C. Gouveia    : GS-ROHF, GS-ROCIS                             
  Yang Guo               : DLPNO-NEVPT2, F12-NEVPT2, CIM, IAO-localization        
  Andreas Hansen         : Spin unrestricted coupled pair/coupled cluster methods 
  Ingolf Harden          : AUTO-CI MPn and infrastructure                
  Benjamin Helmich-Paris : MC-RPA, TRAH-(SCF,CASSCF), AVAS, COSX integrals, SCF dyn. polar., MC-PDFT, srDFT 
  Lee Huntington         : MR-EOM, pCC                                   
  Robert Izsak           : Overlap fitted RIJCOSX, COSX-SCS-MP3, EOM     
  Riya Kayal             : Wick's Theorem for AUTO-CI, AUTO-CI UHF-CCSDT 
  Emily Kempfer          : AUTO-CI RHF CISDT and CCSDT, approximate NEVPT4
  Christian Kollmar      : KDIIS, OOCD, Brueckner-CCSD(T), CCSD density, CASPT2, CASPT2-K, improved NEVPT2 
  Axel Koslowski         : Symmetry handling                             
  Simone Kossmann        : meta-GGA functionals, TD-DFT gradient, OOMP2, (MP2 Hessian; deprecated post 5.0) 
  Lucas Lang             : DCDCAS, Hyperfine gauge corrections, ICE-SOC+SSC
  Marvin Lechner         : AUTO-CI (C++ implementation), FIC-MRCC        
  Spencer Leger          : CASSCF response                               
  Dagmar Lenk            : GEPOL surface, SMD, ORCA-2-JSON               
  Dimitrios Liakos       : Extrapolation schemes; Compound Job, Property file
  Dimitrios Manganas     : Further ROCIS development; embedding schemes. LFT, Crystal Embedding 
  Dimitrios Pantazis     : SARC Basis sets                               
  Anastasios Papadopoulos: AUTO-CI, single reference methods and gradients 
  Taras Petrenko         : pre 6.0 DFT Hessian and TD-DFT gradient,  ECA, NRVS 
  Petra Pikulova         : Analytic Raman intensities                    
  Peter Pinski           : DLPNO-MP2, DLPNO-MP2 Gradient                 
  Shashank Vittal Rao    : ES-AILFT, MagRelax                            
  Christoph Reimann      : Effective Core Potentials                     
  Marius Retegan         : Local ZFS, SOC                                
  Christoph Riplinger    : Optimizer, TS searches, QM/MM, DLPNO-CCSD(T), (RO)-DLPNO pert. Triples 
  Michael Roemelt        : Original ROCIS implementation, recursive CI coupling coefficients
  Masaaki Saitow         : Open-shell DLPNO-CCSD energy and density      
  Barbara Sandhoefer     : DKH picture change effects                    
  Yorick L. A. Schmerwitz: GMF and freeze-and-release deltaSCF, NEB S-IDPP initial path                    
  Kantharuban Sivalingam : CASSCF convergence/infrastructure, NEVPT2, NEVPT3, NEVPT4(SD), FIC-MRCI and CEPA variants
  Bernardo de Souza      : ESD, SOC TD-DFT                               
  Georgi L. Stoychev     : AutoAux, RI-MP2 NMR, DLPNO-MP2 response, X2C  
  Van Anh Tran           : RI-MP2 g-tensors                              
  Willem Van den Heuvel  : Paramagnetic NMR                              
  Zikuan Wang            : NOTCH, Electric field optimization            
  Frank Wennmohs         : Technical directorship and infrastructure     
  Hang Xu                : AUTO-CI-Response properties                   
                                                                         
[FACCTs GmbH]                                                            
  Markus Bursch, Nicolas Foglia, Miquel Garcia-Rates, Ingolf Harden, Hagen Neugebauer, Anastasios Papadopoulos, 
  Christoph Riplinger, Bernardo de Souza, Georgi L. Stoychev                                                    
                                                                 
  APM, various basis sets, CI-OPT, improved COSX, DLPNO-Multilevel,           
  DOCKER, DRACO, updates on ESD, Fragmentator, GOAT, IRC, LR-CPCM, L-BFGS, MBIS, meta-GGA TD-DFT gradient, ML-optimized integration grids, 
  MM, NACMEs, nearIR, NEB, NEB-TS, NL-DFT gradient (VV10), 2- and 3-layer-ONIOM, interface openCOSMO-RS, QMMM,   
  Crystal-QMMM, RESP, rigid body optimization, SF, symmetry and pop. for TD-DFT, various functionals, SOLVATOR                                   
                                                                         
[Other institutions]                                                     
  V. Asgeirsson          : NEB                                           
  Christoph Bannwarth    : sTDA-DFT, sTD-DFT, PBEh-3c, B97-3c, D3        
  Giovanni Bistoni       : ETS/NOCV, ADLD/ADEX, COVALED                  
  Martin Brehm           : Molecular dynamics                            
  Ronald Cardenas        : ETS/NOCV                                      
  Martina Colucci        : COVALED                                       
  Sebastian Ehlert       : rSCAN, r2SCAN, r2SCAN-3c, D4, dhf basis sets  
  Marvin Friede          : D4 for Fr, Ra, Ac-Lr                          
  Lars Goerigk           : TD-DFT with DH, B97 family of functionals     
  Stefan Grimme          : VdW corrections, initial TS optimization, DFT functionals, gCP, sTDA/sTD-DF 
  Waldemar Hujo          : DFT-NL                                        
  H. Jonsson             : NEB                                           
  Holger Kruse           : gCP                                           
  Marcel Mueller         : wB97X-3c, vDZP basis set                      
  Hagen Neugebauer       : wr2SCAN, Native XTB                           
  Gianluca Regni         : ADLD/ADEX                                     
  Tobias Risthaus        : pre 6.0 range-separated hybrid DFT and stability analysis
  Lukas Wittmann         : regularized MP2, r2SCAN double-hybrids, wr2SCAN        
                                                                         
We gratefully acknowledge several colleagues who have allowed us to      
interface, adapt or use parts of their codes:                            
  Ed Valeev, F. Pavosevic, A. Kumar             : LibInt (2-el integral package), F12 methods 
  Garnet Chan, S. Sharma, J. Yang, R. Olivares  : DMRG                   
  Ulf Ekstrom                                   : XCFun DFT Library      
  Mihaly Kallay                                 : mrcc  (arbitrary order and MRCC methods)
  Frank Weinhold                                : gennbo (NPA and NBO analysis)           
  Simon Mueller                                 : openCOSMO-RS                            
  Christopher J. Cramer and Donald G. Truhlar   : smd solvation model                     
  S Lehtola, MJT Oliveira, MAL Marques          : LibXC Library                           
  Liviu Ungur et al                             : ANISO software                          


 Your calculation uses the libint2 library for the computation of 2-el integrals
 For citations please refer to: http://libint.valeyev.net

 Your ORCA version has been built with support for libXC version: 7.0.0
 For citations please refer to: https://libxc.gitlab.io

 This ORCA versions uses:
   CBLAS   interface :  Fast vector & matrix operations
   LAPACKE interface :  Fast linear algebra routines
   SCALAPACK package :  Parallel linear algebra routines
   Shared memory     :  Shared parallel matrices
   BLAS/LAPACK       :  OpenBLAS 0.3.29  USE64BITINT DYNAMIC_ARCH NO_AFFINITY Haswell SINGLE_THREADED
        Core in use  :  Haswell
   Copyright (c) 2011-2014, The OpenBLAS Project


  ***********************************
  * Starting time: Sun Aug  9 00:36:51 2026
  * Host name:     localhost.localdomain
  * Process ID:    2673881
  * Working dir.:  /home/dinglab/calculation/templates/NMR_modules/DP4plus/rev_eid_screening/CONF1/hf-3c
  ***********************************

NOTE: MaxCore=2500 MB was set to SCF,MP2,MDCI,CIPSI,MRCI,RASCI and CIS
      => If you want to overwrite this, your respective input block should be placed after the MaxCore statement
Your calculation utilizes the geometrical counterpoise correction gCP
Please cite in your paper:
H.Kruse, S. Grimme J.Chem.Phys., 136, (2012), 154101 
   

Your calculation utilizes the atom-pairwise dispersion correction
with the Becke-Johnson damping scheme (D3BJ)


================================================================================

----- Orbital basis set information -----
Your calculation utilizes the basis: MINIX,
   a combination of small basis sets by S. Grimme (see manual for definitions).

================================================================================
                                        WARNINGS
                       Please study these warnings very carefully!
================================================================================

WARNING: Old DensityContainer found on disk!
         Will remove this file - 
         If you want to keep old densities, please start your calculation with a different basename. 


================================================================================
                                       INPUT FILE
================================================================================
NAME = inp
|  1> ! hf-3c
|  2> ! DEFGRID2
|  3> ! scfconv6
|  4> ! miniprint nopop noautostart
|  5> %MaxCore 2500
|  6> %pal
|  7>     nprocs 12
|  8> end
|  9> *xyz 0 1
| 10> C    0.9570929555   1.5435447925   0.0135032076
| 11> C    2.2414417887   1.0166730880   0.6955223852
| 12> C    3.0021677205  -0.0398445224  -0.1527541045
| 13> C    2.5834903863  -1.4975307044   0.1719656062
| 14> C    1.1781012572  -1.9179149052  -0.3281115142
| 15> C    0.0941213380  -0.9170061180   0.1372103854
| 16> C    0.1192147403   0.4255001539  -0.6391150472
| 17> C   -0.0336014475   2.1711205343   1.0244081859
| 18> C   -1.3863471539   2.1712960701   0.2742183257
| 19> C   -1.3619569284   0.8895154332  -0.6038425290
| 20> O   -1.1988950621  -1.4399517422  -0.1189467092
| 21> C   -2.1424671177  -0.3722287773  -0.0700816152
| 22> H    0.4488861038   0.2336992166  -1.6478264657
| 23> H   -1.7223164208   1.1153114576  -1.5960847427
| 24> H    0.2212121717  -0.7308959035   1.2045650568
| 25> C    0.8513374405  -3.3414845279   0.1836856740
| 26> C   -3.3215925343  -0.7438858756  -1.0067257840
| 27> C   -2.6677758853  -0.2219327744   1.3868268860
| 28> C    1.3358616547   2.5842928263  -1.0669136799
| 29> H    2.8902300520   1.8609715645   0.8907875931
| 30> H    1.9941972152   0.5838549823   1.6546528216
| 31> H    2.8623605275   0.1585846078  -1.2070098518
| 32> H    4.0634378111   0.0506511458   0.0473831903
| 33> H    2.6241266700  -1.6376243419   1.2448981850
| 34> H    3.3070170633  -2.1770131136  -0.2629391949
| 35> H    1.1764987152  -1.9268453159  -1.4107589510
| 36> H    0.2714506060   3.1606145367   1.3370779569
| 37> H   -0.0965368197   1.5463490312   1.9050210112
| 38> H   -2.2291815481   2.2036983795   0.9480743538
| 39> H   -1.4497566082   3.0432982397  -0.3631650174
| 40> H    0.8236722907  -3.3518998810   1.2665910347
| 41> H   -0.1159009282  -3.6604873472  -0.1872488151
| 42> H    1.6074271149  -4.0434555711  -0.1476065604
| 43> H   -2.9553368981  -0.9114356121  -2.0127736234
| 44> H   -4.0495659390   0.0588541595  -1.0244295814
| 45> H   -3.8041499224  -1.6485420816  -0.6548992053
| 46> H   -3.4733817077   0.4993566308   1.4324881268
| 47> H   -3.0464148997  -1.1821810813   1.7174775206
| 48> H   -1.8802621235   0.0902258421   2.0593096424
| 49> H    2.0255376057   2.1518920596  -1.7803358447
| 50> H    0.4574341944   2.9167320668  -1.6036514530
| 51> H    1.8089986820   3.4451761600  -0.6114086542
| 52> *
| 53> 
| 54>                          ****END OF INPUT****
================================================================================

                       ****************************
                       * Single Point Calculation *
                       ****************************

---------------------------------
CARTESIAN COORDINATES (ANGSTROEM)
---------------------------------
  C      0.957093    1.543545    0.013503
  C      2.241442    1.016673    0.695522
  C      3.002168   -0.039845   -0.152754
  C      2.583490   -1.497531    0.171966
  C      1.178101   -1.917915   -0.328112
  C      0.094121   -0.917006    0.137210
  C      0.119215    0.425500   -0.639115
  C     -0.033601    2.171121    1.024408
  C     -1.386347    2.171296    0.274218
  C     -1.361957    0.889515   -0.603843
  O     -1.198895   -1.439952   -0.118947
  C     -2.142467   -0.372229   -0.070082
  H      0.448886    0.233699   -1.647826
  H     -1.722316    1.115311   -1.596085
  H      0.221212   -0.730896    1.204565
  C      0.851337   -3.341485    0.183686
  C     -3.321593   -0.743886   -1.006726
  C     -2.667776   -0.221933    1.386827
  C      1.335862    2.584293   -1.066914
  H      2.890230    1.860972    0.890788
  H      1.994197    0.583855    1.654653
  H      2.862361    0.158585   -1.207010
  H      4.063438    0.050651    0.047383
  H      2.624127   -1.637624    1.244898
  H      3.307017   -2.177013   -0.262939
  H      1.176499   -1.926845   -1.410759
  H      0.271451    3.160615    1.337078
  H     -0.096537    1.546349    1.905021
  H     -2.229182    2.203698    0.948074
  H     -1.449757    3.043298   -0.363165
  H      0.823672   -3.351900    1.266591
  H     -0.115901   -3.660487   -0.187249
  H      1.607427   -4.043456   -0.147607
  H     -2.955337   -0.911436   -2.012774
  H     -4.049566    0.058854   -1.024430
  H     -3.804150   -1.648542   -0.654899
  H     -3.473382    0.499357    1.432488
  H     -3.046415   -1.182181    1.717478
  H     -1.880262    0.090226    2.059310
  H      2.025538    2.151892   -1.780336
  H      0.457434    2.916732   -1.603651
  H      1.808999    3.445176   -0.611409

----------------------------
CARTESIAN COORDINATES (A.U.)
----------------------------
  NO LB      ZA    FRAG     MASS         X           Y           Z
   0 C     6.0000    0    12.011    1.808644    2.916877    0.025517
   1 C     6.0000    0    12.011    4.235711    1.921234    1.314347
   2 C     6.0000    0    12.011    5.673275   -0.075295   -0.288663
   3 C     6.0000    0    12.011    4.882089   -2.829923    0.324968
   4 C     6.0000    0    12.011    2.226289   -3.624334   -0.620041
   5 C     6.0000    0    12.011    0.177864   -1.732890    0.259290
   6 C     6.0000    0    12.011    0.225283    0.804079   -1.207752
   7 C     6.0000    0    12.011   -0.063498    4.102823    1.935851
   8 C     6.0000    0    12.011   -2.619816    4.103155    0.518198
   9 C     6.0000    0    12.011   -2.573726    1.680941   -1.141097
  10 O     8.0000    0    15.999   -2.265583   -2.721114   -0.224777
  11 C     6.0000    0    12.011   -4.048676   -0.703410   -0.132435
  12 H     1.0000    0     1.008    0.848272    0.441628   -3.113941
  13 H     1.0000    0     1.008   -3.254706    2.107633   -3.016163
  14 H     1.0000    0     1.008    0.418030   -1.381193    2.276298
  15 C     6.0000    0    12.011    1.608795   -6.314491    0.347116
  16 C     6.0000    0    12.011   -6.276900   -1.405741   -1.902436
  17 C     6.0000    0    12.011   -5.041366   -0.419392    2.620723
  18 C     6.0000    0    12.011    2.524413    4.883606   -2.016175
  19 H     1.0000    0     1.008    5.461743    3.516727    1.683345
  20 H     1.0000    0     1.008    3.768487    1.103326    3.126841
  21 H     1.0000    0     1.008    5.409077    0.299681   -2.280918
  22 H     1.0000    0     1.008    7.678785    0.095717    0.089541
  23 H     1.0000    0     1.008    4.958881   -3.094662    2.352517
  24 H     1.0000    0     1.008    6.249357   -4.113959   -0.496883
  25 H     1.0000    0     1.008    2.223260   -3.641210   -2.665948
  26 H     1.0000    0     1.008    0.512967    5.972696    2.526711
  27 H     1.0000    0     1.008   -0.182428    2.922176    3.599968
  28 H     1.0000    0     1.008   -4.212543    4.164386    1.791601
  29 H     1.0000    0     1.008   -2.739643    5.751000   -0.686282
  30 H     1.0000    0     1.008    1.556515   -6.334173    2.393510
  31 H     1.0000    0     1.008   -0.219021   -6.917319   -0.353849
  32 H     1.0000    0     1.008    3.037597   -7.641024   -0.278936
  33 H     1.0000    0     1.008   -5.584777   -1.722364   -3.803591
  34 H     1.0000    0     1.008   -7.652571    0.111218   -1.935891
  35 H     1.0000    0     1.008   -7.188802   -3.115293   -1.237580
  36 H     1.0000    0     1.008   -6.563740    0.943647    2.707010
  37 H     1.0000    0     1.008   -5.756890   -2.233998    3.245562
  38 H     1.0000    0     1.008   -3.553180    0.170502    3.891531
  39 H     1.0000    0     1.008    3.827711    4.066487   -3.364347
  40 H     1.0000    0     1.008    0.864425    5.511825   -3.030462
  41 H     1.0000    0     1.008    3.418512    6.510439   -1.155395



           ************************************************************
           *        Program running with 12 parallel MPI-processes    *
           *              working on a common directory               *
           ************************************************************
------------------------------------------------------------------------------
                   ___                                                        
                  /   \      - P O W E R E D   B Y -                         
                 /     \                                                     
                 |  |  |   _    _      __       _____    __    __             
                 |  |  |  | |  | |    /  \     |  _  \  |  |  /  |          
                  \  \/   | |  | |   /    \    | | | |  |  | /  /          
                 / \  \   | |__| |  /  /\  \   | |_| |  |  |/  /          
                |  |  |   |  __  | /  /__\  \  |    /   |      \           
                |  |  |   | |  | | |   __   |  |    \   |  |\   \          
                \     /   | |  | | |  |  |  |  | |\  \  |  | \   \       
                 \___/    |_|  |_| |__|  |__|  |_| \__\ |__|  \__/        
                                                                              
                      - O R C A' S   B I G   F R I E N D -                    
                                      &                                       
                       - I N T E G R A L  F E E D E R -                       
                                                                              
 v1 FN, 2020, v2 2021, v3 2022-2024                                           
------------------------------------------------------------------------------


----------------------
SHARK INTEGRAL PACKAGE
----------------------

Number of atoms                             ...     42
Number of basis functions                   ...    106
Number of shells                            ...     74
Maximum angular momentum                    ...      1
Integral batch strategy                     ... SHARK/LIBINT Hybrid
RI-J (if used) integral strategy            ... SPLIT-RIJ (Revised 2003 algorithm where possible)
Printlevel                                  ...      1
Contraction scheme used                     ... SEGMENTED contraction
Prescreening option                         ... SCHWARTZ
   Thresh                                   ... 1.000e-10
   Tcut                                     ... 1.000e-11
   Tpresel                                  ... 1.000e-11 
Coulomb Range Separation                    ... NOT USED
Exchange Range Separation                   ... NOT USED
Multipole approximations                    ... NOT USED
Finite Nucleus Model                        ... NOT USED
CABS basis                                  ... NOT available
Auxiliary Coulomb fitting basis             ... NOT available
Auxiliary J/K fitting basis                 ... NOT available
Auxiliary Correlation fitting basis         ... NOT available
Auxiliary 'external' fitting basis          ... NOT available

Checking pre-screening integrals            ... done (  0.0 sec) Dimension = 74
   => SHARK Basis and OBASIS are compatible. Storing Pre-screening
Shell pair information
Shell pair cut-off parameter TPreSel        ...   1.0e-11
Total number of shell pairs                 ...      2775
Shell pairs after pre-screening             ...      2565
Total number of primitive shell pairs       ...     24975
Primitive shell pairs kept                  ...     14244
          la=0 lb=0:   1516 shell pairs
          la=1 lb=0:    913 shell pairs
          la=1 lb=1:    136 shell pairs

Checking whether 4 symmetric matrices of dimension 106 fit in memory
:Max Core in MB      =   2500.00
 MB in use           =      5.11
 MB left             =   2494.89
 MB needed           =      0.17
 Data fit in memory  = YES
Calculating Nuclear repulsion               ... done (  0.0 sec) ENN=   1283.619633482382 Eh
Entering conventional section               ... 
Calculating 4-index integrals               ...     -> SHARK/Ints2Disk: Thresh =     1.000000e-10 TCut=    1.000000e-11 
    -> calling libint FockFlag=2 Lmax_loc=1
    ->Total LIBINT loop time =    0.000 sec
    -> L=0 0 0 0:     0.063 sec done=    885566 (=100.0%) skipped=         0 
    -> L=1 0 0 0:     0.115 sec done=   1165610 (=100.0%) skipped=         0 
    -> L=1 0 1 0:     0.064 sec done=    377387 (=100.0%) skipped=         0 
    -> L=1 1 0 0:     0.036 sec done=    190960 (=100.0%) skipped=         0 
    -> L=1 1 1 0:     0.048 sec done=    120003 (=100.0%) skipped=         0 
    -> L=1 1 1 1:     0.011 sec done=      9290 (=100.0%) skipped=         0 
    ->Total SHARK integral loop time =    0.340 sec
    -> Total Integral generation matrix time =    0.351 sec
    -> Number of small integrals   =   2150252
    -> Number of medium integrals  =   3784195
    -> Number of large integrals   =   6116802
    -> Number of MB stored         =       113 MB

done (  0.4 sec)
Leaving conventional section

Diagonalization of the overlap matrix:
Smallest eigenvalue                        ... 2.048e-01
Time for diagonalization                   ...    0.002 sec
Threshold for overlap eigenvalues          ... 1.000e-07
Number of eigenvalues below threshold      ... 0
Time for construction of square roots      ...    0.001 sec
Total time needed                          ...    0.004 sec

-------------------
DFT GRID GENERATION
-------------------

General Integration Accuracy     IntAcc      ... 4.388
Radial Grid Type                 RadialGrid  ... OptM3 with GC (2021)
Angular Grid (max. ang.)         AngularGrid ... 4 (Lebedev-302)
Angular grid pruning method      GridPruning ... 4 (adaptive)
Weight generation scheme         WeightScheme... mBecke (2022)
Basis function cutoff            BFCut       ... 1.0000e-10
Integration weight cutoff        WCut        ... 1.0000e-14
Partially contracted basis set               ... off
Rotationally invariant grid construction     ... off
Angular grids for H and He will be reduced by one unit

Total number of grid points                  ...   176216
Total number of batches                      ...     2772
Average number of points per batch           ...       63
Average number of grid points per atom       ...     4196
Grids setup in   1.1 sec
Initializing property integral containers    ... done (  0.0 sec)

SHARK setup successfully completed in   1.5 seconds

Maximum memory used throughout the entire STARTUP-calculation: 37.2 MB


           ************************************************************
           *        Program running with 12 parallel MPI-processes    *
           *              working on a common directory               *
           ************************************************************
             **** ENERGY FILE WAS UPDATED (inp.en.tmp) ****
Finished Guess after   0.1 sec
Maximum memory used throughout the entire GUESS-calculation: 6.6 MB


           ************************************************************
           *        Program running with 12 parallel MPI-processes    *
           *              working on a common directory               *
           ************************************************************

 InCore treatment chosen for four center integrals:
   Memory dedicated               ...    2500 MB
   Memory needed                  ...      9 MB
   Number of tiny    integrals    ... 2150252
   Number of small   integrals    ... 3784195
   Number of regular integrals    ... 6116802

----------------------------------------D-I-I-S--------------------------------------------
Iteration    Energy (Eh)           Delta-E    RMSDP     MaxDP     DIISErr   Damp  Time(sec)
-------------------------------------------------------------------------------------------
    1    -653.0571054558872675     0.00e+00  1.50e-02  9.58e-02  1.99e-01  0.700   0.1
    2    -653.2358594199040454    -1.79e-01  1.25e-02  7.70e-02  1.44e-01  0.700   0.1
                               ***Turning on AO-DIIS***
    3    -653.3650920780232809    -1.29e-01  9.17e-03  5.30e-02  1.03e-01  0.700   0.1
    4    -653.4573037734985519    -9.22e-02  6.87e-03  4.13e-02  7.25e-02  0.700   0.1
    5    -653.5233089611167543    -6.60e-02  1.70e-02  1.08e-01  5.07e-02  0.000   0.1
    6    -653.6839299194875821    -1.61e-01  1.45e-03  1.37e-02  5.34e-03  0.000   0.1
                              *** Initializing SOSCF ***
---------------------------------------S-O-S-C-F--------------------------------------
Iteration    Energy (Eh)           Delta-E    RMSDP     MaxDP     MaxGrad    Time(sec)
--------------------------------------------------------------------------------------
    7    -653.6841533186029665    -2.23e-04  9.20e-04  9.44e-03  2.48e-03     0.1
    8    -653.6842150466368366    -6.17e-05  3.33e-04  3.34e-03  8.09e-04     0.1
    9    -653.6842237190708147    -8.67e-06  2.54e-04  2.39e-03  2.97e-04     0.1
   10    -653.6842256756572169    -1.96e-06  1.90e-05  1.02e-04  2.81e-05     0.1
                  *** Gradient check signals convergence ***

               *****************************************************
               *                     SUCCESS                       *
               *           SCF CONVERGED AFTER  10 CYCLES          *
               *****************************************************

             **** ENERGY FILE WAS UPDATED (inp.en.tmp) ****

----------------
TOTAL SCF ENERGY
----------------

Total Energy       :       -653.68422570400548 Eh          -17787.65209 eV

Components:
Nuclear Repulsion  :       1283.61963348238169 Eh           34929.06599 eV
Electronic Energy  :      -1937.30385918638717 Eh          -52716.71807 eV
One Electron Energy:      -3437.69515450858353 Eh          -93544.44086 eV
Two Electron Energy:       1500.39129532219636 Eh           40827.72279 eV

Virial components:
Potential Energy   :      -1305.23507568303512 Eh          -35517.25207 eV
Kinetic Energy     :        651.55084997902975 Eh           17729.59998 eV
Virial Ratio       :          2.00327430426197

---------------
SCF CONVERGENCE
---------------

  Last Energy change         ...    1.9566e-06  Tolerance :   1.0000e-06
  Last MAX-Density change    ...    1.0152e-04  Tolerance :   1.0000e-05
  Last RMS-Density change    ...    1.9012e-05  Tolerance :   1.0000e-06
  Last DIIS Error            ...    2.4790e-03  Tolerance :   1.0000e-06
  Last Orbital Gradient      ...    2.8136e-05  Tolerance :   3.3300e-04
  Last Orbital Rotation      ...    1.9794e-05  Tolerance :   3.3300e-04


----------------
ORBITAL ENERGIES
----------------

  NO   OCC          E(Eh)            E(eV) 
   0   2.0000     -20.278400      -551.8033 
   1   2.0000     -11.220800      -305.3335 
   2   2.0000     -11.202652      -304.8397 
   3   2.0000     -11.167972      -303.8960 
   4   2.0000     -11.159277      -303.6594 
   5   2.0000     -11.151935      -303.4596 
   6   2.0000     -11.149527      -303.3941 
   7   2.0000     -11.148075      -303.3546 
   8   2.0000     -11.146988      -303.3250 
   9   2.0000     -11.146357      -303.3078 
  10   2.0000     -11.145477      -303.2839 
  11   2.0000     -11.144719      -303.2632 
  12   2.0000     -11.139711      -303.1269 
  13   2.0000     -11.138188      -303.0855 
  14   2.0000     -11.137312      -303.0617 
  15   2.0000     -11.129104      -302.8383 
  16   2.0000      -1.358508       -36.9669 
  17   2.0000      -1.154972       -31.4284 
  18   2.0000      -1.101438       -29.9716 
  19   2.0000      -1.049309       -28.5531 
  20   2.0000      -1.041691       -28.3458 
  21   2.0000      -0.988438       -26.8968 
  22   2.0000      -0.983550       -26.7638 
  23   2.0000      -0.938047       -25.5255 
  24   2.0000      -0.927348       -25.2344 
  25   2.0000      -0.909608       -24.7517 
  26   2.0000      -0.865274       -23.5453 
  27   2.0000      -0.828237       -22.5375 
  28   2.0000      -0.792539       -21.5661 
  29   2.0000      -0.770083       -20.9550 
  30   2.0000      -0.733151       -19.9500 
  31   2.0000      -0.724867       -19.7246 
  32   2.0000      -0.667332       -18.1590 
  33   2.0000      -0.662006       -18.0141 
  34   2.0000      -0.642379       -17.4800 
  35   2.0000      -0.628190       -17.0939 
  36   2.0000      -0.615934       -16.7604 
  37   2.0000      -0.607422       -16.5288 
  38   2.0000      -0.589972       -16.0539 
  39   2.0000      -0.585583       -15.9345 
  40   2.0000      -0.576409       -15.6849 
  41   2.0000      -0.559361       -15.2210 
  42   2.0000      -0.553314       -15.0565 
  43   2.0000      -0.543156       -14.7800 
  44   2.0000      -0.541609       -14.7379 
  45   2.0000      -0.532677       -14.4949 
  46   2.0000      -0.526064       -14.3149 
  47   2.0000      -0.519712       -14.1421 
  48   2.0000      -0.515711       -14.0332 
  49   2.0000      -0.502340       -13.6694 
  50   2.0000      -0.500334       -13.6148 
  51   2.0000      -0.493455       -13.4276 
  52   2.0000      -0.469422       -12.7736 
  53   2.0000      -0.461814       -12.5666 
  54   2.0000      -0.454139       -12.3577 
  55   2.0000      -0.446689       -12.1550 
  56   2.0000      -0.435181       -11.8419 
  57   2.0000      -0.431484       -11.7413 
  58   2.0000      -0.426791       -11.6136 
  59   2.0000      -0.421481       -11.4691 
  60   2.0000      -0.402736       -10.9590 
  61   2.0000      -0.370031       -10.0691 
  62   0.0000       0.441027        12.0009 
  63   0.0000       0.472750        12.8642 
  64   0.0000       0.478590        13.0231 
  65   0.0000       0.528823        14.3900 
  66   0.0000       0.536738        14.6054 
  67   0.0000       0.554793        15.0967 
  68   0.0000       0.560706        15.2576 
  69   0.0000       0.568730        15.4759 
  70   0.0000       0.575813        15.6687 
  71   0.0000       0.590619        16.0716 
  72   0.0000       0.597640        16.2626 
*Only the first 10 virtual orbitals were printed.
Total SCF time: 0 days 0 hours 0 min 0 sec 
Finished LeanSCF after   0.8 sec

Maximum memory used throughout the entire LEANSCF-calculation: 65.1 MB


-------------------------------------------------------------------------------
                          DFT DISPERSION CORRECTION                            
                                                                               
                              DFTD3 V3.1  Rev 1                                
                          USING Becke-Johnson damping                          
-------------------------------------------------------------------------------
-------------------------   ----------------
Dispersion correction           -0.211016939
-------------------------   ----------------

------------------   -----------------
gCP+bas correction         0.004004474
------------------   -----------------
----------------------------   ----------------
Total correction to HF/MINIX       -0.207012464
----------------------------   ----------------


-------------------------   --------------------
FINAL SINGLE POINT ENERGY      -653.891238168157
-------------------------   --------------------



           ************************************************************
           *        Program running with 12 parallel MPI-processes    *
           *              working on a common directory               *
           ************************************************************

------------------------------------------------------------------------------
                              ORCA PROPERTY CALCULATIONS
------------------------------------------------------------------------------

GBWName                                 ... inp.gbw
Number of atoms                         ...     42
Number of basis functions               ...    106
Max core memory                         ...   2500 MB

Electric properties:
Dipole moment                           ... YES
Quadrupole moment                       ...  NO
Static polarizability (Dipole/Dipole)   ...  NO
Static polarizability (Dipole/Quad.)    ...  NO
Static polarizability (Quad./Quad.)     ...  NO
Static polarizability (Velocity)        ...  NO
Static hyperpolarizability              ...  NO

Atomic electric properties:
Dipole moment                           ...  NO
Quadrupole moment                       ...  NO
Static polarizability                   ...  NO

Choice of electric origin               ... Center of mass
Position of electric origin             ...    -0.000020    -0.001304    -0.003888

General magnetic properties:
Magnetizability                         ...  NO

EPR properties:
g-Tensor (aka g-matrix)                 ...  NO
Zero-Field splitting spin-orbit         ...  NO
Zero-field splitting spin-spin          ...  NO
Hyperfine couplings                     ...  NO (   0 nuclei)
Quadrupole couplings                    ...  NO (   0 nuclei)
Contact density                         ...  NO (   0 nuclei)

NMR properties:
Chemical shifts                         ...  NO (   0 nuclei)
Spin-rotation constants                 ...  NO (   0 nuclei)
Spin-spin couplings                     ...  NO (   0 nuclei,    0 pairs)

Choice of magnetic origin               ... GIAO
Position of magnetic origin             ...     0.000000     0.000000     0.000000

Properties with geometric perturbations:
SCF Hessian                             ...  NO
IR spectrum                             ...  NO
VCD spectrum                            ...  NO
X-ray spectroscopy properties:
SCF XES/XAS/RIXS spectra                ...  NO

SCF SOC stabilization energy            ...  NO
Diagonal Born-Oppenheimer correction    ...  NO

-------------
DIPOLE MOMENT
-------------

Method             : SCF
Type of density    : Electron Density
Multiplicity       :   1
Irrep              :   0
Energy             :  -653.6842257040054847 Eh
Basis              : AO
                                X                 Y                 Z
Electronic contribution:     -1.439919372      -1.108894595      -1.117446944
Nuclear contribution   :      1.633421652       1.730134739       1.172565732
                        -----------------------------------------
Total Dipole Moment    :      0.193502281       0.621240143       0.055118789
                        -----------------------------------------
Magnitude (a.u.)       :      0.653008828
Magnitude (Debye)      :      1.659816533



--------------------
Rotational spectrum 
--------------------
 
Rotational constants in cm-1:             0.022660             0.018391             0.011952 
Rotational constants in MHz :           679.317340           551.349863           358.308694 

Dipole components along the rotational axes: 
x,y,z [a.u.] :     0.177948    -0.625972     0.053978 
x,y,z [Debye]:     0.452307    -1.591096     0.137201 

 

Dipole moment calculation done in   0.0 sec 

Maximum memory used throughout the entire PROP-calculation: 5.6 MB

--------------------------------
SUGGESTED CITATIONS FOR THIS RUN
--------------------------------

Below you find a list of papers that are relevant to this ORCA run
We neither can nor want to force you to cite these papers, but we appreciate if you do
You receive ORCA, which is the product of decades of hard work by many enthusiastic individuals, for free
The only thing we kindly ask in return is that you cite our papers,
We deeply appreciate it, if you show your appreciation for ORCA by not just citing the generic ORCA reference.

Please note that relegating all ORCA citations to the supporting information does *not* help us.
SI sections are not indexed - citations you put there will not count into any citation statistics
But we need these citations in order to attract the funding resources that allow us to do what we are doing

Therefore, if you are a happy ORCA user, please consider citing a few of the papers listed below in the main body of your paper

In addition to the list printed below, the program has created the file inp.bibtex that contains the list in bibtex format
You can import this file easily into all common literature databanks and citation aid programs

It goes without saying that in many instances, there are alternative algorithms to achieve similar
results as the ones you have gotten from ORCA. It is, of course, also the case that in some instances
ORCA just re-implements algorithms worked out by others. We are fully aware of that and we are also
fully appreciative of our colleagues work. Hence this citation list should not be read as indicating
that the listed papers, which are focused on our own work, are the only ones worth citing. It simply
meant to make it easier for users to cite ORCA specific papers. It is not a substitute for doing your
own literature research and citing the relevant literature in a scientifically appropriate manner.

List of essential papers. We consider these as the minimum necessary citations

  1. Neese, F.
     Software update: the ORCA program system, version 6.0
     WIRES Comput. Molec. Sci. 2025 15(1), e70019
     doi.org/10.1002/wcms.70019

List of papers to cite with high priority. The work reported in these papers was absolutely
necessary for this run to complete.
Our perspective: the developers of density functionals and basis sets usually get cited in chemistry papers
Good! But without the algorithms to do something with them, the functionals or basis sets would not do anything.
Hence, in our opinion, the algorithm design and method developments papers are equally worthy of getting cited

  1. Grimme, S.; Antony, J.; Ehrlich, S.; Krieg, H.
     A consistent and accurate ab initio parametrization of density functional dispersion correction (DFT-D) for the 94 elements H-Pu
     J. Chem. Phys. 2010 132 , 154104
     doi.org/10.1063/1.3382344
  2. Grimme, S.; Ehrlich, S.; Goerigk, L.
     Effect of the damping function in dispersion corrected density functional theory
     J. Comput. Chem. 2011 32(7), 1456-1465
     doi.org/10.1002/jcc.21759
  3. Neese, F.
     The SHARK Integral Generation and Digestion System
     J. Comp. Chem. 2022 44(3), 381
     doi.org/10.1002/jcc.26942

List of suggested additional citations. These are papers that are important in the 'surrounding' of 
of this run, or papers that preceded the highly important papers. If you like your results we are grateful for a citation.

  1. Neese, F.
     The ORCA program system
     WIRES Comput. Molec. Sci. 2012 2(1), 73-78
     doi.org/10.1002/wcms.81
  2. Neese, F.
     Software update: the ORCA program system, version 4.0
     WIRES Comput. Molec. Sci. 2018 8(1), 1-6
     doi.org/10.1002/wcms.1327
  3. Neese, F.; Wennmohs, F.; Becker, U.; Riplinger, C.
     The ORCA quantum chemistry program package
     J. Chem. Phys. 2020 152(22), 224108
     doi.org/10.1063/5.0004608
  4. Neese, F.
     Software update: The ORCA program system—Version 5.0
     WIRES Comput. Molec. Sci. 2022 12(1), e1606
     doi.org/10.1002/wcms.1606

List of optional additional citations

  1. Neese, F.
     Approximate second-order SCF convergence for spin unrestricted wavefunctions
     Chem. Phys. Lett. 2000 325(1-3), 93-98
     doi.org/10.1016/s0009-2614(00)00662-x

Timings for individual modules:

Sum of individual times          ...        3.170 sec (=   0.053 min)
Startup calculation              ...        1.664 sec (=   0.028 min)  52.5 %
SCF iterations                   ...        1.266 sec (=   0.021 min)  39.9 %
Property calculations            ...        0.240 sec (=   0.004 min)   7.6 %
                             ****ORCA TERMINATED NORMALLY****
TOTAL RUN TIME: 0 days 0 hours 0 minutes 3 seconds 469 msec
