      -----------------------------------------------------------      
     |                   =====================                   |     
     |                           x T B                           |     
     |                   =====================                   |     
     |                         S. Grimme                         |     
     |          Mulliken Center for Theoretical Chemistry        |     
     |                    University of Bonn                     |     
      -----------------------------------------------------------      

   * xtb version 6.7.1 (edcfbbe) compiled by 'albert@albert-system' on 2024-07-22

   xtb is free software: you can redistribute it and/or modify it under
   the terms of the GNU Lesser General Public License as published by
   the Free Software Foundation, either version 3 of the License, or
   (at your option) any later version.
   
   xtb is distributed in the hope that it will be useful,
   but WITHOUT ANY WARRANTY; without even the implied warranty of
   MERCHANTABILITY or FITNESS FOR A PARTICULAR PURPOSE.  See the
   GNU Lesser General Public License for more details.
   
   Cite this work as:
   * C. Bannwarth, E. Caldeweyher, S. Ehlert, A. Hansen, P. Pracht,
     J. Seibert, S. Spicher, S. Grimme, WIREs Comput. Mol. Sci., 2020, 11,
     e01493. DOI: 10.1002/wcms.1493
   
   for GFN2-xTB:
   * C. Bannwarth, S. Ehlert and S. Grimme., J. Chem. Theory Comput., 2019,
     15, 1652-1671. DOI: 10.1021/acs.jctc.8b01176
   for GFN1-xTB:
   * S. Grimme, C. Bannwarth, P. Shushkov, J. Chem. Theory Comput., 2017,
     13, 1989-2009. DOI: 10.1021/acs.jctc.7b00118
   for GFN0-xTB:
   * P. Pracht, E. Caldeweyher, S. Ehlert, S. Grimme, ChemRxiv, 2019, preprint.
     DOI: 10.26434/chemrxiv.8326202.v1
   for GFN-FF:
   * S. Spicher and S. Grimme, Angew. Chem. Int. Ed., 2020, 59, 15665-15673.
     DOI: 10.1002/anie.202004239
   
   for ALPB and GBSA implicit solvation:
   * S. Ehlert, M. Stahn, S. Spicher, S. Grimme, J. Chem. Theory Comput.,
     2021, 17, 4250-4261. DOI: 10.1021/acs.jctc.1c00471
   
   for ddCOSMO and CPCM-X implicit solvation:
   * M. Stahn, S. Ehlert, S. Grimme, J. Phys. Chem. A,
     2023, XX, XXXX-XXXX. DOI: 10.1021/acs.jpca.3c04382
   
   for DFT-D4:
   * E. Caldeweyher, C. Bannwarth and S. Grimme, J. Chem. Phys., 2017,
     147, 034112. DOI: 10.1063/1.4993215
   * E. Caldeweyher, S. Ehlert, A. Hansen, H. Neugebauer, S. Spicher,
     C. Bannwarth and S. Grimme, J. Chem. Phys., 2019, 150, 154122.
     DOI: 10.1063/1.5090222
   * E. Caldeweyher, J.-M. Mewes, S. Ehlert and S. Grimme, Phys. Chem. Chem. Phys.
     2020, 22, 8499-8512. DOI: 10.1039/D0CP00502A
   
   for sTDA-xTB:
   * S. Grimme and C. Bannwarth, J. Chem. Phys., 2016, 145, 054103.
     DOI: 10.1063/1.4959605
   
   in the mass-spec context:
   * V. Asgeirsson, C. Bauer and S. Grimme, Chem. Sci., 2017, 8, 4879.
     DOI: 10.1039/c7sc00601b
   * J. Koopman and S. Grimme, ACS Omega 2019, 4, 12, 15120-15133.
     DOI: 10.1021/acsomega.9b02011
   
   for metadynamics refer to:
   * S. Grimme, J. Chem. Theory Comput., 2019, 155, 2847-2862
     DOI: 10.1021/acs.jctc.9b00143
   
   for SPH calculations refer to:
   * S. Spicher and S. Grimme, J. Chem. Theory Comput., 2021, 17, 1701-1714
     DOI: 10.1021/acs.jctc.0c01306
   
   for ONIOM refer to:
   * C. Plett, A. Katbashev, S. Ehlert, S. Grimme, M. Bursch,
     Phys. Chem. Chem. Phys., 2023, 25, 17860-17868. DOI: 10.1039/D3CP02178E
   
   for DIPRO refer to:
   * J. Kohn, N. Gildemeister, S. Grimme, D. Fazzi, A. Hansen,
     J. Chem. Phys., 2023, just accepted.
   
   for PTB refer to:
   * S. Grimme, M. Mueller, A. Hansen, J. Chem. Phys., 2023, 158, 124111.
     DOI: 10.1063/5.0137838
   
   with help from (in alphabetical order)
   P. Atkinson, C. Bannwarth, F. Bohle, G. Brandenburg, E. Caldeweyher
   M. Checinski, S. Dohm, S. Ehlert, S. Ehrlich, I. Gerasimov, C. Hölzer
   A. Katbashev, J. Kohn, J. Koopman, C. Lavigne, S. Lehtola, F. März, M. Müller,
   F. Musil, H. Neugebauer, J. Pisarek, C. Plett, P. Pracht, F. Pultar,
   J. Seibert, P. Shushkov, S. Spicher, M. Stahn, M. Steiner, T. Strunk,
   J. Stückrath, T. Rose, and J. Unsleber
   
 * started run on 2026/08/09 at 21:57:33.697     
   ID    Z sym.   atoms
    1    6 c      1-8, 10-18, 20, 21, 24, 27
    2    7 n      9, 19
    3    8 o      22, 25, 26
    4    1 h      23, 28-50

           -------------------------------------------------
          |                Calculation Setup                |
           -------------------------------------------------

          program call               : /home/dinglab/software/xtb_6.7.1/xtb_dist/bin/xtb coord --gfn2 --sp --chrg 0 --norestart --parallel 12 --alpb chcl3 reference -I xcontrol-inp
          hostname                   : localhost
          coordinate file            : coord
          omp threads                :                    12


           -------------------------------------------------
          |                 G F N 2 - x T B                 |
           -------------------------------------------------

        Reference                      10.1021/acs.jctc.8b01176
      * Hamiltonian:
        H0-scaling (s, p, d)           1.850000    2.230000    2.230000
        zeta-weighting                 0.500000
      * Dispersion:
        s8                             2.700000
        a1                             0.520000
        a2                             5.000000
        s9                             5.000000
      * Repulsion:
        kExp                           1.500000    1.000000
        rExp                           1.000000
      * Coulomb:
        alpha                          2.000000
        third order                    shell-resolved
        anisotropic                    true
        a3                             3.000000
        a5                             4.000000
        cn-shift                       1.200000
        cn-exp                         4.000000
        max-rad                        5.000000

      * Solvation model:               ALPB
        Solvent                        chcl3
        Parameter file                 internal GFN2-xTB/ALPB
        Dielectric constant                4.8100E+00
        Reference state                gsolv=reference [X=1]
        Free energy shift                  2.5086E-03 Eh       1.5742E+00 kcal/mol
        Temperature                        2.9815E+02 K
        Density                            1.4900E+00 kg/L
        Solvent mass                       1.1938E+02 g/mol
        Interaction kernel             P16
        Born radius scaling (c1)           1.3274E+00
        Born radii integrator          GBOBC
        Born offset                        0.0000E+00 a0       0.0000E+00 AA
        H-bond correction              false
        Ion screening                  false
        Surface tension                    1.0000E-05 Eh       1.5569E+01 dyn/cm
        Grid points                               974 per atom

          ...................................................
          :                      SETUP                      :
          :.................................................:
          :  # basis functions                 128          :
          :  # atomic orbitals                 128          :
          :  # shells                           76          :
          :  # electrons                       136          :
          :  max. iterations                   250          :
          :  Hamiltonian                  GFN2-xTB          :
          :  restarted?                      false          :
          :  GBSA solvation                   true          :
          :  PC potential                    false          :
          :  electronic temp.          300.0000000     K    :
          :  accuracy                    1.0000000          :
          :  -> integral cutoff          0.2500000E+02      :
          :  -> integral neglect         0.1000000E-07      :
          :  -> SCF convergence          0.1000000E-05 Eh   :
          :  -> wf. convergence          0.1000000E-03 e    :
          :  Broyden damping             0.4000000          :
          :  net charge                          0          :
          :  unpaired electrons                  0          :
          ...................................................

 iter      E             dE          RMSdq      gap      omega  full diag
   1    -76.0929274 -0.760929E+02  0.392E+00    3.32       0.0  T
   2    -76.2503200 -0.157393E+00  0.217E+00    2.86       1.0  T
   3    -76.2547368 -0.441688E-02  0.105E+00    3.30       1.0  T
   4    -76.2582363 -0.349949E-02  0.331E-01    2.84       1.0  T
   5    -76.2609980 -0.276173E-02  0.115E-01    2.95       1.0  T
   6    -76.2612263 -0.228226E-03  0.562E-02    3.02       1.0  T
   7    -76.2612689 -0.426132E-04  0.231E-02    3.04       1.0  T
   8    -76.2612762 -0.734553E-05  0.103E-02    3.04       1.4  T
   9    -76.2612775 -0.127557E-05  0.318E-03    3.04       4.4  T
  10    -76.2612776 -0.963900E-07  0.145E-03    3.04       9.7  T
  11    -76.2612776 -0.161654E-07  0.710E-04    3.04      19.9  T
  12    -76.2612776 -0.367899E-08  0.240E-04    3.04      59.0  T

   *** convergence criteria satisfied after 12 iterations ***

         #    Occupation            Energy/Eh            Energy/eV
      -------------------------------------------------------------
         1        2.0000           -0.7508123             -20.4306
       ...           ...                  ...                  ...
        62        2.0000           -0.4170286             -11.3479
        63        2.0000           -0.4114159             -11.1952
        64        2.0000           -0.4015231             -10.9260
        65        2.0000           -0.3952529             -10.7554
        66        2.0000           -0.3575077              -9.7283
        67        2.0000           -0.3538821              -9.6296
        68        2.0000           -0.3500070              -9.5242 (HOMO)
        69                         -0.2383267              -6.4852 (LUMO)
        70                         -0.2204690              -5.9993
        71                         -0.2149572              -5.8493
        72                         -0.2062807              -5.6132
        73                         -0.0908938              -2.4733
       ...                                ...                  ...
       128                          0.6687713              18.1982
      -------------------------------------------------------------
                  HL-Gap            0.1116803 Eh            3.0390 eV
             Fermi-level           -0.2941668 Eh           -8.0047 eV

 SCC (total)                   0 d,  0 h,  0 min,  0.081 sec
 SCC setup                      ...        0 min,  0.001 sec (  1.259%)
 Dispersion                     ...        0 min,  0.001 sec (  0.997%)
 classical contributions        ...        0 min,  0.000 sec (  0.048%)
 integral evaluation            ...        0 min,  0.003 sec (  3.778%)
 iterations                     ...        0 min,  0.068 sec ( 84.411%)
 molecular gradient             ...        0 min,  0.007 sec (  9.150%)
 printout                       ...        0 min,  0.000 sec (  0.309%)

         :::::::::::::::::::::::::::::::::::::::::::::::::::::
         ::                     SUMMARY                     ::
         :::::::::::::::::::::::::::::::::::::::::::::::::::::
         :: total energy             -75.272056058123 Eh    ::
         :: total w/o Gsasa/hb       -75.251880840417 Eh    ::
         :: gradient norm              0.027556961198 Eh/a0 ::
         :: HOMO-LUMO gap              3.038975536463 eV    ::
         ::.................................................::
         :: SCC energy               -76.259183074733 Eh    ::
         :: -> isotropic ES            0.143704880858 Eh    ::
         :: -> anisotropic ES          0.005100263034 Eh    ::
         :: -> anisotropic XC          0.021532969383 Eh    ::
         :: -> dispersion             -0.067014536707 Eh    ::
         :: -> Gsolv                  -0.044420103074 Eh    ::
         ::    -> Gelec               -0.024244885368 Eh    ::
         ::    -> Gsasa               -0.022683865708 Eh    ::
         ::    -> Ghb                  0.000000000000 Eh    ::
         ::    -> Gshift               0.002508648001 Eh    ::
         :: repulsion energy           0.987127016610 Eh    ::
         :: add. restraining           0.000000000000 Eh    ::
         :: total charge               0.000000000000 e     ::
         :::::::::::::::::::::::::::::::::::::::::::::::::::::

           -------------------------------------------------
          |                Property Printout                |
           -------------------------------------------------

    * Orbital Energies and Occupations

         #    Occupation            Energy/Eh            Energy/eV
      -------------------------------------------------------------
         1        2.0000           -0.7508123             -20.4306
       ...           ...                  ...                  ...
        56        2.0000           -0.4451505             -12.1132
        57        2.0000           -0.4436807             -12.0732
        58        2.0000           -0.4348591             -11.8331
        59        2.0000           -0.4306348             -11.7182
        60        2.0000           -0.4287582             -11.6671
        61        2.0000           -0.4229651             -11.5095
        62        2.0000           -0.4170286             -11.3479
        63        2.0000           -0.4114159             -11.1952
        64        2.0000           -0.4015231             -10.9260
        65        2.0000           -0.3952529             -10.7554
        66        2.0000           -0.3575077              -9.7283
        67        2.0000           -0.3538821              -9.6296
        68        2.0000           -0.3500070              -9.5242 (HOMO)
        69                         -0.2383267              -6.4852 (LUMO)
        70                         -0.2204690              -5.9993
        71                         -0.2149572              -5.8493
        72                         -0.2062807              -5.6132
        73                         -0.0908938              -2.4733
        74                         -0.0522508              -1.4218
        75                         -0.0231396              -0.6297
        76                         -0.0087730              -0.2387
        77                          0.0033138               0.0902
        78                          0.0155268               0.4225
        79                          0.0283133               0.7704
       ...                                ...                  ...
       128                          0.6687713              18.1982
      -------------------------------------------------------------
                  HL-Gap            0.1116803 Eh            3.0390 eV
             Fermi-level           -0.2941668 Eh           -8.0047 eV

     #   Z          covCN         q      C6AA      α(0)
     1   6 c        3.799    -0.070    21.838     6.654
     2   6 c        3.806    -0.066    21.756     6.640
     3   6 c        2.918    -0.053    29.318     8.879
     4   6 c        2.919    -0.036    28.905     8.816
     5   6 c        2.926    -0.066    29.638     8.928
     6   6 c        2.917     0.072    26.397     8.425
     7   6 c        2.973    -0.024    28.589     8.771
     8   6 c        2.927    -0.046    29.145     8.853
     9   7 n        2.695    -0.202    25.380     7.482
    10   6 c        3.807     0.052    19.696     6.318
    11   6 c        3.939    -0.009    20.673     6.461
    12   6 c        3.924     0.014    20.273     6.399
    13   6 c        3.851    -0.073    21.853     6.649
    14   6 c        3.939     0.023    20.122     6.375
    15   6 c        3.944     0.004    20.449     6.426
    16   6 c        2.901    -0.039    28.967     8.825
    17   6 c        2.895    -0.040    28.982     8.827
    18   6 c        3.765    -0.023    21.027     6.536
    19   7 n        3.664     0.297    16.542     6.041
    20   6 c        3.801    -0.024    21.009     6.526
    21   6 c        3.838    -0.053    21.505     6.597
    22   8 o        0.932    -0.715    29.070     7.231
    23   1 h        0.924     0.050     2.315     2.379
    24   6 c        2.733     0.363    20.846     7.475
    25   8 o        0.856    -0.452    22.753     6.395
    26   8 o        1.704    -0.267    18.434     5.797
    27   6 c        3.658     0.029    20.363     6.477
    28   1 h        0.924     0.048     2.340     2.392
    29   1 h        0.924     0.050     2.325     2.385
    30   1 h        0.924     0.051     2.304     2.374
    31   1 h        0.924     0.039     2.458     2.452
    32   1 h        0.926     0.027     2.624     2.533
    33   1 h        0.926     0.031     2.575     2.509
    34   1 h        0.925     0.028     2.613     2.528
    35   1 h        0.926     0.031     2.575     2.509
    36   1 h        0.860     0.170     1.275     1.769
    37   1 h        0.923     0.039     2.456     2.451
    38   1 h        0.924     0.090     1.882     2.146
    39   1 h        0.925     0.050     2.319     2.382
    40   1 h        0.926     0.052     2.292     2.367
    41   1 h        0.926     0.055     2.259     2.350
    42   1 h        0.924     0.058     2.223     2.332
    43   1 h        0.924     0.075     2.036     2.231
    44   1 h        0.925     0.069     2.092     2.262
    45   1 h        0.924     0.052     2.292     2.367
    46   1 h        0.925     0.060     2.204     2.321
    47   1 h        0.925     0.055     2.257     2.350
    48   1 h        0.925     0.086     1.916     2.165
    49   1 h        0.924     0.067     2.115     2.274
    50   1 h        0.924     0.069     2.093     2.262

 Mol. C6AA /au·bohr⁶  :      26035.035053
 Mol. C8AA /au·bohr⁸  :     609706.965564
 Mol. α(0) /au        :        244.891451


Wiberg/Mayer (AO) data.
largest (>0.10) Wiberg bond orders for each atom

 ---------------------------------------------------------------------------
     #   Z sym  total        # sym  WBO       # sym  WBO       # sym  WBO
 ---------------------------------------------------------------------------
     1   6 c    3.992 --     2 c    1.009    28 h    0.978    29 h    0.973
                            10 c    0.967
     2   6 c    3.995 --     1 c    1.009    31 h    0.976    30 h    0.974
                            14 c    0.966
     3   6 c    3.987 --     8 c    1.438     4 c    1.415    32 h    0.972
     4   6 c    3.991 --     5 c    1.470     3 c    1.415    33 h    0.971
     5   6 c    3.985 --     4 c    1.470     6 c    1.337    34 h    0.967
                             8 c    0.101
     6   6 c    3.972 --     5 c    1.337     7 c    1.323     9 n    1.154
     7   6 c    3.982 --     8 c    1.423     6 c    1.323    12 c    0.991
     8   6 c    3.991 --     3 c    1.438     7 c    1.423    35 h    0.961
                             5 c    0.101
     9   7 n    3.329 --     6 c    1.154    10 c    1.006    36 h    0.939
    10   6 c    3.977 --     9 n    1.006     1 c    0.967    37 h    0.963
                            11 c    0.941
    11   6 c    3.985 --    13 c    0.977    12 c    0.954    24 c    0.950
                            10 c    0.941
    12   6 c    3.986 --     7 c    0.991    21 c    0.965    15 c    0.965
                            11 c    0.954
    13   6 c    3.982 --    11 c    0.977    39 h    0.973    14 c    0.965
                            38 h    0.947
    14   6 c    3.988 --    16 c    1.004    15 c    0.980     2 c    0.966
                            13 c    0.965
    15   6 c    3.966 --    14 c    0.980    12 c    0.965    23 h    0.959
                            19 n    0.894
    16   6 c    3.988 --    17 c    1.929    14 c    1.004    40 h    0.963
    17   6 c    3.984 --    16 c    1.929    18 c    1.015    41 h    0.964
    18   6 c    3.968 --    17 c    1.015    43 h    0.964    42 h    0.956
                            19 n    0.940
    19   7 n    3.870 --    22 o    1.037    18 c    0.940    20 c    0.938
                            15 c    0.894
    20   6 c    3.967 --    21 c    1.005    44 h    0.973    45 h    0.965
                            19 n    0.938
    21   6 c    3.990 --    20 c    1.005    46 h    0.974    47 h    0.973
                            12 c    0.965
    22   8 o    1.253 --    19 n    1.037
    23   1 h    0.997 --    15 c    0.959
    24   6 c    3.906 --    25 o    1.723    26 o    1.144    11 c    0.950
    25   8 o    2.007 --    24 c    1.723    26 o    0.170
    26   8 o    2.308 --    24 c    1.144    27 c    0.946    25 o    0.170
    27   6 c    3.912 --    48 h    0.979    50 h    0.976    49 h    0.976
                            26 o    0.946
    28   1 h    0.997 --     1 c    0.978
    29   1 h    0.996 --     1 c    0.973
    30   1 h    0.997 --     2 c    0.974
    31   1 h    0.998 --     2 c    0.976
    32   1 h    0.999 --     3 c    0.972
    33   1 h    0.998 --     4 c    0.971
    34   1 h    0.999 --     5 c    0.967
    35   1 h    0.999 --     8 c    0.961
    36   1 h    0.970 --     9 n    0.939
    37   1 h    0.998 --    10 c    0.963
    38   1 h    0.992 --    13 c    0.947
    39   1 h    0.997 --    13 c    0.973
    40   1 h    0.997 --    16 c    0.963
    41   1 h    0.996 --    17 c    0.964
    42   1 h    0.997 --    18 c    0.956
    43   1 h    0.994 --    18 c    0.964
    44   1 h    0.994 --    20 c    0.973
    45   1 h    0.997 --    20 c    0.965
    46   1 h    0.996 --    21 c    0.974
    47   1 h    0.997 --    21 c    0.973
    48   1 h    0.992 --    27 c    0.979
    49   1 h    0.995 --    27 c    0.976
    50   1 h    0.995 --    27 c    0.976
 ---------------------------------------------------------------------------

Topologies differ in total number of bonds
Writing topology from bond orders to xtbtopo.mol

molecular dipole:
                 x           y           z       tot (Debye)
 q only:       -0.127       0.851      -1.695
   full:       -0.173       1.072      -1.722       5.176
molecular quadrupole (traceless):
                xx          xy          yy          xz          yz          zz
 q only:      -12.608      14.103      12.169      -0.081       6.986       0.439
  q+dip:      -12.272      15.241      12.350       5.816      11.474      -0.078
   full:      -12.781      15.921      11.958       4.668       9.566       0.823


           -------------------------------------------------
          | TOTAL ENERGY              -75.272056058123 Eh   |
          | GRADIENT NORM               0.027556961198 Eh/α |
          | HOMO-LUMO GAP               3.038975536463 eV   |
           -------------------------------------------------

------------------------------------------------------------------------
 * finished run on 2026/08/09 at 21:57:33.800     
------------------------------------------------------------------------
 total:
 * wall-time:     0 d,  0 h,  0 min,  0.102 sec
 *  cpu-time:     0 d,  0 h,  0 min,  1.096 sec
 * ratio c/w:    10.751 speedup
 SCF:
 * wall-time:     0 d,  0 h,  0 min,  0.081 sec
 *  cpu-time:     0 d,  0 h,  0 min,  0.897 sec
 * ratio c/w:    11.076 speedup

normal termination of xtb
