      -----------------------------------------------------------      
     |                   =====================                   |     
     |                           x T B                           |     
     |                   =====================                   |     
     |                         S. Grimme                         |     
     |          Mulliken Center for Theoretical Chemistry        |     
     |                    University of Bonn                     |     
      -----------------------------------------------------------      

   * xtb version 6.7.1 (edcfbbe) compiled by 'albert@albert-system' on 2024-07-22

   xtb is free software: you can redistribute it and/or modify it under
   the terms of the GNU Lesser General Public License as published by
   the Free Software Foundation, either version 3 of the License, or
   (at your option) any later version.
   
   xtb is distributed in the hope that it will be useful,
   but WITHOUT ANY WARRANTY; without even the implied warranty of
   MERCHANTABILITY or FITNESS FOR A PARTICULAR PURPOSE.  See the
   GNU Lesser General Public License for more details.
   
   Cite this work as:
   * C. Bannwarth, E. Caldeweyher, S. Ehlert, A. Hansen, P. Pracht,
     J. Seibert, S. Spicher, S. Grimme, WIREs Comput. Mol. Sci., 2020, 11,
     e01493. DOI: 10.1002/wcms.1493
   
   for GFN2-xTB:
   * C. Bannwarth, S. Ehlert and S. Grimme., J. Chem. Theory Comput., 2019,
     15, 1652-1671. DOI: 10.1021/acs.jctc.8b01176
   for GFN1-xTB:
   * S. Grimme, C. Bannwarth, P. Shushkov, J. Chem. Theory Comput., 2017,
     13, 1989-2009. DOI: 10.1021/acs.jctc.7b00118
   for GFN0-xTB:
   * P. Pracht, E. Caldeweyher, S. Ehlert, S. Grimme, ChemRxiv, 2019, preprint.
     DOI: 10.26434/chemrxiv.8326202.v1
   for GFN-FF:
   * S. Spicher and S. Grimme, Angew. Chem. Int. Ed., 2020, 59, 15665-15673.
     DOI: 10.1002/anie.202004239
   
   for ALPB and GBSA implicit solvation:
   * S. Ehlert, M. Stahn, S. Spicher, S. Grimme, J. Chem. Theory Comput.,
     2021, 17, 4250-4261. DOI: 10.1021/acs.jctc.1c00471
   
   for ddCOSMO and CPCM-X implicit solvation:
   * M. Stahn, S. Ehlert, S. Grimme, J. Phys. Chem. A,
     2023, XX, XXXX-XXXX. DOI: 10.1021/acs.jpca.3c04382
   
   for DFT-D4:
   * E. Caldeweyher, C. Bannwarth and S. Grimme, J. Chem. Phys., 2017,
     147, 034112. DOI: 10.1063/1.4993215
   * E. Caldeweyher, S. Ehlert, A. Hansen, H. Neugebauer, S. Spicher,
     C. Bannwarth and S. Grimme, J. Chem. Phys., 2019, 150, 154122.
     DOI: 10.1063/1.5090222
   * E. Caldeweyher, J.-M. Mewes, S. Ehlert and S. Grimme, Phys. Chem. Chem. Phys.
     2020, 22, 8499-8512. DOI: 10.1039/D0CP00502A
   
   for sTDA-xTB:
   * S. Grimme and C. Bannwarth, J. Chem. Phys., 2016, 145, 054103.
     DOI: 10.1063/1.4959605
   
   in the mass-spec context:
   * V. Asgeirsson, C. Bauer and S. Grimme, Chem. Sci., 2017, 8, 4879.
     DOI: 10.1039/c7sc00601b
   * J. Koopman and S. Grimme, ACS Omega 2019, 4, 12, 15120-15133.
     DOI: 10.1021/acsomega.9b02011
   
   for metadynamics refer to:
   * S. Grimme, J. Chem. Theory Comput., 2019, 155, 2847-2862
     DOI: 10.1021/acs.jctc.9b00143
   
   for SPH calculations refer to:
   * S. Spicher and S. Grimme, J. Chem. Theory Comput., 2021, 17, 1701-1714
     DOI: 10.1021/acs.jctc.0c01306
   
   for ONIOM refer to:
   * C. Plett, A. Katbashev, S. Ehlert, S. Grimme, M. Bursch,
     Phys. Chem. Chem. Phys., 2023, 25, 17860-17868. DOI: 10.1039/D3CP02178E
   
   for DIPRO refer to:
   * J. Kohn, N. Gildemeister, S. Grimme, D. Fazzi, A. Hansen,
     J. Chem. Phys., 2023, just accepted.
   
   for PTB refer to:
   * S. Grimme, M. Mueller, A. Hansen, J. Chem. Phys., 2023, 158, 124111.
     DOI: 10.1063/5.0137838
   
   with help from (in alphabetical order)
   P. Atkinson, C. Bannwarth, F. Bohle, G. Brandenburg, E. Caldeweyher
   M. Checinski, S. Dohm, S. Ehlert, S. Ehrlich, I. Gerasimov, C. Hölzer
   A. Katbashev, J. Kohn, J. Koopman, C. Lavigne, S. Lehtola, F. März, M. Müller,
   F. Musil, H. Neugebauer, J. Pisarek, C. Plett, P. Pracht, F. Pultar,
   J. Seibert, P. Shushkov, S. Spicher, M. Stahn, M. Steiner, T. Strunk,
   J. Stückrath, T. Rose, and J. Unsleber
   
 * started run on 2026/08/09 at 21:57:33.752     
   ID    Z sym.   atoms
    1    6 c      1-8, 10-18, 20, 21, 24, 27
    2    7 n      9, 19
    3    8 o      22, 25, 26
    4    1 h      23, 28-50

           -------------------------------------------------
          |                Calculation Setup                |
           -------------------------------------------------

          program call               : /home/dinglab/software/xtb_6.7.1/xtb_dist/bin/xtb coord --gfn2 --sp --chrg 0 --norestart --parallel 12 --alpb chcl3 reference -I xcontrol-inp
          hostname                   : localhost
          coordinate file            : coord
          omp threads                :                    12


           -------------------------------------------------
          |                 G F N 2 - x T B                 |
           -------------------------------------------------

        Reference                      10.1021/acs.jctc.8b01176
      * Hamiltonian:
        H0-scaling (s, p, d)           1.850000    2.230000    2.230000
        zeta-weighting                 0.500000
      * Dispersion:
        s8                             2.700000
        a1                             0.520000
        a2                             5.000000
        s9                             5.000000
      * Repulsion:
        kExp                           1.500000    1.000000
        rExp                           1.000000
      * Coulomb:
        alpha                          2.000000
        third order                    shell-resolved
        anisotropic                    true
        a3                             3.000000
        a5                             4.000000
        cn-shift                       1.200000
        cn-exp                         4.000000
        max-rad                        5.000000

      * Solvation model:               ALPB
        Solvent                        chcl3
        Parameter file                 internal GFN2-xTB/ALPB
        Dielectric constant                4.8100E+00
        Reference state                gsolv=reference [X=1]
        Free energy shift                  2.5086E-03 Eh       1.5742E+00 kcal/mol
        Temperature                        2.9815E+02 K
        Density                            1.4900E+00 kg/L
        Solvent mass                       1.1938E+02 g/mol
        Interaction kernel             P16
        Born radius scaling (c1)           1.3274E+00
        Born radii integrator          GBOBC
        Born offset                        0.0000E+00 a0       0.0000E+00 AA
        H-bond correction              false
        Ion screening                  false
        Surface tension                    1.0000E-05 Eh       1.5569E+01 dyn/cm
        Grid points                               974 per atom

          ...................................................
          :                      SETUP                      :
          :.................................................:
          :  # basis functions                 128          :
          :  # atomic orbitals                 128          :
          :  # shells                           76          :
          :  # electrons                       136          :
          :  max. iterations                   250          :
          :  Hamiltonian                  GFN2-xTB          :
          :  restarted?                      false          :
          :  GBSA solvation                   true          :
          :  PC potential                    false          :
          :  electronic temp.          300.0000000     K    :
          :  accuracy                    1.0000000          :
          :  -> integral cutoff          0.2500000E+02      :
          :  -> integral neglect         0.1000000E-07      :
          :  -> SCF convergence          0.1000000E-05 Eh   :
          :  -> wf. convergence          0.1000000E-03 e    :
          :  Broyden damping             0.4000000          :
          :  net charge                          0          :
          :  unpaired electrons                  0          :
          ...................................................

 iter      E             dE          RMSdq      gap      omega  full diag
   1    -76.0931626 -0.760932E+02  0.390E+00    3.32       0.0  T
   2    -76.2508764 -0.157714E+00  0.215E+00    2.90       1.0  T
   3    -76.2553382 -0.446184E-02  0.105E+00    3.30       1.0  T
   4    -76.2586040 -0.326579E-02  0.330E-01    2.83       1.0  T
   5    -76.2613428 -0.273882E-02  0.116E-01    2.94       1.0  T
   6    -76.2615889 -0.246101E-03  0.561E-02    3.01       1.0  T
   7    -76.2616319 -0.429405E-04  0.229E-02    3.03       1.0  T
   8    -76.2616391 -0.725510E-05  0.103E-02    3.03       1.4  T
   9    -76.2616404 -0.122737E-05  0.320E-03    3.03       4.4  T
  10    -76.2616405 -0.952560E-07  0.150E-03    3.03       9.4  T
  11    -76.2616405 -0.163490E-07  0.746E-04    3.03      19.0  T
  12    -76.2616405 -0.467708E-08  0.257E-04    3.03      55.1  T

   *** convergence criteria satisfied after 12 iterations ***

         #    Occupation            Energy/Eh            Energy/eV
      -------------------------------------------------------------
         1        2.0000           -0.7504043             -20.4195
       ...           ...                  ...                  ...
        62        2.0000           -0.4183450             -11.3837
        63        2.0000           -0.4114974             -11.1974
        64        2.0000           -0.4019686             -10.9381
        65        2.0000           -0.3969647             -10.8020
        66        2.0000           -0.3569607              -9.7134
        67        2.0000           -0.3556139              -9.6767
        68        2.0000           -0.3495111              -9.5107 (HOMO)
        69                         -0.2381938              -6.4816 (LUMO)
        70                         -0.2221905              -6.0461
        71                         -0.2144557              -5.8356
        72                         -0.2080160              -5.6604
        73                         -0.0925753              -2.5191
       ...                                ...                  ...
       128                          0.6668763              18.1466
      -------------------------------------------------------------
                  HL-Gap            0.1113173 Eh            3.0291 eV
             Fermi-level           -0.2938524 Eh           -7.9961 eV

 SCC (total)                   0 d,  0 h,  0 min,  0.075 sec
 SCC setup                      ...        0 min,  0.002 sec (  2.054%)
 Dispersion                     ...        0 min,  0.001 sec (  1.417%)
 classical contributions        ...        0 min,  0.000 sec (  0.063%)
 integral evaluation            ...        0 min,  0.004 sec (  4.901%)
 iterations                     ...        0 min,  0.062 sec ( 83.201%)
 molecular gradient             ...        0 min,  0.006 sec (  8.099%)
 printout                       ...        0 min,  0.000 sec (  0.204%)

         :::::::::::::::::::::::::::::::::::::::::::::::::::::
         ::                     SUMMARY                     ::
         :::::::::::::::::::::::::::::::::::::::::::::::::::::
         :: total energy             -75.272407941966 Eh    ::
         :: total w/o Gsasa/hb       -75.252346137868 Eh    ::
         :: gradient norm              0.030046838461 Eh/a0 ::
         :: HOMO-LUMO gap              3.029098201998 eV    ::
         ::.................................................::
         :: SCC energy               -76.259391352735 Eh    ::
         :: -> isotropic ES            0.145061689386 Eh    ::
         :: -> anisotropic ES          0.005041792468 Eh    ::
         :: -> anisotropic XC          0.021679393268 Eh    ::
         :: -> dispersion             -0.067415453394 Eh    ::
         :: -> Gsolv                  -0.045459440400 Eh    ::
         ::    -> Gelec               -0.025397636302 Eh    ::
         ::    -> Gsasa               -0.022570452099 Eh    ::
         ::    -> Ghb                  0.000000000000 Eh    ::
         ::    -> Gshift               0.002508648001 Eh    ::
         :: repulsion energy           0.986983410769 Eh    ::
         :: add. restraining           0.000000000000 Eh    ::
         :: total charge               0.000000000000 e     ::
         :::::::::::::::::::::::::::::::::::::::::::::::::::::

           -------------------------------------------------
          |                Property Printout                |
           -------------------------------------------------

    * Orbital Energies and Occupations

         #    Occupation            Energy/Eh            Energy/eV
      -------------------------------------------------------------
         1        2.0000           -0.7504043             -20.4195
       ...           ...                  ...                  ...
        56        2.0000           -0.4454681             -12.1218
        57        2.0000           -0.4432914             -12.0626
        58        2.0000           -0.4354509             -11.8492
        59        2.0000           -0.4311500             -11.7322
        60        2.0000           -0.4286785             -11.6649
        61        2.0000           -0.4243740             -11.5478
        62        2.0000           -0.4183450             -11.3837
        63        2.0000           -0.4114974             -11.1974
        64        2.0000           -0.4019686             -10.9381
        65        2.0000           -0.3969647             -10.8020
        66        2.0000           -0.3569607              -9.7134
        67        2.0000           -0.3556139              -9.6767
        68        2.0000           -0.3495111              -9.5107 (HOMO)
        69                         -0.2381938              -6.4816 (LUMO)
        70                         -0.2221905              -6.0461
        71                         -0.2144557              -5.8356
        72                         -0.2080160              -5.6604
        73                         -0.0925753              -2.5191
        74                         -0.0529097              -1.4397
        75                         -0.0231563              -0.6301
        76                         -0.0127376              -0.3466
        77                          0.0061212               0.1666
        78                          0.0189550               0.5158
        79                          0.0291060               0.7920
       ...                                ...                  ...
       128                          0.6668763              18.1466
      -------------------------------------------------------------
                  HL-Gap            0.1113173 Eh            3.0291 eV
             Fermi-level           -0.2938524 Eh           -7.9961 eV

     #   Z          covCN         q      C6AA      α(0)
     1   6 c        3.799    -0.069    21.829     6.652
     2   6 c        3.806    -0.066    21.754     6.640
     3   6 c        2.918    -0.053    29.318     8.879
     4   6 c        2.918    -0.036    28.903     8.816
     5   6 c        2.926    -0.066    29.640     8.928
     6   6 c        2.916     0.071    26.401     8.426
     7   6 c        2.972    -0.024    28.587     8.770
     8   6 c        2.927    -0.046    29.147     8.854
     9   7 n        2.694    -0.199    25.323     7.474
    10   6 c        3.807     0.052    19.700     6.318
    11   6 c        3.940    -0.009    20.672     6.461
    12   6 c        3.924     0.013    20.297     6.403
    13   6 c        3.851    -0.069    21.778     6.638
    14   6 c        3.939     0.023    20.127     6.375
    15   6 c        3.942     0.004    20.450     6.426
    16   6 c        2.901    -0.038    28.950     8.822
    17   6 c        2.895    -0.040    28.981     8.826
    18   6 c        3.765    -0.023    21.030     6.536
    19   7 n        3.665     0.298    16.530     6.039
    20   6 c        3.800    -0.024    21.008     6.526
    21   6 c        3.838    -0.055    21.537     6.602
    22   8 o        0.933    -0.715    29.076     7.232
    23   1 h        0.924     0.051     2.312     2.378
    24   6 c        2.734     0.362    20.855     7.477
    25   8 o        0.856    -0.453    22.777     6.399
    26   8 o        1.704    -0.265    18.393     5.790
    27   6 c        3.658     0.029    20.368     6.477
    28   1 h        0.924     0.048     2.348     2.396
    29   1 h        0.924     0.050     2.319     2.381
    30   1 h        0.924     0.051     2.306     2.375
    31   1 h        0.924     0.040     2.451     2.448
    32   1 h        0.926     0.027     2.624     2.533
    33   1 h        0.926     0.031     2.575     2.509
    34   1 h        0.925     0.029     2.606     2.524
    35   1 h        0.926     0.031     2.567     2.505
    36   1 h        0.860     0.170     1.275     1.769
    37   1 h        0.923     0.038     2.475     2.460
    38   1 h        0.924     0.088     1.898     2.154
    39   1 h        0.925     0.047     2.354     2.399
    40   1 h        0.926     0.052     2.297     2.370
    41   1 h        0.926     0.055     2.262     2.352
    42   1 h        0.924     0.058     2.221     2.331
    43   1 h        0.924     0.074     2.037     2.232
    44   1 h        0.925     0.070     2.089     2.260
    45   1 h        0.924     0.053     2.283     2.363
    46   1 h        0.925     0.060     2.196     2.317
    47   1 h        0.925     0.055     2.257     2.349
    48   1 h        0.925     0.086     1.917     2.165
    49   1 h        0.924     0.068     2.107     2.270
    50   1 h        0.924     0.067     2.118     2.276

 Mol. C6AA /au·bohr⁶  :      26037.853016
 Mol. C8AA /au·bohr⁸  :     609733.272975
 Mol. α(0) /au        :        244.906205


Wiberg/Mayer (AO) data.
largest (>0.10) Wiberg bond orders for each atom

 ---------------------------------------------------------------------------
     #   Z sym  total        # sym  WBO       # sym  WBO       # sym  WBO
 ---------------------------------------------------------------------------
     1   6 c    3.992 --     2 c    1.009    28 h    0.978    29 h    0.973
                            10 c    0.968
     2   6 c    3.995 --     1 c    1.009    31 h    0.976    30 h    0.974
                            14 c    0.965
     3   6 c    3.987 --     8 c    1.438     4 c    1.415    32 h    0.972
     4   6 c    3.991 --     5 c    1.470     3 c    1.415    33 h    0.971
     5   6 c    3.985 --     4 c    1.470     6 c    1.337    34 h    0.967
                             8 c    0.101
     6   6 c    3.972 --     5 c    1.337     7 c    1.323     9 n    1.155
     7   6 c    3.982 --     8 c    1.423     6 c    1.323    12 c    0.991
     8   6 c    3.991 --     3 c    1.438     7 c    1.423    35 h    0.960
                             5 c    0.101
     9   7 n    3.330 --     6 c    1.155    10 c    1.006    36 h    0.939
    10   6 c    3.978 --     9 n    1.006     1 c    0.968    37 h    0.962
                            11 c    0.942
    11   6 c    3.985 --    13 c    0.978    12 c    0.954    24 c    0.949
                            10 c    0.942
    12   6 c    3.986 --     7 c    0.991    21 c    0.965    15 c    0.964
                            11 c    0.954
    13   6 c    3.983 --    11 c    0.978    39 h    0.974    14 c    0.966
                            38 h    0.948
    14   6 c    3.987 --    16 c    1.004    15 c    0.980    13 c    0.966
                             2 c    0.965
    15   6 c    3.966 --    14 c    0.980    12 c    0.964    23 h    0.959
                            19 n    0.893
    16   6 c    3.988 --    17 c    1.930    14 c    1.004    40 h    0.963
    17   6 c    3.984 --    16 c    1.930    18 c    1.015    41 h    0.964
    18   6 c    3.968 --    17 c    1.015    43 h    0.964    42 h    0.956
                            19 n    0.940
    19   7 n    3.870 --    22 o    1.039    18 c    0.940    20 c    0.938
                            15 c    0.893
    20   6 c    3.967 --    21 c    1.005    44 h    0.973    45 h    0.964
                            19 n    0.938
    21   6 c    3.990 --    20 c    1.005    46 h    0.974    47 h    0.972
                            12 c    0.965
    22   8 o    1.255 --    19 n    1.039
    23   1 h    0.997 --    15 c    0.959
    24   6 c    3.907 --    25 o    1.725    26 o    1.142    11 c    0.949
    25   8 o    2.007 --    24 c    1.725    26 o    0.170
    26   8 o    2.308 --    24 c    1.142    27 c    0.948    25 o    0.170
    27   6 c    3.913 --    48 h    0.979    50 h    0.976    49 h    0.976
                            26 o    0.948
    28   1 h    0.998 --     1 c    0.978
    29   1 h    0.996 --     1 c    0.973
    30   1 h    0.997 --     2 c    0.974
    31   1 h    0.998 --     2 c    0.976
    32   1 h    0.999 --     3 c    0.972
    33   1 h    0.998 --     4 c    0.971
    34   1 h    0.999 --     5 c    0.967
    35   1 h    0.998 --     8 c    0.960
    36   1 h    0.970 --     9 n    0.939
    37   1 h    0.998 --    10 c    0.962
    38   1 h    0.992 --    13 c    0.948
    39   1 h    0.997 --    13 c    0.974
    40   1 h    0.997 --    16 c    0.963
    41   1 h    0.996 --    17 c    0.964
    42   1 h    0.997 --    18 c    0.956
    43   1 h    0.994 --    18 c    0.964
    44   1 h    0.994 --    20 c    0.973
    45   1 h    0.997 --    20 c    0.964
    46   1 h    0.996 --    21 c    0.974
    47   1 h    0.996 --    21 c    0.972
    48   1 h    0.992 --    27 c    0.979
    49   1 h    0.995 --    27 c    0.976
    50   1 h    0.995 --    27 c    0.976
 ---------------------------------------------------------------------------

Topologies differ in total number of bonds
Writing topology from bond orders to xtbtopo.mol

molecular dipole:
                 x           y           z       tot (Debye)
 q only:       -1.452       2.001      -0.870
   full:       -1.529       2.243      -0.882       7.255
molecular quadrupole (traceless):
                xx          xy          yy          xz          yz          zz
 q only:       -3.952      22.945      -7.488      -8.240       3.910      11.440
  q+dip:       -4.148      23.838      -7.754      -2.608       8.793      11.902
   full:       -4.536      24.790      -8.271      -3.866       6.749      12.807


           -------------------------------------------------
          | TOTAL ENERGY              -75.272407941966 Eh   |
          | GRADIENT NORM               0.030046838461 Eh/α |
          | HOMO-LUMO GAP               3.029098201998 eV   |
           -------------------------------------------------

------------------------------------------------------------------------
 * finished run on 2026/08/09 at 21:57:33.852     
------------------------------------------------------------------------
 total:
 * wall-time:     0 d,  0 h,  0 min,  0.099 sec
 *  cpu-time:     0 d,  0 h,  0 min,  1.073 sec
 * ratio c/w:    10.859 speedup
 SCF:
 * wall-time:     0 d,  0 h,  0 min,  0.075 sec
 *  cpu-time:     0 d,  0 h,  0 min,  0.843 sec
 * ratio c/w:    11.228 speedup

normal termination of xtb
