      -----------------------------------------------------------      
     |                   =====================                   |     
     |                           x T B                           |     
     |                   =====================                   |     
     |                         S. Grimme                         |     
     |          Mulliken Center for Theoretical Chemistry        |     
     |                    University of Bonn                     |     
      -----------------------------------------------------------      

   * xtb version 6.7.1 (edcfbbe) compiled by 'albert@albert-system' on 2024-07-22

   xtb is free software: you can redistribute it and/or modify it under
   the terms of the GNU Lesser General Public License as published by
   the Free Software Foundation, either version 3 of the License, or
   (at your option) any later version.
   
   xtb is distributed in the hope that it will be useful,
   but WITHOUT ANY WARRANTY; without even the implied warranty of
   MERCHANTABILITY or FITNESS FOR A PARTICULAR PURPOSE.  See the
   GNU Lesser General Public License for more details.
   
   Cite this work as:
   * C. Bannwarth, E. Caldeweyher, S. Ehlert, A. Hansen, P. Pracht,
     J. Seibert, S. Spicher, S. Grimme, WIREs Comput. Mol. Sci., 2020, 11,
     e01493. DOI: 10.1002/wcms.1493
   
   for GFN2-xTB:
   * C. Bannwarth, S. Ehlert and S. Grimme., J. Chem. Theory Comput., 2019,
     15, 1652-1671. DOI: 10.1021/acs.jctc.8b01176
   for GFN1-xTB:
   * S. Grimme, C. Bannwarth, P. Shushkov, J. Chem. Theory Comput., 2017,
     13, 1989-2009. DOI: 10.1021/acs.jctc.7b00118
   for GFN0-xTB:
   * P. Pracht, E. Caldeweyher, S. Ehlert, S. Grimme, ChemRxiv, 2019, preprint.
     DOI: 10.26434/chemrxiv.8326202.v1
   for GFN-FF:
   * S. Spicher and S. Grimme, Angew. Chem. Int. Ed., 2020, 59, 15665-15673.
     DOI: 10.1002/anie.202004239
   
   for ALPB and GBSA implicit solvation:
   * S. Ehlert, M. Stahn, S. Spicher, S. Grimme, J. Chem. Theory Comput.,
     2021, 17, 4250-4261. DOI: 10.1021/acs.jctc.1c00471
   
   for ddCOSMO and CPCM-X implicit solvation:
   * M. Stahn, S. Ehlert, S. Grimme, J. Phys. Chem. A,
     2023, XX, XXXX-XXXX. DOI: 10.1021/acs.jpca.3c04382
   
   for DFT-D4:
   * E. Caldeweyher, C. Bannwarth and S. Grimme, J. Chem. Phys., 2017,
     147, 034112. DOI: 10.1063/1.4993215
   * E. Caldeweyher, S. Ehlert, A. Hansen, H. Neugebauer, S. Spicher,
     C. Bannwarth and S. Grimme, J. Chem. Phys., 2019, 150, 154122.
     DOI: 10.1063/1.5090222
   * E. Caldeweyher, J.-M. Mewes, S. Ehlert and S. Grimme, Phys. Chem. Chem. Phys.
     2020, 22, 8499-8512. DOI: 10.1039/D0CP00502A
   
   for sTDA-xTB:
   * S. Grimme and C. Bannwarth, J. Chem. Phys., 2016, 145, 054103.
     DOI: 10.1063/1.4959605
   
   in the mass-spec context:
   * V. Asgeirsson, C. Bauer and S. Grimme, Chem. Sci., 2017, 8, 4879.
     DOI: 10.1039/c7sc00601b
   * J. Koopman and S. Grimme, ACS Omega 2019, 4, 12, 15120-15133.
     DOI: 10.1021/acsomega.9b02011
   
   for metadynamics refer to:
   * S. Grimme, J. Chem. Theory Comput., 2019, 155, 2847-2862
     DOI: 10.1021/acs.jctc.9b00143
   
   for SPH calculations refer to:
   * S. Spicher and S. Grimme, J. Chem. Theory Comput., 2021, 17, 1701-1714
     DOI: 10.1021/acs.jctc.0c01306
   
   for ONIOM refer to:
   * C. Plett, A. Katbashev, S. Ehlert, S. Grimme, M. Bursch,
     Phys. Chem. Chem. Phys., 2023, 25, 17860-17868. DOI: 10.1039/D3CP02178E
   
   for DIPRO refer to:
   * J. Kohn, N. Gildemeister, S. Grimme, D. Fazzi, A. Hansen,
     J. Chem. Phys., 2023, just accepted.
   
   for PTB refer to:
   * S. Grimme, M. Mueller, A. Hansen, J. Chem. Phys., 2023, 158, 124111.
     DOI: 10.1063/5.0137838
   
   with help from (in alphabetical order)
   P. Atkinson, C. Bannwarth, F. Bohle, G. Brandenburg, E. Caldeweyher
   M. Checinski, S. Dohm, S. Ehlert, S. Ehrlich, I. Gerasimov, C. Hölzer
   A. Katbashev, J. Kohn, J. Koopman, C. Lavigne, S. Lehtola, F. März, M. Müller,
   F. Musil, H. Neugebauer, J. Pisarek, C. Plett, P. Pracht, F. Pultar,
   J. Seibert, P. Shushkov, S. Spicher, M. Stahn, M. Steiner, T. Strunk,
   J. Stückrath, T. Rose, and J. Unsleber
   
 * started run on 2026/08/09 at 17:05:35.121     
   ID    Z sym.   atoms
    1    6 c      1-8, 10-13, 16
    2    8 o      9, 15
    3    1 h      14, 17-35

           -------------------------------------------------
          |                Calculation Setup                |
           -------------------------------------------------

          program call               : /home/dinglab/software/xtb_6.7.1/xtb_dist/bin/xtb coord --gfn2 --ohess vtight --alpb chcl3 --chrg 0 --enso --norestart -I xcontrol-inp --parallel 12
          hostname                   : localhost
          coordinate file            : coord
          omp threads                :                    12


           -------------------------------------------------
          |                 G F N 2 - x T B                 |
           -------------------------------------------------

        Reference                      10.1021/acs.jctc.8b01176
      * Hamiltonian:
        H0-scaling (s, p, d)           1.850000    2.230000    2.230000
        zeta-weighting                 0.500000
      * Dispersion:
        s8                             2.700000
        a1                             0.520000
        a2                             5.000000
        s9                             5.000000
      * Repulsion:
        kExp                           1.500000    1.000000
        rExp                           1.000000
      * Coulomb:
        alpha                          2.000000
        third order                    shell-resolved
        anisotropic                    true
        a3                             3.000000
        a5                             4.000000
        cn-shift                       1.200000
        cn-exp                         4.000000
        max-rad                        5.000000

      * Solvation model:               ALPB
        Solvent                        chcl3
        Parameter file                 internal GFN2-xTB/ALPB
        Dielectric constant                4.8100E+00
        Reference state                gsolv [1 M gas/solution]
        Free energy shift                  3.8910E-03 Eh       2.4417E+00 kcal/mol
        Temperature                        2.9815E+02 K
        Density                            1.4900E+00 kg/L
        Solvent mass                       1.1938E+02 g/mol
        Interaction kernel             P16
        Born radius scaling (c1)           1.3274E+00
        Born radii integrator          GBOBC
        Born offset                        0.0000E+00 a0       0.0000E+00 AA
        H-bond correction              false
        Ion screening                  false
        Surface tension                    1.0000E-05 Eh       1.5569E+01 dyn/cm
        Grid points                               974 per atom

          ...................................................
          :                      SETUP                      :
          :.................................................:
          :  # basis functions                  80          :
          :  # atomic orbitals                  80          :
          :  # shells                           50          :
          :  # electrons                        84          :
          :  max. iterations                   250          :
          :  Hamiltonian                  GFN2-xTB          :
          :  restarted?                      false          :
          :  GBSA solvation                   true          :
          :  PC potential                    false          :
          :  electronic temp.          300.0000000     K    :
          :  accuracy                    1.0000000          :
          :  -> integral cutoff          0.2500000E+02      :
          :  -> integral neglect         0.1000000E-07      :
          :  -> SCF convergence          0.1000000E-05 Eh   :
          :  -> wf. convergence          0.1000000E-03 e    :
          :  Broyden damping             0.4000000          :
          :  net charge                          0          :
          :  unpaired electrons                  0          :
          ...................................................

 iter      E             dE          RMSdq      gap      omega  full diag
   1    -46.6692154 -0.466692E+02  0.344E+00    5.06       0.0  T
   2    -46.7109433 -0.417279E-01  0.193E+00    4.87       1.0  T
   3    -46.7064611  0.448227E-02  0.775E-01    4.78       1.0  T
   4    -46.7121323 -0.567124E-02  0.373E-01    4.70       1.0  T
   5    -46.7148524 -0.272009E-02  0.772E-02    4.72       1.0  T
   6    -46.7148937 -0.413458E-04  0.430E-02    4.72       1.0  T
   7    -46.7149004 -0.671136E-05  0.139E-02    4.72       1.2  T
   8    -46.7149019 -0.147692E-05  0.508E-03    4.72       3.3  T
   9    -46.7149024 -0.448016E-06  0.232E-03    4.72       7.3  T
  10    -46.7149024 -0.404491E-07  0.896E-04    4.72      18.9  T
  11    -46.7149024 -0.389758E-08  0.372E-04    4.72      45.4  T

   *** convergence criteria satisfied after 11 iterations ***

         #    Occupation            Energy/Eh            Energy/eV
      -------------------------------------------------------------
         1        2.0000           -0.6930653             -18.8593
       ...           ...                  ...                  ...
        36        2.0000           -0.4337298             -11.8024
        37        2.0000           -0.4250138             -11.5652
        38        2.0000           -0.4158577             -11.3161
        39        2.0000           -0.4107652             -11.1775
        40        2.0000           -0.4027382             -10.9591
        41        2.0000           -0.3948512             -10.7444
        42        2.0000           -0.3844828             -10.4623 (HOMO)
        43                         -0.2111262              -5.7450 (LUMO)
        44                         -0.2019663              -5.4958
        45                         -0.0108345              -0.2948
        46                         -0.0014212              -0.0387
        47                          0.0205476               0.5591
       ...                                ...                  ...
        80                          0.5916186              16.0988
      -------------------------------------------------------------
                  HL-Gap            0.1733566 Eh            4.7173 eV
             Fermi-level           -0.2978045 Eh           -8.1037 eV

 SCC (total)                   0 d,  0 h,  0 min,  0.058 sec
 SCC setup                      ...        0 min,  0.001 sec (  1.349%)
 Dispersion                     ...        0 min,  0.000 sec (  0.616%)
 classical contributions        ...        0 min,  0.000 sec (  0.041%)
 integral evaluation            ...        0 min,  0.002 sec (  2.747%)
 iterations                     ...        0 min,  0.051 sec ( 87.465%)
 molecular gradient             ...        0 min,  0.004 sec (  7.350%)
 printout                       ...        0 min,  0.000 sec (  0.364%)

         :::::::::::::::::::::::::::::::::::::::::::::::::::::
         ::                     SUMMARY                     ::
         :::::::::::::::::::::::::::::::::::::::::::::::::::::
         :: total energy             -46.156481396468 Eh    ::
         :: total w/o Gsasa/hb       -46.143998863439 Eh    ::
         :: gradient norm              0.050915198609 Eh/a0 ::
         :: HOMO-LUMO gap              4.717273344420 eV    ::
         ::.................................................::
         :: SCC energy               -46.714249363858 Eh    ::
         :: -> isotropic ES            0.062589103112 Eh    ::
         :: -> anisotropic ES          0.007719514255 Eh    ::
         :: -> anisotropic XC          0.019713082358 Eh    ::
         :: -> dispersion             -0.035426336814 Eh    ::
         :: -> Gsolv                  -0.020683735836 Eh    ::
         ::    -> Gelec               -0.008201202808 Eh    ::
         ::    -> Gsasa               -0.016373552272 Eh    ::
         ::    -> Ghb                  0.000000000000 Eh    ::
         ::    -> Gshift               0.003891019244 Eh    ::
         :: repulsion energy           0.557767967390 Eh    ::
         :: add. restraining           0.000000000000 Eh    ::
         :: total charge              -0.000000000000 e     ::
         :::::::::::::::::::::::::::::::::::::::::::::::::::::

      ----------------------------------------------------------- 
     |                   =====================                   |
     |                        A N C O P T                        |
     |                   =====================                   |
     |               Approximate Normal Coordinate               |
     |                Rational Function Optimizer                |
      ----------------------------------------------------------- 
      ----------------------------------------------------------- 
     |                   =====================                   |
     |                        A N C O P T                        |
     |                   =====================                   |
     |               Approximate Normal Coordinate               |
     |                Rational Function Optimizer                |
      ----------------------------------------------------------- 

          ...................................................
          :                      SETUP                      :
          :.................................................:
          :   optimization level         verytight          :
          :   max. optcycles                   700          :
          :   ANC micro-cycles                  20          :
          :   degrees of freedom                99          :
          :.................................................:
          :   RF solver                   davidson          :
          :   write xtbopt.log                true          :
          :   linear?                        false          :
          :   energy convergence         0.1000000E-06 Eh   :
          :   grad. convergence          0.2000000E-03 Eh/α :
          :   maxmium RF displ.          1.0000000          :
          :   Hlow (freq-cutoff)         0.1000000E-01      :
          :   Hmax (freq-cutoff)         5.0000000          :
          :   S6 in model hess.         20.0000000          :
          ...................................................

generating ANC from exact Hessian ...
Using Lindh-Hessian (1995)
 Shifting diagonal of input Hessian by   8.955648834299834E-003
 Lowest  eigenvalues of input Hessian
    0.000000    0.000000    0.000000    0.000000    0.000000    0.000000
    0.010000    0.010670    0.011026    0.012394    0.012591    0.013521
    0.015204    0.016181    0.016352    0.017480    0.018082    0.018695
 Highest eigenvalues
    1.387701    1.397234    1.405741    1.421279    1.809499    1.857212
 

........................................................................
.............................. CYCLE    1 ..............................
........................................................................

 iter      E             dE          RMSdq      gap      omega  full diag
   1    -46.7149024 -0.467149E+02  0.887E-05    4.72       0.0  T
   2    -46.7149024 -0.351505E-10  0.525E-05    4.72     321.8  T
   3    -46.7149024  0.589750E-12  0.355E-05    4.72     475.9  T
     SCC iter.                  ...        0 min,  0.005 sec
     gradient                   ...        0 min,  0.003 sec
 * total energy  :   -46.1564814 Eh     change       -0.7807586E-09 Eh
   gradient norm :     0.0509185 Eh/α   predicted     0.0000000E+00 (-100.00%)
   displ. norm   :     0.2959988 α      lambda       -0.9636747E-02
   maximum displ.:     0.1437686 α      in ANC's #24, #62, #43, ...

........................................................................
.............................. CYCLE    2 ..............................
........................................................................

 iter      E             dE          RMSdq      gap      omega  full diag
   1    -46.7664434 -0.467664E+02  0.145E-01    4.87       0.0  T
   2    -46.7664743 -0.309049E-04  0.894E-02    4.87       1.0  T
   3    -46.7664515  0.228921E-04  0.570E-02    4.88       1.0  T
   4    -46.7665058 -0.543312E-04  0.664E-03    4.87       2.5  T
   5    -46.7665062 -0.415694E-06  0.297E-03    4.87       5.7  T
   6    -46.7665062 -0.364883E-08  0.117E-03    4.87      14.4  T
   7    -46.7665062 -0.843551E-08  0.452E-04    4.87      37.4  T
   8    -46.7665062 -0.323267E-08  0.204E-04    4.87      82.7  T
     SCC iter.                  ...        0 min,  0.010 sec
     gradient                   ...        0 min,  0.003 sec
 * total energy  :   -46.1626633 Eh     change       -0.6181910E-02 Eh
   gradient norm :     0.0152105 Eh/α   predicted    -0.5240777E-02 ( -15.22%)
   displ. norm   :     0.2030915 α      lambda       -0.1506818E-02
   maximum displ.:     0.0874593 α      in ANC's #4, #24, #14, ...

........................................................................
.............................. CYCLE    3 ..............................
........................................................................

 iter      E             dE          RMSdq      gap      omega  full diag
   1    -46.7853907 -0.467854E+02  0.735E-02    4.91       0.0  T
   2    -46.7853977 -0.699728E-05  0.460E-02    4.90       1.0  T
   3    -46.7853917  0.597261E-05  0.280E-02    4.91       1.0  T
   4    -46.7854052 -0.135210E-04  0.331E-03    4.90       5.1  T
   5    -46.7854053 -0.104851E-06  0.136E-03    4.90      12.4  T
   6    -46.7854053 -0.353588E-08  0.601E-04    4.90      28.1  T
   7    -46.7854053 -0.937590E-09  0.247E-04    4.90      68.5  T
     SCC iter.                  ...        0 min,  0.009 sec
     gradient                   ...        0 min,  0.003 sec
 * total energy  :   -46.1634594 Eh     change       -0.7960494E-03 Eh
   gradient norm :     0.0048769 Eh/α   predicted    -0.7849776E-03 (  -1.39%)
   displ. norm   :     0.0876063 α      lambda       -0.1528696E-03
   maximum displ.:     0.0543327 α      in ANC's #4, #14, #3, ...

........................................................................
.............................. CYCLE    4 ..............................
........................................................................

 iter      E             dE          RMSdq      gap      omega  full diag
   1    -46.7854775 -0.467855E+02  0.303E-02    4.90       0.0  T
   2    -46.7854778 -0.282366E-06  0.181E-02    4.90       1.0  T
   3    -46.7854768  0.981343E-06  0.660E-03    4.90       2.6  T
   4    -46.7854780 -0.117078E-05  0.956E-04    4.90      17.7  T
   5    -46.7854780 -0.613908E-08  0.424E-04    4.90      39.9  T
   6    -46.7854780 -0.706088E-09  0.162E-04    4.90     104.1  T
     SCC iter.                  ...        0 min,  0.007 sec
     gradient                   ...        0 min,  0.003 sec
 * total energy  :   -46.1635513 Eh     change       -0.9197327E-04 Eh
   gradient norm :     0.0023354 Eh/α   predicted    -0.7702795E-04 ( -16.25%)
   displ. norm   :     0.1190201 α      lambda       -0.1148836E-03
   maximum displ.:     0.0886431 α      in ANC's #4, #14, #9, ...

........................................................................
.............................. CYCLE    5 ..............................
........................................................................

 iter      E             dE          RMSdq      gap      omega  full diag
   1    -46.7839107 -0.467839E+02  0.366E-02    4.89       0.0  T
   2    -46.7839110 -0.365892E-06  0.216E-02    4.89       1.0  T
   3    -46.7839103  0.706977E-06  0.567E-03    4.89       3.0  T
   4    -46.7839112 -0.872511E-06  0.111E-03    4.89      15.3  T
   5    -46.7839112 -0.991363E-08  0.521E-04    4.89      32.5  T
   6    -46.7839112 -0.130875E-08  0.183E-04    4.89      92.5  T
     SCC iter.                  ...        0 min,  0.007 sec
     gradient                   ...        0 min,  0.003 sec
 * total energy  :   -46.1636200 Eh     change       -0.6867240E-04 Eh
   gradient norm :     0.0025288 Eh/α   predicted    -0.5826783E-04 ( -15.15%)
   displ. norm   :     0.0762224 α      lambda       -0.4670757E-04
   maximum displ.:     0.0494865 α      in ANC's #4, #9, #1, ...

........................................................................
.............................. CYCLE    6 ..............................
........................................................................

 iter      E             dE          RMSdq      gap      omega  full diag
   1    -46.7831217 -0.467831E+02  0.234E-02    4.89       0.0  T
   2    -46.7831218 -0.103158E-06  0.139E-02    4.89       1.2  T
   3    -46.7831217  0.166582E-06  0.274E-03    4.89       6.2  T
   4    -46.7831219 -0.206420E-06  0.568E-04    4.89      29.8  T
   5    -46.7831219 -0.326872E-08  0.293E-04    4.89      57.8  T
     SCC iter.                  ...        0 min,  0.006 sec
     gradient                   ...        0 min,  0.003 sec
 * total energy  :   -46.1636544 Eh     change       -0.3434818E-04 Eh
   gradient norm :     0.0023926 Eh/α   predicted    -0.2349108E-04 ( -31.61%)
   displ. norm   :     0.1116546 α      lambda       -0.4929581E-04
   maximum displ.:     0.0650540 α      in ANC's #4, #9, #1, ...

........................................................................
.............................. CYCLE    7 ..............................
........................................................................

 iter      E             dE          RMSdq      gap      omega  full diag
   1    -46.7829486 -0.467829E+02  0.326E-02    4.89       0.0  T
   2    -46.7829487 -0.128946E-06  0.193E-02    4.89       1.0  T
   3    -46.7829485  0.207857E-06  0.316E-03    4.89       5.3  T
   4    -46.7829487 -0.268213E-06  0.680E-04    4.89      24.8  T
   5    -46.7829488 -0.284419E-08  0.352E-04    4.89      48.0  T
     SCC iter.                  ...        0 min,  0.006 sec
     gradient                   ...        0 min,  0.003 sec
 * total energy  :   -46.1636875 Eh     change       -0.3313876E-04 Eh
   gradient norm :     0.0018106 Eh/α   predicted    -0.2496125E-04 ( -24.68%)
   displ. norm   :     0.1181471 α      lambda       -0.2227919E-04
   maximum displ.:     0.0606895 α      in ANC's #4, #9, #1, ...

........................................................................
.............................. CYCLE    8 ..............................
........................................................................

 iter      E             dE          RMSdq      gap      omega  full diag
   1    -46.7838149 -0.467838E+02  0.368E-02    4.90       0.0  T
   2    -46.7838151 -0.152657E-06  0.217E-02    4.90       1.0  T
   3    -46.7838148  0.255079E-06  0.338E-03    4.90       5.0  T
   4    -46.7838151 -0.320524E-06  0.662E-04    4.90      25.5  T
   5    -46.7838151 -0.333998E-08  0.344E-04    4.90      49.1  T
     SCC iter.                  ...        0 min,  0.006 sec
     gradient                   ...        0 min,  0.003 sec
 * total energy  :   -46.1637051 Eh     change       -0.1759170E-04 Eh
   gradient norm :     0.0010472 Eh/α   predicted    -0.1121056E-04 ( -36.27%)
   displ. norm   :     0.0340628 α      lambda       -0.6571830E-05
   maximum displ.:     0.0210385 α      in ANC's #3, #9, #2, ...

........................................................................
.............................. CYCLE    9 ..............................
........................................................................

 iter      E             dE          RMSdq      gap      omega  full diag
   1    -46.7841938 -0.467842E+02  0.125E-02    4.90       0.0  T
   2    -46.7841938 -0.322292E-07  0.738E-03    4.90       2.3  T
   3    -46.7841938  0.901910E-07  0.190E-03    4.90       8.9  T
   4    -46.7841939 -0.104768E-06  0.288E-04    4.90      58.6  T
   5    -46.7841939 -0.119198E-08  0.132E-04    4.90     128.1  T
     SCC iter.                  ...        0 min,  0.006 sec
     gradient                   ...        0 min,  0.003 sec
 * total energy  :   -46.1637118 Eh     change       -0.6750326E-05 Eh
   gradient norm :     0.0008735 Eh/α   predicted    -0.3290179E-05 ( -51.26%)
   displ. norm   :     0.0463706 α      lambda       -0.5000528E-05
   maximum displ.:     0.0251913 α      in ANC's #3, #9, #5, ...

........................................................................
.............................. CYCLE   10 ..............................
........................................................................

 iter      E             dE          RMSdq      gap      omega  full diag
   1    -46.7840586 -0.467841E+02  0.166E-02    4.90       0.0  T
   2    -46.7840587 -0.176622E-07  0.975E-03    4.90       1.7  T
   3    -46.7840586  0.374518E-07  0.128E-03    4.90      13.2  T
   4    -46.7840587 -0.476257E-07  0.229E-04    4.90      73.7  T
   5    -46.7840587 -0.195890E-09  0.120E-04    4.90     141.1  T
     SCC iter.                  ...        0 min,  0.006 sec
     gradient                   ...        0 min,  0.003 sec
 * total energy  :   -46.1637161 Eh     change       -0.4279044E-05 Eh
   gradient norm :     0.0007296 Eh/α   predicted    -0.2507595E-05 ( -41.40%)
   displ. norm   :     0.0294196 α      lambda       -0.2132769E-05
   maximum displ.:     0.0145760 α      in ANC's #3, #5, #9, ...

........................................................................
.............................. CYCLE   11 ..............................
........................................................................

 iter      E             dE          RMSdq      gap      omega  full diag
   1    -46.7839313 -0.467839E+02  0.108E-02    4.90       0.0  T
   2    -46.7839313 -0.122524E-07  0.637E-03    4.90       2.7  T
   3    -46.7839313 -0.149058E-08  0.385E-04    4.90      43.9  T
   4    -46.7839313 -0.229068E-08  0.197E-04    4.90      86.0  T
     SCC iter.                  ...        0 min,  0.005 sec
     gradient                   ...        0 min,  0.003 sec
 * total energy  :   -46.1637178 Eh     change       -0.1672816E-05 Eh
   gradient norm :     0.0004286 Eh/α   predicted    -0.1069451E-05 ( -36.07%)
   displ. norm   :     0.0209183 α      lambda       -0.1486746E-05
   maximum displ.:     0.0109468 α      in ANC's #5, #3, #4, ...

........................................................................
.............................. CYCLE   12 ..............................
........................................................................

 iter      E             dE          RMSdq      gap      omega  full diag
   1    -46.7839928 -0.467840E+02  0.748E-03    4.90       0.0  T
   2    -46.7839928 -0.987747E-08  0.446E-03    4.90       3.8  T
   3    -46.7839928  0.193601E-08  0.515E-04    4.90      32.8  T
   4    -46.7839929 -0.564872E-08  0.218E-04    4.90      77.4  T
     SCC iter.                  ...        0 min,  0.005 sec
     gradient                   ...        0 min,  0.003 sec
 * total energy  :   -46.1637187 Eh     change       -0.9066065E-06 Eh
   gradient norm :     0.0004194 Eh/α   predicted    -0.7462011E-06 ( -17.69%)
   displ. norm   :     0.0112724 α      lambda       -0.9183178E-06
   maximum displ.:     0.0053622 α      in ANC's #5, #4, #6, ...

........................................................................
.............................. CYCLE   13 ..............................
........................................................................

 iter      E             dE          RMSdq      gap      omega  full diag
   1    -46.7840167 -0.467840E+02  0.413E-03    4.90       0.0  T
   2    -46.7840167 -0.458954E-08  0.245E-03    4.90       6.9  T
   3    -46.7840167  0.389520E-09  0.294E-04    4.90      57.5  T
   4    -46.7840167 -0.148498E-08  0.123E-04    4.90     137.5  T
     SCC iter.                  ...        0 min,  0.005 sec
     gradient                   ...        0 min,  0.003 sec
 * total energy  :   -46.1637193 Eh     change       -0.6464493E-06 Eh
   gradient norm :     0.0002636 Eh/α   predicted    -0.4639822E-06 ( -28.23%)
   displ. norm   :     0.0052005 α      lambda       -0.2236565E-06
   maximum displ.:     0.0025510 α      in ANC's #4, #3, #1, ...

........................................................................
.............................. CYCLE   14 ..............................
........................................................................

 iter      E             dE          RMSdq      gap      omega  full diag
   1    -46.7839453 -0.467839E+02  0.216E-03    4.90       0.0  T
   2    -46.7839453 -0.212661E-08  0.129E-03    4.90      13.1  T
   3    -46.7839453  0.152472E-08  0.267E-04    4.90      63.3  T
   4    -46.7839453 -0.186380E-08  0.791E-05    4.90     213.7  T
     SCC iter.                  ...        0 min,  0.005 sec
     gradient                   ...        0 min,  0.003 sec
 * total energy  :   -46.1637195 Eh     change       -0.1471763E-06 Eh
   gradient norm :     0.0001271 Eh/α   predicted    -0.1146025E-06 ( -22.13%)
   displ. norm   :     0.0019700 α      lambda       -0.5212434E-07
   maximum displ.:     0.0010333 α      in ANC's #9, #1, #2, ...

........................................................................
.............................. CYCLE   15 ..............................
........................................................................

 iter      E             dE          RMSdq      gap      omega  full diag
   1    -46.7839768 -0.467840E+02  0.890E-04    4.90       0.0  T
   2    -46.7839768 -0.459863E-09  0.524E-04    4.90      32.3  T
   3    -46.7839768  0.125695E-10  0.652E-05    4.90     259.1  T
     SCC iter.                  ...        0 min,  0.004 sec
     gradient                   ...        0 min,  0.003 sec
 * total energy  :   -46.1637195 Eh     change       -0.4571397E-07 Eh
   gradient norm :     0.0000407 Eh/α   predicted    -0.2738307E-07 ( -40.10%)
   displ. norm   :     0.0021100 α      lambda       -0.1667058E-07
   maximum displ.:     0.0014169 α      in ANC's #1, #9, #2, ...

   *** GEOMETRY OPTIMIZATION CONVERGED AFTER 15 ITERATIONS ***

------------------------------------------------------------------------
 total energy gain   :        -0.0072381 Eh       -4.5420 kcal/mol
 total RMSD          :         0.1378679 a0        0.0730 Å
 total power (kW/mol):        -1.2669144 (step)  -76.7920 (real)
------------------------------------------------------------------------

 ANCopt (total)                0 d,  0 h,  0 min,  0.247 sec
 optimizer setup                ...        0 min,  0.000 sec (  0.086%)
 model hessian                  ...        0 min,  0.073 sec ( 29.445%)
 ANC generation                 ...        0 min,  0.002 sec (  0.737%)
 coordinate transformation      ...        0 min,  0.000 sec (  0.087%)
 single point calculation       ...        0 min,  0.168 sec ( 68.065%)
 optimization log               ...        0 min,  0.002 sec (  0.782%)
 hessian update                 ...        0 min,  0.000 sec (  0.076%)
 rational function              ...        0 min,  0.001 sec (  0.420%)

================
 final structure:
================
$coord
        0.17509971723875       -1.16787162665961        0.21195326736471      c
       -1.78751162383651        0.75547379312738        1.23154399650361      c
       -0.63742164577414        3.42897818436882        1.39616176962046      c
        1.06997139652719        4.17388426170620       -0.81368694700055      c
        2.82156504423256        1.98941282054594       -1.54651773318658      c
        1.20168376656828       -0.26671047035694       -2.36197270998117      c
        2.56301312260022       -1.08767978120368        1.88483884052143      c
        4.15922680134571        0.99268846631712        0.76410012516767      c
        2.62019428488109       -2.12314544487893       -3.65984021578740      o
       -0.94509461799184       -3.83391345096422        0.02899911192435      c
        6.35652099966712        1.78784024612638        1.64147300104280      c
       -4.30611802588443        0.67600602741078       -0.13192982507619      c
       -4.80552827891035        1.80038546807606       -2.31176901708043      c
       -2.19762246490497        0.16300666045897        3.17442738756201      h
       -1.81296569594771       -4.79142343847272        2.36633916407878      o
       -6.34675069657958       -0.70898590948288        1.27380126949863      c
       -2.17035013692259        4.79783572479989        1.56984620768991      h
        0.48426253279144        3.54150510659642        3.12476735023086      h
       -0.04132589668404        4.71777568112085       -2.46050620375523      h
        2.20320431748654        5.80766473660148       -0.26036835917282      h
        4.12785478088348        2.58320809536079       -3.03095049905523      h
       -0.30983857603617        0.22979300187046       -3.66891800279822      h
        3.57854509871025       -2.88760857715441        1.79019244399314      h
        2.12839052888025       -0.72256249086647        3.86627834441650      h
        4.13836464239858       -2.44862700706996       -2.69737472602849      h
        0.46842495813508       -5.11624772381301       -0.78720229025863      h
       -2.58235537270106       -3.81933351912269       -1.22645478144390      h
        7.19306882443075        0.99914403565134        3.32213803572698      h
        7.40252534849567        3.27030180436329        0.71985642722867      h
       -6.66092895339547        1.68556866965841       -3.14579299573157      h
       -3.44801511989648        2.88708196440695       -3.35928627314877      h
       -0.40153614745125       -4.83718447022081        3.52262423591754      h
       -8.01783679994796       -0.95943769285103        0.10576538738502      h
       -5.68138948073441       -2.54922882773352        1.90373407378255      h
       -6.87857885320394        0.36719109011619        2.94967716026572      h
$end
 
 Bond Distances (Angstroems)
 ---------------------------
C1-C2=1.5510         C1-C6=1.5420         C1-C7=1.5434         C1-C10=1.5333        C2-C1=1.5510         C2-C3=1.5426         
C2-C12=1.5161        C2-H14=1.0966        C3-C2=1.5426         C3-C4=1.5295         C3-H17=1.0914        C3-H18=1.0921        
C4-C3=1.5295         C4-C5=1.5316         C4-H19=1.0900        C4-H20=1.0922        C5-C4=1.5316         C5-C6=1.5318         
C5-C8=1.5081         C5-H21=1.0925        C6-C1=1.5420         C6-C5=1.5318         C6-O9=1.4143         C6-H22=1.0896        
C7-C1=1.5434         C7-C8=1.5090         C7-H23=1.0948        C7-H24=1.0907        C8-C5=1.5081         C8-C7=1.5090         
C8-C11=1.3208        O9-C6=1.4143         O9-H25=0.9667        C10-C1=1.5333        C10-O15=1.4133       C10-H26=1.0984       
C10-H27=1.0918       C11-C8=1.3208        C11-H28=1.0776       C11-H29=1.0769       C12-C2=1.5161        C12-C13=1.3246       
C12-C16=1.5022       C13-C12=1.3246       C13-H30=1.0782       C13-H31=1.0742       H14-C2=1.0966        O15-C10=1.4133       
O15-H32=0.9658       C16-C12=1.5022       C16-H33=1.0870       C16-H34=1.0878       C16-H35=1.0909       H17-C3=1.0914        
H18-C3=1.0921        H19-C4=1.0900        H20-C4=1.0922        H21-C5=1.0925        H22-C6=1.0896        H23-C7=1.0948        
H24-C7=1.0907        H25-O9=0.9667        H26-C10=1.0984       H27-C10=1.0918       H28-C11=1.0776       H29-C11=1.0769       
H30-C13=1.0782       H31-C13=1.0742       H32-O15=0.9658       H33-C16=1.0870       H34-C16=1.0878       H35-C16=1.0909       
 C  H  Rav=1.0885 sigma=0.0069  Rmin=1.0742  Rmax=1.0984    18
 C  C  Rav=1.4990 sigma=0.0734  Rmin=1.3208  Rmax=1.5510    14
 O  H  Rav=0.9663 sigma=0.0004  Rmin=0.9658  Rmax=0.9667     2
 O  C  Rav=1.4138 sigma=0.0005  Rmin=1.4133  Rmax=1.4143     2
 
 selected bond angles (degree)
 --------------------
C6-C1-C2=109.89                C7-C1-C2=109.31                C7-C1-C6=102.10                C10-C1-C2=111.52               
C10-C1-C6=111.41               C10-C1-C7=112.21               C3-C2-C1=110.93                C12-C2-C1=113.88               
C12-C2-C3=113.52               H14-C2-C1=105.73               H14-C2-C3=106.70               H14-C2-C12=105.32              
C4-C3-C2=115.23                H17-C3-C2=108.68               H17-C3-C4=109.41               H18-C3-C2=108.16               
H18-C3-C4=107.78               H18-C3-H17=107.29              C5-C4-C3=110.89                H19-C4-C3=111.14               
H19-C4-C5=108.87               H20-C4-C3=108.87               H20-C4-C5=109.45               H20-C4-H19=107.55              
C6-C5-C4=108.72                C8-C5-C4=110.04                C8-C5-C6=102.62                H21-C5-C4=110.36               
H21-C5-C6=112.07               H21-C5-C8=112.74               C5-C6-C1=100.91                O9-C6-C1=113.65                
O9-C6-C5=112.41                H22-C6-C1=112.13               H22-C6-C5=113.68               H22-C6-O9=104.41               
C8-C7-C1=104.65                H23-C7-C1=110.59               H23-C7-C8=110.00               H24-C7-C1=112.56               
H24-C7-C8=111.51               H24-C7-H23=107.55              C7-C8-C5=108.12                C11-C8-C5=125.93               
C11-C8-C7=125.95               H25-O9-C6=108.00               O15-C10-C1=113.59              H26-C10-C1=109.27              
H26-C10-O15=110.12             H27-C10-C1=109.80              H27-C10-O15=106.09             H27-C10-H26=107.79             
 
 selected dihedral angles (degree)
 ---------------------------------
C3-C2-C1-C6=304.25            C3-C2-C1-C7= 55.54            C3-C2-C1-C10=180.20           C12-C2-C1-C6= 73.80           
C12-C2-C1-C7=185.09           C12-C2-C1-C10=309.75          H14-C2-C1-C6=188.95           H14-C2-C1-C7=300.24           
H14-C2-C1-C10= 64.90          C4-C3-C2-C1= 40.26            C4-C3-C2-C12=270.52           C4-C3-C2-H14=154.96           
H17-C3-C2-C1=163.44           H17-C3-C2-C12= 33.69          H17-C3-C2-H14=278.13          H18-C3-C2-C1=279.61           
H18-C3-C2-C12=149.87          H18-C3-C2-H14= 34.31          C5-C4-C3-C2=317.16            C5-C4-C3-H17=194.38           
C5-C4-C3-H18= 78.03           H19-C4-C3-C2= 78.41           H19-C4-C3-H17=315.63          H19-C4-C3-H18=199.27          
H20-C4-C3-C2=196.69           H20-C4-C3-H17= 73.91          H20-C4-C3-H18=317.55          C6-C5-C4-C3= 60.89            
C6-C5-C4-H19=298.32           C6-C5-C4-H20=181.01           C8-C5-C4-C3=309.22            C8-C5-C4-H19=186.65           
C8-C5-C4-H20= 69.35           H21-C5-C4-C3=184.17           H21-C5-C4-H19= 61.60          H21-C5-C4-H20=304.30          
C5-C6-C1-C2= 71.09            C5-C6-C1-C7=315.17            C5-C6-C1-C10=195.21           O9-C6-C1-C2=191.64            
O9-C6-C1-C7= 75.71            O9-C6-C1-C10=315.76           H22-C6-C1-C2=309.76           H22-C6-C1-C7=193.83           
H22-C6-C1-C10= 73.88          C1-C6-C5-C4=286.51            C1-C6-C5-C8= 43.04            C1-C6-C5-H21=164.25           
O9-C6-C5-C4=165.08            O9-C6-C5-C8=281.61            O9-C6-C5-H21= 42.82           H22-C6-C5-C4= 46.73           
H22-C6-C5-C8=163.27           H22-C6-C5-H21=284.48          C8-C7-C1-C2=273.19            C8-C7-C1-C6= 29.54            
C8-C7-C1-C10=148.93           H23-C7-C1-C2=154.78           H23-C7-C1-C6=271.13           H23-C7-C1-C10= 30.52          
H24-C7-C1-C2= 34.45           H24-C7-C1-C6=150.80           H24-C7-C1-C10=270.19          C7-C8-C5-C4= 90.37            
C7-C8-C5-C6=334.79            C7-C8-C5-H21=214.04           C11-C8-C5-C4=269.83           C11-C8-C5-C6=154.26           
C11-C8-C5-H21= 33.51          C5-C8-C7-C1=357.16            C5-C8-C7-H23=115.98           C5-C8-C7-H24=235.21           
C11-C8-C7-C1=177.70           C11-C8-C7-H23=296.51          C11-C8-C7-H24= 55.75          H25-O9-C6-C1=293.81           
H25-O9-C6-C5= 47.64           H25-O9-C6-H22=171.32          O15-C10-C1-C2=300.57          O15-C10-C1-C6=177.38          
O15-C10-C1-C7= 63.59          H26-C10-C1-C2=177.19          H26-C10-C1-C6= 54.00          H26-C10-C1-C7=300.21          
H27-C10-C1-C2= 59.17          H27-C10-C1-C6=295.98          H27-C10-C1-C7=182.19          
           -------------------------------------------------
          |                Final Singlepoint                |
           -------------------------------------------------

          ...................................................
          :                      SETUP                      :
          :.................................................:
          :  # basis functions                  80          :
          :  # atomic orbitals                  80          :
          :  # shells                           50          :
          :  # electrons                        84          :
          :  max. iterations                   250          :
          :  Hamiltonian                  GFN2-xTB          :
          :  restarted?                      false          :
          :  GBSA solvation                   true          :
          :  PC potential                    false          :
          :  electronic temp.          300.0000000     K    :
          :  accuracy                    1.0000000          :
          :  -> integral cutoff          0.2500000E+02      :
          :  -> integral neglect         0.1000000E-07      :
          :  -> SCF convergence          0.1000000E-05 Eh   :
          :  -> wf. convergence          0.1000000E-03 e    :
          :  Broyden damping             0.4000000          :
          :  net charge                          0          :
          :  unpaired electrons                  0          :
          ...................................................

 iter      E             dE          RMSdq      gap      omega  full diag
   1    -46.7839768 -0.467840E+02  0.201E-05    4.90       0.0  T
   2    -46.7839768 -0.220268E-11  0.132E-05    4.90    1282.4  T
   3    -46.7839768 -0.214584E-11  0.788E-06    4.90    2144.9  T

   *** convergence criteria satisfied after 3 iterations ***

         #    Occupation            Energy/Eh            Energy/eV
      -------------------------------------------------------------
         1        2.0000           -0.6975992             -18.9826
       ...           ...                  ...                  ...
        36        2.0000           -0.4340029             -11.8098
        37        2.0000           -0.4248090             -11.5596
        38        2.0000           -0.4147905             -11.2870
        39        2.0000           -0.4104883             -11.1700
        40        2.0000           -0.4014706             -10.9246
        41        2.0000           -0.3949308             -10.7466
        42        2.0000           -0.3860857             -10.5059 (HOMO)
        43                         -0.2060197              -5.6061 (LUMO)
        44                         -0.1959501              -5.3321
        45                          0.0126830               0.3451
        46                          0.0234077               0.6370
        47                          0.0376222               1.0238
       ...                                ...                  ...
        80                          0.6420529              17.4711
      -------------------------------------------------------------
                  HL-Gap            0.1800659 Eh            4.8998 eV
             Fermi-level           -0.2960527 Eh           -8.0560 eV

 SCC (total)                   0 d,  0 h,  0 min,  0.009 sec
 SCC setup                      ...        0 min,  0.001 sec (  7.133%)
 Dispersion                     ...        0 min,  0.000 sec (  1.852%)
 classical contributions        ...        0 min,  0.000 sec (  0.268%)
 integral evaluation            ...        0 min,  0.001 sec ( 11.411%)
 iterations                     ...        0 min,  0.004 sec ( 43.693%)
 molecular gradient             ...        0 min,  0.003 sec ( 34.044%)
 printout                       ...        0 min,  0.000 sec (  1.249%)

         :::::::::::::::::::::::::::::::::::::::::::::::::::::
         ::                     SUMMARY                     ::
         :::::::::::::::::::::::::::::::::::::::::::::::::::::
         :: total energy             -46.163719529611 Eh    ::
         :: total w/o Gsasa/hb       -46.151618231789 Eh    ::
         :: gradient norm              0.000041036839 Eh/a0 ::
         :: HOMO-LUMO gap              4.899843463231 eV    ::
         ::.................................................::
         :: SCC energy               -46.783326210056 Eh    ::
         :: -> isotropic ES            0.062131566968 Eh    ::
         :: -> anisotropic ES          0.005902076220 Eh    ::
         :: -> anisotropic XC          0.017439407118 Eh    ::
         :: -> dispersion             -0.036193778915 Eh    ::
         :: -> Gsolv                  -0.020037622131 Eh    ::
         ::    -> Gelec               -0.007936324310 Eh    ::
         ::    -> Gsasa               -0.015992317065 Eh    ::
         ::    -> Ghb                  0.000000000000 Eh    ::
         ::    -> Gshift               0.003891019244 Eh    ::
         :: repulsion energy           0.619606680446 Eh    ::
         :: add. restraining           0.000000000000 Eh    ::
         :: total charge              -0.000000000000 e     ::
         :::::::::::::::::::::::::::::::::::::::::::::::::::::

           ------------------------------------------------- 
          |                Numerical Hessian                |
           ------------------------------------------------- 
step length          :   0.00500
SCC accuracy         :   0.30000
Hessian scale factor :   1.00000
frozen atoms in %    :   0.00000    0
RMS gradient         :   0.00004
estimated CPU  time      1.59 min
estimated wall time      0.13 min

writing file <hessian>.

 projected vibrational frequencies (cm⁻¹)
eigval :       -0.00    -0.00     0.00     0.00     0.00     0.00
eigval :       65.80    91.75   114.44   119.13   141.82   170.90
eigval :      180.57   218.19   257.87   272.89   287.61   298.11
eigval :      319.27   327.88   344.14   358.83   391.01   424.20
eigval :      445.96   457.66   509.40   539.18   561.01   608.57
eigval :      680.02   685.10   715.74   720.60   794.76   825.56
eigval :      875.45   886.95   892.65   895.61   913.14   934.86
eigval :      942.16   951.43   955.14   999.19  1022.01  1039.86
eigval :     1050.51  1053.88  1064.71  1073.81  1087.24  1098.23
eigval :     1123.63  1135.63  1156.63  1173.55  1194.46  1197.26
eigval :     1206.04  1232.75  1245.94  1246.19  1267.53  1269.93
eigval :     1289.90  1305.28  1308.84  1330.96  1342.94  1349.25
eigval :     1352.36  1365.59  1402.26  1412.35  1423.31  1464.93
eigval :     1477.37  1479.78  1483.13  1492.12  1494.32  1722.03
eigval :     1736.74  2892.37  2917.69  2930.01  2958.33  2963.18
eigval :     2972.37  2981.41  2988.51  2990.17  2992.76  2996.31
eigval :     3006.67  3040.14  3040.49  3095.63  3097.84  3119.73
eigval :     3142.75  3503.00  3515.53
           -------------------------------------------------
          |                Property Printout                |
           -------------------------------------------------

    * Orbital Energies and Occupations

         #    Occupation            Energy/Eh            Energy/eV
      -------------------------------------------------------------
         1        2.0000           -0.6975992             -18.9826
       ...           ...                  ...                  ...
        30        2.0000           -0.4679344             -12.7331
        31        2.0000           -0.4551190             -12.3844
        32        2.0000           -0.4481043             -12.1935
        33        2.0000           -0.4440937             -12.0844
        34        2.0000           -0.4423587             -12.0372
        35        2.0000           -0.4374099             -11.9025
        36        2.0000           -0.4340029             -11.8098
        37        2.0000           -0.4248090             -11.5596
        38        2.0000           -0.4147905             -11.2870
        39        2.0000           -0.4104883             -11.1700
        40        2.0000           -0.4014706             -10.9246
        41        2.0000           -0.3949308             -10.7466
        42        2.0000           -0.3860856             -10.5059 (HOMO)
        43                         -0.2060197              -5.6061 (LUMO)
        44                         -0.1959501              -5.3321
        45                          0.0126830               0.3451
        46                          0.0234077               0.6370
        47                          0.0376221               1.0238
        48                          0.0528872               1.4391
        49                          0.0679852               1.8500
        50                          0.0788526               2.1457
        51                          0.0848942               2.3101
        52                          0.0898145               2.4440
        53                          0.0963267               2.6212
       ...                                ...                  ...
        80                          0.6420529              17.4711
      -------------------------------------------------------------
                  HL-Gap            0.1800659 Eh            4.8998 eV
             Fermi-level           -0.2960527 Eh           -8.0560 eV

     #   Z          covCN         q      C6AA      α(0)
     1   6 c        3.934    -0.008    20.650     6.458
     2   6 c        3.858    -0.033    21.126     6.537
     3   6 c        3.803    -0.062    21.694     6.631
     4   6 c        3.808    -0.058    21.615     6.618
     5   6 c        3.889    -0.036    21.159     6.539
     6   6 c        3.771     0.106    18.867     6.190
     7   6 c        3.831    -0.069    21.805     6.644
     8   6 c        2.975     0.009    27.815     8.651
     9   8 o        1.655    -0.487    22.604     6.418
    10   6 c        3.677     0.081    19.444     6.317
    11   6 c        2.838    -0.113    30.843     9.101
    12   6 c        2.936     0.013    27.730     8.636
    13   6 c        2.843    -0.113    30.858     9.104
    14   1 h        0.924     0.051     2.302     2.373
    15   8 o        1.655    -0.479    22.440     6.395
    16   6 c        3.761    -0.117    22.789     6.805
    17   1 h        0.924     0.041     2.439     2.442
    18   1 h        0.924     0.040     2.450     2.448
    19   1 h        0.925     0.039     2.462     2.454
    20   1 h        0.924     0.041     2.433     2.439
    21   1 h        0.924     0.041     2.430     2.438
    22   1 h        0.925     0.046     2.370     2.408
    23   1 h        0.924     0.043     2.403     2.424
    24   1 h        0.924     0.051     2.308     2.376
    25   1 h        0.805     0.309     0.694     1.309
    26   1 h        0.923     0.028     2.615     2.529
    27   1 h        0.924     0.048     2.343     2.394
    28   1 h        0.926     0.034     2.525     2.485
    29   1 h        0.926     0.035     2.513     2.479
    30   1 h        0.926     0.029     2.599     2.521
    31   1 h        0.926     0.031     2.573     2.509
    32   1 h        0.805     0.309     0.695     1.310
    33   1 h        0.925     0.040     2.455     2.450
    34   1 h        0.925     0.062     2.179     2.308
    35   1 h        0.924     0.047     2.361     2.403

 Mol. C6AA /au·bohr⁶  :      10381.008815
 Mol. C8AA /au·bohr⁸  :     233507.052750
 Mol. α(0) /au        :        153.541842


Wiberg/Mayer (AO) data.
largest (>0.10) Wiberg bond orders for each atom

 ---------------------------------------------------------------------------
     #   Z sym  total        # sym  WBO       # sym  WBO       # sym  WBO
 ---------------------------------------------------------------------------
     1   6 c    3.989 --     7 c    0.982    10 c    0.980     6 c    0.960
                             2 c    0.959
     2   6 c    3.992 --    12 c    0.996     3 c    0.986    14 h    0.962
                             1 c    0.959
     3   6 c    3.996 --     4 c    1.008     2 c    0.986    18 h    0.977
                            17 h    0.976
     4   6 c    3.996 --     3 c    1.008     5 c    0.978    20 h    0.976
                            19 h    0.970
     5   6 c    3.995 --     8 c    0.995     4 c    0.978     6 c    0.974
                            21 h    0.963
     6   6 c    3.947 --     9 o    0.983     5 c    0.974     1 c    0.960
                            22 h    0.958
     7   6 c    3.997 --     8 c    1.004     1 c    0.982    24 h    0.963
                            23 h    0.958
     8   6 c    3.986 --    11 c    1.936     7 c    1.004     5 c    0.995
     9   8 o    1.947 --     6 c    0.983    25 h    0.885
    10   6 c    3.948 --    15 o    0.991     1 c    0.980    27 h    0.969
                            26 h    0.967
    11   6 c    3.988 --     8 c    1.936    28 h    0.975    29 h    0.975
    12   6 c    3.986 --    13 c    1.928    16 c    1.025     2 c    0.996
    13   6 c    3.988 --    12 c    1.928    30 h    0.974    31 h    0.967
    14   1 h    0.997 --     2 c    0.962
    15   8 o    1.942 --    10 c    0.991    32 h    0.888
    16   6 c    3.995 --    12 c    1.025    33 h    0.984    34 h    0.969
                            35 h    0.967
    17   1 h    0.998 --     3 c    0.976
    18   1 h    0.998 --     3 c    0.977
    19   1 h    0.998 --     4 c    0.970
    20   1 h    0.998 --     4 c    0.976
    21   1 h    0.998 --     5 c    0.963
    22   1 h    0.997 --     6 c    0.958
    23   1 h    0.997 --     7 c    0.958
    24   1 h    0.997 --     7 c    0.963
    25   1 h    0.904 --     9 o    0.885
    26   1 h    0.999 --    10 c    0.967
    27   1 h    0.997 --    10 c    0.969
    28   1 h    0.998 --    11 c    0.975
    29   1 h    0.998 --    11 c    0.975
    30   1 h    0.999 --    13 c    0.974
    31   1 h    0.999 --    13 c    0.967
    32   1 h    0.905 --    15 o    0.888
    33   1 h    0.998 --    16 c    0.984
    34   1 h    0.996 --    16 c    0.969
    35   1 h    0.998 --    16 c    0.967
 ---------------------------------------------------------------------------

Topologies differ in total number of bonds
Writing topology from bond orders to xtbtopo.mol

molecular dipole:
                 x           y           z       tot (Debye)
 q only:        0.545       0.471       0.776
   full:        0.832       0.497       0.917       3.391
molecular quadrupole (traceless):
                xx          xy          yy          xz          yz          zz
 q only:        1.781      -3.946      -0.460       1.980      -2.669      -1.321
  q+dip:        3.567      -5.097      -2.215       5.190      -4.909      -1.352
   full:        3.133      -5.647      -1.503       4.116      -3.986      -1.631

           -------------------------------------------------
          |                Geometry Summary                 |
           -------------------------------------------------

      molecular mass/u    :      208.2971915
   center of mass at/Å    :        0.0010564      -0.0007422      -0.0000566
  moments of inertia/u·Å² :        0.5739267E+03   0.9167272E+03   0.1084235E+04
rotational constants/cm⁻¹ :        0.2937245E-01   0.1838893E-01   0.1554796E-01

 * 30 selected distances

     #   Z          #   Z                                           value/Å
     3   6 c        4   6 c                                       1.5294511
     4   6 c        5   6 c                                       1.5316036
     1   6 c        6   6 c                                       1.5419921
     5   6 c        6   6 c                                       1.5317899
     1   6 c        7   6 c                                       1.5434484 (max)
     6   6 c        9   8 o                                       1.4142982
     1   6 c       10   6 c                                       1.5333441
     8   6 c       11   6 c                                       1.3208408
    12   6 c       13   6 c                                       1.3245655
     2   6 c       14   1 h                                       1.0965600
    10   6 c       15   8 o                                       1.4133278
     3   6 c       17   1 h                                       1.0914154
     3   6 c       18   1 h                                       1.0920705
     4   6 c       19   1 h                                       1.0900041
     4   6 c       20   1 h                                       1.0921605
     5   6 c       21   1 h                                       1.0925334
     6   6 c       22   1 h                                       1.0895555
     7   6 c       23   1 h                                       1.0947713
     7   6 c       24   1 h                                       1.0907099
     9   8 o       25   1 h                                       0.9666896
    10   6 c       26   1 h                                       1.0984225
    10   6 c       27   1 h                                       1.0918249
    11   6 c       28   1 h                                       1.0775599
    11   6 c       29   1 h                                       1.0768718
    13   6 c       30   1 h                                       1.0781836
    13   6 c       31   1 h                                       1.0742486
    15   8 o       32   1 h                                       0.9658351 (min)
    16   6 c       33   1 h                                       1.0870134
    16   6 c       34   1 h                                       1.0878442
    16   6 c       35   1 h                                       1.0908702

 * 4 distinct bonds (by element types)

   Z      Z             #   av. dist./Å        max./Å        min./Å
   1 H    6 C          18     1.0884789     1.0984225     1.0742486
   6 C    6 C           8     1.4821295     1.5434484     1.3208408
   1 H    8 O           2     0.9662624     0.9666896     0.9658351
   6 C    8 O           2     1.4138130     1.4142982     1.4133278

           -------------------------------------------------
          |               Frequency Printout                |
           -------------------------------------------------
 projected vibrational frequencies (cm⁻¹)
eigval :       -0.00    -0.00     0.00     0.00     0.00     0.00
eigval :       65.80    91.75   114.44   119.13   141.82   170.90
eigval :      180.57   218.19   257.87   272.89   287.61   298.11
eigval :      319.27   327.88   344.14   358.83   391.01   424.20
eigval :      445.96   457.66   509.40   539.18   561.01   608.57
eigval :      680.02   685.10   715.74   720.60   794.76   825.56
eigval :      875.45   886.95   892.65   895.61   913.14   934.86
eigval :      942.16   951.43   955.14   999.19  1022.01  1039.86
eigval :     1050.51  1053.88  1064.71  1073.81  1087.24  1098.23
eigval :     1123.63  1135.63  1156.63  1173.55  1194.46  1197.26
eigval :     1206.04  1232.75  1245.94  1246.19  1267.53  1269.93
eigval :     1289.90  1305.28  1308.84  1330.96  1342.94  1349.25
eigval :     1352.36  1365.59  1402.26  1412.35  1423.31  1464.93
eigval :     1477.37  1479.78  1483.13  1492.12  1494.32  1722.03
eigval :     1736.74  2892.37  2917.69  2930.01  2958.33  2963.18
eigval :     2972.37  2981.41  2988.51  2990.17  2992.76  2996.31
eigval :     3006.67  3040.14  3040.49  3095.63  3097.84  3119.73
eigval :     3142.75  3503.00  3515.53
 reduced masses (amu)
   1: 11.93   2: 11.80   3: 11.09   4: 11.00   5: 11.62   6: 10.58   7:  9.56   8:  9.85
   9: 11.54  10: 10.59  11: 11.63  12: 12.00  13:  6.51  14:  5.47  15: 11.03  16:  7.40
  17:  9.22  18:  6.55  19:  9.10  20:  8.47  21:  5.44  22:  4.25  23:  8.20  24: 10.15
  25: 10.31  26:  9.19  27:  8.74  28:  9.40  29:  8.40  30:  9.66  31:  8.26  32:  5.80
  33:  4.80  34:  4.86  35:  9.85  36:  7.55  37:  8.43  38:  7.24  39:  3.95  40:  4.70
  41:  6.35  42:  6.71  43:  7.24  44:  5.54  45:  5.62  46:  6.90  47:  5.75  48:  6.86
  49:  5.35  50:  9.31  51:  5.43  52: 10.43  53:  6.05  54:  6.22  55:  7.92  56:  5.35
  57:  3.48  58:  4.22  59:  6.67  60:  5.62  61:  6.52  62:  7.46  63:  5.32  64:  8.10
  65:  5.71  66:  7.15  67:  4.78  68:  4.67  69:  3.85  70:  4.52  71:  3.91  72:  4.15
  73:  4.51  74:  4.61  75:  2.86  76:  2.35  77:  2.52  78:  1.87  79:  1.59  80:  1.76
  81:  1.84  82:  1.71  83:  1.94  84: 11.22  85: 11.58  86:  1.75  87:  1.76  88:  1.84
  89:  1.77  90:  1.90  91:  1.92  92:  1.64  93:  1.57  94:  1.77  95:  1.68  96:  1.58
  97:  1.75  98:  1.49  99:  1.86 100:  1.71 101:  1.54 102:  2.07 103:  1.89 104:  1.87
 105:  1.87
 IR intensities (km·mol⁻¹)
   1:  0.08   2:  0.03   3:  0.33   4:  0.24   5:  0.20   6:  0.33   7:  0.07   8:  1.37
   9:  2.50  10:  1.82  11:  1.62  12:  0.37  13:  1.25  14:  1.36  15:  0.39  16:  5.72
  17:  0.82  18: 56.66  19:  7.49  20: 16.56  21: 61.49  22:119.00  23: 75.10  24: 11.80
  25: 19.05  26:  0.87  27: 10.99  28:  6.63  29:  3.08  30:  2.34  31:  6.63  32:  4.40
  33:  3.32  34:  6.96  35: 10.20  36:  7.23  37:  0.27  38:  4.61  39: 36.17  40: 17.64
  41: 18.31  42:  0.60  43:  9.63  44:  0.88  45:  1.11  46:  4.99  47: 18.49  48: 58.45
  49: 18.24  50: 25.62  51: 15.65  52:131.56  53: 23.20  54: 25.71  55:  9.26  56:  0.94
  57: 17.29  58: 37.04  59: 13.99  60:  1.46  61:  5.43  62:  8.75  63:  6.94  64: 19.93
  65:  9.55  66: 12.85  67: 13.84  68:  6.01  69: 48.80  70: 20.52  71: 48.45  72: 35.20
  73: 35.02  74:  1.76  75:  7.53  76:  3.91  77: 17.46  78:  0.78  79:  1.82  80:  2.62
  81:  1.79  82:  5.96  83:  0.62  84: 28.72  85: 28.94  86: 68.56  87: 46.67  88: 54.65
  89: 55.06  90: 29.65  91: 85.19  92: 40.75  93: 39.84  94: 74.21  95: 33.43  96: 72.07
  97: 71.20  98: 46.20  99: 17.85 100: 74.68 101: 37.58 102: 58.26 103: 53.87 104: 31.31
 105: 30.38
 Raman intensities (Ä⁴*amu⁻¹)
   1:  0.00   2:  0.00   3:  0.00   4:  0.00   5:  0.00   6:  0.00   7:  0.00   8:  0.00
   9:  0.00  10:  0.00  11:  0.00  12:  0.00  13:  0.00  14:  0.00  15:  0.00  16:  0.00
  17:  0.00  18:  0.00  19:  0.00  20:  0.00  21:  0.00  22:  0.00  23:  0.00  24:  0.00
  25:  0.00  26:  0.00  27:  0.00  28:  0.00  29:  0.00  30:  0.00  31:  0.00  32:  0.00
  33:  0.00  34:  0.00  35:  0.00  36:  0.00  37:  0.00  38:  0.00  39:  0.00  40:  0.00
  41:  0.00  42:  0.00  43:  0.00  44:  0.00  45:  0.00  46:  0.00  47:  0.00  48:  0.00
  49:  0.00  50:  0.00  51:  0.00  52:  0.00  53:  0.00  54:  0.00  55:  0.00  56:  0.00
  57:  0.00  58:  0.00  59:  0.00  60:  0.00  61:  0.00  62:  0.00  63:  0.00  64:  0.00
  65:  0.00  66:  0.00  67:  0.00  68:  0.00  69:  0.00  70:  0.00  71:  0.00  72:  0.00
  73:  0.00  74:  0.00  75:  0.00  76:  0.00  77:  0.00  78:  0.00  79:  0.00  80:  0.00
  81:  0.00  82:  0.00  83:  0.00  84:  0.00  85:  0.00  86:  0.00  87:  0.00  88:  0.00
  89:  0.00  90:  0.00  91:  0.00  92:  0.00  93:  0.00  94:  0.00  95:  0.00  96:  0.00
  97:  0.00  98:  0.00  99:  0.00 100:  0.00 101:  0.00 102:  0.00 103:  0.00 104:  0.00
 105:  0.00
 output can be read by thermo (or use thermo option).
 writing <g98.out> molden fake output.
 recommended (thermochemical) frequency scaling factor: 1.0
           -------------------------------------------------
          |             Thermodynamic Functions             |
           -------------------------------------------------

Molecule has no symmetry elements
It seems to be the C1 point group
c1  symmetry found (for desy threshold:  0.10E+00) used in thermo

          ...................................................
          :                      SETUP                      :
          :.................................................:
          :  # frequencies                          99      :
          :  # imaginary freq.                       0      :
          :  linear?                             false      :
          :  only rotor calc.                    false      :
          :  symmetry                               c1      :
          :  rotational number                       1      :
          :  scaling factor                  1.0000000      :
          :  rotor cutoff                   50.0000000 cm⁻¹ :
          :  imag. cutoff                  -50.0000000 cm⁻¹ :
          :.................................................:

    mode    ω/cm⁻¹     T·S(HO)/kcal·mol⁻¹    T·S(FR)/kcal·mol⁻¹   T·S(vib)
   ------------------------------------------------------------------------
       1     65.80    -1.27464 ( 75.00%)    -0.97511 ( 25.00%)    -1.19975
       2     91.75    -1.08002 ( 91.89%)    -0.87666 (  8.11%)    -1.06354
       3    114.44    -0.95172 ( 96.48%)    -0.81119 (  3.52%)    -0.94678
       4    119.13    -0.92855 ( 96.99%)    -0.79930 (  3.01%)    -0.92467
       5    141.82    -0.82861 ( 98.48%)    -0.74767 (  1.52%)    -0.82738
       6    170.90    -0.72317 ( 99.27%)    -0.69241 (  0.73%)    -0.72294
       7    180.57    -0.69244 ( 99.42%)    -0.67611 (  0.58%)    -0.69235
       8    218.19    -0.58857 ( 99.72%)    -0.62006 (  0.28%)    -0.58866
       9    257.87    -0.49974 ( 99.86%)    -0.57056 (  0.14%)    -0.49984
      10    272.89    -0.47042 ( 99.89%)    -0.55379 (  0.11%)    -0.47051
      11    287.61    -0.44364 ( 99.91%)    -0.53823 (  0.09%)    -0.44372
      12    298.11    -0.42561 ( 99.92%)    -0.52761 (  0.08%)    -0.42569
   ------------------------------------------------------------------------

   temp. (K)  partition function   enthalpy   heat capacity  entropy
                                   cal/mol     cal/K/mol   cal/K/mol   J/K/mol
 298.15  VIB  0.146E+05             7650.014     54.417     44.373
         ROT  0.182E+07              888.752      2.981     31.631
         INT  0.266E+11             8538.767     57.398     76.004
         TR   0.291E+28             1481.254      4.968     41.886
         TOT                       10020.0207    62.3663   117.8900   493.2517

       T/K    H(0)-H(T)+PV         H(T)/Eh          T*S/Eh         G(T)/Eh
   ------------------------------------------------------------------------
    298.15    0.159679E-01    0.317809E+00    0.560133E-01    0.261795E+00
   ------------------------------------------------------------------------

         :::::::::::::::::::::::::::::::::::::::::::::::::::::
         ::                  THERMODYNAMIC                  ::
         :::::::::::::::::::::::::::::::::::::::::::::::::::::
         :: total free energy         -45.901924360965 Eh   ::
         ::.................................................::
         :: total energy              -46.163719529424 Eh   ::
         :: zero point energy           0.301840585127 Eh   ::
         :: G(RRHO) w/o ZPVE           -0.040045416668 Eh   ::
         :: G(RRHO) contrib.            0.261795168459 Eh   ::
         :::::::::::::::::::::::::::::::::::::::::::::::::::::

optimized geometry written to: xtbopt.coord


           -------------------------------------------------
          | TOTAL ENERGY              -46.163719529424 Eh   |
          | TOTAL ENTHALPY            -45.845911024887 Eh   |
          | TOTAL FREE ENERGY         -45.901924360965 Eh   |
          | GRADIENT NORM               0.000041034706 Eh/α |
          | HOMO-LUMO GAP               4.899843101731 eV   |
           -------------------------------------------------

------------------------------------------------------------------------
 * finished run on 2026/08/09 at 17:05:36.331     
------------------------------------------------------------------------
 total:
 * wall-time:     0 d,  0 h,  0 min,  1.209 sec
 *  cpu-time:     0 d,  0 h,  0 min, 14.236 sec
 * ratio c/w:    11.774 speedup
 SCF:
 * wall-time:     0 d,  0 h,  0 min,  0.059 sec
 *  cpu-time:     0 d,  0 h,  0 min,  0.654 sec
 * ratio c/w:    11.148 speedup
 ANC optimizer:
 * wall-time:     0 d,  0 h,  0 min,  0.258 sec
 *  cpu-time:     0 d,  0 h,  0 min,  3.084 sec
 * ratio c/w:    11.966 speedup
 analytical hessian:
 * wall-time:     0 d,  0 h,  0 min,  0.867 sec
 *  cpu-time:     0 d,  0 h,  0 min, 10.251 sec
 * ratio c/w:    11.823 speedup

normal termination of xtb
