
                                 *****************
                                 * O   R   C   A *
                                 *****************

                                            #,                                       
                                            ###                                      
                                            ####                                     
                                            #####                                    
                                            ######                                   
                                           ########,                                 
                                     ,,################,,,,,                         
                               ,,#################################,,                 
                          ,,##########################################,,             
                       ,#########################################, ''#####,          
                    ,#############################################,,   '####,        
                  ,##################################################,,,,####,       
                ,###########''''           ''''###############################       
              ,#####''   ,,,,##########,,,,          '''####'''          '####       
            ,##' ,,,,###########################,,,                        '##       
           ' ,,###''''                  '''############,,,                           
         ,,##''                                '''############,,,,        ,,,,,,###''
      ,#''                                            '''#######################'''  
     '                                                          ''''####''''         
             ,#######,   #######,   ,#######,      ##                                
            ,#'     '#,  ##    ##  ,#'     '#,    #''#        ,####,    ,#,          
            ##       ##  ##   ,#'  ##            #'  '#       #'       ,# #          
            ##       ##  #######   ##           ,######,      #####,      #          
            '#,     ,#'  ##    ##  '#,     ,#' ,#      #,     #,   #      #          
             '#######'   ##     ##  '#######'  #'      '#     '####' #    #          



                #########################################################
                #                        -***-                          #
                #          Department of theory and spectroscopy        #
                #                                                       #
                #                      Frank Neese                      #
                #                                                       #
                #     Directorship, Architecture, Infrastructure        #
                #                    SHARK, DRIVERS                     #
                #        Core code/Algorithms in most modules           #
                #                                                       #
                #        Max Planck Institute fuer Kohlenforschung      #
                #                Kaiser Wilhelm Platz 1                 #
                #                 D-45470 Muelheim/Ruhr                 #
                #                      Germany                          #
                #                                                       #
                #                  All rights reserved                  #
                #                        -***-                          #
                #########################################################


                         Program Version 6.1.1  -  RELEASE   -
                                (GIT: $487d211c$)
                          ($2025-11-21 10:33:24 +0100$)


 With contributions from (in alphabetic order):
[Max-Planck-Institut fuer Kohlenforschung]                               
  Daniel Aravena         : Magnetic Suceptibility                        
  Michael Atanasov       : Ab Initio Ligand Field Theory (pilot matlab implementation)
  Alexander A. Auer      : GIAO ZORA, VPT2 properties, NMR spectrum      
  Ute Becker             : All parallelization in ORCA, NUMFREQ, NUMCALC 
  Giovanni Bistoni       : ED, misc. LED, open-shell LED, HFLD           
  Dmytro Bykov           : pre 5.0 version of the SCF Hessian            
  Marcos Casanova-Páez   : Triplet and SCS-CIS(D). UHF-(DLPNO)-IP/EA/STEOM-CCSD. UHF-CVS-IP/STEOM-CCSD   
  Vijay G. Chilkuri      : MRCI spin determinant printing, contributions to CSF-ICE 
  Pauline Colinet        : FMM embedding                                 
  Dipayan Datta          : RHF DLPNO-CCSD density                        
  Achintya Kumar Dutta   : EOM-CC, STEOM-CC                              
  Nicolas Foglia         : Exact transition moments, OPA infrastructure, MCD improvements    
  Dmitry Ganyushin       : Spin-Orbit,Spin-Spin,Magnetic field MRCI      
  Miquel Garcia-Rates    : C-PCM and meta-GGA Hessian, CCSD/C-PCM, Gaussian charge scheme 
  Tiago L. C. Gouveia    : GS-ROHF, GS-ROCIS                             
  Yang Guo               : DLPNO-NEVPT2, F12-NEVPT2, CIM, IAO-localization        
  Andreas Hansen         : Spin unrestricted coupled pair/coupled cluster methods 
  Ingolf Harden          : AUTO-CI MPn and infrastructure                
  Benjamin Helmich-Paris : MC-RPA, TRAH-(SCF,CASSCF), AVAS, COSX integrals, SCF dyn. polar., MC-PDFT, srDFT 
  Lee Huntington         : MR-EOM, pCC                                   
  Robert Izsak           : Overlap fitted RIJCOSX, COSX-SCS-MP3, EOM     
  Riya Kayal             : Wick's Theorem for AUTO-CI, AUTO-CI UHF-CCSDT 
  Emily Kempfer          : AUTO-CI RHF CISDT and CCSDT, approximate NEVPT4
  Christian Kollmar      : KDIIS, OOCD, Brueckner-CCSD(T), CCSD density, CASPT2, CASPT2-K, improved NEVPT2 
  Axel Koslowski         : Symmetry handling                             
  Simone Kossmann        : meta-GGA functionals, TD-DFT gradient, OOMP2, (MP2 Hessian; deprecated post 5.0) 
  Lucas Lang             : DCDCAS, Hyperfine gauge corrections, ICE-SOC+SSC
  Marvin Lechner         : AUTO-CI (C++ implementation), FIC-MRCC        
  Spencer Leger          : CASSCF response                               
  Dagmar Lenk            : GEPOL surface, SMD, ORCA-2-JSON               
  Dimitrios Liakos       : Extrapolation schemes; Compound Job, Property file
  Dimitrios Manganas     : Further ROCIS development; embedding schemes. LFT, Crystal Embedding 
  Dimitrios Pantazis     : SARC Basis sets                               
  Anastasios Papadopoulos: AUTO-CI, single reference methods and gradients 
  Taras Petrenko         : pre 6.0 DFT Hessian and TD-DFT gradient,  ECA, NRVS 
  Petra Pikulova         : Analytic Raman intensities                    
  Peter Pinski           : DLPNO-MP2, DLPNO-MP2 Gradient                 
  Shashank Vittal Rao    : ES-AILFT, MagRelax                            
  Christoph Reimann      : Effective Core Potentials                     
  Marius Retegan         : Local ZFS, SOC                                
  Christoph Riplinger    : Optimizer, TS searches, QM/MM, DLPNO-CCSD(T), (RO)-DLPNO pert. Triples 
  Michael Roemelt        : Original ROCIS implementation, recursive CI coupling coefficients
  Masaaki Saitow         : Open-shell DLPNO-CCSD energy and density      
  Barbara Sandhoefer     : DKH picture change effects                    
  Yorick L. A. Schmerwitz: GMF and freeze-and-release deltaSCF, NEB S-IDPP initial path                    
  Kantharuban Sivalingam : CASSCF convergence/infrastructure, NEVPT2, NEVPT3, NEVPT4(SD), FIC-MRCI and CEPA variants
  Bernardo de Souza      : ESD, SOC TD-DFT                               
  Georgi L. Stoychev     : AutoAux, RI-MP2 NMR, DLPNO-MP2 response, X2C  
  Van Anh Tran           : RI-MP2 g-tensors                              
  Willem Van den Heuvel  : Paramagnetic NMR                              
  Zikuan Wang            : NOTCH, Electric field optimization            
  Frank Wennmohs         : Technical directorship and infrastructure     
  Hang Xu                : AUTO-CI-Response properties                   
                                                                         
[FACCTs GmbH]                                                            
  Markus Bursch, Nicolas Foglia, Miquel Garcia-Rates, Ingolf Harden, Hagen Neugebauer, Anastasios Papadopoulos, 
  Christoph Riplinger, Bernardo de Souza, Georgi L. Stoychev                                                    
                                                                 
  APM, various basis sets, CI-OPT, improved COSX, DLPNO-Multilevel,           
  DOCKER, DRACO, updates on ESD, Fragmentator, GOAT, IRC, LR-CPCM, L-BFGS, MBIS, meta-GGA TD-DFT gradient, ML-optimized integration grids, 
  MM, NACMEs, nearIR, NEB, NEB-TS, NL-DFT gradient (VV10), 2- and 3-layer-ONIOM, interface openCOSMO-RS, QMMM,   
  Crystal-QMMM, RESP, rigid body optimization, SF, symmetry and pop. for TD-DFT, various functionals, SOLVATOR                                   
                                                                         
[Other institutions]                                                     
  V. Asgeirsson          : NEB                                           
  Christoph Bannwarth    : sTDA-DFT, sTD-DFT, PBEh-3c, B97-3c, D3        
  Giovanni Bistoni       : ETS/NOCV, ADLD/ADEX, COVALED                  
  Martin Brehm           : Molecular dynamics                            
  Ronald Cardenas        : ETS/NOCV                                      
  Martina Colucci        : COVALED                                       
  Sebastian Ehlert       : rSCAN, r2SCAN, r2SCAN-3c, D4, dhf basis sets  
  Marvin Friede          : D4 for Fr, Ra, Ac-Lr                          
  Lars Goerigk           : TD-DFT with DH, B97 family of functionals     
  Stefan Grimme          : VdW corrections, initial TS optimization, DFT functionals, gCP, sTDA/sTD-DF 
  Waldemar Hujo          : DFT-NL                                        
  H. Jonsson             : NEB                                           
  Holger Kruse           : gCP                                           
  Marcel Mueller         : wB97X-3c, vDZP basis set                      
  Hagen Neugebauer       : wr2SCAN, Native XTB                           
  Gianluca Regni         : ADLD/ADEX                                     
  Tobias Risthaus        : pre 6.0 range-separated hybrid DFT and stability analysis
  Lukas Wittmann         : regularized MP2, r2SCAN double-hybrids, wr2SCAN        
                                                                         
We gratefully acknowledge several colleagues who have allowed us to      
interface, adapt or use parts of their codes:                            
  Ed Valeev, F. Pavosevic, A. Kumar             : LibInt (2-el integral package), F12 methods 
  Garnet Chan, S. Sharma, J. Yang, R. Olivares  : DMRG                   
  Ulf Ekstrom                                   : XCFun DFT Library      
  Mihaly Kallay                                 : mrcc  (arbitrary order and MRCC methods)
  Frank Weinhold                                : gennbo (NPA and NBO analysis)           
  Simon Mueller                                 : openCOSMO-RS                            
  Christopher J. Cramer and Donald G. Truhlar   : smd solvation model                     
  S Lehtola, MJT Oliveira, MAL Marques          : LibXC Library                           
  Liviu Ungur et al                             : ANISO software                          


 Your calculation uses the libint2 library for the computation of 2-el integrals
 For citations please refer to: http://libint.valeyev.net

 Your ORCA version has been built with support for libXC version: 7.0.0
 For citations please refer to: https://libxc.gitlab.io

 This ORCA versions uses:
   CBLAS   interface :  Fast vector & matrix operations
   LAPACKE interface :  Fast linear algebra routines
   SCALAPACK package :  Parallel linear algebra routines
   Shared memory     :  Shared parallel matrices
   BLAS/LAPACK       :  OpenBLAS 0.3.29  USE64BITINT DYNAMIC_ARCH NO_AFFINITY Haswell SINGLE_THREADED
        Core in use  :  Haswell
   Copyright (c) 2011-2014, The OpenBLAS Project


  ***********************************
  * Starting time: Sun Aug  9 18:41:07 2026
  * Host name:     localhost.localdomain
  * Process ID:    3059029
  * Working dir.:  /home/dinglab/calculation/templates/NMR_modules/autohnmr/beta_diol_screening/CONF15/b3lyp-3c
  ***********************************

NOTE: MaxCore=2500 MB was set to SCF,MP2,MDCI,CIPSI,MRCI,RASCI and CIS
      => If you want to overwrite this, your respective input block should be placed after the MaxCore statement
Your calculation utilizes the geometrical counterpoise correction gCP
Please cite in your paper:
H.Kruse, S. Grimme J.Chem.Phys., 136, (2012), 154101 
   

Your calculation utilizes the atom-pairwise dispersion correction
with the Becke-Johnson damping scheme (D3BJ)


Warning: RI is on but no J-basis has been assigned. Assigning Def2/J (nothing to worry about!)
================================================================================

----- Orbital basis set information -----
Your calculation utilizes the basis: def2-mSVP

----- AuxJ basis set information -----
Your calculation utilizes the auxiliary basis: def2/J
   H-Rn: F. Weigend, Phys. Chem. Chem. Phys. 8, 1057 (2006).
   Fr-Lr: K. Eichkorn, F. Weigend, O. Treutler, R. Ahlrichs; Theor. Chem. Acc. 97, 119 (1997).

================================================================================
                                        WARNINGS
                       Please study these warnings very carefully!
================================================================================

WARNING: Old DensityContainer found on disk!
         Will remove this file - 
         If you want to keep old densities, please start your calculation with a different basename. 


================================================================================
                                       INPUT FILE
================================================================================
NAME = inp
|  1> ! b3lyp
|  2> ! d3bj ABC
|  3> ! def2-mSVP
|  4> ! GCP(DFT/SV(P))
|  5> ! DEFGRID2
|  6> ! scfconv6
|  7> ! miniprint nopop noautostart
|  8> %MaxCore 2500
|  9> %pal
| 10>     nprocs 12
| 11> end
| 12> ! CPCM(chloroform)
| 13> *xyz 0 1
| 14> C    0.0322723860  -0.7958739872  -0.0351585037
| 15> C    0.6841051284   0.4174345408  -0.8146466908
| 16> C   -0.3705395938   1.5479959463  -1.0243649216
| 17> C   -1.2597760582   1.8339418386   0.2076290774
| 18> C   -1.7914634528   0.5173662610   0.8372760795
| 19> C   -0.6156568356  -0.3607676645   1.3160575395
| 20> C   -1.2608776579  -1.2489547414  -0.7983965365
| 21> C   -2.3887545589  -0.3753804802  -0.2407365056
| 22> O    0.2015492387   0.3321417927   2.2549661559
| 23> C    0.9997987895  -1.9782768423   0.1579680063
| 24> C   -3.6695951454  -0.4010462607  -0.6233784557
| 25> C    2.0425624139   0.9292160084  -0.2943853356
| 26> C    3.1757036022   0.3204431338  -0.6884243495
| 27> H    0.9038321412   0.0068526362  -1.8132185986
| 28> O    1.5092615663  -2.5304567321  -1.0640470185
| 29> C    2.1278993251   2.1693375670   0.5782505796
| 30> H    0.1279817899   2.4722470801  -1.3548641841
| 31> H   -1.0244054946   1.2548597318  -1.8611421240
| 32> H   -0.7115005022   2.4041597879   0.9718705306
| 33> H   -2.1176650545   2.4542627978  -0.0998792086
| 34> H   -2.5067321978   0.7429571891   1.6433646633
| 35> H   -1.0318124634  -1.2716744224   1.7954922894
| 36> H   -1.1629976446  -1.1569536703  -1.8916275351
| 37> H   -1.4764576786  -2.3117584440  -0.5868484073
| 38> H    0.9389716811  -0.2538737866   2.5205090337
| 39> H    0.4839774359  -2.7586105589   0.7531159036
| 40> H    1.8880676799  -1.6630336209   0.7247504652
| 41> H   -4.0214891114  -1.0654947392  -1.4166521087
| 42> H   -4.4186831159   0.2429103795  -0.1562374462
| 43> H    4.1563475176   0.6716551242  -0.3577243302
| 44> H    3.1652651185  -0.5534647806  -1.3419254667
| 45> H    0.7547623455  -2.8929869124  -1.5711089215
| 46> H    1.5568309088   2.0488334557   1.5071191553
| 47> H    3.1749779139   2.3894078696   0.8344872721
| 48> H    1.7239071028   3.0548701457   0.0601183890
| 49> *
| 50> 
| 51>                          ****END OF INPUT****
================================================================================

                       ****************************
                       * Single Point Calculation *
                       ****************************

---------------------------------
CARTESIAN COORDINATES (ANGSTROEM)
---------------------------------
  C      0.032272   -0.795874   -0.035159
  C      0.684105    0.417435   -0.814647
  C     -0.370540    1.547996   -1.024365
  C     -1.259776    1.833942    0.207629
  C     -1.791463    0.517366    0.837276
  C     -0.615657   -0.360768    1.316058
  C     -1.260878   -1.248955   -0.798397
  C     -2.388755   -0.375380   -0.240737
  O      0.201549    0.332142    2.254966
  C      0.999799   -1.978277    0.157968
  C     -3.669595   -0.401046   -0.623378
  C      2.042562    0.929216   -0.294385
  C      3.175704    0.320443   -0.688424
  H      0.903832    0.006853   -1.813219
  O      1.509262   -2.530457   -1.064047
  C      2.127899    2.169338    0.578251
  H      0.127982    2.472247   -1.354864
  H     -1.024405    1.254860   -1.861142
  H     -0.711501    2.404160    0.971871
  H     -2.117665    2.454263   -0.099879
  H     -2.506732    0.742957    1.643365
  H     -1.031812   -1.271674    1.795492
  H     -1.162998   -1.156954   -1.891628
  H     -1.476458   -2.311758   -0.586848
  H      0.938972   -0.253874    2.520509
  H      0.483977   -2.758611    0.753116
  H      1.888068   -1.663034    0.724750
  H     -4.021489   -1.065495   -1.416652
  H     -4.418683    0.242910   -0.156237
  H      4.156348    0.671655   -0.357724
  H      3.165265   -0.553465   -1.341925
  H      0.754762   -2.892987   -1.571109
  H      1.556831    2.048833    1.507119
  H      3.174978    2.389408    0.834487
  H      1.723907    3.054870    0.060118

----------------------------
CARTESIAN COORDINATES (A.U.)
----------------------------
  NO LB      ZA    FRAG     MASS         X           Y           Z
   0 C     6.0000    0    12.011    0.060986   -1.503984   -0.066440
   1 C     6.0000    0    12.011    1.292771    0.788837   -1.539459
   2 C     6.0000    0    12.011   -0.700218    2.925288   -1.935769
   3 C     6.0000    0    12.011   -2.380632    3.465648    0.392362
   4 C     6.0000    0    12.011   -3.385375    0.977681    1.582222
   5 C     6.0000    0    12.011   -1.163423   -0.681752    2.486988
   6 C     6.0000    0    12.011   -2.382713   -2.360182   -1.508751
   7 C     6.0000    0    12.011   -4.514092   -0.709366   -0.454926
   8 O     8.0000    0    15.999    0.380873    0.627657    4.261268
   9 C     6.0000    0    12.011    1.889346   -3.738401    0.298516
  10 C     6.0000    0    12.011   -6.934530   -0.757868   -1.178015
  11 C     6.0000    0    12.011    3.859884    1.755964   -0.556308
  12 C     6.0000    0    12.011    6.001210    0.605550   -1.300933
  13 H     1.0000    0     1.008    1.707995    0.012950   -3.426487
  14 O     8.0000    0    15.999    2.852091   -4.781870   -2.010757
  15 C     6.0000    0    12.011    4.021147    4.099454    1.092735
  16 H     1.0000    0     1.008    0.241851    4.671870   -2.560322
  17 H     1.0000    0     1.008   -1.935846    2.371341   -3.517049
  18 H     1.0000    0     1.008   -1.344541    4.543204    1.836569
  19 H     1.0000    0     1.008   -4.001807    4.637885   -0.188744
  20 H     1.0000    0     1.008   -4.737037    1.403986    3.105509
  21 H     1.0000    0     1.008   -1.949843   -2.403116    3.392989
  22 H     1.0000    0     1.008   -2.197747   -2.186326   -3.574658
  23 H     1.0000    0     1.008   -2.790101   -4.368590   -1.108983
  24 H     1.0000    0     1.008    1.774399   -0.479752    4.763072
  25 H     1.0000    0     1.008    0.914585   -5.213018    1.423183
  26 H     1.0000    0     1.008    3.567931   -3.142678    1.369580
  27 H     1.0000    0     1.008   -7.599513   -2.013493   -2.677085
  28 H     1.0000    0     1.008   -8.350101    0.459034   -0.295246
  29 H     1.0000    0     1.008    7.854359    1.269244   -0.676001
  30 H     1.0000    0     1.008    5.981484   -1.045897   -2.535872
  31 H     1.0000    0     1.008    1.426294   -5.466953   -2.968966
  32 H     1.0000    0     1.008    2.941984    3.871734    2.848042
  33 H     1.0000    0     1.008    5.999839    4.515326    1.576952
  34 H     1.0000    0     1.008    3.257712    5.772868    0.113607



           ************************************************************
           *        Program running with 12 parallel MPI-processes    *
           *              working on a common directory               *
           ************************************************************
------------------------------------------------------------------------------
                   ___                                                        
                  /   \      - P O W E R E D   B Y -                         
                 /     \                                                     
                 |  |  |   _    _      __       _____    __    __             
                 |  |  |  | |  | |    /  \     |  _  \  |  |  /  |          
                  \  \/   | |  | |   /    \    | | | |  |  | /  /          
                 / \  \   | |__| |  /  /\  \   | |_| |  |  |/  /          
                |  |  |   |  __  | /  /__\  \  |    /   |      \           
                |  |  |   | |  | | |   __   |  |    \   |  |\   \          
                \     /   | |  | | |  |  |  |  | |\  \  |  | \   \       
                 \___/    |_|  |_| |__|  |__|  |_| \__\ |__|  \__/        
                                                                              
                      - O R C A' S   B I G   F R I E N D -                    
                                      &                                       
                       - I N T E G R A L  F E E D E R -                       
                                                                              
 v1 FN, 2020, v2 2021, v3 2022-2024                                           
------------------------------------------------------------------------------


----------------------
SHARK INTEGRAL PACKAGE
----------------------

Number of atoms                             ...     35
Number of basis functions                   ...    265
Number of shells                            ...    145
Maximum angular momentum                    ...      2
Integral batch strategy                     ... SHARK/LIBINT Hybrid
RI-J (if used) integral strategy            ... SPLIT-RIJ (Revised 2003 algorithm where possible)
Printlevel                                  ...      1
Contraction scheme used                     ... SEGMENTED contraction
Prescreening option                         ... SCHWARTZ
   Thresh                                   ... 1.000e-10
   Tcut                                     ... 1.000e-11
   Tpresel                                  ... 1.000e-11 
Coulomb Range Separation                    ... NOT USED
Exchange Range Separation                   ... NOT USED
Multipole approximations                    ... NOT USED
Finite Nucleus Model                        ... NOT USED
CABS basis                                  ... NOT available
Auxiliary Coulomb fitting basis             ... AVAILABLE
   # of basis functions in Aux-J            ...    955
   # of shells in Aux-J                     ...    325
   Maximum angular momentum in Aux-J        ...      4
Auxiliary J/K fitting basis                 ... NOT available
Auxiliary Correlation fitting basis         ... NOT available
Auxiliary 'external' fitting basis          ... NOT available

Checking pre-screening integrals            ... done (  0.0 sec) Dimension = 145
   => SHARK Basis and OBASIS are compatible. Storing Pre-screening
Shell pair information
Shell pair cut-off parameter TPreSel        ...   1.0e-11
Total number of shell pairs                 ...     10585
Shell pairs after pre-screening             ...      8875
Total number of primitive shell pairs       ...     38205
Primitive shell pairs kept                  ...     20924
          la=0 lb=0:   3920 shell pairs
          la=1 lb=0:   2757 shell pairs
          la=1 lb=1:    455 shell pairs
          la=2 lb=0:   1211 shell pairs
          la=2 lb=1:    427 shell pairs
          la=2 lb=2:    105 shell pairs

Checking whether 4 symmetric matrices of dimension 265 fit in memory
:Max Core in MB      =   2500.00
 MB in use           =     14.35
 MB left             =   2485.65
 MB needed           =      1.08
 Data fit in memory  = YES
Calculating RI/J V-Matrix + Cholesky decomp.... done (  0.0 sec)
Calculating Nuclear repulsion               ... done (  0.0 sec) ENN=   1110.923645202193 Eh

Diagonalization of the overlap matrix:
Smallest eigenvalue                        ... 1.910e-03
Time for diagonalization                   ...    0.013 sec
Threshold for overlap eigenvalues          ... 1.000e-07
Number of eigenvalues below threshold      ... 0
Time for construction of square roots      ...    0.004 sec
Total time needed                          ...    0.018 sec

-------------------
DFT GRID GENERATION
-------------------

General Integration Accuracy     IntAcc      ... 4.388
Radial Grid Type                 RadialGrid  ... OptM3 with GC (2021)
Angular Grid (max. ang.)         AngularGrid ... 4 (Lebedev-302)
Angular grid pruning method      GridPruning ... 4 (adaptive)
Weight generation scheme         WeightScheme... mBecke (2022)
Basis function cutoff            BFCut       ... 1.0000e-10
Integration weight cutoff        WCut        ... 1.0000e-14
Partially contracted basis set               ... off
Rotationally invariant grid construction     ... off
Angular grids for H and He will be reduced by one unit

Total number of grid points                  ...   152253
Total number of batches                      ...     2398
Average number of points per batch           ...       63
Average number of grid points per atom       ...     4350

--------------------
COSX GRID GENERATION
--------------------

GRIDX 1
-------
General Integration Accuracy     IntAcc      ... 3.816
Radial Grid Type                 RadialGrid  ... OptM3 with GC (2021)
Angular Grid (max. ang.)         AngularGrid ... 1 (Lebedev-50)
Angular grid pruning method      GridPruning ... 4 (adaptive)
Weight generation scheme         WeightScheme... mBecke (2022)
Basis function cutoff            BFCut       ... 1.0000e-10
Integration weight cutoff        WCut        ... 1.0000e-14
Partially contracted basis set               ... on
Rotationally invariant grid construction     ... off
Angular grids for H and He will be reduced by one unit

Total number of grid points                  ...    19386
Total number of batches                      ...      176
Average number of points per batch           ...      110
Average number of grid points per atom       ...      554
UseSFitting                                  ... on

GRIDX 2
-------
General Integration Accuracy     IntAcc      ... 4.020
Radial Grid Type                 RadialGrid  ... OptM3 with GC (2021)
Angular Grid (max. ang.)         AngularGrid ... 2 (Lebedev-110)
Angular grid pruning method      GridPruning ... 4 (adaptive)
Weight generation scheme         WeightScheme... mBecke (2022)
Basis function cutoff            BFCut       ... 1.0000e-10
Integration weight cutoff        WCut        ... 1.0000e-14
Partially contracted basis set               ... on
Rotationally invariant grid construction     ... off
Angular grids for H and He will be reduced by one unit

Total number of grid points                  ...    40596
Total number of batches                      ...      336
Average number of points per batch           ...      120
Average number of grid points per atom       ...     1160
UseSFitting                                  ... on

GRIDX 3
-------
General Integration Accuracy     IntAcc      ... 4.338
Radial Grid Type                 RadialGrid  ... OptM3 with GC (2021)
Angular Grid (max. ang.)         AngularGrid ... 3 (Lebedev-194)
Angular grid pruning method      GridPruning ... 4 (adaptive)
Weight generation scheme         WeightScheme... mBecke (2022)
Basis function cutoff            BFCut       ... 1.0000e-10
Integration weight cutoff        WCut        ... 1.0000e-14
Partially contracted basis set               ... on
Rotationally invariant grid construction     ... off
Angular grids for H and He will be reduced by one unit

Total number of grid points                  ...    88292
Total number of batches                      ...      709
Average number of points per batch           ...      124
Average number of grid points per atom       ...     2523
UseSFitting                                  ... on
Grids setup in   1.8 sec
Initializing property integral containers    ... done (  0.0 sec)

SHARK setup successfully completed in   2.0 seconds

Maximum memory used throughout the entire STARTUP-calculation: 40.5 MB


           ************************************************************
           *        Program running with 12 parallel MPI-processes    *
           *              working on a common directory               *
           ************************************************************
Loading Hartree-Fock densities                     ... done
Calculating cut-offs                               ... done
Initializing the effective Hamiltonian             ... done
Setting up the integral package (SHARK)            ... done
Starting the Coulomb interaction                   ... done (   0.1 sec)
Making the grid                                    ... done (   0.2 sec)
Mapping shells                                     ... done
Starting the XC term evaluation                    ... done (   0.1 sec)
  promolecular density results
     # of electrons  =    113.998412642
     EX              =    -89.148106346
     EC              =     -3.805077156
     EX+EC           =    -92.953183502
Transforming the Hamiltonian                       ... done (   0.0 sec)
Diagonalizing the Hamiltonian                      ... done (   0.0 sec)
Back transforming the eigenvectors                 ... done (   0.0 sec)
Now organizing SCF variables                       ... done
             **** ENERGY FILE WAS UPDATED (inp.en.tmp) ****
Finished Guess after   0.5 sec
Maximum memory used throughout the entire GUESS-calculation: 17.7 MB


           ************************************************************
           *        Program running with 12 parallel MPI-processes    *
           *              working on a common directory               *
           ************************************************************
--------------------
CPCM SOLVATION MODEL
--------------------
CPCM parameters:
  Epsilon                                         ...       4.8030
  Refrac                                          ...       1.4459
  Rsolv                                           ...       1.3000
  Surface type                                    ... GAUSSIAN VDW
  Discretization scheme                           ... Constant charge density
    Threshold for H atoms                         ...       5.0000 (charges/Ang^2)
    Threshold for non-H atoms                     ...       5.0000 (charges/Ang^2)
  Epsilon function type                           ...         CPCM
Solvent:                                          ... CHLOROFORM
Radii:
  Scheme                                          ... Element-dependent radii
  Radius for C  used is    3.8550 Bohr (=   2.0400 Ang.)
  Radius for O  used is    3.4469 Bohr (=   1.8240 Ang.)
  Radius for H  used is    2.4944 Bohr (=   1.3200 Ang.)
Calculating surface                               ...        done! (  0.0s)
Cavity surface points                             ...         2605
Cavity Volume                                     ...    1810.3901
Cavity Surface-area                               ...     904.5996
Calculating surface distance matrix               ...        done! (  0.1s)
Performing Cholesky decomposition & store         ...        done! (  0.2s)
Overall time for CPCM initialization              ...                 0.3s

----------------------------------------D-I-I-S--------------------------------------------
Iteration    Energy (Eh)           Delta-E    RMSDP     MaxDP     DIISErr   Damp  Time(sec)
-------------------------------------------------------------------------------------------
               ***  Starting incremental Fock matrix formation  ***
    1    -656.9374769666992506     0.00e+00  9.16e-03  7.19e-02  2.43e-01  0.700   2.2
    2    -657.1301798523368234    -1.93e-01  6.59e-03  4.11e-02  1.05e-01  0.700   1.3
                               ***Turning on AO-DIIS***
    3    -657.2096212930625825    -7.94e-02  2.59e-03  1.67e-02  3.79e-02  0.700   1.3
    4    -657.2562564022555307    -4.66e-02  4.26e-03  2.39e-02  1.88e-02  0.000   1.2
    5    -657.3575839884465495    -1.01e-01  8.63e-04  5.19e-03  4.98e-03  0.000   1.3
                              *** Initializing SOSCF ***
---------------------------------------S-O-S-C-F--------------------------------------
Iteration    Energy (Eh)           Delta-E    RMSDP     MaxDP     MaxGrad    Time(sec)
--------------------------------------------------------------------------------------
    6    -657.3579449760859461    -3.61e-04  2.81e-04  1.69e-03  1.02e-03     1.2
               *** Restarting incremental Fock matrix formation ***
    7    -657.3579573085235097    -1.23e-05  1.80e-04  1.41e-03  3.70e-04     2.1
    8    -657.3579514214770825     5.89e-06  9.99e-05  7.82e-04  6.90e-04     1.5
    9    -657.3579613709139267    -9.95e-06  1.63e-05  1.42e-04  4.07e-05     1.4
                  *** Gradient check signals convergence ***

               *****************************************************
               *                     SUCCESS                       *
               *           SCF CONVERGED AFTER   9 CYCLES          *
               *****************************************************

Recomputing exchange energy using gridx3       ... done (    2.946 sec)
Old exchange energy                            :    -18.195043232 Eh
New exchange energy                            :    -18.195089617 Eh
Exchange energy change after final integration :     -0.000046385 Eh
Total energy after final integration           :   -657.358007648 Eh
             **** ENERGY FILE WAS UPDATED (inp.en.tmp) ****

----------------
TOTAL SCF ENERGY
----------------

Total Energy       :       -657.35800764795579 Eh          -17887.62078 eV

Components:
Nuclear Repulsion  :       1110.92364520219303 Eh           30229.76924 eV
Electronic Energy  :      -1768.26954786624037 Eh          -48117.06062 eV
One Electron Energy:      -3099.07152031573241 Eh          -84330.02332 eV
Two Electron Energy:       1330.80197244949204 Eh           36212.96270 eV
CPCM Dielectric    :         -0.01205859844149 Eh              -0.32813 eV

Virial components:
Potential Energy   :      -1309.66515265604949 Eh          -35637.80059 eV
Kinetic Energy     :        652.30714500809358 Eh           17750.17982 eV
Virial Ratio       :          2.00774307422280

DFT components:
N(Alpha)           :       57.000174622777 electrons
N(Beta)            :       57.000174622777 electrons
N(Total)           :      114.000349245554 electrons
E(X)               :      -72.169679256571 Eh       
E(C)               :       -4.482048294639 Eh       
E(XC)              :      -76.651727551209 Eh       

CPCM Solvation Model Properties:
Surface-charge          :         -0.02223779384529
Corrected charge        :          0.00000000000000
Outlying charge corr.   :          0.00002452780022 Eh               0.00067 eV
Free-energy (cav+disp)  :  This term is not implemented in the current solvation scheme

---------------
SCF CONVERGENCE
---------------

  Last Energy change         ...    9.9494e-06  Tolerance :   1.0000e-06
  Last MAX-Density change    ...    1.4189e-04  Tolerance :   1.0000e-05
  Last RMS-Density change    ...    1.6348e-05  Tolerance :   1.0000e-06
  Last DIIS Error            ...    1.0164e-03  Tolerance :   1.0000e-06
  Last Orbital Gradient      ...    4.0704e-05  Tolerance :   3.3300e-04
  Last Orbital Rotation      ...    1.3682e-04  Tolerance :   3.3300e-04


----------------
ORBITAL ENERGIES
----------------

  NO   OCC          E(Eh)            E(eV) 
   0   2.0000     -19.133918      -520.6604 
   1   2.0000     -19.129704      -520.5457 
   2   2.0000     -10.224394      -278.2199 
   3   2.0000     -10.215433      -277.9761 
   4   2.0000     -10.187124      -277.2057 
   5   2.0000     -10.185688      -277.1667 
   6   2.0000     -10.181269      -277.0464 
   7   2.0000     -10.179554      -276.9997 
   8   2.0000     -10.178181      -276.9624 
   9   2.0000     -10.177477      -276.9432 
  10   2.0000     -10.167457      -276.6706 
  11   2.0000     -10.166944      -276.6566 
  12   2.0000     -10.162192      -276.5273 
  13   2.0000     -10.156803      -276.3807 
  14   2.0000     -10.153556      -276.2923 
  15   2.0000      -1.012327       -27.5468 
  16   2.0000      -1.003446       -27.3052 
  17   2.0000      -0.855354       -23.2754 
  18   2.0000      -0.795471       -21.6459 
  19   2.0000      -0.758499       -20.6398 
  20   2.0000      -0.747867       -20.3505 
  21   2.0000      -0.714082       -19.4312 
  22   2.0000      -0.672951       -18.3119 
  23   2.0000      -0.668144       -18.1811 
  24   2.0000      -0.652163       -17.7463 
  25   2.0000      -0.602747       -16.4016 
  26   2.0000      -0.584570       -15.9070 
  27   2.0000      -0.551232       -14.9998 
  28   2.0000      -0.526509       -14.3270 
  29   2.0000      -0.514240       -13.9932 
  30   2.0000      -0.484681       -13.1888 
  31   2.0000      -0.482854       -13.1391 
  32   2.0000      -0.467865       -12.7313 
  33   2.0000      -0.453336       -12.3359 
  34   2.0000      -0.438917       -11.9435 
  35   2.0000      -0.431637       -11.7454 
  36   2.0000      -0.424918       -11.5626 
  37   2.0000      -0.406227       -11.0540 
  38   2.0000      -0.403470       -10.9790 
  39   2.0000      -0.402394       -10.9497 
  40   2.0000      -0.397269       -10.8103 
  41   2.0000      -0.392767       -10.6877 
  42   2.0000      -0.374289       -10.1849 
  43   2.0000      -0.370998       -10.0954 
  44   2.0000      -0.360915        -9.8210 
  45   2.0000      -0.351506        -9.5650 
  46   2.0000      -0.342307        -9.3147 
  47   2.0000      -0.332726        -9.0539 
  48   2.0000      -0.322983        -8.7888 
  49   2.0000      -0.319180        -8.6853 
  50   2.0000      -0.302618        -8.2347 
  51   2.0000      -0.295943        -8.0530 
  52   2.0000      -0.290163        -7.8957 
  53   2.0000      -0.265022        -7.2116 
  54   2.0000      -0.253416        -6.8958 
  55   2.0000      -0.240612        -6.5474 
  56   2.0000      -0.230797        -6.2803 
  57   0.0000       0.013592         0.3698 
  58   0.0000       0.025564         0.6956 
  59   0.0000       0.085222         2.3190 
  60   0.0000       0.090424         2.4606 
  61   0.0000       0.120971         3.2918 
  62   0.0000       0.129845         3.5333 
  63   0.0000       0.136385         3.7112 
  64   0.0000       0.140684         3.8282 
  65   0.0000       0.152357         4.1459 
  66   0.0000       0.159408         4.3377 
  67   0.0000       0.168195         4.5768 
*Only the first 10 virtual orbitals were printed.
Total SCF time: 0 days 0 hours 0 min 18 sec 
Finished LeanSCF after  18.3 sec

Maximum memory used throughout the entire LEANSCF-calculation: 31.7 MB


-------------------------------------------------------------------------------
                          DFT DISPERSION CORRECTION                            
                                                                               
                              DFTD3 V3.1  Rev 1                                
                          USING Becke-Johnson damping                          
-------------------------------------------------------------------------------
-------------------------   ----------------
Dispersion correction           -0.074293961
-------------------------   ----------------

NOTIFICATION: Different basis set in ORCA and otool_gcp:
ORCA: 265  gCP: 250 
If you are NOT using ECPs, check your basis set inputs!
------------------   -----------------
gCP correction             0.162632929
------------------   -----------------

-------------------------   --------------------
FINAL SINGLE POINT ENERGY      -657.269668680231
-------------------------   --------------------



           ************************************************************
           *        Program running with 12 parallel MPI-processes    *
           *              working on a common directory               *
           ************************************************************

------------------------------------------------------------------------------
                              ORCA PROPERTY CALCULATIONS
------------------------------------------------------------------------------

GBWName                                 ... inp.gbw
Number of atoms                         ...     35
Number of basis functions               ...    265
Max core memory                         ...   2500 MB

Electric properties:
Dipole moment                           ... YES
Quadrupole moment                       ...  NO
Static polarizability (Dipole/Dipole)   ...  NO
Static polarizability (Dipole/Quad.)    ...  NO
Static polarizability (Quad./Quad.)     ...  NO
Static polarizability (Velocity)        ...  NO
Static hyperpolarizability              ...  NO

Atomic electric properties:
Dipole moment                           ...  NO
Quadrupole moment                       ...  NO
Static polarizability                   ...  NO

Choice of electric origin               ... Center of mass
Position of electric origin             ...     0.002001    -0.003553     0.002872

General magnetic properties:
Magnetizability                         ...  NO

EPR properties:
g-Tensor (aka g-matrix)                 ...  NO
Zero-Field splitting spin-orbit         ...  NO
Zero-field splitting spin-spin          ...  NO
Hyperfine couplings                     ...  NO (   0 nuclei)
Quadrupole couplings                    ...  NO (   0 nuclei)
Contact density                         ...  NO (   0 nuclei)

NMR properties:
Chemical shifts                         ...  NO (   0 nuclei)
Spin-rotation constants                 ...  NO (   0 nuclei)
Spin-spin couplings                     ...  NO (   0 nuclei,    0 pairs)

Choice of magnetic origin               ... GIAO
Position of magnetic origin             ...     0.000000     0.000000     0.000000

Properties with geometric perturbations:
SCF Hessian                             ...  NO
IR spectrum                             ...  NO
VCD spectrum                            ...  NO
X-ray spectroscopy properties:
SCF XES/XAS/RIXS spectra                ...  NO

SCF SOC stabilization energy            ...  NO
Diagonal Born-Oppenheimer correction    ...  NO

-------------
DIPOLE MOMENT
-------------

Method             : SCF
Type of density    : Electron Density
Multiplicity       :   1
Irrep              :   0
Energy             :  -657.3580076479557874 Eh
Basis              : AO
                                X                 Y                 Z
Electronic contribution:     -0.961807772      -4.144475413       1.619320488
Nuclear contribution   :      0.383654244       3.582117095      -1.549938598
                        -----------------------------------------
Total Dipole Moment    :     -0.578153527      -0.562358318       0.069381890
                        -----------------------------------------
Magnitude (a.u.)       :      0.809519750
Magnitude (Debye)      :      2.057635682



--------------------
Rotational spectrum 
--------------------
 
Rotational constants in cm-1:             0.027980             0.019007             0.015166 
Rotational constants in MHz :           838.809758           569.814422           454.673553 

Dipole components along the rotational axes: 
x,y,z [a.u.] :    -0.619303    -0.476636     0.211196 
x,y,z [Debye]:    -1.574144    -1.211513     0.536818 

 

Dipole moment calculation done in   0.0 sec 

Maximum memory used throughout the entire PROP-calculation: 16.6 MB

--------------------------------
SUGGESTED CITATIONS FOR THIS RUN
--------------------------------

Below you find a list of papers that are relevant to this ORCA run
We neither can nor want to force you to cite these papers, but we appreciate if you do
You receive ORCA, which is the product of decades of hard work by many enthusiastic individuals, for free
The only thing we kindly ask in return is that you cite our papers,
We deeply appreciate it, if you show your appreciation for ORCA by not just citing the generic ORCA reference.

Please note that relegating all ORCA citations to the supporting information does *not* help us.
SI sections are not indexed - citations you put there will not count into any citation statistics
But we need these citations in order to attract the funding resources that allow us to do what we are doing

Therefore, if you are a happy ORCA user, please consider citing a few of the papers listed below in the main body of your paper

In addition to the list printed below, the program has created the file inp.bibtex that contains the list in bibtex format
You can import this file easily into all common literature databanks and citation aid programs

It goes without saying that in many instances, there are alternative algorithms to achieve similar
results as the ones you have gotten from ORCA. It is, of course, also the case that in some instances
ORCA just re-implements algorithms worked out by others. We are fully aware of that and we are also
fully appreciative of our colleagues work. Hence this citation list should not be read as indicating
that the listed papers, which are focused on our own work, are the only ones worth citing. It simply
meant to make it easier for users to cite ORCA specific papers. It is not a substitute for doing your
own literature research and citing the relevant literature in a scientifically appropriate manner.

List of essential papers. We consider these as the minimum necessary citations

  1. Neese, F.
     Software update: the ORCA program system, version 6.0
     WIRES Comput. Molec. Sci. 2025 15(1), e70019
     doi.org/10.1002/wcms.70019

List of papers to cite with high priority. The work reported in these papers was absolutely
necessary for this run to complete.
Our perspective: the developers of density functionals and basis sets usually get cited in chemistry papers
Good! But without the algorithms to do something with them, the functionals or basis sets would not do anything.
Hence, in our opinion, the algorithm design and method developments papers are equally worthy of getting cited

  1. Neese, F.
     An improvement of the resolution of the identity approximation for the formation of the Coulomb matrix
     J. Comp. Chem. 2003 24(14), 1740-1747
     doi.org/10.1002/jcc.10318
  2. Neese, F.; Wennmohs, F.; Hansen, A.; Becker, U.
     Efficient, approximate and parallel Hartree-Fock and hybrid DFT calculations. A 'chain-of-spheres' algorithm for the Hartree-Fock exchange
     Chem. Phys. 2009 356(1-3), 98-109
     doi.org/10.1016/j.chemphys.2008.10.036
  3. Grimme, S.; Antony, J.; Ehrlich, S.; Krieg, H.
     A consistent and accurate ab initio parametrization of density functional dispersion correction (DFT-D) for the 94 elements H-Pu
     J. Chem. Phys. 2010 132 , 154104
     doi.org/10.1063/1.3382344
  4. Grimme, S.; Ehrlich, S.; Goerigk, L.
     Effect of the damping function in dispersion corrected density functional theory
     J. Comput. Chem. 2011 32(7), 1456-1465
     doi.org/10.1002/jcc.21759
  5. Garcia-Rates, M.; Neese, F.
     Effect of the Solute Cavity on the Solvation Energy and its Derivatives within the Framework of the Gaussian Charge Scheme
     J. Comput. Chem. 2020 41 , 922-939
     doi.org/10.1002/jcc.26139
  6. Helmich-Paris, B.; de Souza, B.; Neese, F.; Izsák, R.
     An improved chain of spheres for exchange algorithm
     J. Chem. Phys. 2021 155(10), 104109
     doi.org/10.1063/5.0058766
  7. Neese, F.
     The SHARK Integral Generation and Digestion System
     J. Comp. Chem. 2022 44(3), 381
     doi.org/10.1002/jcc.26942

List of suggested additional citations. These are papers that are important in the 'surrounding' of 
of this run, or papers that preceded the highly important papers. If you like your results we are grateful for a citation.

  1. Izsak, R.; Neese, F.
     An overlap fitted chain of spheres exchange method
     J. Chem. Phys. 2011 135 , 144105
     doi.org/10.1063/1.3646921
  2. Izsak, R.; Hansen, A.; Neese, F.
     The resolution of identity and chain of spheres approximations for the LPNO-CCSD singles Fock term
     Molec. Phys. 2012 110 , 2413-2417
     doi.org/10.1080/00268976.2012.687466
  3. Neese, F.
     The ORCA program system
     WIRES Comput. Molec. Sci. 2012 2(1), 73-78
     doi.org/10.1002/wcms.81
  4. Izsak, R.; Neese, F.; Klopper, W.
     Robust fitting techniques in the chain of spheres approximation to the Fock exchange: The role of the complementary space
     J. Chem. Phys. 2013 139 , 
     doi.org/10.1063/1.4819264
  5. Neese, F.
     Software update: the ORCA program system, version 4.0
     WIRES Comput. Molec. Sci. 2018 8(1), 1-6
     doi.org/10.1002/wcms.1327
  6. Neese, F.; Wennmohs, F.; Becker, U.; Riplinger, C.
     The ORCA quantum chemistry program package
     J. Chem. Phys. 2020 152(22), 224108
     doi.org/10.1063/5.0004608
  7. Neese, F.
     Software update: The ORCA program system—Version 5.0
     WIRES Comput. Molec. Sci. 2022 12(1), e1606
     doi.org/10.1002/wcms.1606

List of optional additional citations

  1. Neese, F.
     Approximate second-order SCF convergence for spin unrestricted wavefunctions
     Chem. Phys. Lett. 2000 325(1-3), 93-98
     doi.org/10.1016/s0009-2614(00)00662-x

Timings for individual modules:

Sum of individual times          ...       21.775 sec (=   0.363 min)
Startup calculation              ...        2.254 sec (=   0.038 min)  10.4 %
SCF iterations                   ...       19.202 sec (=   0.320 min)  88.2 %
Property calculations            ...        0.319 sec (=   0.005 min)   1.5 %
                             ****ORCA TERMINATED NORMALLY****
TOTAL RUN TIME: 0 days 0 hours 0 minutes 22 seconds 103 msec
