      -----------------------------------------------------------      
     |                   =====================                   |     
     |                           x T B                           |     
     |                   =====================                   |     
     |                         S. Grimme                         |     
     |          Mulliken Center for Theoretical Chemistry        |     
     |                    University of Bonn                     |     
      -----------------------------------------------------------      

   * xtb version 6.7.1 (edcfbbe) compiled by 'albert@albert-system' on 2024-07-22

   xtb is free software: you can redistribute it and/or modify it under
   the terms of the GNU Lesser General Public License as published by
   the Free Software Foundation, either version 3 of the License, or
   (at your option) any later version.
   
   xtb is distributed in the hope that it will be useful,
   but WITHOUT ANY WARRANTY; without even the implied warranty of
   MERCHANTABILITY or FITNESS FOR A PARTICULAR PURPOSE.  See the
   GNU Lesser General Public License for more details.
   
   Cite this work as:
   * C. Bannwarth, E. Caldeweyher, S. Ehlert, A. Hansen, P. Pracht,
     J. Seibert, S. Spicher, S. Grimme, WIREs Comput. Mol. Sci., 2020, 11,
     e01493. DOI: 10.1002/wcms.1493
   
   for GFN2-xTB:
   * C. Bannwarth, S. Ehlert and S. Grimme., J. Chem. Theory Comput., 2019,
     15, 1652-1671. DOI: 10.1021/acs.jctc.8b01176
   for GFN1-xTB:
   * S. Grimme, C. Bannwarth, P. Shushkov, J. Chem. Theory Comput., 2017,
     13, 1989-2009. DOI: 10.1021/acs.jctc.7b00118
   for GFN0-xTB:
   * P. Pracht, E. Caldeweyher, S. Ehlert, S. Grimme, ChemRxiv, 2019, preprint.
     DOI: 10.26434/chemrxiv.8326202.v1
   for GFN-FF:
   * S. Spicher and S. Grimme, Angew. Chem. Int. Ed., 2020, 59, 15665-15673.
     DOI: 10.1002/anie.202004239
   
   for ALPB and GBSA implicit solvation:
   * S. Ehlert, M. Stahn, S. Spicher, S. Grimme, J. Chem. Theory Comput.,
     2021, 17, 4250-4261. DOI: 10.1021/acs.jctc.1c00471
   
   for ddCOSMO and CPCM-X implicit solvation:
   * M. Stahn, S. Ehlert, S. Grimme, J. Phys. Chem. A,
     2023, XX, XXXX-XXXX. DOI: 10.1021/acs.jpca.3c04382
   
   for DFT-D4:
   * E. Caldeweyher, C. Bannwarth and S. Grimme, J. Chem. Phys., 2017,
     147, 034112. DOI: 10.1063/1.4993215
   * E. Caldeweyher, S. Ehlert, A. Hansen, H. Neugebauer, S. Spicher,
     C. Bannwarth and S. Grimme, J. Chem. Phys., 2019, 150, 154122.
     DOI: 10.1063/1.5090222
   * E. Caldeweyher, J.-M. Mewes, S. Ehlert and S. Grimme, Phys. Chem. Chem. Phys.
     2020, 22, 8499-8512. DOI: 10.1039/D0CP00502A
   
   for sTDA-xTB:
   * S. Grimme and C. Bannwarth, J. Chem. Phys., 2016, 145, 054103.
     DOI: 10.1063/1.4959605
   
   in the mass-spec context:
   * V. Asgeirsson, C. Bauer and S. Grimme, Chem. Sci., 2017, 8, 4879.
     DOI: 10.1039/c7sc00601b
   * J. Koopman and S. Grimme, ACS Omega 2019, 4, 12, 15120-15133.
     DOI: 10.1021/acsomega.9b02011
   
   for metadynamics refer to:
   * S. Grimme, J. Chem. Theory Comput., 2019, 155, 2847-2862
     DOI: 10.1021/acs.jctc.9b00143
   
   for SPH calculations refer to:
   * S. Spicher and S. Grimme, J. Chem. Theory Comput., 2021, 17, 1701-1714
     DOI: 10.1021/acs.jctc.0c01306
   
   for ONIOM refer to:
   * C. Plett, A. Katbashev, S. Ehlert, S. Grimme, M. Bursch,
     Phys. Chem. Chem. Phys., 2023, 25, 17860-17868. DOI: 10.1039/D3CP02178E
   
   for DIPRO refer to:
   * J. Kohn, N. Gildemeister, S. Grimme, D. Fazzi, A. Hansen,
     J. Chem. Phys., 2023, just accepted.
   
   for PTB refer to:
   * S. Grimme, M. Mueller, A. Hansen, J. Chem. Phys., 2023, 158, 124111.
     DOI: 10.1063/5.0137838
   
   with help from (in alphabetical order)
   P. Atkinson, C. Bannwarth, F. Bohle, G. Brandenburg, E. Caldeweyher
   M. Checinski, S. Dohm, S. Ehlert, S. Ehrlich, I. Gerasimov, C. Hölzer
   A. Katbashev, J. Kohn, J. Koopman, C. Lavigne, S. Lehtola, F. März, M. Müller,
   F. Musil, H. Neugebauer, J. Pisarek, C. Plett, P. Pracht, F. Pultar,
   J. Seibert, P. Shushkov, S. Spicher, M. Stahn, M. Steiner, T. Strunk,
   J. Stückrath, T. Rose, and J. Unsleber
   
 * started run on 2026/08/09 at 18:20:24.863     
   ID    Z sym.   atoms
    1    6 c      1-8, 10-13, 16
    2    8 o      9, 15
    3    1 h      14, 17-35

           -------------------------------------------------
          |                Calculation Setup                |
           -------------------------------------------------

          program call               : /home/dinglab/software/xtb_6.7.1/xtb_dist/bin/xtb coord --gfn2 --ohess vtight --alpb chcl3 --chrg 0 --enso --norestart -I xcontrol-inp --parallel 12
          hostname                   : localhost
          coordinate file            : coord
          omp threads                :                    12


           -------------------------------------------------
          |                 G F N 2 - x T B                 |
           -------------------------------------------------

        Reference                      10.1021/acs.jctc.8b01176
      * Hamiltonian:
        H0-scaling (s, p, d)           1.850000    2.230000    2.230000
        zeta-weighting                 0.500000
      * Dispersion:
        s8                             2.700000
        a1                             0.520000
        a2                             5.000000
        s9                             5.000000
      * Repulsion:
        kExp                           1.500000    1.000000
        rExp                           1.000000
      * Coulomb:
        alpha                          2.000000
        third order                    shell-resolved
        anisotropic                    true
        a3                             3.000000
        a5                             4.000000
        cn-shift                       1.200000
        cn-exp                         4.000000
        max-rad                        5.000000

      * Solvation model:               ALPB
        Solvent                        chcl3
        Parameter file                 internal GFN2-xTB/ALPB
        Dielectric constant                4.8100E+00
        Reference state                gsolv [1 M gas/solution]
        Free energy shift                  3.8910E-03 Eh       2.4417E+00 kcal/mol
        Temperature                        2.9815E+02 K
        Density                            1.4900E+00 kg/L
        Solvent mass                       1.1938E+02 g/mol
        Interaction kernel             P16
        Born radius scaling (c1)           1.3274E+00
        Born radii integrator          GBOBC
        Born offset                        0.0000E+00 a0       0.0000E+00 AA
        H-bond correction              false
        Ion screening                  false
        Surface tension                    1.0000E-05 Eh       1.5569E+01 dyn/cm
        Grid points                               974 per atom

          ...................................................
          :                      SETUP                      :
          :.................................................:
          :  # basis functions                  80          :
          :  # atomic orbitals                  80          :
          :  # shells                           50          :
          :  # electrons                        84          :
          :  max. iterations                   250          :
          :  Hamiltonian                  GFN2-xTB          :
          :  restarted?                      false          :
          :  GBSA solvation                   true          :
          :  PC potential                    false          :
          :  electronic temp.          300.0000000     K    :
          :  accuracy                    1.0000000          :
          :  -> integral cutoff          0.2500000E+02      :
          :  -> integral neglect         0.1000000E-07      :
          :  -> SCF convergence          0.1000000E-05 Eh   :
          :  -> wf. convergence          0.1000000E-03 e    :
          :  Broyden damping             0.4000000          :
          :  net charge                          0          :
          :  unpaired electrons                  0          :
          ...................................................

 iter      E             dE          RMSdq      gap      omega  full diag
   1    -46.6588393 -0.466588E+02  0.351E+00    5.00       0.0  T
   2    -46.7012883 -0.424490E-01  0.197E+00    4.87       1.0  T
   3    -46.6973364  0.395188E-02  0.777E-01    4.84       1.0  T
   4    -46.7026195 -0.528306E-02  0.368E-01    4.78       1.0  T
   5    -46.7053262 -0.270674E-02  0.860E-02    4.81       1.0  T
   6    -46.7053981 -0.718314E-04  0.461E-02    4.80       1.0  T
   7    -46.7054051 -0.702690E-05  0.170E-02    4.80       1.0  T
   8    -46.7054078 -0.274873E-05  0.712E-03    4.80       2.4  T
   9    -46.7054089 -0.103711E-05  0.242E-03    4.80       7.0  T
  10    -46.7054089 -0.288430E-07  0.998E-04    4.80      16.9  T
  11    -46.7054089 -0.416711E-08  0.430E-04    4.80      39.3  T

   *** convergence criteria satisfied after 11 iterations ***

         #    Occupation            Energy/Eh            Energy/eV
      -------------------------------------------------------------
         1        2.0000           -0.6955499             -18.9269
       ...           ...                  ...                  ...
        36        2.0000           -0.4219906             -11.4829
        37        2.0000           -0.4163986             -11.3308
        38        2.0000           -0.4149069             -11.2902
        39        2.0000           -0.4087183             -11.1218
        40        2.0000           -0.4045604             -11.0086
        41        2.0000           -0.3885813             -10.5738
        42        2.0000           -0.3798003             -10.3349 (HOMO)
        43                         -0.2033078              -5.5323 (LUMO)
        44                         -0.1999923              -5.4421
        45                         -0.0118370              -0.3221
        46                          0.0048842               0.1329
        47                          0.0211809               0.5764
       ...                                ...                  ...
        80                          0.5997875              16.3210
      -------------------------------------------------------------
                  HL-Gap            0.1764924 Eh            4.8026 eV
             Fermi-level           -0.2915541 Eh           -7.9336 eV

 SCC (total)                   0 d,  0 h,  0 min,  0.077 sec
 SCC setup                      ...        0 min,  0.001 sec (  0.824%)
 Dispersion                     ...        0 min,  0.000 sec (  0.480%)
 classical contributions        ...        0 min,  0.000 sec (  0.035%)
 integral evaluation            ...        0 min,  0.001 sec (  1.776%)
 iterations                     ...        0 min,  0.072 sec ( 92.666%)
 molecular gradient             ...        0 min,  0.003 sec (  3.971%)
 printout                       ...        0 min,  0.000 sec (  0.205%)

         :::::::::::::::::::::::::::::::::::::::::::::::::::::
         ::                     SUMMARY                     ::
         :::::::::::::::::::::::::::::::::::::::::::::::::::::
         :: total energy             -46.147566110928 Eh    ::
         :: total w/o Gsasa/hb       -46.134939914247 Eh    ::
         :: gradient norm              0.051823428981 Eh/a0 ::
         :: HOMO-LUMO gap              4.802603306613 eV    ::
         ::.................................................::
         :: SCC energy               -46.704752454161 Eh    ::
         :: -> isotropic ES            0.060526868453 Eh    ::
         :: -> anisotropic ES          0.009151531392 Eh    ::
         :: -> anisotropic XC          0.019246815777 Eh    ::
         :: -> dispersion             -0.035833426418 Eh    ::
         :: -> Gsolv                  -0.020340083821 Eh    ::
         ::    -> Gelec               -0.007713887139 Eh    ::
         ::    -> Gsasa               -0.016517215925 Eh    ::
         ::    -> Ghb                  0.000000000000 Eh    ::
         ::    -> Gshift               0.003891019244 Eh    ::
         :: repulsion energy           0.557186343232 Eh    ::
         :: add. restraining           0.000000000000 Eh    ::
         :: total charge               0.000000000000 e     ::
         :::::::::::::::::::::::::::::::::::::::::::::::::::::

      ----------------------------------------------------------- 
     |                   =====================                   |
     |                        A N C O P T                        |
     |                   =====================                   |
     |               Approximate Normal Coordinate               |
     |                Rational Function Optimizer                |
      ----------------------------------------------------------- 
      ----------------------------------------------------------- 
     |                   =====================                   |
     |                        A N C O P T                        |
     |                   =====================                   |
     |               Approximate Normal Coordinate               |
     |                Rational Function Optimizer                |
      ----------------------------------------------------------- 

          ...................................................
          :                      SETUP                      :
          :.................................................:
          :   optimization level         verytight          :
          :   max. optcycles                   700          :
          :   ANC micro-cycles                  20          :
          :   degrees of freedom                99          :
          :.................................................:
          :   RF solver                   davidson          :
          :   write xtbopt.log                true          :
          :   linear?                        false          :
          :   energy convergence         0.1000000E-06 Eh   :
          :   grad. convergence          0.2000000E-03 Eh/α :
          :   maxmium RF displ.          1.0000000          :
          :   Hlow (freq-cutoff)         0.1000000E-01      :
          :   Hmax (freq-cutoff)         5.0000000          :
          :   S6 in model hess.         20.0000000          :
          ...................................................

generating ANC from exact Hessian ...
Using Lindh-Hessian (1995)
 Shifting diagonal of input Hessian by   8.926912495323841E-003
 Lowest  eigenvalues of input Hessian
    0.000000    0.000000    0.000000    0.000000    0.000000    0.000000
    0.010000    0.010149    0.011046    0.012107    0.012790    0.013665
    0.014955    0.016043    0.016773    0.017230    0.017958    0.018789
 Highest eigenvalues
    1.398542    1.406976    1.412621    1.462317    1.782738    1.860641
 

........................................................................
.............................. CYCLE    1 ..............................
........................................................................

 iter      E             dE          RMSdq      gap      omega  full diag
   1    -46.7054089 -0.467054E+02  0.105E-04    4.80       0.0  T
   2    -46.7054089 -0.478479E-10  0.628E-05    4.80     269.2  T
   3    -46.7054089  0.255795E-12  0.452E-05    4.80     373.8  T
     SCC iter.                  ...        0 min,  0.005 sec
     gradient                   ...        0 min,  0.003 sec
 * total energy  :   -46.1475661 Eh     change       -0.1083940E-08 Eh
   gradient norm :     0.0518283 Eh/α   predicted     0.0000000E+00 (-100.00%)
   displ. norm   :     0.3060895 α      lambda       -0.9799315E-02
   maximum displ.:     0.1003654 α      in ANC's #25, #39, #30, ...

........................................................................
.............................. CYCLE    2 ..............................
........................................................................

 iter      E             dE          RMSdq      gap      omega  full diag
   1    -46.7563109 -0.467563E+02  0.155E-01    4.94       0.0  T
   2    -46.7563447 -0.338809E-04  0.952E-02    4.94       1.0  T
   3    -46.7563175  0.272038E-04  0.614E-02    4.95       1.0  T
   4    -46.7563808 -0.632326E-04  0.731E-03    4.94       2.3  T
   5    -46.7563813 -0.546176E-06  0.319E-03    4.94       5.3  T
   6    -46.7563813  0.118411E-07  0.170E-03    4.94      10.0  T
   7    -46.7563813 -0.330992E-07  0.614E-04    4.94      27.5  T
   8    -46.7563813 -0.569526E-08  0.216E-04    4.94      78.1  T
     SCC iter.                  ...        0 min,  0.010 sec
     gradient                   ...        0 min,  0.003 sec
 * total energy  :   -46.1538579 Eh     change       -0.6291773E-02 Eh
   gradient norm :     0.0144722 Eh/α   predicted    -0.5359063E-02 ( -14.82%)
   displ. norm   :     0.2403095 α      lambda       -0.1656544E-02
   maximum displ.:     0.1192091 α      in ANC's #4, #10, #2, ...

........................................................................
.............................. CYCLE    3 ..............................
........................................................................

 iter      E             dE          RMSdq      gap      omega  full diag
   1    -46.7754255 -0.467754E+02  0.778E-02    4.97       0.0  T
   2    -46.7754340 -0.852459E-05  0.484E-02    4.97       1.0  T
   3    -46.7754272  0.687165E-05  0.299E-02    4.97       1.0  T
   4    -46.7754425 -0.153659E-04  0.373E-03    4.97       4.5  T
   5    -46.7754427 -0.143620E-06  0.141E-03    4.97      12.0  T
   6    -46.7754427 -0.145537E-08  0.754E-04    4.97      22.4  T
   7    -46.7754427 -0.571233E-08  0.337E-04    4.97      50.2  T
     SCC iter.                  ...        0 min,  0.009 sec
     gradient                   ...        0 min,  0.003 sec
 * total energy  :   -46.1547478 Eh     change       -0.8899434E-03 Eh
   gradient norm :     0.0047552 Eh/α   predicted    -0.8770213E-03 (  -1.45%)
   displ. norm   :     0.1200753 α      lambda       -0.2273428E-03
   maximum displ.:     0.0663546 α      in ANC's #4, #7, #2, ...

........................................................................
.............................. CYCLE    4 ..............................
........................................................................

 iter      E             dE          RMSdq      gap      omega  full diag
   1    -46.7758094 -0.467758E+02  0.413E-02    4.96       0.0  T
   2    -46.7758099 -0.496819E-06  0.245E-02    4.96       1.0  T
   3    -46.7758083  0.154376E-05  0.811E-03    4.96       2.1  T
   4    -46.7758101 -0.180579E-05  0.120E-03    4.96      14.1  T
   5    -46.7758101 -0.157770E-07  0.462E-04    4.96      36.6  T
   6    -46.7758102 -0.649557E-09  0.151E-04    4.96     112.1  T
     SCC iter.                  ...        0 min,  0.008 sec
     gradient                   ...        0 min,  0.003 sec
 * total energy  :   -46.1548687 Eh     change       -0.1208464E-03 Eh
   gradient norm :     0.0028366 Eh/α   predicted    -0.1153131E-03 (  -4.58%)
   displ. norm   :     0.1127113 α      lambda       -0.1229158E-03
   maximum displ.:     0.0733293 α      in ANC's #4, #5, #7, ...

........................................................................
.............................. CYCLE    5 ..............................
........................................................................

 iter      E             dE          RMSdq      gap      omega  full diag
   1    -46.7741179 -0.467741E+02  0.343E-02    4.95       0.0  T
   2    -46.7741182 -0.248260E-06  0.203E-02    4.95       1.0  T
   3    -46.7741180  0.138509E-06  0.314E-03    4.96       5.4  T
   4    -46.7741182 -0.229907E-06  0.960E-04    4.96      17.6  T
   5    -46.7741183 -0.659470E-08  0.396E-04    4.96      42.7  T
     SCC iter.                  ...        0 min,  0.007 sec
     gradient                   ...        0 min,  0.003 sec
 * total energy  :   -46.1549403 Eh     change       -0.7166404E-04 Eh
   gradient norm :     0.0020348 Eh/α   predicted    -0.6225694E-04 ( -13.13%)
   displ. norm   :     0.0644772 α      lambda       -0.4046030E-04
   maximum displ.:     0.0312874 α      in ANC's #4, #5, #7, ...

........................................................................
.............................. CYCLE    6 ..............................
........................................................................

 iter      E             dE          RMSdq      gap      omega  full diag
   1    -46.7733963 -0.467734E+02  0.201E-02    4.96       0.0  T
   2    -46.7733964 -0.934872E-07  0.120E-02    4.96       1.4  T
   3    -46.7733962  0.157700E-06  0.265E-03    4.96       6.4  T
   4    -46.7733964 -0.193488E-06  0.616E-04    4.96      27.4  T
   5    -46.7733964 -0.466491E-08  0.292E-04    4.96      58.0  T
     SCC iter.                  ...        0 min,  0.007 sec
     gradient                   ...        0 min,  0.003 sec
 * total energy  :   -46.1549675 Eh     change       -0.2711381E-04 Eh
   gradient norm :     0.0014024 Eh/α   predicted    -0.2031569E-04 ( -25.07%)
   displ. norm   :     0.1082153 α      lambda       -0.2756793E-04
   maximum displ.:     0.0567067 α      in ANC's #5, #3, #4, ...

........................................................................
.............................. CYCLE    7 ..............................
........................................................................

 iter      E             dE          RMSdq      gap      omega  full diag
   1    -46.7734117 -0.467734E+02  0.316E-02    4.96       0.0  T
   2    -46.7734119 -0.175434E-06  0.188E-02    4.96       1.0  T
   3    -46.7734116  0.341769E-06  0.390E-03    4.96       4.3  T
   4    -46.7734120 -0.424449E-06  0.844E-04    4.96      20.0  T
   5    -46.7734120 -0.521708E-08  0.366E-04    4.96      46.1  T
     SCC iter.                  ...        0 min,  0.007 sec
     gradient                   ...        0 min,  0.003 sec
 * total energy  :   -46.1549884 Eh     change       -0.2091510E-04 Eh
   gradient norm :     0.0013947 Eh/α   predicted    -0.1385598E-04 ( -33.75%)
   displ. norm   :     0.0605412 α      lambda       -0.1418127E-04
   maximum displ.:     0.0341148 α      in ANC's #5, #3, #9, ...

........................................................................
.............................. CYCLE    8 ..............................
........................................................................

 iter      E             dE          RMSdq      gap      omega  full diag
   1    -46.7741231 -0.467741E+02  0.218E-02    4.97       0.0  T
   2    -46.7741232 -0.487592E-07  0.128E-02    4.97       1.3  T
   3    -46.7741231  0.937995E-07  0.205E-03    4.97       8.3  T
   4    -46.7741232 -0.118688E-06  0.353E-04    4.97      47.9  T
   5    -46.7741232 -0.749225E-09  0.186E-04    4.97      91.0  T
     SCC iter.                  ...        0 min,  0.007 sec
     gradient                   ...        0 min,  0.003 sec
 * total energy  :   -46.1550008 Eh     change       -0.1246338E-04 Eh
   gradient norm :     0.0011046 Eh/α   predicted    -0.7102545E-05 ( -43.01%)
   displ. norm   :     0.0703750 α      lambda       -0.1456242E-04
   maximum displ.:     0.0387885 α      in ANC's #5, #3, #7, ...

........................................................................
.............................. CYCLE    9 ..............................
........................................................................

 iter      E             dE          RMSdq      gap      omega  full diag
   1    -46.7745764 -0.467746E+02  0.267E-02    4.97       0.0  T
   2    -46.7745765 -0.679888E-07  0.157E-02    4.97       1.1  T
   3    -46.7745761  0.358694E-06  0.375E-03    4.97       4.5  T
   4    -46.7745765 -0.410544E-06  0.319E-04    4.97      53.0  T
   5    -46.7745765 -0.117315E-08  0.168E-04    4.97     100.4  T
     SCC iter.                  ...        0 min,  0.007 sec
     gradient                   ...        0 min,  0.003 sec
 * total energy  :   -46.1550087 Eh     change       -0.7863122E-05 Eh
   gradient norm :     0.0011617 Eh/α   predicted    -0.7297659E-05 (  -7.19%)
   displ. norm   :     0.0279080 α      lambda       -0.5518034E-05
   maximum displ.:     0.0163489 α      in ANC's #5, #4, #1, ...

........................................................................
.............................. CYCLE   10 ..............................
........................................................................

 iter      E             dE          RMSdq      gap      omega  full diag
   1    -46.7739412 -0.467739E+02  0.121E-02    4.97       0.0  T
   2    -46.7739412 -0.221517E-07  0.716E-03    4.97       2.4  T
   3    -46.7739412  0.592062E-07  0.160E-03    4.97      10.5  T
   4    -46.7739412 -0.709310E-07  0.267E-04    4.97      63.3  T
   5    -46.7739412 -0.630969E-09  0.135E-04    4.97     124.8  T
     SCC iter.                  ...        0 min,  0.007 sec
     gradient                   ...        0 min,  0.003 sec
 * total energy  :   -46.1550126 Eh     change       -0.3926486E-05 Eh
   gradient norm :     0.0005509 Eh/α   predicted    -0.2760500E-05 ( -29.70%)
   displ. norm   :     0.0132613 α      lambda       -0.1422541E-05
   maximum displ.:     0.0080274 α      in ANC's #1, #4, #5, ...

........................................................................
.............................. CYCLE   11 ..............................
........................................................................

 iter      E             dE          RMSdq      gap      omega  full diag
   1    -46.7739368 -0.467739E+02  0.557E-03    4.97       0.0  T
   2    -46.7739368 -0.114640E-07  0.329E-03    4.97       5.1  T
   3    -46.7739368  0.459963E-08  0.516E-04    4.97      32.8  T
   4    -46.7739368 -0.612687E-08  0.185E-04    4.97      91.5  T
     SCC iter.                  ...        0 min,  0.005 sec
     gradient                   ...        0 min,  0.003 sec
 * total energy  :   -46.1550137 Eh     change       -0.1041946E-05 Eh
   gradient norm :     0.0002783 Eh/α   predicted    -0.7128454E-06 ( -31.59%)
   displ. norm   :     0.0092241 α      lambda       -0.4480677E-06
   maximum displ.:     0.0071903 α      in ANC's #1, #14, #2, ...

........................................................................
.............................. CYCLE   12 ..............................
........................................................................

 iter      E             dE          RMSdq      gap      omega  full diag
   1    -46.7740935 -0.467741E+02  0.268E-03    4.97       0.0  T
   2    -46.7740935 -0.228363E-08  0.158E-03    4.97      10.7  T
   3    -46.7740935  0.304877E-08  0.389E-04    4.97      43.5  T
   4    -46.7740935 -0.369350E-08  0.782E-05    4.97     216.2  T
     SCC iter.                  ...        0 min,  0.005 sec
     gradient                   ...        0 min,  0.003 sec
 * total energy  :   -46.1550141 Eh     change       -0.4351834E-06 Eh
   gradient norm :     0.0001393 Eh/α   predicted    -0.2263212E-06 ( -47.99%)
   displ. norm   :     0.0082088 α      lambda       -0.2284661E-06
   maximum displ.:     0.0067695 α      in ANC's #1, #9, #4, ...

........................................................................
.............................. CYCLE   13 ..............................
........................................................................

 iter      E             dE          RMSdq      gap      omega  full diag
   1    -46.7740805 -0.467741E+02  0.211E-03    4.97       0.0  T
   2    -46.7740805 -0.697661E-09  0.125E-03    4.97      13.5  T
   3    -46.7740805  0.248109E-08  0.327E-04    4.97      51.6  T
   4    -46.7740805 -0.290525E-08  0.453E-05    4.97     373.2  T
     SCC iter.                  ...        0 min,  0.005 sec
     gradient                   ...        0 min,  0.003 sec
 * total energy  :   -46.1550143 Eh     change       -0.2297860E-06 Eh
   gradient norm :     0.0001139 Eh/α   predicted    -0.1153148E-06 ( -49.82%)
   displ. norm   :     0.0061565 α      lambda       -0.1187010E-06
   maximum displ.:     0.0051477 α      in ANC's #1, #9, #3, ...

........................................................................
.............................. CYCLE   14 ..............................
........................................................................

 iter      E             dE          RMSdq      gap      omega  full diag
   1    -46.7740350 -0.467740E+02  0.130E-03    4.97       0.0  T
   2    -46.7740350 -0.289333E-09  0.767E-04    4.97      22.0  T
   3    -46.7740350  0.146203E-08  0.252E-04    4.97      67.2  T
     SCC iter.                  ...        0 min,  0.004 sec
     gradient                   ...        0 min,  0.003 sec
 * total energy  :   -46.1550145 Eh     change       -0.1465155E-06 Eh
   gradient norm :     0.0000801 Eh/α   predicted    -0.6092035E-07 ( -58.42%)
   displ. norm   :     0.0063464 α      lambda       -0.9966682E-07
   maximum displ.:     0.0052847 α      in ANC's #1, #9, #3, ...

........................................................................
.............................. CYCLE   15 ..............................
........................................................................

 iter      E             dE          RMSdq      gap      omega  full diag
   1    -46.7740460 -0.467740E+02  0.148E-03    4.97       0.0  T
   2    -46.7740460 -0.237712E-09  0.875E-04    4.97      19.3  T
   3    -46.7740460  0.111073E-08  0.214E-04    4.97      79.1  T
     SCC iter.                  ...        0 min,  0.004 sec
     gradient                   ...        0 min,  0.003 sec
 * total energy  :   -46.1550146 Eh     change       -0.1332057E-06 Eh
   gradient norm :     0.0000437 Eh/α   predicted    -0.5433914E-07 ( -59.21%)
   displ. norm   :     0.0059470 α      lambda       -0.7617224E-07
   maximum displ.:     0.0048290 α      in ANC's #1, #9, #8, ...

........................................................................
.............................. CYCLE   16 ..............................
........................................................................

 iter      E             dE          RMSdq      gap      omega  full diag
   1    -46.7740397 -0.467740E+02  0.153E-03    4.97       0.0  T
   2    -46.7740397 -0.217831E-09  0.901E-04    4.97      18.8  T
   3    -46.7740397  0.663377E-09  0.167E-04    4.97     101.3  T
     SCC iter.                  ...        0 min,  0.004 sec
     gradient                   ...        0 min,  0.003 sec
 * total energy  :   -46.1550147 Eh     change       -0.9413477E-07 Eh
   gradient norm :     0.0000408 Eh/α   predicted    -0.4133716E-07 ( -56.09%)
   displ. norm   :     0.0055526 α      lambda       -0.5780122E-07
   maximum displ.:     0.0045539 α      in ANC's #1, #9, #2, ...

   *** GEOMETRY OPTIMIZATION CONVERGED AFTER 16 ITERATIONS ***

------------------------------------------------------------------------
 total energy gain   :        -0.0074486 Eh       -4.6741 kcal/mol
 total RMSD          :         0.1374264 a0        0.0727 Å
 total power (kW/mol):        -1.2222670 (step)  -83.8595 (real)
------------------------------------------------------------------------

 ANCopt (total)                0 d,  0 h,  0 min,  0.233 sec
 optimizer setup                ...        0 min,  0.000 sec (  0.066%)
 model hessian                  ...        0 min,  0.051 sec ( 22.033%)
 ANC generation                 ...        0 min,  0.002 sec (  0.762%)
 coordinate transformation      ...        0 min,  0.000 sec (  0.097%)
 single point calculation       ...        0 min,  0.176 sec ( 75.269%)
 optimization log               ...        0 min,  0.002 sec (  0.868%)
 hessian update                 ...        0 min,  0.000 sec (  0.100%)
 rational function              ...        0 min,  0.001 sec (  0.469%)

================
 final structure:
================
$coord
        0.06374153118368       -1.46564680442522       -0.05127664722230      c
        1.22959993266344        0.78806019556613       -1.53639528202037      c
       -0.75463228109724        2.88546178616302       -1.88428886066617      c
       -2.35263974222177        3.41059019448697        0.46304717842485      c
       -3.35356203488886        0.93347316250521        1.58324978810224      c
       -1.11870719545649       -0.66654764220329        2.49145619662711      c
       -2.32783177435277       -2.37339751014435       -1.44925388014467      c
       -4.42464752303085       -0.70839500774048       -0.47908374140430      c
        0.42805319239328        0.62904760598324        4.22325190897037      o
        1.95625196280630       -3.62727052441582        0.27962266209809      c
       -6.78301738891536       -0.68733894457175       -1.29447581832588      c
        3.76415728832084        1.72453514889031       -0.56729022116395      c
        5.86530680967083        0.59379188415045       -1.34036597449472      c
        1.63074772765422        0.00454181941819       -3.41309861797486      h
        2.61093174478540       -4.61790081018161       -2.11822582157307      o
        3.91354077692861        3.98525522008503        1.13382424714088      c
        0.17958015017171        4.61567527183568       -2.50167224800334      h
       -2.03025252131688        2.31845511752752       -3.40372364069060      h
       -1.26195900356353        4.38227473701973        1.91157975927906      h
       -3.94431658686973        4.61354356082170       -0.06249303880266      h
       -4.69901786484611        1.32851786131817        3.09536207702545      h
       -1.86106378902293       -2.38189674030029        3.41978334444373      h
       -2.11677738070058       -2.28317971432634       -3.49422591725813      h
       -2.71619354251774       -4.34314977506037       -0.96431308697984      h
        1.85538291754005       -0.42871590918259        4.62855937083975      h
        1.08312190364377       -5.11544302404090        1.44105780323335      h
        3.65685424983682       -2.93886737828265        1.25151126698071      h
       -7.40361350733230       -1.89916918492090       -2.80804075279667      h
       -8.18473459353658        0.54534897761674       -0.48416724739611      h
        7.70730561705371        1.20167221326006       -0.71684127564376      h
        5.83146276537630       -0.98355140935514       -2.62759026797563      h
        3.80504963466984       -5.97404611184058       -1.88072207464323      h
        2.75864350082455        3.72836732819018        2.81019457188953      h
        5.86050501676224        4.30747539777425        1.70922221993423      h
        3.25067361706788        5.66829490009227        0.15310743991249      h
$end
 
 Bond Distances (Angstroems)
 ---------------------------
C1-C2=1.5558         C1-C6=1.5430         C1-C7=1.5426         C1-C10=1.5304        C2-C1=1.5558         C2-C3=1.5389         
C2-C12=1.5190        C2-H14=1.0969        C3-C2=1.5389         C3-C4=1.5282         C3-H17=1.0906        C3-H18=1.0919        
C4-C3=1.5282         C4-C5=1.5330         C4-H19=1.0886        C4-H20=1.0918        C5-C4=1.5330         C5-C6=1.5318         
C5-C8=1.5057         C5-H21=1.0913        C6-C1=1.5430         C6-C5=1.5318         C6-O9=1.4071         C6-H22=1.1044        
C7-C1=1.5426         C7-C8=1.5070         C7-H23=1.0889        C7-H24=1.0930        C8-C5=1.5057         C8-C7=1.5070         
C8-C11=1.3205        O9-C6=1.4071         O9-H25=0.9643        C10-C1=1.5304        C10-O15=1.4159       C10-H26=1.1006       
C10-H27=1.0987       C11-C8=1.3205        C11-H28=1.0773       C11-H29=1.0768       C12-C2=1.5190        C12-C13=1.3273       
C12-C16=1.4993       C13-C12=1.3273       C13-H30=1.0782       C13-H31=1.0775       H14-C2=1.0969        O15-C10=1.4159       
O15-H32=0.9644       C16-C12=1.4993       C16-H33=1.0858       C16-H34=1.0878       C16-H35=1.0888       H17-C3=1.0906        
H18-C3=1.0919        H19-C4=1.0886        H20-C4=1.0918        H21-C5=1.0913        H22-C6=1.1044        H23-C7=1.0889        
H24-C7=1.0930        H25-O9=0.9643        H26-C10=1.1006       H27-C10=1.0987       H28-C11=1.0773       H29-C11=1.0768       
H30-C13=1.0782       H31-C13=1.0775       H32-O15=0.9644       H33-C16=1.0858       H34-C16=1.0878       H35-C16=1.0888       
 C  H  Rav=1.0894 sigma=0.0079  Rmin=1.0768  Rmax=1.1044    18
 C  C  Rav=1.4988 sigma=0.0730  Rmin=1.3205  Rmax=1.5558    14
 O  H  Rav=0.9643 sigma=0.0001  Rmin=0.9643  Rmax=0.9644     2
 O  C  Rav=1.4115 sigma=0.0044  Rmin=1.4071  Rmax=1.4159     2
 
 selected bond angles (degree)
 --------------------
C6-C1-C2=113.03                C7-C1-C2=108.77                C7-C1-C6= 99.84                C10-C1-C2=111.79               
C10-C1-C6=111.74               C10-C1-C7=111.04               C3-C2-C1=110.04                C12-C2-C1=115.45               
C12-C2-C3=114.05               H14-C2-C1=104.14               H14-C2-C3=107.24               H14-C2-C12=104.96              
C4-C3-C2=114.30                H17-C3-C2=109.39               H17-C3-C4=109.98               H18-C3-C2=108.16               
H18-C3-C4=107.84               H18-C3-H17=106.88              C5-C4-C3=110.49                H19-C4-C3=111.40               
H19-C4-C5=108.35               H20-C4-C3=109.02               H20-C4-C5=109.30               H20-C4-H19=108.24              
C6-C5-C4=109.10                C8-C5-C4=110.07                C8-C5-C6=101.48                H21-C5-C4=110.19               
H21-C5-C6=112.30               H21-C5-C8=113.35               C5-C6-C1=101.01                O9-C6-C1=117.75                
O9-C6-C5=112.59                H22-C6-C1=107.87               H22-C6-C5=108.62               H22-C6-O9=108.52               
C8-C7-C1=104.99                H23-C7-C1=112.26               H23-C7-C8=112.86               H24-C7-C1=109.79               
H24-C7-C8=109.82               H24-C7-H23=107.12              C7-C8-C5=107.89                C11-C8-C5=126.00               
C11-C8-C7=126.12               H25-O9-C6=108.52               O15-C10-C1=109.53              H26-C10-C1=108.90              
H26-C10-O15=109.77             H27-C10-C1=109.98              H27-C10-O15=109.99             H27-C10-H26=108.64             
 
 selected dihedral angles (degree)
 ---------------------------------
C3-C2-C1-C6=305.67            C3-C2-C1-C7= 55.58            C3-C2-C1-C10=178.55           C12-C2-C1-C6= 76.51           
C12-C2-C1-C7=186.42           C12-C2-C1-C10=309.39          H14-C2-C1-C6=191.01           H14-C2-C1-C7=300.92           
H14-C2-C1-C10= 63.89          C4-C3-C2-C1= 42.46            C4-C3-C2-C12=270.88           C4-C3-C2-H14=155.14           
H17-C3-C2-C1=166.27           H17-C3-C2-C12= 34.69          H17-C3-C2-H14=278.94          H18-C3-C2-C1=282.33           
H18-C3-C2-C12=150.75          H18-C3-C2-H14= 35.01          C5-C4-C3-C2=311.99            C5-C4-C3-H17=188.51           
C5-C4-C3-H18= 72.30           H19-C4-C3-C2= 72.48           H19-C4-C3-H17=308.99          H19-C4-C3-H18=192.79          
H20-C4-C3-C2=191.86           H20-C4-C3-H17= 68.38          H20-C4-C3-H18=312.17          C6-C5-C4-C3= 64.06            
C6-C5-C4-H19=301.76           C6-C5-C4-H20=184.02           C8-C5-C4-C3=313.52            C8-C5-C4-H19=191.23           
C8-C5-C4-H20= 73.48           H21-C5-C4-C3=187.79           H21-C5-C4-H19= 65.49          H21-C5-C4-H20=307.75          
C5-C6-C1-C2= 67.15            C5-C6-C1-C7=311.78            C5-C6-C1-C10=194.30           O9-C6-C1-C2=304.16            
O9-C6-C1-C7=188.78            O9-C6-C1-C10= 71.31           H22-C6-C1-C2=181.01           H22-C6-C1-C7= 65.63           
H22-C6-C1-C10=308.16          C1-C6-C5-C4=289.23            C1-C6-C5-C8= 45.39            C1-C6-C5-H21=166.76           
O9-C6-C5-C4= 55.72            O9-C6-C5-C8=171.88            O9-C6-C5-H21=293.25           H22-C6-C5-C4=175.93           
H22-C6-C5-C8=292.10           H22-C6-C5-H21= 53.46          C8-C7-C1-C2=274.22            C8-C7-C1-C6= 32.80            
C8-C7-C1-C10=150.80           H23-C7-C1-C2= 37.18           H23-C7-C1-C6=155.76           H23-C7-C1-C10=273.76          
H24-C7-C1-C2=156.22           H24-C7-C1-C6=274.79           H24-C7-C1-C10= 32.80          C7-C8-C5-C4= 90.54            
C7-C8-C5-C6=335.09            C7-C8-C5-H21=214.46           C11-C8-C5-C4=270.66           C11-C8-C5-C6=155.21           
C11-C8-C5-H21= 34.58          C5-C8-C7-C1=354.81            C5-C8-C7-H23=232.23           C5-C8-C7-H24=112.79           
C11-C8-C7-C1=174.69           C11-C8-C7-H23= 52.11          C11-C8-C7-H24=292.67          H25-O9-C6-C1=300.88           
H25-O9-C6-C5=183.97           H25-O9-C6-H22= 63.70          O15-C10-C1-C2=296.47          O15-C10-C1-C6=168.65          
O15-C10-C1-C7= 58.14          H26-C10-C1-C2=176.41          H26-C10-C1-C6= 48.60          H26-C10-C1-C7=298.09          
H27-C10-C1-C2= 57.46          H27-C10-C1-C6=289.65          H27-C10-C1-C7=179.13          
           -------------------------------------------------
          |                Final Singlepoint                |
           -------------------------------------------------

          ...................................................
          :                      SETUP                      :
          :.................................................:
          :  # basis functions                  80          :
          :  # atomic orbitals                  80          :
          :  # shells                           50          :
          :  # electrons                        84          :
          :  max. iterations                   250          :
          :  Hamiltonian                  GFN2-xTB          :
          :  restarted?                      false          :
          :  GBSA solvation                   true          :
          :  PC potential                    false          :
          :  electronic temp.          300.0000000     K    :
          :  accuracy                    1.0000000          :
          :  -> integral cutoff          0.2500000E+02      :
          :  -> integral neglect         0.1000000E-07      :
          :  -> SCF convergence          0.1000000E-05 Eh   :
          :  -> wf. convergence          0.1000000E-03 e    :
          :  Broyden damping             0.4000000          :
          :  net charge                          0          :
          :  unpaired electrons                  0          :
          ...................................................

 iter      E             dE          RMSdq      gap      omega  full diag
   1    -46.7740397 -0.467740E+02  0.283E-05    4.97       0.0  T
   2    -46.7740397 -0.283507E-11  0.177E-05    4.97     952.5  T
   3    -46.7740397 -0.241585E-11  0.118E-05    4.97    1438.4  T

   *** convergence criteria satisfied after 3 iterations ***

         #    Occupation            Energy/Eh            Energy/eV
      -------------------------------------------------------------
         1        2.0000           -0.6987321             -19.0135
       ...           ...                  ...                  ...
        36        2.0000           -0.4216552             -11.4738
        37        2.0000           -0.4157892             -11.3142
        38        2.0000           -0.4128923             -11.2354
        39        2.0000           -0.4080521             -11.1037
        40        2.0000           -0.4038510             -10.9893
        41        2.0000           -0.3892174             -10.5911
        42        2.0000           -0.3806755             -10.3587 (HOMO)
        43                         -0.1980091              -5.3881 (LUMO)
        44                         -0.1942639              -5.2862
        45                          0.0069249               0.1884
        46                          0.0252962               0.6883
        47                          0.0454858               1.2377
       ...                                ...                  ...
        80                          0.6519192              17.7396
      -------------------------------------------------------------
                  HL-Gap            0.1826664 Eh            4.9706 eV
             Fermi-level           -0.2893423 Eh           -7.8734 eV

 SCC (total)                   0 d,  0 h,  0 min,  0.009 sec
 SCC setup                      ...        0 min,  0.000 sec (  5.372%)
 Dispersion                     ...        0 min,  0.000 sec (  1.879%)
 classical contributions        ...        0 min,  0.000 sec (  0.229%)
 integral evaluation            ...        0 min,  0.001 sec ( 11.992%)
 iterations                     ...        0 min,  0.004 sec ( 45.887%)
 molecular gradient             ...        0 min,  0.003 sec ( 33.185%)
 printout                       ...        0 min,  0.000 sec (  1.112%)

         :::::::::::::::::::::::::::::::::::::::::::::::::::::
         ::                     SUMMARY                     ::
         :::::::::::::::::::::::::::::::::::::::::::::::::::::
         :: total energy             -46.155014702329 Eh    ::
         :: total w/o Gsasa/hb       -46.142744957096 Eh    ::
         :: gradient norm              0.000041277950 Eh/a0 ::
         :: HOMO-LUMO gap              4.970605113859 eV    ::
         ::.................................................::
         :: SCC energy               -46.773391581003 Eh    ::
         :: -> isotropic ES            0.060149555571 Eh    ::
         :: -> anisotropic ES          0.006675549755 Eh    ::
         :: -> anisotropic XC          0.016975437881 Eh    ::
         :: -> dispersion             -0.036654369601 Eh    ::
         :: -> Gsolv                  -0.019602247063 Eh    ::
         ::    -> Gelec               -0.007332501829 Eh    ::
         ::    -> Gsasa               -0.016160764477 Eh    ::
         ::    -> Ghb                  0.000000000000 Eh    ::
         ::    -> Gshift               0.003891019244 Eh    ::
         :: repulsion energy           0.618376878674 Eh    ::
         :: add. restraining           0.000000000000 Eh    ::
         :: total charge               0.000000000000 e     ::
         :::::::::::::::::::::::::::::::::::::::::::::::::::::

           ------------------------------------------------- 
          |                Numerical Hessian                |
           ------------------------------------------------- 
step length          :   0.00500
SCC accuracy         :   0.30000
Hessian scale factor :   1.00000
frozen atoms in %    :   0.00000    0
RMS gradient         :   0.00004
estimated CPU  time      1.40 min
estimated wall time      0.12 min

writing file <hessian>.

 projected vibrational frequencies (cm⁻¹)
eigval :       -0.00    -0.00    -0.00    -0.00     0.00     0.00
eigval :       60.88    99.47   103.08   119.47   154.18   181.00
eigval :      206.45   216.26   252.11   271.59   279.41   295.62
eigval :      305.51   314.53   329.13   344.85   383.72   413.71
eigval :      468.30   495.24   505.31   524.02   569.38   594.53
eigval :      611.94   687.68   705.00   724.66   797.70   822.12
eigval :      875.96   888.84   901.34   905.40   926.45   934.41
eigval :      946.31   954.22   966.41   998.19  1016.09  1037.98
eigval :     1043.20  1053.97  1075.96  1084.13  1101.38  1125.85
eigval :     1133.90  1136.60  1152.17  1168.14  1196.61  1210.54
eigval :     1226.43  1242.60  1257.69  1265.86  1266.51  1280.48
eigval :     1294.11  1302.05  1322.78  1331.96  1341.13  1354.00
eigval :     1366.18  1373.42  1395.29  1410.46  1428.28  1463.14
eigval :     1466.70  1475.78  1479.25  1492.07  1504.26  1701.27
eigval :     1740.29  2809.56  2851.70  2890.20  2915.34  2952.18
eigval :     2966.19  2969.55  2975.92  2995.66  3003.54  3010.49
eigval :     3020.91  3033.11  3060.85  3089.17  3098.85  3113.12
eigval :     3120.27  3536.18  3537.87
           -------------------------------------------------
          |                Property Printout                |
           -------------------------------------------------

    * Orbital Energies and Occupations

         #    Occupation            Energy/Eh            Energy/eV
      -------------------------------------------------------------
         1        2.0000           -0.6987321             -19.0135
       ...           ...                  ...                  ...
        30        2.0000           -0.4601844             -12.5223
        31        2.0000           -0.4520038             -12.2996
        32        2.0000           -0.4502597             -12.2522
        33        2.0000           -0.4408797             -11.9969
        34        2.0000           -0.4382155             -11.9245
        35        2.0000           -0.4318665             -11.7517
        36        2.0000           -0.4216552             -11.4738
        37        2.0000           -0.4157892             -11.3142
        38        2.0000           -0.4128923             -11.2354
        39        2.0000           -0.4080521             -11.1037
        40        2.0000           -0.4038510             -10.9893
        41        2.0000           -0.3892174             -10.5911
        42        2.0000           -0.3806755             -10.3587 (HOMO)
        43                         -0.1980091              -5.3881 (LUMO)
        44                         -0.1942639              -5.2862
        45                          0.0069248               0.1884
        46                          0.0252961               0.6883
        47                          0.0454858               1.2377
        48                          0.0504654               1.3732
        49                          0.0735429               2.0012
        50                          0.0818029               2.2260
        51                          0.0886441               2.4121
        52                          0.0908054               2.4709
        53                          0.1037885               2.8242
       ...                                ...                  ...
        80                          0.6519192              17.7396
      -------------------------------------------------------------
                  HL-Gap            0.1826664 Eh            4.9706 eV
             Fermi-level           -0.2893423 Eh           -7.8734 eV

     #   Z          covCN         q      C6AA      α(0)
     1   6 c        3.933    -0.000    20.518     6.437
     2   6 c        3.859    -0.028    21.025     6.521
     3   6 c        3.804    -0.059    21.638     6.622
     4   6 c        3.808    -0.057    21.601     6.616
     5   6 c        3.890    -0.028    21.027     6.519
     6   6 c        3.785     0.117    18.686     6.157
     7   6 c        3.844    -0.071    21.829     6.646
     8   6 c        2.982     0.010    27.791     8.647
     9   8 o        1.655    -0.469    22.227     6.364
    10   6 c        3.676     0.084    19.392     6.309
    11   6 c        2.838    -0.113    30.846     9.102
    12   6 c        2.935     0.014    27.698     8.631
    13   6 c        2.848    -0.116    30.938     9.116
    14   1 h        0.924     0.051     2.310     2.377
    15   8 o        1.655    -0.474    22.334     6.380
    16   6 c        3.760    -0.117    22.790     6.806
    17   1 h        0.924     0.039     2.456     2.451
    18   1 h        0.924     0.037     2.491     2.468
    19   1 h        0.925     0.055     2.259     2.350
    20   1 h        0.924     0.035     2.510     2.478
    21   1 h        0.924     0.040     2.445     2.445
    22   1 h        0.923     0.005     2.978     2.699
    23   1 h        0.925     0.059     2.210     2.325
    24   1 h        0.924     0.050     2.323     2.384
    25   1 h        0.805     0.307     0.701     1.315
    26   1 h        0.923     0.018     2.760     2.598
    27   1 h        0.923     0.023     2.683     2.562
    28   1 h        0.926     0.036     2.496     2.471
    29   1 h        0.926     0.037     2.486     2.465
    30   1 h        0.926     0.024     2.671     2.556
    31   1 h        0.926     0.029     2.594     2.518
    32   1 h        0.805     0.306     0.702     1.316
    33   1 h        0.925     0.069     2.099     2.266
    34   1 h        0.925     0.037     2.492     2.469
    35   1 h        0.925     0.048     2.349     2.397

 Mol. C6AA /au·bohr⁶  :      10409.927210
 Mol. C8AA /au·bohr⁸  :     233805.865729
 Mol. α(0) /au        :        153.781766


Wiberg/Mayer (AO) data.
largest (>0.10) Wiberg bond orders for each atom

 ---------------------------------------------------------------------------
     #   Z sym  total        # sym  WBO       # sym  WBO       # sym  WBO
 ---------------------------------------------------------------------------
     1   6 c    3.988 --    10 c    0.987     7 c    0.980     6 c    0.959
                             2 c    0.957
     2   6 c    3.992 --    12 c    0.997     3 c    0.991    14 h    0.958
                             1 c    0.957
     3   6 c    3.997 --     4 c    1.009     2 c    0.991    18 h    0.976
                            17 h    0.973
     4   6 c    3.995 --     3 c    1.009     5 c    0.979    20 h    0.976
                            19 h    0.970
     5   6 c    3.994 --     8 c    0.995     4 c    0.979     6 c    0.975
                            21 h    0.965
     6   6 c    3.949 --     9 o    0.986     5 c    0.975     1 c    0.959
                            22 h    0.959
     7   6 c    3.995 --     8 c    1.006     1 c    0.980    23 h    0.964
                            24 h    0.959
     8   6 c    3.986 --    11 c    1.936     7 c    1.006     5 c    0.995
     9   8 o    1.959 --     6 c    0.986    25 h    0.888
    10   6 c    3.952 --    15 o    0.988     1 c    0.987    26 h    0.968
                            27 h    0.965
    11   6 c    3.987 --     8 c    1.936    28 h    0.975    29 h    0.975
    12   6 c    3.986 --    13 c    1.922    16 c    1.029     2 c    0.997
    13   6 c    3.987 --    12 c    1.922    30 h    0.976    31 h    0.975
    14   1 h    0.997 --     2 c    0.958
    15   8 o    1.934 --    10 c    0.988    32 h    0.893
    16   6 c    3.995 --    12 c    1.029    34 h    0.984    35 h    0.965
                            33 h    0.960
    17   1 h    0.998 --     3 c    0.973
    18   1 h    0.998 --     3 c    0.976
    19   1 h    0.997 --     4 c    0.970
    20   1 h    0.998 --     4 c    0.976
    21   1 h    0.998 --     5 c    0.965
    22   1 h    1.000 --     6 c    0.959
    23   1 h    0.997 --     7 c    0.964
    24   1 h    0.997 --     7 c    0.959
    25   1 h    0.905 --     9 o    0.888
    26   1 h    0.999 --    10 c    0.968
    27   1 h    0.999 --    10 c    0.965
    28   1 h    0.998 --    11 c    0.975
    29   1 h    0.998 --    11 c    0.975
    30   1 h    0.999 --    13 c    0.976
    31   1 h    0.999 --    13 c    0.975
    32   1 h    0.906 --    15 o    0.893
    33   1 h    0.995 --    16 c    0.960
    34   1 h    0.998 --    16 c    0.984
    35   1 h    0.998 --    16 c    0.965
 ---------------------------------------------------------------------------

Topologies differ in total number of bonds
Writing topology from bond orders to xtbtopo.mol

molecular dipole:
                 x           y           z       tot (Debye)
 q only:        0.171      -0.303       0.221
   full:        0.421      -0.708       0.372       2.296
molecular quadrupole (traceless):
                xx          xy          yy          xz          yz          zz
 q only:       -0.704      -3.597       4.727       3.649      -3.499      -4.023
  q+dip:        1.201      -5.269       5.525       4.475      -4.928      -6.727
   full:        0.218      -5.372       5.891       4.446      -5.482      -6.108

           -------------------------------------------------
          |                Geometry Summary                 |
           -------------------------------------------------

      molecular mass/u    :      208.2971915
   center of mass at/Å    :        0.0003421       0.0004058      -0.0002946
  moments of inertia/u·Å² :        0.5853901E+03   0.8553672E+03   0.1068085E+04
rotational constants/cm⁻¹ :        0.2879726E-01   0.1970806E-01   0.1578305E-01

 * 31 selected distances

     #   Z          #   Z                                           value/Å
     2   6 c        3   6 c                                       1.5389236
     3   6 c        4   6 c                                       1.5281567
     4   6 c        5   6 c                                       1.5330447
     1   6 c        6   6 c                                       1.5430064 (max)
     5   6 c        6   6 c                                       1.5318271
     1   6 c        7   6 c                                       1.5426197
     6   6 c        9   8 o                                       1.4070694
     1   6 c       10   6 c                                       1.5303846
     8   6 c       11   6 c                                       1.3205296
    12   6 c       13   6 c                                       1.3272812
     2   6 c       14   1 h                                       1.0969215
    10   6 c       15   8 o                                       1.4159454
     3   6 c       17   1 h                                       1.0906129
     3   6 c       18   1 h                                       1.0918744
     4   6 c       19   1 h                                       1.0886145
     4   6 c       20   1 h                                       1.0917896
     5   6 c       21   1 h                                       1.0912856
     6   6 c       22   1 h                                       1.1043597
     7   6 c       23   1 h                                       1.0889478
     7   6 c       24   1 h                                       1.0929677
     9   8 o       25   1 h                                       0.9642661 (min)
    10   6 c       26   1 h                                       1.1006308
    10   6 c       27   1 h                                       1.0986661
    11   6 c       28   1 h                                       1.0773081
    11   6 c       29   1 h                                       1.0768374
    13   6 c       30   1 h                                       1.0781798
    13   6 c       31   1 h                                       1.0775099
    15   8 o       32   1 h                                       0.9644182
    16   6 c       33   1 h                                       1.0857805
    16   6 c       34   1 h                                       1.0877880
    16   6 c       35   1 h                                       1.0888484

 * 4 distinct bonds (by element types)

   Z      Z             #   av. dist./Å        max./Å        min./Å
   1 H    6 C          18     1.0893846     1.1043597     1.0768374
   6 C    6 C           9     1.4884193     1.5430064     1.3205296
   1 H    8 O           2     0.9643422     0.9644182     0.9642661
   6 C    8 O           2     1.4115074     1.4159454     1.4070694

           -------------------------------------------------
          |               Frequency Printout                |
           -------------------------------------------------
 projected vibrational frequencies (cm⁻¹)
eigval :       -0.00    -0.00    -0.00    -0.00     0.00     0.00
eigval :       60.88    99.47   103.08   119.47   154.18   181.00
eigval :      206.45   216.26   252.11   271.59   279.41   295.62
eigval :      305.51   314.53   329.13   344.85   383.72   413.71
eigval :      468.30   495.24   505.31   524.02   569.38   594.53
eigval :      611.94   687.68   705.00   724.66   797.70   822.12
eigval :      875.96   888.84   901.34   905.40   926.45   934.41
eigval :      946.31   954.22   966.41   998.19  1016.09  1037.98
eigval :     1043.20  1053.97  1075.96  1084.13  1101.38  1125.85
eigval :     1133.90  1136.60  1152.17  1168.14  1196.61  1210.54
eigval :     1226.43  1242.60  1257.69  1265.86  1266.51  1280.48
eigval :     1294.11  1302.05  1322.78  1331.96  1341.13  1354.00
eigval :     1366.18  1373.42  1395.29  1410.46  1428.28  1463.14
eigval :     1466.70  1475.78  1479.25  1492.07  1504.26  1701.27
eigval :     1740.29  2809.56  2851.70  2890.20  2915.34  2952.18
eigval :     2966.19  2969.55  2975.92  2995.66  3003.54  3010.49
eigval :     3020.91  3033.11  3060.85  3089.17  3098.85  3113.12
eigval :     3120.27  3536.18  3537.87
 reduced masses (amu)
   1: 10.95   2: 11.54   3: 11.50   4: 11.43   5: 10.93   6: 11.35   7:  9.96   8:  9.51
   9: 13.06  10:  9.22  11: 12.00  12:  6.26  13:  9.39  14:  8.87  15:  9.06  16:  4.05
  17:  8.55  18:  5.48  19:  7.49  20:  9.05  21:  8.44  22:  9.05  23:  8.65  24:  8.78
  25:  7.65  26: 10.67  27: 10.73  28:  8.55  29: 10.40  30:  9.42  31: 10.06  32:  7.61
  33:  2.47  34:  3.82  35:  7.64  36:  9.01  37:  8.21  38:  4.12  39:  7.82  40:  3.86
  41:  7.37  42:  6.12  43:  6.87  44:  6.21  45:  6.21  46:  6.72  47:  5.00  48:  7.40
  49:  5.47  50:  7.58  51:  7.22  52:  7.24  53:  8.00  54:  7.99  55:  7.34  56:  6.01
  57:  4.12  58:  4.18  59:  3.88  60:  5.23  61:  4.91  62:  5.78  63:  6.03  64:  7.69
  65:  5.43  66:  7.58  67:  5.16  68:  7.37  69:  5.38  70:  4.10  71:  3.85  72:  4.29
  73:  3.67  74:  4.14  75:  3.06  76:  2.36  77:  2.59  78:  1.81  79:  1.83  80:  1.80
  81:  1.73  82:  1.72  83:  1.84  84: 11.23  85: 11.59  86:  1.71  87:  1.92  88:  1.48
  89:  1.75  90:  1.84  91:  1.79  92:  1.90  93:  1.84  94:  1.54  95:  1.64  96:  1.82
  97:  1.68  98:  1.65  99:  1.65 100:  1.56 101:  1.52 102:  2.04 103:  2.09 104:  1.87
 105:  1.88
 IR intensities (km·mol⁻¹)
   1:  0.17   2:  0.04   3:  0.11   4:  0.17   5:  0.16   6:  0.01   7:  1.39   8:  0.17
   9:  2.56  10:  2.03  11:  2.88  12:  3.41  13:  2.40  14: 10.58  15: 39.58  16:133.82
  17:  9.40  18: 92.23  19: 51.10  20: 52.26  21:  9.95  22:  1.60  23:  2.70  24:  4.40
  25:  0.68  26:  6.84  27:  5.77  28:  2.08  29: 18.69  30:  1.13  31:  0.67  32:  4.90
  33:  0.32  34:  4.83  35:  8.48  36:  8.56  37:  1.17  38: 23.19  39:  6.27  40: 25.15
  41:  2.88  42:  4.99  43:  5.75  44:  6.02  45:  0.29  46:  4.40  47:  9.87  48: 31.40
  49:  3.42  50: 59.55  51: 17.37  52: 17.97  53:  4.99  54: 61.30  55: 22.04  56:104.54
  57: 47.52  58:  6.58  59: 18.78  60: 28.84  61: 23.91  62:  9.01  63:  2.74  64: 54.38
  65:  4.81  66: 10.97  67:  1.76  68: 25.46  69: 11.51  70:  8.31  71:  6.93  72:  8.49
  73: 10.38  74: 21.01  75:  9.61  76:  6.26  77: 11.59  78:  3.07  79:  4.27  80:  7.75
  81:  5.13  82:  1.87  83:  1.10  84: 26.81  85: 30.60  86:140.64  87:106.64  88: 72.81
  89: 51.10  90: 50.05  91: 43.59  92: 63.49  93:102.18  94: 67.05  95: 40.20  96: 52.48
  97: 53.28  98: 52.60  99: 10.95 100: 62.13 101: 39.74 102: 69.23 103: 60.77 104: 39.33
 105: 10.55
 Raman intensities (Ä⁴*amu⁻¹)
   1:  0.00   2:  0.00   3:  0.00   4:  0.00   5:  0.00   6:  0.00   7:  0.00   8:  0.00
   9:  0.00  10:  0.00  11:  0.00  12:  0.00  13:  0.00  14:  0.00  15:  0.00  16:  0.00
  17:  0.00  18:  0.00  19:  0.00  20:  0.00  21:  0.00  22:  0.00  23:  0.00  24:  0.00
  25:  0.00  26:  0.00  27:  0.00  28:  0.00  29:  0.00  30:  0.00  31:  0.00  32:  0.00
  33:  0.00  34:  0.00  35:  0.00  36:  0.00  37:  0.00  38:  0.00  39:  0.00  40:  0.00
  41:  0.00  42:  0.00  43:  0.00  44:  0.00  45:  0.00  46:  0.00  47:  0.00  48:  0.00
  49:  0.00  50:  0.00  51:  0.00  52:  0.00  53:  0.00  54:  0.00  55:  0.00  56:  0.00
  57:  0.00  58:  0.00  59:  0.00  60:  0.00  61:  0.00  62:  0.00  63:  0.00  64:  0.00
  65:  0.00  66:  0.00  67:  0.00  68:  0.00  69:  0.00  70:  0.00  71:  0.00  72:  0.00
  73:  0.00  74:  0.00  75:  0.00  76:  0.00  77:  0.00  78:  0.00  79:  0.00  80:  0.00
  81:  0.00  82:  0.00  83:  0.00  84:  0.00  85:  0.00  86:  0.00  87:  0.00  88:  0.00
  89:  0.00  90:  0.00  91:  0.00  92:  0.00  93:  0.00  94:  0.00  95:  0.00  96:  0.00
  97:  0.00  98:  0.00  99:  0.00 100:  0.00 101:  0.00 102:  0.00 103:  0.00 104:  0.00
 105:  0.00
 output can be read by thermo (or use thermo option).
 writing <g98.out> molden fake output.
 recommended (thermochemical) frequency scaling factor: 1.0
           -------------------------------------------------
          |             Thermodynamic Functions             |
           -------------------------------------------------

Molecule has no symmetry elements
It seems to be the C1 point group
c1  symmetry found (for desy threshold:  0.10E+00) used in thermo

          ...................................................
          :                      SETUP                      :
          :.................................................:
          :  # frequencies                          99      :
          :  # imaginary freq.                       0      :
          :  linear?                             false      :
          :  only rotor calc.                    false      :
          :  symmetry                               c1      :
          :  rotational number                       1      :
          :  scaling factor                  1.0000000      :
          :  rotor cutoff                   50.0000000 cm⁻¹ :
          :  imag. cutoff                  -50.0000000 cm⁻¹ :
          :.................................................:

    mode    ω/cm⁻¹     T·S(HO)/kcal·mol⁻¹    T·S(FR)/kcal·mol⁻¹   T·S(vib)
   ------------------------------------------------------------------------
       1     60.88    -1.32038 ( 68.72%)    -0.99815 ( 31.28%)    -1.21960
       2     99.47    -1.03299 ( 94.00%)    -0.85272 (  6.00%)    -1.02217
       3    103.08    -1.01229 ( 94.75%)    -0.84217 (  5.25%)    -1.00337
       4    119.47    -0.92694 ( 97.02%)    -0.79847 (  2.98%)    -0.92311
       5    154.18    -0.78115 ( 98.91%)    -0.72291 (  1.09%)    -0.78051
       6    181.00    -0.69114 ( 99.42%)    -0.67541 (  0.58%)    -0.69105
       7    206.45    -0.61860 ( 99.66%)    -0.63643 (  0.34%)    -0.61866
       8    216.26    -0.59338 ( 99.72%)    -0.62269 (  0.28%)    -0.59346
       9    252.11    -0.51157 ( 99.85%)    -0.57726 (  0.15%)    -0.51167
      10    271.59    -0.47289 ( 99.89%)    -0.55521 (  0.11%)    -0.47299
      11    279.41    -0.45834 ( 99.90%)    -0.54680 (  0.10%)    -0.45843
      12    295.62    -0.42981 ( 99.92%)    -0.53010 (  0.08%)    -0.42989
   ------------------------------------------------------------------------

   temp. (K)  partition function   enthalpy   heat capacity  entropy
                                   cal/mol     cal/K/mol   cal/K/mol   J/K/mol
 298.15  VIB  0.147E+05             7666.606     54.394     44.373
         ROT  0.177E+07              888.752      2.981     31.567
         INT  0.260E+11             8555.358     57.375     75.939
         TR   0.291E+28             1481.254      4.968     41.886
         TOT                       10036.6120    62.3429   117.8258   492.9830

       T/K    H(0)-H(T)+PV         H(T)/Eh          T*S/Eh         G(T)/Eh
   ------------------------------------------------------------------------
    298.15    0.159944E-01    0.317632E+00    0.559828E-01    0.261649E+00
   ------------------------------------------------------------------------

         :::::::::::::::::::::::::::::::::::::::::::::::::::::
         ::                  THERMODYNAMIC                  ::
         :::::::::::::::::::::::::::::::::::::::::::::::::::::
         :: total free energy         -45.893365661130 Eh   ::
         ::.................................................::
         :: total energy              -46.155014702333 Eh   ::
         :: zero point energy           0.301637499411 Eh   ::
         :: G(RRHO) w/o ZPVE           -0.039988458207 Eh   ::
         :: G(RRHO) contrib.            0.261649041204 Eh   ::
         :::::::::::::::::::::::::::::::::::::::::::::::::::::

optimized geometry written to: xtbopt.coord


           -------------------------------------------------
          | TOTAL ENERGY              -46.155014702333 Eh   |
          | TOTAL ENTHALPY            -45.837382843645 Eh   |
          | TOTAL FREE ENERGY         -45.893365661130 Eh   |
          | GRADIENT NORM               0.000041288695 Eh/α |
          | HOMO-LUMO GAP               4.970604852746 eV   |
           -------------------------------------------------

------------------------------------------------------------------------
 * finished run on 2026/08/09 at 18:20:25.885     
------------------------------------------------------------------------
 total:
 * wall-time:     0 d,  0 h,  0 min,  1.021 sec
 *  cpu-time:     0 d,  0 h,  0 min, 11.848 sec
 * ratio c/w:    11.608 speedup
 SCF:
 * wall-time:     0 d,  0 h,  0 min,  0.078 sec
 *  cpu-time:     0 d,  0 h,  0 min,  0.867 sec
 * ratio c/w:    11.135 speedup
 ANC optimizer:
 * wall-time:     0 d,  0 h,  0 min,  0.243 sec
 *  cpu-time:     0 d,  0 h,  0 min,  2.911 sec
 * ratio c/w:    11.972 speedup
 analytical hessian:
 * wall-time:     0 d,  0 h,  0 min,  0.656 sec
 *  cpu-time:     0 d,  0 h,  0 min,  7.838 sec
 * ratio c/w:    11.947 speedup

normal termination of xtb
