%mem=24GB
%nprocs=12
# B3LYP/6-31G** nmr g09default scf=noincore

Template file

0 1
C          -0.64210000      1.53883000      0.09677000
C          -1.26348000      1.06263000     -1.23450000
C          -2.50052000      0.17779000     -1.15382000
C          -2.18295000     -1.28498000     -0.89935000
C          -1.61473000     -1.56414000      0.49382000
C          -0.20044000     -1.02792000      0.72992000
C          -0.01061000      0.45406000      1.01684000
C           0.52640000      2.50853000     -0.25181000
C           1.75493000      2.03688000      0.50984000
C           1.50927000      0.58204000      0.85176000
O           0.68562000     -1.30546000     -0.36304000
C           1.89131000     -0.53212000     -0.15497000
H          -0.28411000      0.65654000      2.05988000
H           1.99772000      0.37205000      1.81537000
H           0.20631000     -1.56549000      1.59847000
C          -1.60458000     -3.08869000      0.70405000
C           2.41203000     -0.07884000     -1.51650000
C           2.92428000     -1.48734000      0.46460000
C          -1.69425000      2.32306000      0.91169000
H          -1.55352000      1.95658000     -1.80711000
H          -0.51183000      0.56080000     -1.85418000
H          -3.22134000      0.54578000     -0.41798000
H          -3.01394000      0.23440000     -2.12300000
H          -1.50364000     -1.66048000     -1.67678000
H          -3.11687000     -1.84955000     -1.02483000
H          -2.28611000     -1.13880000      1.25074000
H           0.29939000      3.55072000      0.00443000
H           0.74258000      2.50961000     -1.32608000
H           2.67949000      2.20431000     -0.04822000
H           1.83440000      2.61678000      1.43710000
H          -1.28168000     -3.33968000      1.72050000
H          -2.60539000     -3.51195000      0.56675000
H          -0.92697000     -3.58519000      0.00089000
H           1.72950000      0.61450000     -2.01125000
H           3.39503000      0.39546000     -1.43778000
H           2.50102000     -0.93482000     -2.19747000
H           2.54594000     -1.94342000      1.38646000
H           3.14070000     -2.31941000     -0.21683000
H           3.86173000     -0.97061000      0.69238000
H          -2.46139000      1.66007000      1.32485000
H          -1.23287000      2.84485000      1.75769000
H          -2.19363000      3.07849000      0.29324000


