 Entering Gaussian System, Link 0=g16
 Initial command:
 /home/dinglab/software/g16/l1.exe "/home/dinglab/software/g16/scratch/Gau-2686534.inp" -scrdir="/home/dinglab/software/g16/scratch/"
 Default is to use a total of  18 processors:
                               18 via shared-memory
                                1 via Linda
 Entering Link 1 = /home/dinglab/software/g16/l1.exe PID=   2686535.
  
 Copyright (c) 1988,1990,1992,1993,1995,1998,2003,2009,2016,
            Gaussian, Inc.  All Rights Reserved.
  
 This is part of the Gaussian(R) 16 program.  It is based on
 the Gaussian(R) 09 system (copyright 2009, Gaussian, Inc.),
 the Gaussian(R) 03 system (copyright 2003, Gaussian, Inc.),
 the Gaussian(R) 98 system (copyright 1998, Gaussian, Inc.),
 the Gaussian(R) 94 system (copyright 1995, Gaussian, Inc.),
 the Gaussian 92(TM) system (copyright 1992, Gaussian, Inc.),
 the Gaussian 90(TM) system (copyright 1990, Gaussian, Inc.),
 the Gaussian 88(TM) system (copyright 1988, Gaussian, Inc.),
 the Gaussian 86(TM) system (copyright 1986, Carnegie Mellon
 University), and the Gaussian 82(TM) system (copyright 1983,
 Carnegie Mellon University). Gaussian is a federally registered
 trademark of Gaussian, Inc.
  
 This software contains proprietary and confidential information,
 including trade secrets, belonging to Gaussian, Inc.
  
 This software is provided under written license and may be
 used, copied, transmitted, or stored only in accord with that
 written license.
  
 The following legend is applicable only to US Government
 contracts under FAR:
  
                    RESTRICTED RIGHTS LEGEND
  
 Use, reproduction and disclosure by the US Government is
 subject to restrictions as set forth in subparagraphs (a)
 and (c) of the Commercial Computer Software - Restricted
 Rights clause in FAR 52.227-19.
  
 Gaussian, Inc.
 340 Quinnipiac St., Bldg. 40, Wallingford CT 06492
  
  
 ---------------------------------------------------------------
 Warning -- This program may not be used in any manner that
 competes with the business of Gaussian, Inc. or will provide
 assistance to any competitor of Gaussian, Inc.  The licensee
 of this program is prohibited from giving any competitor of
 Gaussian, Inc. access to this program.  By using this program,
 the user acknowledges that Gaussian, Inc. is engaged in the
 business of creating and licensing software in the field of
 computational chemistry and represents and warrants to the
 licensee that it is not a competitor of Gaussian, Inc. and that
 it will not use this program in any manner prohibited above.
 ---------------------------------------------------------------
  

 Cite this work as:
 Gaussian 16, Revision A.03,
 M. J. Frisch, G. W. Trucks, H. B. Schlegel, G. E. Scuseria, 
 M. A. Robb, J. R. Cheeseman, G. Scalmani, V. Barone, 
 G. A. Petersson, H. Nakatsuji, X. Li, M. Caricato, A. V. Marenich, 
 J. Bloino, B. G. Janesko, R. Gomperts, B. Mennucci, H. P. Hratchian, 
 J. V. Ortiz, A. F. Izmaylov, J. L. Sonnenberg, D. Williams-Young, 
 F. Ding, F. Lipparini, F. Egidi, J. Goings, B. Peng, A. Petrone, 
 T. Henderson, D. Ranasinghe, V. G. Zakrzewski, J. Gao, N. Rega, 
 G. Zheng, W. Liang, M. Hada, M. Ehara, K. Toyota, R. Fukuda, 
 J. Hasegawa, M. Ishida, T. Nakajima, Y. Honda, O. Kitao, H. Nakai, 
 T. Vreven, K. Throssell, J. A. Montgomery, Jr., J. E. Peralta, 
 F. Ogliaro, M. J. Bearpark, J. J. Heyd, E. N. Brothers, K. N. Kudin, 
 V. N. Staroverov, T. A. Keith, R. Kobayashi, J. Normand, 
 K. Raghavachari, A. P. Rendell, J. C. Burant, S. S. Iyengar, 
 J. Tomasi, M. Cossi, J. M. Millam, M. Klene, C. Adamo, R. Cammi, 
 J. W. Ochterski, R. L. Martin, K. Morokuma, O. Farkas, 
 J. B. Foresman, and D. J. Fox, Gaussian, Inc., Wallingford CT, 2016.
 
 ******************************************
 Gaussian 16:  ES64L-G16RevA.03 25-Dec-2016
                 9-Aug-2026 
 ******************************************
 %mem=24GB
 %nprocs=12
 Will use up to   12 processors via shared memory.
 ---------------------------------------------------
 # B3LYP/6-31G** nmr(FConly) g09default scf=noincore
 ---------------------------------------------------
 1/38=1,158=3,167=1,172=1/1;
 2/12=2,17=6,18=5,40=1/2;
 3/5=1,6=6,7=101,11=2,25=1,27=10,30=1,74=-5,75=-4,158=3/1,2,3,8;
 4/60=-1/1;
 5/5=4,38=5,87=10/2;
 8/6=1,10=90,11=11,87=10/1;
 10/13=100,20=2,30=2,45=16,47=3,87=10/2;
 6/7=2,8=2,9=2,10=2,28=1,87=10/1;
 99/9=1/99;
 Using 2006 physical constants.
 -------------
 Template file
 -------------
 Symbolic Z-matrix:
 Charge =  0 Multiplicity = 1
 C                    -0.78126   1.5677    0.28407 
 C                    -1.98256   1.19206  -0.61126 
 C                    -1.72833   0.07676  -1.61859 
 C                    -2.06003  -1.30399  -1.06692 
 C                    -1.62115  -1.54522   0.38313 
 C                    -0.20754  -1.04765   0.69903 
 C                    -0.02385   0.42785   1.0353 
 C                     0.30118   2.2926   -0.54678 
 C                     1.59905   2.05011   0.19771 
 C                     1.48101   0.6392    0.76455 
 O                     0.70626  -1.32558  -0.3655 
 C                     1.90243  -0.55606  -0.13034 
 H                    -0.21829   0.53546   2.11245 
 H                     2.04238   0.60711   1.70389 
 H                     0.15027  -1.61382   1.57055 
 C                    -1.7262   -3.05034   0.67649 
 C                     2.5174   -0.22657  -1.49025 
 C                     2.8822   -1.47107   0.62804 
 C                    -1.3175    2.56727   1.34471 
 H                    -2.85807   0.946     0.00138 
 H                    -2.27323   2.08812  -1.17771 
 H                    -2.35887   0.24293  -2.50354 
 H                    -0.70152   0.09301  -1.98965 
 H                    -1.61817  -2.05418  -1.73482 
 H                    -3.14603  -1.45662  -1.12669 
 H                    -2.32268  -1.04817   1.06304 
 H                     0.10246   3.36686  -0.65133 
 H                     0.37325   1.89549  -1.56008 
 H                     2.4795    2.20362  -0.43516 
 H                     1.68404   2.76748   1.02427 
 H                    -1.53856  -3.25191   1.73667 
 H                    -2.72862  -3.42537   0.44137 
 H                    -1.00092  -3.62449   0.08963 
 H                     1.84762   0.37893  -2.10405 
 H                     3.47363   0.29419  -1.38849 
 H                     2.68789  -1.14335  -2.06569 
 H                     3.83098  -0.96196   0.82876 
 H                     2.46368  -1.80747   1.58311 
 H                     3.08745  -2.38028   0.05108 
 H                    -0.51544   2.9582    1.98266 
 H                    -1.80893   3.42456   0.87105 
 H                    -2.05209   2.08338   1.99949 
 
                          Input orientation:                          
 ---------------------------------------------------------------------
 Center     Atomic      Atomic             Coordinates (Angstroms)
 Number     Number       Type             X           Y           Z
 ---------------------------------------------------------------------
      1          6           0       -0.781260    1.567700    0.284070
      2          6           0       -1.982560    1.192060   -0.611260
      3          6           0       -1.728330    0.076760   -1.618590
      4          6           0       -2.060030   -1.303990   -1.066920
      5          6           0       -1.621150   -1.545220    0.383130
      6          6           0       -0.207540   -1.047650    0.699030
      7          6           0       -0.023850    0.427850    1.035300
      8          6           0        0.301180    2.292600   -0.546780
      9          6           0        1.599050    2.050110    0.197710
     10          6           0        1.481010    0.639200    0.764550
     11          8           0        0.706260   -1.325580   -0.365500
     12          6           0        1.902430   -0.556060   -0.130340
     13          1           0       -0.218290    0.535460    2.112450
     14          1           0        2.042380    0.607110    1.703890
     15          1           0        0.150270   -1.613820    1.570550
     16          6           0       -1.726200   -3.050340    0.676490
     17          6           0        2.517400   -0.226570   -1.490250
     18          6           0        2.882200   -1.471070    0.628040
     19          6           0       -1.317500    2.567270    1.344710
     20          1           0       -2.858070    0.946000    0.001380
     21          1           0       -2.273230    2.088120   -1.177710
     22          1           0       -2.358870    0.242930   -2.503540
     23          1           0       -0.701520    0.093010   -1.989650
     24          1           0       -1.618170   -2.054180   -1.734820
     25          1           0       -3.146030   -1.456620   -1.126690
     26          1           0       -2.322680   -1.048170    1.063040
     27          1           0        0.102460    3.366860   -0.651330
     28          1           0        0.373250    1.895490   -1.560080
     29          1           0        2.479500    2.203620   -0.435160
     30          1           0        1.684040    2.767480    1.024270
     31          1           0       -1.538560   -3.251910    1.736670
     32          1           0       -2.728620   -3.425370    0.441370
     33          1           0       -1.000920   -3.624490    0.089630
     34          1           0        1.847620    0.378930   -2.104050
     35          1           0        3.473630    0.294190   -1.388490
     36          1           0        2.687890   -1.143350   -2.065690
     37          1           0        3.830980   -0.961960    0.828760
     38          1           0        2.463680   -1.807470    1.583110
     39          1           0        3.087450   -2.380280    0.051080
     40          1           0       -0.515440    2.958200    1.982660
     41          1           0       -1.808930    3.424560    0.871050
     42          1           0       -2.052090    2.083380    1.999490
 ---------------------------------------------------------------------
                    Distance matrix (angstroms):
                    1          2          3          4          5
     1  C    0.000000
     2  C    1.544617   0.000000
     3  C    2.596143   1.524218   0.000000
     4  C    3.421554   2.538482   1.523429   0.000000
     5  C    3.225756   2.934643   2.578602   1.534097   0.000000
     6  C    2.709502   3.143860   2.991398   2.572160   1.531555
     7  C    1.561177   2.670528   3.173586   3.400680   2.621011
     8  C    1.545143   2.535905   3.190240   4.333742   4.391918
     9  C    2.430237   3.770758   4.273700   5.122318   4.830162
    10  C    2.492155   3.767602   4.036776   4.435001   3.813210
    11  O    3.317488   3.691702   3.076365   2.853912   2.454695
    12  C    3.447359   4.287232   3.974641   4.139767   3.695633
    13  H    2.173805   3.310947   4.051085   4.109012   3.047588
    14  H    3.303266   4.679982   5.053553   5.306549   4.449537
    15  H    3.555960   4.145144   4.069129   3.455093   2.133683
    16  C    4.730032   4.440943   3.878937   2.490112   1.537037
    17  C    4.153164   4.799456   4.258486   4.721537   4.730326
    18  C    4.772146   5.682782   5.357248   5.227470   4.510614
    19  C    1.552949   2.481799   3.892630   4.621035   4.234314
    20  H    2.186221   1.096536   2.157821   2.615452   2.807469
    21  H    2.152583   1.099217   2.129991   3.400609   4.007816
    22  H    3.466214   2.150158   1.099240   2.132169   3.474849
    23  H    2.711249   2.179205   1.091920   2.156059   3.026483
    24  H    4.230171   3.454452   2.136949   1.097322   2.178247
    25  H    4.090097   2.938509   2.145482   1.098301   2.147712
    26  H    3.134573   2.817373   2.968141   2.161286   1.096121
    27  H    2.211993   3.013083   3.887434   5.163905   5.307492
    28  H    2.200279   2.635320   2.779899   4.049782   4.426306
    29  H    3.399153   4.578673   4.861057   5.771463   5.615935
    30  H    2.839907   4.312872   5.086153   5.913375   5.471263
    31  H    5.090402   5.045669   4.730098   3.453468   2.179835
    32  H    5.361688   4.794298   4.184367   2.687416   2.182853
    33  H    5.200471   4.965281   4.140820   2.800722   2.189564
    34  H    3.745304   4.190451   3.621380   4.379222   4.681964
    35  H    4.745880   5.583929   5.211584   5.768794   5.699022
    36  H    4.990608   5.420573   4.603430   4.854492   4.972529
    37  H    5.288537   6.364802   6.162336   6.197950   5.501318
    38  H    4.858900   5.794954   5.601264   5.266887   4.265509
    39  H    5.532427   6.237412   5.658320   5.376325   4.793589
    40  H    2.211189   3.464118   4.768941   5.463695   4.905291
    41  H    2.201949   2.685414   4.172837   5.116441   4.997203
    42  H    2.196270   2.759584   4.149921   4.569158   3.995631
                    6          7          8          9         10
     6  C    0.000000
     7  C    1.524441   0.000000
     8  C    3.601126   2.466965   0.000000
     9  C    3.620940   2.442763   1.515762   0.000000
    10  C    2.387668   1.543560   2.417709   1.525093   0.000000
    11  O    1.430210   2.360046   3.645295   3.536886   2.395331
    12  C    2.319804   2.457102   3.294281   2.644197   1.551473
    13  H    2.122289   1.099836   3.229380   3.043537   2.171455
    14  H    2.968184   2.179095   3.307290   2.132456   1.094772
    15  H    1.099147   2.117835   4.445894   4.172294   2.737993
    16  C    2.513484   3.889029   5.844114   6.107463   4.889443
    17  C    3.590601   3.642063   3.485396   2.979236   2.628267
    18  C    3.119426   3.495266   4.712439   3.772316   2.536771
    19  C    3.836217   2.519203   2.504656   3.176370   3.447564
    20  H    3.389198   3.061090   3.477739   4.596033   4.416353
    21  H    4.197890   3.565616   2.658472   4.109474   4.468340
    22  H    4.068203   4.243808   3.886634   5.121307   5.057877
    23  H    2.962114   3.117960   2.815222   3.729264   3.556315
    24  H    2.987743   4.046714   4.897942   5.561508   4.806877
    25  H    3.483566   4.239509   5.126032   6.047063   5.420217
    26  H    2.146234   2.732037   4.542786   5.072288   4.171855
    27  H    4.626821   3.390937   1.097477   2.166675   3.368270
    28  H    3.755392   3.007932   1.090719   2.148562   2.865188
    29  H    4.367760   3.403289   2.182992   1.095117   2.209909
    30  H    4.270723   2.896701   2.146162   1.097745   2.153660
    31  H    2.776162   4.040656   6.272191   6.350150   5.020314
    32  H    3.475023   4.745086   6.546091   6.983479   5.860560
    33  H    2.764222   4.274391   6.091998   6.242805   4.979412
    34  H    3.757136   3.655176   2.911821   2.855298   2.903620
    35  H    4.439514   4.257345   3.842728   3.018830   2.953836
    36  H    4.004541   4.408894   4.450756   4.062849   3.555883
    37  H    4.041512   4.102919   4.994373   3.801618   2.844327
    38  H    2.914505   3.388887   5.101315   4.189014   2.760774
    39  H    3.612852   4.305168   5.473257   4.676023   3.493844
    40  H    4.217741   2.746238   2.740065   2.912343   3.293534
    41  H    4.753389   3.491956   2.782829   3.735884   4.311992
    42  H    3.859652   2.790018   3.473492   4.071651   4.011674
                   11         12         13         14         15
    11  O    0.000000
    12  C    1.441625   0.000000
    13  H    3.233960   3.273985   0.000000
    14  H    3.130955   2.176454   2.298409   0.000000
    15  H    2.034821   2.661193   2.246975   2.920683   0.000000
    16  C    3.158703   4.476535   4.146533   5.351139   2.526672
    17  C    2.398565   1.528433   4.587389   3.335146   4.110506
    18  C    2.396457   1.540238   3.980286   2.486279   2.893466
    19  C    4.709002   4.722172   2.434325   3.906409   4.436988
    20  H    4.242538   4.993585   3.404937   5.198826   4.250304
    21  H    4.603302   5.052208   4.178359   5.396434   5.208709
    22  H    4.052957   4.942584   5.096569   6.099680   5.132398
    23  H    2.575287   3.264794   4.154094   4.629851   4.039039
    24  H    2.794436   4.148897   4.844315   5.683909   3.774489
    25  H    3.928959   5.224047   4.799174   6.260253   4.262090
    26  H    3.360381   4.417905   2.835067   4.712153   2.587085
    27  H    4.739754   4.347485   3.969658   4.114191   5.454009
    28  H    3.451552   3.223763   3.960692   3.885797   4.708059
    29  H    3.950251   2.835799   4.068310   2.704709   4.901126
    30  H    4.431778   3.525158   3.128084   2.292922   4.674041
    31  H    3.628923   4.753288   4.028461   5.264622   2.358619
    32  H    4.105917   5.477811   4.978196   6.373170   3.583960
    33  H    2.899413   4.230023   4.691428   5.456551   2.749756
    34  H    2.688980   2.184661   4.698016   3.819739   4.511622
    35  H    3.365784   2.185071   5.093630   3.421872   4.841605
    36  H    2.617386   2.169663   5.359211   4.206011   4.459047
    37  H    3.364870   2.191788   4.504078   2.535138   3.810879
    38  H    2.667925   2.194753   3.600345   2.454033   2.321535
    39  H    2.637422   2.182880   4.866077   3.570497   3.394595
    40  H    5.035591   4.760345   2.444343   3.485367   4.638574
    41  H    5.515348   5.533743   3.523934   4.843990   5.450967
    42  H    4.982237   5.209707   2.402424   4.362504   4.324774
                   16         17         18         19         20
    16  C    0.000000
    17  C    5.538644   0.000000
    18  C    4.871734   2.483750   0.000000
    19  C    5.671957   5.527115   5.870203   0.000000
    20  H    4.208044   5.700488   6.259843   2.608909   0.000000
    21  H    5.490088   5.329691   6.519741   2.739636   1.742621
    22  H    4.621525   5.002519   6.341404   4.614763   2.649176
    23  H    4.247225   3.273069   4.705496   4.197541   3.056550
    24  H    2.611211   4.528014   5.116293   5.561628   3.681416
    25  H    2.794158   5.806861   6.278443   5.063895   2.669840
    26  H    2.124593   5.533597   5.240119   3.763128   2.321740
    27  H    6.803496   4.410041   5.724448   2.576782   3.879605
    28  H    5.819894   3.017515   4.734599   3.427496   3.712293
    29  H    6.821127   2.649618   3.846545   4.209203   5.501075
    30  H    6.752608   3.997704   4.422431   3.025229   4.999486
    31  H    1.095363   6.001375   4.893217   5.836553   4.730199
    32  H    1.095799   6.440823   5.944362   6.222461   4.395364
    33  H    1.095483   5.140083   4.472776   6.325610   4.934184
    34  H    5.680095   1.091781   3.457914   5.167278   5.186321
    35  H    6.518302   1.093582   2.744508   5.965920   6.515138
    36  H    5.535373   1.095757   2.720540   6.437599   6.276610
    37  H    5.938583   2.764796   1.095292   6.263267   7.004874
    38  H    4.463382   3.456541   1.095665   5.787271   6.197136
    39  H    4.900137   2.709081   1.096209   6.749468   6.812915
    40  H    6.266943   5.603747   5.744335   1.096862   3.669105
    41  H    6.478351   6.133810   6.784758   1.095812   2.828477
    42  H    5.311461   6.196321   6.233956   1.096590   2.436325
                   21         22         23         24         25
    21  H    0.000000
    22  H    2.273738   0.000000
    23  H    2.666455   1.741657   0.000000
    24  H    4.230618   2.533038   2.348534   0.000000
    25  H    3.650968   2.324609   3.020212   1.749645   0.000000
    26  H    3.854831   3.793250   3.639968   3.055554   2.374796
    27  H    2.748846   4.387228   3.627062   5.789835   5.834776
    28  H    2.680890   3.329497   2.142101   4.426757   4.879529
    29  H    4.811773   5.615365   4.121893   6.050527   6.747011
    30  H    4.579327   5.929917   4.682670   6.462629   6.767513
    31  H    6.127746   5.555735   5.076868   3.673165   3.742440
    32  H    5.764319   4.718648   4.732652   2.801618   2.551278
    33  H    5.988225   4.850309   4.269994   2.485053   3.283381
    34  H    4.556407   4.227605   2.567675   4.250654   5.409345
    35  H    6.024036   5.938352   4.223002   5.617937   6.852282
    36  H    5.986954   5.251978   3.608666   4.413756   5.917304
    37  H    7.112685   7.132337   5.440584   6.120304   7.262723
    38  H    6.725776   6.645437   5.137600   5.266026   6.239788
    39  H    7.086142   6.562752   4.963672   5.043673   6.410660
    40  H    3.719517   5.558499   4.901345   6.337162   6.006554
    41  H    2.489792   4.670445   4.528707   6.069888   5.441022
    42  H    3.184890   4.874284   4.658202   5.590417   4.847815
                   26         27         28         29         30
    26  H    0.000000
    27  H    5.320983   0.000000
    28  H    4.776393   1.750452   0.000000
    29  H    5.989964   2.655217   2.407629   0.000000
    30  H    5.533037   2.380816   3.026120   1.755173   0.000000
    31  H    2.434151   7.225206   6.404632   7.115087   6.864818
    32  H    2.490450   7.439314   6.476029   7.718701   7.626449
    33  H    3.054832   7.116561   5.922843   6.808494   6.995702
    34  H    5.427566   3.752826   2.183947   2.552246   3.939329
    35  H    6.434993   4.620551   3.493703   2.354369   3.891170
    36  H    5.907946   5.387658   3.853278   3.728842   5.084305
    37  H    6.158722   5.901797   5.082074   3.666727   4.307702
    38  H    4.874039   6.110792   5.287859   4.490268   4.674431
    39  H    5.662869   6.514074   5.314596   4.649535   5.423660
    40  H    4.490303   2.736185   3.803962   3.922360   2.406782
    41  H    4.506230   2.444255   3.606987   4.646236   3.557537
    42  H    3.279750   3.649144   4.311394   5.145608   3.921443
                   31         32         33         34         35
    31  H    0.000000
    32  H    1.767522   0.000000
    33  H    1.772178   1.774350   0.000000
    34  H    6.276969   6.472545   5.380872   0.000000
    35  H    6.889376   7.459988   6.128824   1.778515   0.000000
    36  H    6.063567   6.389957   4.940524   1.739213   1.772712
    37  H    5.907633   7.017607   5.566205   3.785905   2.573288
    38  H    4.257689   5.557081   4.187541   4.330707   3.777219
    39  H    5.000092   5.922095   4.273677   3.714163   3.061746
    40  H    6.298631   6.929914   6.866663   5.379394   5.862958
    41  H    6.737778   6.924738   7.138109   5.612258   6.542949
    42  H    5.366387   5.764699   6.110017   5.912016   6.724075
                   36         37         38         39         40
    36  H    0.000000
    37  H    3.117274   0.000000
    38  H    3.715517   1.775793   0.000000
    39  H    2.484021   1.780240   1.750519   0.000000
    40  H    6.593419   5.965778   5.634395   6.723926   0.000000
    41  H    7.050648   7.145063   6.792375   7.638263   1.768130
    42  H    7.028861   6.727200   5.975305   7.080638   1.768300
                   41         42
    41  H    0.000000
    42  H    1.769539   0.000000
 Stoichiometry    C15H26O
 Framework group  C1[X(C15H26O)]
 Deg. of freedom   120
 Full point group                 C1      NOp   1
 Largest Abelian subgroup         C1      NOp   1
 Largest concise Abelian subgroup C1      NOp   1
                         Standard orientation:                         
 ---------------------------------------------------------------------
 Center     Atomic      Atomic             Coordinates (Angstroms)
 Number     Number       Type             X           Y           Z
 ---------------------------------------------------------------------
      1          6           0        0.145310    1.750048   -0.242542
      2          6           0        1.427605    1.820934    0.615675
      3          6           0        1.630697    0.667126    1.590724
      4          6           0        2.428038   -0.482283    0.987449
      5          6           0        2.063714   -0.834068   -0.460642
      6          6           0        0.557109   -0.882945   -0.731592
      7          6           0       -0.164575    0.429500   -1.015457
      8          6           0       -1.101364    2.007528    0.633229
      9          6           0       -2.242391    1.322894   -0.092626
     10          6           0       -1.633166    0.067362   -0.707762
     11          8           0       -0.158184   -1.501517    0.341359
     12          6           0       -1.559720   -1.219564    0.155659
     13          1           0       -0.056264    0.625926   -2.092176
     14          1           0       -2.172329   -0.146752   -1.636194
     15          1           0        0.404988   -1.520554   -1.613883
     16          6           0        2.703773   -2.188318   -0.805335
     17          6           0       -2.210552   -1.170454    1.537727
     18          6           0       -2.158981   -2.412489   -0.612552
     19          6           0        0.245239    2.900993   -1.280323
     20          1           0        2.313128    1.927709   -0.022165
     21          1           0        1.387066    2.747741    1.205306
     22          1           0        2.183397    1.032574    2.467822
     23          1           0        0.681235    0.296716    1.982651
     24          1           0        2.312458   -1.357575    1.639079
     25          1           0        3.495742   -0.226960    1.020365
     26          1           0        2.513146   -0.098576   -1.137800
     27          1           0       -1.306886    3.077006    0.769002
     28          1           0       -0.991783    1.588295    1.634180
     29          1           0       -3.097982    1.127774    0.562488
     30          1           0       -2.609620    1.977954   -0.893303
     31          1           0        2.570544   -2.420044   -1.867584
     32          1           0        3.780609   -2.174553   -0.602827
     33          1           0        2.257640   -3.002065   -0.223214
     34          1           0       -1.790632   -0.375778    2.157520
     35          1           0       -3.293722   -1.034842    1.472340
     36          1           0       -2.015578   -2.098901    2.086047
     37          1           0       -3.233994   -2.282681   -0.777358
     38          1           0       -1.675873   -2.549527   -1.586364
     39          1           0       -1.999058   -3.346691   -0.061767
     40          1           0       -0.663467    2.984905   -1.888861
     41          1           0        0.402754    3.867593   -0.788716
     42          1           0        1.085540    2.735859   -1.965256
 ---------------------------------------------------------------------
 Rotational constants (GHZ):           0.6425461           0.5974905           0.4096151
 Standard basis: 6-31G(d,p) (6D, 7F)
 There are   370 symmetry adapted cartesian basis functions of A   symmetry.
 There are   370 symmetry adapted basis functions of A   symmetry.
   370 basis functions,   630 primitive gaussians,   370 cartesian basis functions
    62 alpha electrons       62 beta electrons
       nuclear repulsion energy      1300.3550317879 Hartrees.
 NAtoms=   42 NActive=   42 NUniq=   42 SFac= 1.00D+00 NAtFMM=   60 NAOKFM=F Big=F
 Integral buffers will be    131072 words long.
 Raffenetti 2 integral format.
 Two-electron integral symmetry is turned on.
 One-electron integrals computed using PRISM.
 NBasis=   370 RedAO= T EigKep=  1.14D-03  NBF=   370
 NBsUse=   370 1.00D-06 EigRej= -1.00D+00 NBFU=   370
 ExpMin= 1.61D-01 ExpMax= 5.48D+03 ExpMxC= 8.25D+02 IAcc=2 IRadAn=         4 AccDes= 0.00D+00
 Harris functional with IExCor=  402 and IRadAn=      -1 diagonalized for initial guess.
 HarFok:  IExCor=  402 AccDes= 0.00D+00 IRadAn=        -1 IDoV= 1 UseB2=F ITyADJ=14
 ICtDFT=  3500011 ScaDFX=  1.000000  1.000000  1.000000  1.000000
 FoFCou: FMM=F IPFlag=           0 FMFlag=      100000 FMFlg1=           0
         NFxFlg=           0 DoJE=T BraDBF=F KetDBF=T FulRan=T
         wScrn=  0.000000 ICntrl=       500 IOpCl=  0 I1Cent=   200000004 NGrid=           0
         NMat0=    1 NMatS0=      1 NMatT0=    0 NMatD0=    1 NMtDS0=    0 NMtDT0=    0
 Petite list used in FoFCou.
 Requested convergence on RMS density matrix=1.00D-08 within 128 cycles.
 Requested convergence on MAX density matrix=1.00D-06.
 Requested convergence on             energy=1.00D-06.
 No special actions if energy rises.
 Integral accuracy reduced to 1.0D-05 until final iterations.
 Initial convergence to 1.0D-05 achieved.  Increase integral accuracy.
 SCF Done:  E(RB3LYP) =  -662.515324913     A.U. after   14 cycles
            NFock= 14  Conv=0.41D-08     -V/T= 2.0093
 DoSCS=F DFT=T ScalE2(SS,OS)=  1.000000  1.000000
 Range of M.O.s used for correlation:     1   370
 NBasis=   370 NAE=    62 NBE=    62 NFC=     0 NFV=     0
 NROrb=    370 NOA=    62 NOB=    62 NVA=   308 NVB=   308
          IDoAtm=111111111111111111111111111111111111111111
          Differentiating once with respect to Fermi-contact.
          Electric field/nuclear overlap derivatives assumed to be zero.
          There are    42 degrees of freedom in the 1st order CPHF.  IDoFFX=0 NUNeed=    42.
     42 vectors produced by pass  0 Test12= 4.55D-18 2.38D-11 XBig12= 3.36D+01 2.14D+00.
 AX will form    42 AO Fock derivatives at one time.
     42 vectors produced by pass  1 Test12= 4.55D-18 2.38D-11 XBig12= 1.94D-01 1.39D-01.
     42 vectors produced by pass  2 Test12= 4.55D-18 2.38D-11 XBig12= 3.84D-03 1.20D-02.
     42 vectors produced by pass  3 Test12= 4.55D-18 2.38D-11 XBig12= 1.61D-05 5.86D-04.
     42 vectors produced by pass  4 Test12= 4.55D-18 2.38D-11 XBig12= 8.48D-08 3.81D-05.
     42 vectors produced by pass  5 Test12= 4.55D-18 2.38D-11 XBig12= 4.65D-10 3.14D-06.
     42 vectors produced by pass  6 Test12= 4.55D-18 2.38D-11 XBig12= 2.16D-12 1.86D-07.
     42 vectors produced by pass  7 Test12= 4.55D-18 2.38D-11 XBig12= 7.36D-15 8.82D-09.
     16 vectors produced by pass  8 Test12= 4.55D-18 2.38D-11 XBig12= 3.64D-17 5.49D-10.
 InvSVY:  IOpt=1 It=  1 EMax= 2.22D-15
 Solved reduced A of dimension   352 with    42 vectors.
 Fermi Contact (FC) contribution to K (Hz):
                1             2             3             4             5 
      1  0.123400D+11
      2  0.227306D+02  0.123400D+11
      3 -0.746333D+00  0.209831D+02  0.123400D+11
      4 -0.543695D-01 -0.654283D+00  0.210736D+02  0.123400D+11
      5  0.203955D+00  0.426185D+00 -0.287762D-01  0.226545D+02  0.123400D+11
      6 -0.298567D-01  0.653655D+00 -0.179260D+00 -0.939408D+00  0.264935D+02
      7  0.274354D+02  0.368067D+00  0.319325D+00 -0.473242D-01  0.552692D+00
      8  0.227875D+02 -0.549713D-01  0.584481D+00 -0.290636D-01 -0.297188D-01
      9 -0.143567D+00  0.210197D+01  0.332437D-01 -0.254815D-02  0.108739D-01
     10  0.144518D+01  0.458359D+00 -0.242593D-01  0.856722D-02  0.128786D+01
     11 -0.999877D-01 -0.182316D-02  0.840543D+00  0.769024D+00  0.748751D+01
     12 -0.282917D-01 -0.184412D-01 -0.350539D-02 -0.286531D-01  0.212022D+01
     13 -0.129147D+00  0.157740D+00 -0.826073D-02 -0.106398D-01  0.199867D-01
     14  0.619981D+00 -0.329688D-01  0.430597D-02 -0.642394D-03 -0.467835D-01
     15  0.906893D+00 -0.365539D-01 -0.341656D-01  0.619233D+00 -0.535861D-01
     16 -0.508057D-01 -0.459965D-01  0.281555D+01 -0.194672D+00  0.192063D+02
     17 -0.309699D-02  0.273977D-01 -0.337472D-01 -0.242193D-02 -0.858543D-01
     18  0.997358D-01  0.291132D-01  0.449527D-01  0.694475D-01 -0.824781D-01
     19  0.192548D+02 -0.337644D+00  0.270905D+01 -0.621760D-01 -0.257744D-01
     20 -0.156776D+00  0.164431D+02 -0.165947D+00  0.704608D+00  0.466029D-01
     21 -0.223374D+00  0.163319D+02 -0.326907D+00  0.921882D+00 -0.856573D-03
     22  0.926034D+00 -0.185395D+00  0.157877D+02 -0.212139D+00  0.877883D+00
     23  0.631309D+00 -0.185898D+00  0.168779D+02 -0.211351D+00  0.363149D-01
     24 -0.126068D-01  0.930597D+00 -0.269943D+00  0.165700D+02 -0.209383D+00
     25  0.129197D-01  0.537953D-01 -0.224422D+00  0.161581D+02 -0.581651D-01
     26 -0.182236D-01  0.139513D-01  0.407669D-01 -0.250083D+00  0.173415D+02
     27  0.400328D-01  0.330234D-01  0.942634D-02  0.251364D-02  0.201708D-01
     28 -0.117173D+00  0.582152D+00  0.164539D-01  0.930671D-03  0.150854D-03
     29  0.879801D+00  0.436125D-02 -0.201392D-02  0.590008D-02  0.382699D-01
     30  0.329384D-01 -0.384998D-01  0.254921D-01  0.307233D-02 -0.305138D-02
     31  0.162043D-02 -0.791464D-02  0.204451D+00  0.111014D+01 -0.137055D+00
     32 -0.455484D-02  0.268401D-02 -0.290918D-02  0.314739D+00 -0.132951D+00
     33  0.138517D-02  0.281521D-01 -0.300772D-01  0.240692D+00 -0.236360D+00
     34 -0.453026D-03 -0.101543D-02  0.225168D-01 -0.132778D-02  0.224732D-02
     35  0.327661D-03  0.238720D-03  0.945346D-03  0.120253D-02  0.145095D-01
     36 -0.206563D-02  0.355557D-02 -0.216686D-02  0.578718D-03 -0.105641D-02
     37  0.342943D-02  0.169596D-02  0.281610D-02  0.123477D-01  0.208045D-01
     38  0.773961D-02 -0.802364D-03 -0.492764D-03  0.773254D-02 -0.550578D-02
     39  0.139893D-01  0.384116D-02  0.729216D-03 -0.143230D-02  0.137966D-01
     40 -0.149300D+00  0.113129D+01  0.251258D+00 -0.846693D-02  0.566364D-02
     41 -0.103513D+00  0.305260D+00 -0.786809D-02  0.521789D-03  0.145359D-02
     42 -0.163629D+00  0.293588D+00 -0.138752D-01  0.129857D-02  0.374698D-02
                6             7             8             9            10 
      6  0.123400D+11
      7  0.275758D+02  0.123400D+11
      8 -0.410838D-02  0.124129D+01  0.123400D+11
      9  0.102115D+01  0.929067D+00  0.199740D+02  0.123400D+11
     10  0.595300D+00  0.257204D+02 -0.150874D+01  0.225028D+02  0.123400D+11
     11 -0.226582D+02 -0.154372D+00  0.148919D+00 -0.217655D+00  0.898143D+00
     12 -0.191036D+01  0.526490D+00  0.285496D-02  0.335102D+00  0.292828D+02
     13  0.269098D+00  0.172512D+02  0.277242D+00  0.173420D+00 -0.576610D-02
     14  0.131550D+00  0.755701D-01  0.750434D+00 -0.148832D+00  0.170354D+02
     15  0.186154D+02  0.305014D+00  0.193552D-01 -0.201873D-01  0.891346D-01
     16 -0.666811D+00  0.229654D+01  0.415814D-01  0.340322D-01  0.119795D+00
     17  0.154175D+01  0.111266D+00  0.611823D-01  0.665851D+00  0.731317D+00
     18  0.145083D-01  0.756950D-01  0.127341D+00  0.105056D+01  0.103057D+01
     19  0.158763D+01  0.117735D+00 -0.135250D+01  0.119231D+00  0.101506D+00
     20 -0.185935D-01  0.192610D-01  0.821550D+00  0.123465D+00 -0.744115D-02
     21 -0.265647D-01  0.738573D+00  0.440361D+00 -0.175687D-01  0.435701D-02
     22 -0.342404D-01 -0.416538D-01 -0.186950D-01  0.741799D-02  0.324879D-02
     23 -0.514824D-02 -0.252533D-01  0.181117D-01  0.203377D-02  0.107008D-02
     24  0.547519D-01  0.199338D-01  0.626769D-02  0.320842D-03  0.449351D-03
     25  0.738043D+00 -0.171528D-01  0.425105D-01  0.455018D-03  0.189627D-01
     26  0.375657D+00  0.287171D+00  0.642795D-02  0.193947D-02 -0.166066D-01
     27 -0.171629D-01  0.643555D+00  0.164637D+02 -0.119156D+00  0.955600D+00
     28 -0.801375D-02 -0.119823D-01  0.161528D+02 -0.202901D+00  0.467476D-01
     29  0.145359D-02  0.610851D+00 -0.447623D-01  0.162127D+02 -0.882705D-01
     30 -0.334120D-01 -0.600059D-02 -0.230635D+00  0.169053D+02 -0.692764D-01
     31  0.253563D+00 -0.123560D-01  0.285472D-03  0.258911D-03 -0.108292D-02
     32  0.118625D+01  0.135670D+00  0.119721D-02  0.814340D-02  0.218120D-01
     33  0.299761D+00 -0.383181D-01 -0.207147D-03  0.985779D-03  0.322081D-03
     34 -0.118249D-01 -0.135333D-01  0.580351D-01  0.280774D-01  0.128383D+00
     35  0.100611D+00 -0.208119D-01 -0.248580D-02  0.911271D-01  0.239099D-01
     36 -0.225547D-01  0.126373D-01  0.164735D-01  0.207142D+00  0.702794D+00
     37 -0.122930D-01  0.357020D-01  0.246048D-02 -0.163271D-01  0.852313D-01
     38  0.106406D-01 -0.118723D-01  0.210043D-02  0.840192D-02  0.303593D+00
     39 -0.126406D-01  0.672474D-01  0.791724D-02  0.836749D-01  0.885917D+00
     40 -0.694496D-02  0.245562D+00  0.273455D+00  0.624311D-02 -0.151690D-01
     41  0.140128D+00  0.996457D+00  0.244601D+00 -0.135298D-01  0.199075D-01
     42 -0.169644D-01  0.255730D+00  0.987785D+00 -0.223995D-01 -0.796717D-02
               11            12            13            14            15 
     11  0.123400D+11
     12 -0.220424D+02  0.123400D+11
     13  0.508905D+00  0.604717D+00  0.123400D+11
     14  0.681997D-01  0.977808D-01  0.258780D+00  0.123400D+11
     15  0.118856D+01  0.323511D-01  0.183360D+00 -0.219131D-02  0.123400D+11
     16 -0.117863D-01 -0.770902D-01 -0.377970D-01  0.171631D-01  0.752047D+00
     17  0.755124D+01  0.255132D+02 -0.304671D-01  0.258460D+00  0.872501D-02
     18  0.197580D+01  0.239147D+02 -0.205086D-01  0.946546D+00 -0.132550D-01
     19  0.470656D-01  0.895518D-01  0.113731D+01 -0.137455D-01 -0.944629D-02
     20  0.263682D-01  0.219798D-04 -0.536116D-02  0.102892D-02  0.220113D-02
     21 -0.657445D-03 -0.931356D-03 -0.369765D-02  0.146420D-01  0.265880D-02
     22  0.283188D-01 -0.273280D-02 -0.103816D-02 -0.261948D-03 -0.359952D-02
     23  0.988791D-01 -0.107719D-02  0.108062D-02  0.236816D-03 -0.410102D-02
     24  0.479697D-01  0.383143D-02  0.369846D-02 -0.183806D-03 -0.109401D-01
     25  0.139042D-01 -0.429592D-02  0.744764D-03 -0.170848D-03  0.147417D-01
     26  0.116591D+01  0.367421D-01  0.290898D-02  0.577281D-03  0.953379D-02
     27 -0.183134D-02 -0.317955D-01  0.120869D-01  0.195724D-01  0.181025D-01
     28  0.744227D-02 -0.201502D-01 -0.131277D-01 -0.185105D-01 -0.121118D-03
     29  0.393207D-01  0.334968D+00 -0.216220D-01  0.177608D-01 -0.182994D-02
     30  0.542870D-02  0.914519D+00 -0.148294D-02  0.248801D+00  0.206350D-03
     31  0.972575D-02  0.314816D-02  0.172368D-02 -0.128775D-03 -0.860006D-02
     32 -0.689235D-02  0.166945D-01 -0.317866D-02  0.664020D-03  0.182887D-01
     33 -0.462016D-03  0.948532D-03  0.136876D-02  0.147083D-03 -0.642825D-02
     34  0.122935D+00 -0.353773D+00  0.189947D-02 -0.502190D-02  0.158868D-02
     35  0.205191D+01  0.176543D+00  0.605321D-02 -0.650978D-02 -0.647468D-03
     36  0.300996D+00 -0.358612D+00  0.175328D-01 -0.123684D-02  0.791965D-03
     37  0.116303D+01  0.226089D+00  0.648238D-03 -0.166406D-02 -0.261686D-02
     38  0.156009D+00 -0.284831D+00  0.161113D-03 -0.850968D-02 -0.115443D-01
     39  0.190201D+00 -0.291961D+00  0.462489D-02  0.517554D-01  0.318205D-02
     40 -0.149711D-02  0.230704D-02 -0.843682D-02  0.427793D-03 -0.670562D-03
     41  0.380266D-02  0.679438D-02  0.440674D-01  0.363512D-02  0.442626D-02
     42  0.166166D-02  0.361204D-02 -0.115788D-01 -0.554694D-03  0.343649D-03
               16            17            18            19            20 
     16  0.123400D+11
     17 -0.651463D-03  0.123400D+11
     18  0.457855D-02  0.213518D+00  0.123400D+11
     19  0.129081D-01  0.755920D-02 -0.320243D-02  0.123400D+11
     20 -0.459783D-02  0.705093D-02  0.119919D-02  0.509565D+00  0.123400D+11
     21 -0.142582D-01 -0.822811D-03  0.171475D-02  0.186184D+00 -0.508521D+00
     22  0.276887D-01 -0.144928D-02  0.243950D-02  0.305908D-01  0.187485D-01
     23 -0.394397D-01  0.173133D-01  0.366411D-02 -0.422529D-01  0.348764D+00
     24  0.657729D+00  0.748473D-02 -0.167092D-03  0.197965D-01 -0.446232D-03
     25  0.902148D-01  0.877306D-02  0.591449D-02  0.512123D-03 -0.667588D-02
     26 -0.288578D+00  0.233192D-01  0.148761D-02  0.127722D-02 -0.463347D-02
     27 -0.159461D-02 -0.323636D-02  0.187240D-01  0.726988D+00 -0.133934D-01
     28 -0.512337D-03  0.156632D-01 -0.405971D-02  0.885477D+00  0.449321D-02
     29  0.118164D-01  0.774230D-01 -0.226506D-01 -0.348243D-01  0.172327D-01
     30 -0.108474D-02  0.101842D-01  0.790399D-03  0.193141D-02 -0.161907D-02
     31  0.152736D+02 -0.228922D-03  0.119623D-02 -0.225362D-03  0.259122D-02
     32  0.154013D+02 -0.142350D-03 -0.301338D-03  0.198677D-02 -0.345468D-04
     33  0.162991D+02 -0.434186D-03 -0.216335D-03 -0.167758D-03  0.374380D-02
     34  0.585655D-04  0.153732D+02  0.114988D+01 -0.156233D-02  0.880978D-03
     35 -0.113885D-02  0.157847D+02  0.175065D+00 -0.150386D-02 -0.507719D-05
     36  0.348938D-03  0.159876D+02  0.349987D+00 -0.281928D-02 -0.570888D-04
     37 -0.562465D-03  0.141248D+00  0.153860D+02 -0.300750D-03 -0.127568D-04
     38  0.220323D-03  0.102082D+01  0.154909D+02  0.137014D-02  0.732570D-05
     39  0.192179D-02  0.341865D+00  0.158135D+02  0.310480D-03 -0.112389D-03
     40  0.128724D-02  0.243375D-03 -0.511619D-03  0.155183D+02  0.144576D-01
     41  0.491105D-02  0.226279D-02 -0.904932D-03  0.157295D+02 -0.168846D-02
     42 -0.399234D-03  0.997413D-02 -0.285249D-04  0.157422D+02 -0.542805D-02
               21            22            23            24            25 
     21  0.123400D+11
     22  0.260115D+00  0.123400D+11
     23  0.160058D-01 -0.517414D+00  0.123400D+11
     24  0.180018D-01  0.322630D-01  0.203395D+00  0.123400D+11
     25 -0.116620D-01  0.233216D+00  0.354639D+00 -0.489101D+00  0.123400D+11
     26  0.510458D-02 -0.144583D-01 -0.352565D-02  0.332675D+00  0.190781D+00
     27 -0.526378D-02 -0.392314D-03 -0.579445D-03 -0.153589D-03 -0.127744D-03
     28 -0.317620D-02  0.894162D-03 -0.181230D-01  0.120107D-02  0.785120D-03
     29  0.105767D-02  0.304934D-03  0.235353D-02  0.528856D-05  0.348434D-03
     30 -0.104567D-03 -0.195646D-03  0.800800D-03 -0.145835D-03  0.232452D-03
     31  0.299139D-02  0.122717D-01 -0.390109D-02  0.147192D-01 -0.759942D-02
     32  0.928915D-04 -0.170089D-02  0.750735D-03 -0.153565D-02 -0.153804D-02
     33  0.605537D-02  0.157546D-02  0.151834D-02 -0.776774D-02 -0.716406D-02
     34  0.307200D-04 -0.238523D-03 -0.189998D-02  0.108051D-03  0.274095D-03
     35 -0.339246D-04 -0.344524D-03  0.756605D-03  0.170857D-03  0.258650D-03
     36 -0.893751D-04  0.202344D-03  0.298801D-03 -0.266044D-04 -0.447613D-04
     37  0.237876D-03  0.179411D-04  0.152710D-03  0.133988D-03  0.589356D-03
     38 -0.150246D-04 -0.745834D-04  0.101132D-03 -0.815733D-04  0.406949D-03
     39  0.495613D-03 -0.348368D-04  0.205922D-04 -0.192179D-04 -0.908530D-04
     40 -0.345336D-02  0.109469D-01 -0.350544D-02  0.227168D-02 -0.162612D-04
     41 -0.101374D-02 -0.212913D-02 -0.743464D-03  0.176931D-02  0.171448D-03
     42 -0.786065D-02  0.184445D-02 -0.627488D-04 -0.174135D-03  0.106711D-03
               26            27            28            29            30 
     26  0.123400D+11
     27 -0.349039D-03  0.123400D+11
     28  0.294809D-04 -0.465378D+00  0.123400D+11
     29  0.286841D-02  0.202405D-01  0.220064D+00  0.123400D+11
     30 -0.595692D-04  0.241477D+00  0.408644D+00 -0.473435D+00  0.123400D+11
     31  0.116498D+00 -0.469028D-04  0.267830D-05 -0.194708D-04 -0.728444D-05
     32  0.883294D-01 -0.154690D-03  0.144612D-03  0.107526D-02 -0.137848D-03
     33  0.378118D+00  0.572254D-04  0.459147D-04 -0.223950D-03  0.416122D-04
     34 -0.147075D-03  0.136929D-02 -0.113218D-01  0.589472D-03  0.237392D-02
     35  0.664247D-02 -0.145342D-03  0.144399D-02 -0.663412D-02  0.221995D-02
     36  0.520273D-03 -0.410746D-03 -0.234457D-02 -0.103110D-02  0.691644D-03
     37  0.241824D-02  0.970172D-04  0.322555D-04  0.670844D-03 -0.701876D-03
     38  0.357276D-03  0.613741D-03 -0.278360D-03 -0.327816D-03 -0.107850D-02
     39  0.242941D-03  0.564739D-03  0.370925D-03  0.216854D-02  0.306789D-02
     40  0.211263D-03 -0.445959D-02 -0.462427D-02 -0.139173D-02 -0.457506D-02
     41  0.934088D-03 -0.508977D-02 -0.413691D-02  0.503613D-02  0.521187D-02
     42  0.725923D-03  0.299618D-01  0.769498D-01 -0.196001D-02 -0.163136D-02
               31            32            33            34            35 
     31  0.123400D+11
     32 -0.445789D+00  0.123400D+11
     33 -0.436107D+00 -0.443722D+00  0.123400D+11
     34  0.404200D-04  0.892317D-04 -0.185397D-04  0.123400D+11
     35  0.760537D-04 -0.133433D-03 -0.140606D-03 -0.432532D+00  0.123400D+11
     36 -0.118442D-04 -0.347492D-04 -0.794248D-05 -0.507440D+00 -0.465615D+00
     37 -0.472699D-04 -0.692110D-04 -0.171513D-03  0.975781D-02  0.193446D-01
     38 -0.501766D-04 -0.813843D-04 -0.172717D-04  0.135845D+00  0.153510D-01
     39  0.113290D-04 -0.213058D-04  0.483880D-04  0.461243D-02 -0.373961D-02
     40 -0.672909D-04 -0.423805D-05 -0.359153D-04  0.145496D-03 -0.266923D-04
     41  0.791208D-05  0.566578D-05 -0.444802D-04  0.899230D-04 -0.110634D-03
     42 -0.685195D-05 -0.568549D-04  0.922827D-04  0.221241D-03 -0.270117D-03
               36            37            38            39            40 
     36  0.123400D+11
     37 -0.401778D-02  0.123400D+11
     38  0.510481D-02 -0.440588D+00  0.123400D+11
     39  0.296824D-02 -0.430935D+00 -0.480527D+00  0.123400D+11
     40  0.100649D-04  0.479043D-04 -0.896703D-05  0.152848D-03  0.123400D+11
     41  0.379242D-03  0.174164D-03  0.380074D-04  0.244758D-03 -0.438176D+00
     42  0.120884D-02  0.545529D-04 -0.287374D-04  0.524650D-04 -0.443437D+00
               41            42 
     41  0.123400D+11
     42 -0.436315D+00  0.123400D+11
 Fermi Contact (FC) contribution to J (Hz):
                1             2             3             4             5 
      1  0.243533D+11
      2  0.448595D+02  0.243533D+11
      3 -0.147291D+01  0.414107D+02  0.243533D+11
      4 -0.107300D+00 -0.129124D+01  0.415893D+02  0.243533D+11
      5  0.402509D+00  0.841088D+00 -0.567905D-01  0.447091D+02  0.243533D+11
      6 -0.589230D-01  0.129000D+01 -0.353775D+00 -0.185395D+01  0.522857D+02
      7  0.541444D+02  0.726389D+00  0.630195D+00 -0.933955D-01  0.109075D+01
      8  0.449716D+02 -0.108487D+00  0.115349D+01 -0.573578D-01 -0.586508D-01
      9 -0.283334D+00  0.414828D+01  0.656073D-01 -0.502883D-02  0.214599D-01
     10  0.285210D+01  0.904583D+00 -0.478764D-01  0.169076D-01  0.254162D+01
     11  0.106405D+00  0.194017D-02 -0.894490D+00 -0.818380D+00 -0.796806D+01
     12 -0.558344D-01 -0.363941D-01 -0.691796D-02 -0.565475D-01  0.418431D+01
     13 -0.101341D+01  0.123777D+01 -0.648212D-01 -0.834892D-01  0.156834D+00
     14  0.486493D+01 -0.258703D+00  0.337885D-01 -0.504080D-02 -0.367105D+00
     15  0.711630D+01 -0.286835D+00 -0.268094D+00  0.485906D+01 -0.420485D+00
     16 -0.100266D+00 -0.907752D-01  0.555656D+01 -0.384190D+00  0.379040D+02
     17 -0.611199D-02  0.540701D-01 -0.666009D-01 -0.477975D-02 -0.169436D+00
     18  0.196831D+00  0.574556D-01  0.887153D-01  0.137056D+00 -0.162773D+00
     19  0.379998D+02 -0.666349D+00  0.534638D+01 -0.122706D+00 -0.508665D-01
     20 -0.123021D+01  0.129027D+03 -0.130217D+01  0.552899D+01  0.365689D+00
     21 -0.175279D+01  0.128155D+03 -0.256521D+01  0.723392D+01 -0.672144D-02
     22  0.726650D+01 -0.145478D+01  0.123885D+03 -0.166464D+01  0.688866D+01
     23  0.495382D+01 -0.145872D+01  0.132439D+03 -0.165845D+01  0.284959D+00
     24 -0.989241D-01  0.730231D+01 -0.211822D+01  0.130023D+03 -0.164301D+01
     25  0.101379D+00  0.422126D+00 -0.176101D+01  0.126791D+03 -0.456416D+00
     26 -0.142999D+00  0.109475D+00  0.319894D+00 -0.196238D+01  0.136077D+03
     27  0.314134D+00  0.259132D+00  0.739676D-01  0.197243D-01  0.158278D+00
     28 -0.919442D+00  0.456809D+01  0.129112D+00  0.730289D-02  0.118374D-02
     29  0.690372D+01  0.342223D-01 -0.158030D-01  0.462974D-01  0.300300D+00
     30  0.258465D+00 -0.302104D+00  0.200034D+00  0.241083D-01 -0.239439D-01
     31  0.127153D-01 -0.621054D-01  0.160431D+01  0.871114D+01 -0.107546D+01
     32 -0.357414D-01  0.210611D-01 -0.228280D-01  0.246973D+01 -0.104326D+01
     33  0.108693D-01  0.220907D+00 -0.236013D+00  0.188869D+01 -0.185469D+01
     34 -0.355485D-02 -0.796795D-02  0.176687D+00 -0.104189D-01  0.176345D-01
     35  0.257113D-02  0.187321D-02  0.741804D-02  0.943617D-02  0.113855D+00
     36 -0.162088D-01  0.279002D-01 -0.170032D-01  0.454114D-02 -0.828953D-02
     37  0.269104D-01  0.133081D-01  0.220976D-01  0.968913D-01  0.163251D+00
     38  0.607320D-01 -0.629607D-02 -0.386667D-02  0.606765D-01 -0.432033D-01
     39  0.109772D+00  0.301412D-01  0.572209D-02 -0.112391D-01  0.108260D+00
     40 -0.117154D+01  0.887712D+01  0.197160D+01 -0.664392D-01  0.444420D-01
     41 -0.812258D+00  0.239535D+01 -0.617401D-01  0.409443D-02  0.114062D-01
     42 -0.128398D+01  0.230376D+01 -0.108878D+00  0.101898D-01  0.294022D-01
                6             7             8             9            10 
      6  0.243533D+11
      7  0.544216D+02  0.243533D+11
      8 -0.810798D-02  0.244972D+01  0.243533D+11
      9  0.201526D+01  0.183354D+01  0.394191D+02  0.243533D+11
     10  0.117484D+01  0.507599D+02 -0.297753D+01  0.444099D+02  0.243533D+11
     11  0.241124D+02  0.164279D+00 -0.158476D+00  0.231624D+00 -0.955787D+00
     12 -0.377014D+01  0.103904D+01  0.563433D-02  0.661333D+00  0.577903D+02
     13  0.211158D+01  0.135369D+03  0.217549D+01  0.136081D+01 -0.452460D-01
     14  0.103226D+01  0.592992D+00  0.588858D+01 -0.116787D+01  0.133675D+03
     15  0.146073D+03  0.239342D+01  0.151878D+00 -0.158408D+00  0.699431D+00
     16 -0.131597D+01  0.453228D+01  0.820620D-01  0.671633D-01  0.236418D+00
     17  0.304268D+01  0.219586D+00  0.120745D+00  0.131407D+01  0.144327D+01
     18  0.286326D-01  0.149386D+00  0.251311D+00  0.207331D+01  0.203386D+01
     19  0.313322D+01  0.232354D+00 -0.266919D+01  0.235306D+00  0.200324D+00
     20 -0.145902D+00  0.151139D+00  0.644662D+01  0.968822D+00 -0.583900D-01
     21 -0.208451D+00  0.579551D+01  0.345547D+01 -0.137860D+00  0.341891D-01
     22 -0.268681D+00 -0.326854D+00 -0.146698D+00  0.582082D-01  0.254929D-01
     23 -0.403977D-01 -0.198160D+00  0.142121D+00  0.159588D-01  0.839679D-02
     24  0.429633D+00  0.156419D+00  0.491819D-01  0.251762D-02  0.352601D-02
     25  0.579135D+01 -0.134596D+00  0.333576D+00  0.357048D-02  0.148798D+00
     26  0.294774D+01  0.225340D+01  0.504395D-01  0.152188D-01 -0.130311D+00
     27 -0.134675D+00  0.504992D+01  0.129189D+03 -0.935004D+00  0.749850D+01
     28 -0.628831D-01 -0.940241D-01  0.126749D+03 -0.159214D+01  0.366824D+00
     29  0.114062D-01  0.479329D+01 -0.351246D+00  0.127219D+03 -0.692650D+00
     30 -0.262180D+00 -0.470860D-01 -0.180977D+01  0.132654D+03 -0.543606D+00
     31  0.198968D+01 -0.969565D-01  0.224007D-02  0.203165D-02 -0.849758D-02
     32  0.930840D+01  0.106459D+01  0.939439D-02  0.639005D-01  0.171156D+00
     33  0.235220D+01 -0.300679D+00 -0.162546D-02  0.773531D-02  0.252734D-02
     34 -0.927887D-01 -0.106195D+00  0.455396D+00  0.220321D+00  0.100741D+01
     35  0.789487D+00 -0.163309D+00 -0.195059D-01  0.715065D+00  0.187619D+00
     36 -0.176985D+00  0.991637D-01  0.129266D+00  0.162542D+01  0.551476D+01
     37 -0.964620D-01  0.280150D+00  0.193072D-01 -0.128117D+00  0.668802D+00
     38  0.834956D-01 -0.931611D-01  0.164819D-01  0.659291D-01  0.238227D+01
     39 -0.991894D-01  0.527684D+00  0.621258D-01  0.656589D+00  0.695170D+01
     40 -0.544964D-01  0.192690D+01  0.214577D+01  0.489891D-01 -0.119030D+00
     41  0.109957D+01  0.781910D+01  0.191936D+01 -0.106167D+00  0.156212D+00
     42 -0.133118D+00  0.200669D+01  0.775105D+01 -0.175767D+00 -0.625176D-01
               11            12            13            14            15 
     11  0.708114D+10
     12  0.234571D+02  0.243533D+11
     13 -0.215332D+01  0.474515D+01  0.385007D+12
     14 -0.288572D+00  0.767277D+00  0.807394D+01  0.385007D+12
     15 -0.502913D+01  0.253856D+00  0.572082D+01 -0.683686D-01  0.385007D+12
     16  0.125427D-01 -0.152139D+00 -0.296590D+00  0.134678D+00  0.590124D+01
     17 -0.803589D+01  0.503509D+02 -0.239072D+00  0.202811D+01  0.684643D-01
     18 -0.210260D+01  0.471963D+02 -0.160929D+00  0.742746D+01 -0.104010D+00
     19 -0.500863D-01  0.176733D+00  0.892434D+01 -0.107860D+00 -0.741241D-01
     20 -0.111571D+00  0.172473D-03 -0.167268D+00  0.321022D-01  0.686751D-01
     21  0.278183D-02 -0.730826D-02 -0.115367D+00  0.456829D+00  0.829545D-01
     22 -0.119825D+00 -0.214440D-01 -0.323904D-01 -0.817275D-02 -0.112305D+00
     23 -0.418384D+00 -0.845260D-02  0.337154D-01  0.738865D-02 -0.127952D+00
     24 -0.202973D+00  0.300648D-01  0.115392D+00 -0.573473D-02 -0.341330D+00
     25 -0.588324D-01 -0.337096D-01  0.232366D-01 -0.533046D-02  0.459941D+00
     26 -0.493327D+01  0.288312D+00  0.907600D-01  0.180111D-01  0.297454D+00
     27  0.774890D-02 -0.249496D+00  0.377112D+00  0.610659D+00  0.564798D+00
     28 -0.314903D-01 -0.158117D+00 -0.409583D+00 -0.577528D+00 -0.377889D-02
     29 -0.166377D+00  0.262846D+01 -0.674606D+00  0.554137D+00 -0.570940D-01
     30 -0.229703D-01  0.717614D+01 -0.462677D-01  0.776259D+01  0.643811D-02
     31 -0.411523D-01  0.247033D-01  0.537788D-01 -0.401776D-02 -0.268322D+00
     32  0.291634D-01  0.131000D+00 -0.991741D-01  0.207174D-01  0.570606D+00
     33  0.195491D-02  0.744304D-02  0.427053D-01  0.458899D-02 -0.200561D+00
     34 -0.520171D+00 -0.277602D+01  0.592633D-01 -0.156683D+00  0.495669D-01
     35 -0.868218D+01  0.138532D+01  0.188860D+00 -0.203105D+00 -0.202010D-01
     36 -0.127360D+01 -0.281399D+01  0.547023D+00 -0.385893D-01  0.247093D-01
     37 -0.492109D+01  0.177410D+01  0.202250D-01 -0.519186D-01 -0.816459D-01
     38 -0.660118D+00 -0.223504D+01  0.502673D-02 -0.265501D+00 -0.360182D+00
     39 -0.804793D+00 -0.229099D+01  0.144296D+00  0.161477D+01  0.992798D-01
     40  0.633467D-02  0.181032D-01 -0.263229D+00  0.133471D-01 -0.209215D-01
     41 -0.160901D-01  0.533148D-01  0.137490D+01  0.113416D+00  0.138099D+00
     42 -0.703092D-02  0.283433D-01 -0.361258D+00 -0.173064D-01  0.107218D-01
               16            17            18            19            20 
     16  0.243533D+11
     17 -0.128568D-02  0.243533D+11
     18  0.903588D-02  0.421383D+00  0.243533D+11
     19  0.254745D-01  0.149183D-01 -0.632007D-02  0.243533D+11
     20 -0.360787D-01  0.553280D-01  0.940996D-02  0.399851D+01  0.385007D+12
     21 -0.111883D+00 -0.645651D-02  0.134555D-01  0.146096D+01 -0.158658D+02
     22  0.217270D+00 -0.113724D-01  0.191425D-01  0.240043D+00  0.584954D+00
     23 -0.309480D+00  0.135856D+00  0.287519D-01 -0.331554D+00  0.108814D+02
     24  0.516114D+01  0.587320D-01 -0.131115D-02  0.155341D+00 -0.139224D-01
     25  0.707907D+00  0.688413D-01  0.464104D-01  0.401858D-02 -0.208287D+00
     26 -0.226444D+01  0.182983D+00  0.116731D-01  0.100222D-01 -0.144564D+00
     27 -0.125127D-01 -0.253954D-01  0.146925D+00  0.570460D+01 -0.417874D+00
     28 -0.402026D-02  0.122908D+00 -0.318562D-01  0.694825D+01  0.140188D+00
     29  0.927225D-01  0.607530D+00 -0.177737D+00 -0.273263D+00  0.537658D+00
     30 -0.851181D-02  0.799143D-01  0.620219D-02  0.151556D-01 -0.505148D-01
     31  0.119851D+03 -0.179633D-02  0.938672D-02 -0.176840D-02  0.808459D-01
     32  0.120853D+03 -0.111701D-02 -0.236457D-02  0.155900D-01 -0.107786D-02
     33  0.127897D+03 -0.340702D-02 -0.169756D-02 -0.131638D-02  0.116806D+00
     34  0.459558D-03  0.120632D+03  0.902297D+01 -0.122594D-01  0.274865D-01
     35 -0.893644D-02  0.123861D+03  0.137372D+01 -0.118007D-01 -0.158408D-03
     36  0.273808D-02  0.125453D+03  0.274632D+01 -0.221226D-01 -0.178117D-02
     37 -0.441361D-02  0.110836D+01  0.120733D+03 -0.235995D-02 -0.398011D-03
     38  0.172885D-02  0.801027D+01  0.121556D+03  0.107513D-01  0.228561D-03
     39  0.150801D-01  0.268258D+01  0.124087D+03  0.243631D-02 -0.350653D-02
     40  0.101008D-01  0.190974D-02 -0.401462D-02  0.121770D+03  0.451075D+00
     41  0.385365D-01  0.177559D-01 -0.710092D-02  0.123428D+03 -0.526798D-01
     42 -0.313275D-02  0.782660D-01 -0.223832D-03  0.123527D+03 -0.169355D+00
               21            22            23            24            25 
     21  0.385007D+12
     22  0.811558D+01  0.385007D+12
     23  0.499381D+00 -0.161433D+02  0.385007D+12
     24  0.561655D+00  0.100660D+01  0.634593D+01  0.385007D+12
     25 -0.363853D+00  0.727634D+01  0.110647D+02 -0.152599D+02  0.385007D+12
     26  0.159263D+00 -0.451098D+00 -0.110000D+00  0.103795D+02  0.595237D+01
     27 -0.164230D+00 -0.122402D-01 -0.180787D-01 -0.479196D-02 -0.398561D-02
     28 -0.990973D-01  0.278978D-01 -0.565437D+00  0.374734D-01  0.244957D-01
     29  0.329992D-01  0.951392D-02  0.734299D-01  0.165003D-03  0.108711D-01
     30 -0.326249D-02 -0.610416D-02  0.249849D-01 -0.455005D-02  0.725248D-02
     31  0.933314D-01  0.382876D+00 -0.121714D+00  0.459240D+00 -0.237102D+00
     32  0.289821D-02 -0.530678D-01  0.234229D-01 -0.479121D-01 -0.479867D-01
     33  0.188927D+00  0.491544D-01  0.473721D-01 -0.242353D+00 -0.223518D+00
     34  0.958463D-03 -0.744190D-02 -0.592794D-01  0.337118D-02  0.855175D-02
     35 -0.105845D-02 -0.107491D-01  0.236061D-01  0.533074D-02  0.806988D-02
     36 -0.278850D-02  0.631311D-02  0.932257D-02 -0.830057D-03 -0.139655D-02
     37  0.742173D-02  0.559760D-03  0.476455D-02  0.418042D-02  0.183879D-01
     38 -0.468767D-03 -0.232700D-02  0.315532D-02 -0.254508D-02  0.126968D-01
     39  0.154631D-01 -0.108691D-02  0.642475D-03 -0.599599D-03 -0.283461D-02
     40 -0.107745D+00  0.341543D+00 -0.109370D+00  0.708762D-01 -0.507348D-03
     41 -0.316286D-01 -0.664287D-01 -0.231960D-01  0.552025D-01  0.534916D-02
     42 -0.245252D+00  0.575469D-01 -0.195776D-02 -0.543299D-02  0.332938D-02
               26            27            28            29            30 
     26  0.385007D+12
     27 -0.108900D-01  0.385007D+12
     28  0.919804D-03 -0.145198D+02  0.385007D+12
     29  0.894943D-01  0.631501D+00  0.686599D+01  0.385007D+12
     30 -0.185856D-02  0.753407D+01  0.127497D+02 -0.147712D+02  0.385007D+12
     31  0.363472D+01 -0.146337D-02  0.835628D-04 -0.607488D-03 -0.227274D-03
     32  0.275587D+01 -0.482632D-02  0.451190D-02  0.335479D-01 -0.430084D-02
     33  0.117973D+02  0.178543D-02  0.143254D-02 -0.698722D-02  0.129830D-02
     34 -0.458872D-02  0.427217D-01 -0.353241D+00  0.183915D-01  0.740662D-01
     35  0.207245D+00 -0.453468D-02  0.450523D-01 -0.206984D+00  0.692623D-01
     36  0.162325D-01 -0.128152D-01 -0.731506D-01 -0.321701D-01  0.215793D-01
     37  0.754490D-01  0.302693D-02  0.100637D-02  0.209303D-01 -0.218985D-01
     38  0.111470D-01  0.191487D-01 -0.868482D-02 -0.102279D-01 -0.336493D-01
     39  0.757975D-02  0.176198D-01  0.115729D-01  0.676582D-01  0.957179D-01
     40  0.659141D-02 -0.139139D+00 -0.144277D+00 -0.434219D-01 -0.142742D+00
     41  0.291435D-01 -0.158801D+00 -0.129071D+00  0.157127D+00  0.162610D+00
     42  0.226488D-01  0.934808D+00  0.240083D+01 -0.611521D-01 -0.508983D-01
               31            32            33            34            35 
     31  0.385007D+12
     32 -0.139086D+02  0.385007D+12
     33 -0.136065D+02 -0.138441D+02  0.385007D+12
     34  0.126110D-02  0.278402D-02 -0.578438D-03  0.385007D+12
     35  0.237287D-02 -0.416312D-02 -0.438689D-02 -0.134950D+02  0.385007D+12
     36 -0.369537D-03 -0.108417D-02 -0.247805D-03 -0.158321D+02 -0.145272D+02
     37 -0.147482D-02 -0.215938D-02 -0.535119D-02  0.304443D+00  0.603551D+00
     38 -0.156551D-02 -0.253919D-02 -0.538875D-03  0.423836D+01  0.478949D+00
     39  0.353465D-03 -0.664739D-03  0.150970D-02  0.143908D+00 -0.116676D+00
     40 -0.209947D-02 -0.132227D-03 -0.112056D-02  0.453946D-02 -0.832799D-03
     41  0.246857D-03  0.176772D-03 -0.138778D-02  0.280559D-02 -0.345179D-02
     42 -0.213781D-03 -0.177387D-02  0.287922D-02  0.690270D-02 -0.842765D-02
               36            37            38            39            40 
     36  0.385007D+12
     37 -0.125355D+00  0.385007D+12
     38  0.159270D+00 -0.137463D+02  0.385007D+12
     39  0.926091D-01 -0.134452D+02 -0.149924D+02  0.385007D+12
     40  0.314024D-03  0.149461D-02 -0.279771D-03  0.476885D-02  0.385007D+12
     41  0.118323D-01  0.543392D-02  0.118583D-02  0.763645D-02 -0.136711D+02
     42  0.377156D-01  0.170205D-02 -0.896607D-03  0.163691D-02 -0.138352D+02
               41            42 
     41  0.385007D+12
     42 -0.136130D+02  0.385007D+12
 End of Minotr F.D. properties file   721 does not exist.
 End of Minotr F.D. properties file   722 does not exist.
 End of Minotr F.D. properties file   788 does not exist.

 **********************************************************************

            Population analysis using the SCF density.

 **********************************************************************

 Orbital symmetries:
       Occupied  (A) (A) (A) (A) (A) (A) (A) (A) (A) (A) (A) (A)
                 (A) (A) (A) (A) (A) (A) (A) (A) (A) (A) (A) (A)
                 (A) (A) (A) (A) (A) (A) (A) (A) (A) (A) (A) (A)
                 (A) (A) (A) (A) (A) (A) (A) (A) (A) (A) (A) (A)
                 (A) (A) (A) (A) (A) (A) (A) (A) (A) (A) (A) (A)
                 (A) (A)
       Virtual   (A) (A) (A) (A) (A) (A) (A) (A) (A) (A) (A) (A)
                 (A) (A) (A) (A) (A) (A) (A) (A) (A) (A) (A) (A)
                 (A) (A) (A) (A) (A) (A) (A) (A) (A) (A) (A) (A)
                 (A) (A) (A) (A) (A) (A) (A) (A) (A) (A) (A) (A)
                 (A) (A) (A) (A) (A) (A) (A) (A) (A) (A) (A) (A)
                 (A) (A) (A) (A) (A) (A) (A) (A) (A) (A) (A) (A)
                 (A) (A) (A) (A) (A) (A) (A) (A) (A) (A) (A) (A)
                 (A) (A) (A) (A) (A) (A) (A) (A) (A) (A) (A) (A)
                 (A) (A) (A) (A) (A) (A) (A) (A) (A) (A) (A) (A)
                 (A) (A) (A) (A) (A) (A) (A) (A) (A) (A) (A) (A)
                 (A) (A) (A) (A) (A) (A) (A) (A) (A) (A) (A) (A)
                 (A) (A) (A) (A) (A) (A) (A) (A) (A) (A) (A) (A)
                 (A) (A) (A) (A) (A) (A) (A) (A) (A) (A) (A) (A)
                 (A) (A) (A) (A) (A) (A) (A) (A) (A) (A) (A) (A)
                 (A) (A) (A) (A) (A) (A) (A) (A) (A) (A) (A) (A)
                 (A) (A) (A) (A) (A) (A) (A) (A) (A) (A) (A) (A)
                 (A) (A) (A) (A) (A) (A) (A) (A) (A) (A) (A) (A)
                 (A) (A) (A) (A) (A) (A) (A) (A) (A) (A) (A) (A)
                 (A) (A) (A) (A) (A) (A) (A) (A) (A) (A) (A) (A)
                 (A) (A) (A) (A) (A) (A) (A) (A) (A) (A) (A) (A)
                 (A) (A) (A) (A) (A) (A) (A) (A) (A) (A) (A) (A)
                 (A) (A) (A) (A) (A) (A) (A) (A) (A) (A) (A) (A)
                 (A) (A) (A) (A) (A) (A) (A) (A) (A) (A) (A) (A)
                 (A) (A) (A) (A) (A) (A) (A) (A) (A) (A) (A) (A)
                 (A) (A) (A) (A) (A) (A) (A) (A) (A) (A) (A) (A)
                 (A) (A) (A) (A) (A) (A) (A) (A)
 The electronic state is 1-A.
 Alpha  occ. eigenvalues --  -19.13040 -10.23332 -10.21976 -10.18914 -10.18022
 Alpha  occ. eigenvalues --  -10.17850 -10.17708 -10.17314 -10.17005 -10.16971
 Alpha  occ. eigenvalues --  -10.16971 -10.16856 -10.16677 -10.16583 -10.16488
 Alpha  occ. eigenvalues --  -10.16290  -1.02375  -0.84754  -0.81364  -0.77159
 Alpha  occ. eigenvalues --   -0.76736  -0.72895  -0.72288  -0.68164  -0.66873
 Alpha  occ. eigenvalues --   -0.65852  -0.62837  -0.60053  -0.58004  -0.54992
 Alpha  occ. eigenvalues --   -0.53600  -0.50936  -0.49338  -0.46530  -0.45641
 Alpha  occ. eigenvalues --   -0.45311  -0.44803  -0.43541  -0.42740  -0.42320
 Alpha  occ. eigenvalues --   -0.40559  -0.39204  -0.39095  -0.38783  -0.38046
 Alpha  occ. eigenvalues --   -0.37744  -0.37109  -0.36631  -0.35760  -0.35228
 Alpha  occ. eigenvalues --   -0.34142  -0.33531  -0.32493  -0.32147  -0.31489
 Alpha  occ. eigenvalues --   -0.30916  -0.30171  -0.29845  -0.29566  -0.29043
 Alpha  occ. eigenvalues --   -0.28415  -0.23429
 Alpha virt. eigenvalues --    0.06325   0.08851   0.09697   0.10149   0.11693
 Alpha virt. eigenvalues --    0.12059   0.12545   0.12981   0.13637   0.14789
 Alpha virt. eigenvalues --    0.15259   0.15610   0.15982   0.17132   0.17398
 Alpha virt. eigenvalues --    0.17678   0.17899   0.18500   0.18580   0.18878
 Alpha virt. eigenvalues --    0.19416   0.19685   0.20393   0.20857   0.22310
 Alpha virt. eigenvalues --    0.22712   0.23278   0.23423   0.23761   0.24133
 Alpha virt. eigenvalues --    0.25019   0.25050   0.25957   0.27280   0.28123
 Alpha virt. eigenvalues --    0.28969   0.29857   0.30168   0.30942   0.31473
 Alpha virt. eigenvalues --    0.33704   0.35019   0.36967   0.38700   0.49552
 Alpha virt. eigenvalues --    0.50771   0.51496   0.51633   0.52329   0.53383
 Alpha virt. eigenvalues --    0.54516   0.55985   0.56464   0.57714   0.58817
 Alpha virt. eigenvalues --    0.59961   0.60012   0.60963   0.61125   0.63869
 Alpha virt. eigenvalues --    0.64959   0.65580   0.65905   0.66959   0.68077
 Alpha virt. eigenvalues --    0.69429   0.70187   0.70544   0.71059   0.72795
 Alpha virt. eigenvalues --    0.73260   0.74185   0.75358   0.76321   0.77520
 Alpha virt. eigenvalues --    0.78708   0.80167   0.80831   0.81741   0.82019
 Alpha virt. eigenvalues --    0.82355   0.83939   0.84685   0.85634   0.86737
 Alpha virt. eigenvalues --    0.86950   0.87596   0.87656   0.88602   0.88943
 Alpha virt. eigenvalues --    0.89119   0.89832   0.90417   0.91097   0.91505
 Alpha virt. eigenvalues --    0.92105   0.92560   0.93205   0.93319   0.93877
 Alpha virt. eigenvalues --    0.95810   0.96008   0.96923   0.96932   0.97665
 Alpha virt. eigenvalues --    0.98406   0.99556   1.00531   1.01618   1.02786
 Alpha virt. eigenvalues --    1.05247   1.06092   1.08226   1.10545   1.12616
 Alpha virt. eigenvalues --    1.14595   1.16547   1.17943   1.19717   1.21619
 Alpha virt. eigenvalues --    1.29314   1.31280   1.31954   1.36483   1.37893
 Alpha virt. eigenvalues --    1.41807   1.43531   1.45933   1.48201   1.49093
 Alpha virt. eigenvalues --    1.50769   1.51999   1.54565   1.54840   1.55934
 Alpha virt. eigenvalues --    1.58637   1.61300   1.63569   1.64599   1.66308
 Alpha virt. eigenvalues --    1.68916   1.71129   1.72052   1.72850   1.75237
 Alpha virt. eigenvalues --    1.75879   1.77048   1.79545   1.80074   1.81201
 Alpha virt. eigenvalues --    1.81941   1.83466   1.84212   1.84764   1.85679
 Alpha virt. eigenvalues --    1.86851   1.87897   1.88643   1.90031   1.90513
 Alpha virt. eigenvalues --    1.92100   1.92496   1.93067   1.95238   1.96583
 Alpha virt. eigenvalues --    1.97819   1.99020   2.00636   2.01559   2.02081
 Alpha virt. eigenvalues --    2.04039   2.04778   2.05205   2.05561   2.06060
 Alpha virt. eigenvalues --    2.06248   2.07812   2.08692   2.09594   2.10499
 Alpha virt. eigenvalues --    2.11328   2.11883   2.12286   2.14083   2.14147
 Alpha virt. eigenvalues --    2.14933   2.15628   2.15990   2.16897   2.17361
 Alpha virt. eigenvalues --    2.18023   2.19296   2.20806   2.22009   2.22547
 Alpha virt. eigenvalues --    2.23095   2.25423   2.27610   2.29370   2.30608
 Alpha virt. eigenvalues --    2.31435   2.32082   2.33062   2.33559   2.36129
 Alpha virt. eigenvalues --    2.37116   2.37496   2.38967   2.39510   2.40690
 Alpha virt. eigenvalues --    2.41422   2.42900   2.43468   2.47698   2.48055
 Alpha virt. eigenvalues --    2.50284   2.51126   2.52985   2.53859   2.55271
 Alpha virt. eigenvalues --    2.57460   2.58554   2.60077   2.60950   2.62172
 Alpha virt. eigenvalues --    2.63146   2.64078   2.65309   2.66492   2.67737
 Alpha virt. eigenvalues --    2.69097   2.70554   2.71242   2.72587   2.73119
 Alpha virt. eigenvalues --    2.73916   2.76273   2.76620   2.77874   2.78852
 Alpha virt. eigenvalues --    2.79827   2.79969   2.80830   2.81374   2.83245
 Alpha virt. eigenvalues --    2.83915   2.85499   2.86673   2.87193   2.87980
 Alpha virt. eigenvalues --    2.88395   2.89650   2.90135   2.90849   2.91988
 Alpha virt. eigenvalues --    2.92978   2.95049   2.95556   2.97115   2.98516
 Alpha virt. eigenvalues --    2.98817   3.00412   3.03034   3.04078   3.08124
 Alpha virt. eigenvalues --    3.16887   3.20891   3.21543   3.24012   3.24562
 Alpha virt. eigenvalues --    3.28753   3.31171   3.33833   3.34533   3.35167
 Alpha virt. eigenvalues --    3.38067   3.38853   3.42244   3.44134   3.44671
 Alpha virt. eigenvalues --    3.45459   3.46837   3.46929   3.47736   3.49564
 Alpha virt. eigenvalues --    3.50821   3.51717   3.52915   3.53115   3.54734
 Alpha virt. eigenvalues --    3.55187   3.60577   4.15893   4.26363   4.32771
 Alpha virt. eigenvalues --    4.40967   4.48373   4.54695   4.57717   4.60054
 Alpha virt. eigenvalues --    4.63119   4.67583   4.68127   4.75418   4.77484
 Alpha virt. eigenvalues --    4.89139   4.91001   5.03512
          Condensed to atoms (all electrons):
               1          2          3          4          5          6
     1  C    4.870696   0.384582  -0.031398  -0.002199  -0.007858  -0.031228
     2  C    0.384582   4.954828   0.360387  -0.045552   0.000661  -0.009389
     3  C   -0.031398   0.360387   4.958403   0.367688  -0.049669   0.003190
     4  C   -0.002199  -0.045552   0.367688   4.906519   0.373625  -0.043035
     5  C   -0.007858   0.000661  -0.049669   0.373625   4.939164   0.370337
     6  C   -0.031228  -0.009389   0.003190  -0.043035   0.370337   4.784109
     7  C    0.370203  -0.044220  -0.003828  -0.003121  -0.032517   0.332943
     8  C    0.393448  -0.044648  -0.008777   0.000124   0.000018   0.001038
     9  C   -0.059296   0.005208   0.000323   0.000000  -0.000089   0.004539
    10  C   -0.053741   0.004226  -0.000247  -0.000030   0.005341  -0.061194
    11  O    0.000522  -0.000847  -0.005780   0.001247  -0.044389   0.214948
    12  C   -0.002859   0.000502   0.000085  -0.000081   0.005277  -0.028484
    13  H   -0.047053   0.003149  -0.000079  -0.000087   0.000227  -0.031989
    14  H    0.005856  -0.000149   0.000007  -0.000006  -0.000118   0.001956
    15  H    0.005897  -0.000099  -0.000185   0.006460  -0.060948   0.370826
    16  C    0.000111   0.000000   0.005305  -0.048996   0.361990  -0.032928
    17  C    0.000923  -0.000014  -0.000162  -0.000050  -0.000264   0.005987
    18  C    0.000013  -0.000003  -0.000008   0.000022  -0.000249  -0.005374
    19  C    0.360467  -0.052498   0.004978   0.000050  -0.000117   0.003808
    20  H   -0.036973   0.376427  -0.045909  -0.008022  -0.002440   0.000416
    21  H   -0.031089   0.368523  -0.034465   0.005329   0.000108   0.000099
    22  H    0.004197  -0.030957   0.363598  -0.033773   0.005224  -0.000183
    23  H   -0.006019  -0.043073   0.383932  -0.033137  -0.006664   0.002628
    24  H   -0.000073   0.005365  -0.034478   0.382428  -0.034643  -0.007933
    25  H   -0.000142  -0.004907  -0.035549   0.373154  -0.034157   0.005735
    26  H   -0.001179   0.003058  -0.003957  -0.037315   0.384478  -0.045953
    27  H   -0.031335  -0.000055   0.000008  -0.000004  -0.000005  -0.000108
    28  H   -0.036311  -0.008278   0.002437   0.000034  -0.000005   0.000635
    29  H    0.005028  -0.000186   0.000000  -0.000000   0.000003  -0.000052
    30  H   -0.002376   0.000081  -0.000020   0.000001   0.000002  -0.000060
    31  H    0.000007   0.000014  -0.000218   0.004950  -0.030212  -0.006047
    32  H   -0.000000   0.000003   0.000058  -0.004285  -0.030259   0.004395
    33  H   -0.000013   0.000009  -0.000024  -0.005769  -0.031679  -0.007616
    34  H   -0.000154  -0.000064  -0.000459   0.000033  -0.000031   0.000236
    35  H    0.000003  -0.000002   0.000007   0.000001   0.000001  -0.000245
    36  H   -0.000012   0.000001  -0.000012   0.000003   0.000006  -0.000176
    37  H   -0.000007   0.000000   0.000000  -0.000000   0.000008   0.000114
    38  H    0.000020  -0.000000  -0.000000  -0.000001  -0.000116   0.000580
    39  H    0.000006  -0.000000  -0.000000   0.000002  -0.000032  -0.000343
    40  H   -0.029885   0.005153  -0.000187  -0.000000   0.000007   0.000005
    41  H   -0.028595  -0.004915   0.000082  -0.000000  -0.000003  -0.000135
    42  H   -0.027753  -0.006344   0.000032  -0.000030  -0.000011   0.000039
               7          8          9         10         11         12
     1  C    0.370203   0.393448  -0.059296  -0.053741   0.000522  -0.002859
     2  C   -0.044220  -0.044648   0.005208   0.004226  -0.000847   0.000502
     3  C   -0.003828  -0.008777   0.000323  -0.000247  -0.005780   0.000085
     4  C   -0.003121   0.000124   0.000000  -0.000030   0.001247  -0.000081
     5  C   -0.032517   0.000018  -0.000089   0.005341  -0.044389   0.005277
     6  C    0.332943   0.001038   0.004539  -0.061194   0.214948  -0.028484
     7  C    5.120678  -0.080339  -0.061295   0.372054  -0.050195  -0.072619
     8  C   -0.080339   5.009398   0.355927  -0.065957   0.001677  -0.000100
     9  C   -0.061295   0.355927   4.974958   0.364164   0.002112  -0.035539
    10  C    0.372054  -0.065957   0.364164   5.092598  -0.055444   0.352899
    11  O   -0.050195   0.001677   0.002112  -0.055444   8.384789   0.216514
    12  C   -0.072619  -0.000100  -0.035539   0.352899   0.216514   4.675593
    13  H    0.357336   0.006042   0.003455  -0.033162   0.004032   0.006299
    14  H   -0.028852   0.006214  -0.041564   0.367711   0.002607  -0.040556
    15  H   -0.056671  -0.000133  -0.000085  -0.007143  -0.051330  -0.000688
    16  C    0.005234  -0.000001   0.000002  -0.000194  -0.001327  -0.000046
    17  C    0.002647  -0.003423  -0.006048  -0.047255  -0.048651   0.393233
    18  C   -0.000006  -0.000052   0.003696  -0.052173  -0.056034   0.368339
    19  C   -0.038801  -0.057309  -0.000263  -0.000792  -0.000027   0.000034
    20  H   -0.002730   0.005718  -0.000270  -0.000053   0.000008  -0.000006
    21  H    0.005261  -0.010760   0.000167  -0.000120  -0.000013  -0.000013
    22  H   -0.000014   0.000381   0.000003  -0.000002   0.000285   0.000003
    23  H   -0.001470  -0.000217  -0.000680   0.000149   0.009568  -0.000673
    24  H   -0.000140   0.000014  -0.000003   0.000033   0.003903  -0.000111
    25  H   -0.000018  -0.000007  -0.000000   0.000005   0.000180  -0.000001
    26  H   -0.005142   0.000058  -0.000006   0.000176   0.002931  -0.000151
    27  H    0.006054   0.369671  -0.031702   0.005516   0.000015  -0.000043
    28  H   -0.000111   0.377347  -0.038887  -0.001955  -0.000943   0.002779
    29  H    0.005736  -0.029714   0.372835  -0.033091   0.000117  -0.010975
    30  H   -0.002065  -0.038845   0.376723  -0.028641  -0.000079   0.004934
    31  H   -0.000052   0.000000   0.000000  -0.000003  -0.000055  -0.000004
    32  H   -0.000184  -0.000000  -0.000000   0.000003  -0.000028   0.000003
    33  H    0.000279   0.000000  -0.000000   0.000024   0.004427  -0.000233
    34  H    0.000306  -0.001209   0.001307  -0.007307  -0.000034  -0.022642
    35  H    0.000149   0.000166  -0.001754  -0.002467   0.003190  -0.025608
    36  H   -0.000142   0.000074   0.000250   0.005239  -0.000480  -0.023141
    37  H    0.000181  -0.000003  -0.000031  -0.002140   0.003975  -0.022888
    38  H    0.000469  -0.000007   0.000060  -0.006802  -0.003072  -0.025209
    39  H   -0.000045   0.000007  -0.000165   0.004829   0.000104  -0.026672
    40  H   -0.004923  -0.005258   0.001286   0.000889  -0.000003   0.000030
    41  H    0.004553  -0.006167  -0.000138  -0.000115   0.000001   0.000006
    42  H   -0.007104   0.005651  -0.000206   0.000076   0.000001  -0.000014
              13         14         15         16         17         18
     1  C   -0.047053   0.005856   0.005897   0.000111   0.000923   0.000013
     2  C    0.003149  -0.000149  -0.000099   0.000000  -0.000014  -0.000003
     3  C   -0.000079   0.000007  -0.000185   0.005305  -0.000162  -0.000008
     4  C   -0.000087  -0.000006   0.006460  -0.048996  -0.000050   0.000022
     5  C    0.000227  -0.000118  -0.060948   0.361990  -0.000264  -0.000249
     6  C   -0.031989   0.001956   0.370826  -0.032928   0.005987  -0.005374
     7  C    0.357336  -0.028852  -0.056671   0.005234   0.002647  -0.000006
     8  C    0.006042   0.006214  -0.000133  -0.000001  -0.003423  -0.000052
     9  C    0.003455  -0.041564  -0.000085   0.000002  -0.006048   0.003696
    10  C   -0.033162   0.367711  -0.007143  -0.000194  -0.047255  -0.052173
    11  O    0.004032   0.002607  -0.051330  -0.001327  -0.048651  -0.056034
    12  C    0.006299  -0.040556  -0.000688  -0.000046   0.393233   0.368339
    13  H    0.672065  -0.011039  -0.005921  -0.000190  -0.000175   0.000066
    14  H   -0.011039   0.661223   0.000819   0.000006   0.005009  -0.011461
    15  H   -0.005921   0.000819   0.732281  -0.012590  -0.000152   0.003071
    16  C   -0.000190   0.000006  -0.012590   4.971309   0.000003  -0.000007
    17  C   -0.000175   0.005009  -0.000152   0.000003   4.992237  -0.080157
    18  C    0.000066  -0.011461   0.003071  -0.000007  -0.080157   5.043748
    19  C   -0.014646  -0.000233  -0.000210   0.000005  -0.000008  -0.000001
    20  H    0.000373   0.000002  -0.000040  -0.000065   0.000001  -0.000000
    21  H   -0.000192   0.000004   0.000005  -0.000005   0.000001  -0.000000
    22  H    0.000006  -0.000000   0.000010  -0.000166   0.000002   0.000000
    23  H   -0.000008  -0.000002   0.000189  -0.000012  -0.000317   0.000080
    24  H   -0.000002  -0.000001   0.000023  -0.006993   0.000015   0.000004
    25  H    0.000002  -0.000000  -0.000153  -0.003055  -0.000001   0.000000
    26  H    0.001933  -0.000014   0.002405  -0.047252   0.000004   0.000008
    27  H   -0.000176  -0.000236   0.000005  -0.000000   0.000046   0.000003
    28  H   -0.000234  -0.000094  -0.000019  -0.000000  -0.002083  -0.000027
    29  H   -0.000151   0.002408   0.000008  -0.000000   0.002765   0.000453
    30  H   -0.000003  -0.009839  -0.000012  -0.000000   0.000059  -0.000213
    31  H    0.000008  -0.000000   0.006140   0.371561  -0.000000  -0.000004
    32  H    0.000001  -0.000000   0.000162   0.375316  -0.000000  -0.000000
    33  H   -0.000009  -0.000001  -0.000195   0.385580   0.000005   0.000031
    34  H   -0.000007  -0.000115   0.000019   0.000000   0.368220   0.006193
    35  H    0.000000  -0.000004   0.000027  -0.000000   0.365826  -0.000119
    36  H    0.000003  -0.000152  -0.000019  -0.000001   0.373885  -0.007852
    37  H   -0.000032   0.001675  -0.000503   0.000000  -0.000857   0.352660
    38  H   -0.000153   0.003472   0.003523   0.000003   0.005526   0.372424
    39  H    0.000004   0.000419   0.000190  -0.000003  -0.005442   0.372183
    40  H    0.002250  -0.000208   0.000003  -0.000000  -0.000000   0.000000
    41  H    0.000551   0.000010   0.000004  -0.000000  -0.000000  -0.000000
    42  H    0.004258   0.000009  -0.000032  -0.000002   0.000000  -0.000000
              19         20         21         22         23         24
     1  C    0.360467  -0.036973  -0.031089   0.004197  -0.006019  -0.000073
     2  C   -0.052498   0.376427   0.368523  -0.030957  -0.043073   0.005365
     3  C    0.004978  -0.045909  -0.034465   0.363598   0.383932  -0.034478
     4  C    0.000050  -0.008022   0.005329  -0.033773  -0.033137   0.382428
     5  C   -0.000117  -0.002440   0.000108   0.005224  -0.006664  -0.034643
     6  C    0.003808   0.000416   0.000099  -0.000183   0.002628  -0.007933
     7  C   -0.038801  -0.002730   0.005261  -0.000014  -0.001470  -0.000140
     8  C   -0.057309   0.005718  -0.010760   0.000381  -0.000217   0.000014
     9  C   -0.000263  -0.000270   0.000167   0.000003  -0.000680  -0.000003
    10  C   -0.000792  -0.000053  -0.000120  -0.000002   0.000149   0.000033
    11  O   -0.000027   0.000008  -0.000013   0.000285   0.009568   0.003903
    12  C    0.000034  -0.000006  -0.000013   0.000003  -0.000673  -0.000111
    13  H   -0.014646   0.000373  -0.000192   0.000006  -0.000008  -0.000002
    14  H   -0.000233   0.000002   0.000004  -0.000000  -0.000002  -0.000001
    15  H   -0.000210  -0.000040   0.000005   0.000010   0.000189   0.000023
    16  C    0.000005  -0.000065  -0.000005  -0.000166  -0.000012  -0.006993
    17  C   -0.000008   0.000001   0.000001   0.000002  -0.000317   0.000015
    18  C   -0.000001  -0.000000  -0.000000   0.000000   0.000080   0.000004
    19  C    5.013884  -0.006966  -0.005131  -0.000209   0.000219   0.000003
    20  H   -0.006966   0.662030  -0.039817   0.000612   0.005549   0.000187
    21  H   -0.005131  -0.039817   0.663376  -0.010519   0.000629  -0.000219
    22  H   -0.000209   0.000612  -0.010519   0.669657  -0.036643   0.000467
    23  H    0.000219   0.005549   0.000629  -0.036643   0.613528  -0.008612
    24  H    0.000003   0.000187  -0.000219   0.000467  -0.008612   0.632063
    25  H    0.000009   0.003545  -0.000106  -0.009708   0.005912  -0.040269
    26  H   -0.000150   0.002056  -0.000074   0.000021  -0.000106   0.006012
    27  H   -0.011383  -0.000140   0.002464   0.000003   0.000006  -0.000000
    28  H    0.005965   0.000150   0.000176  -0.000516   0.004443   0.000012
    29  H    0.000015   0.000004  -0.000002  -0.000000   0.000036   0.000000
    30  H    0.000844   0.000005  -0.000010   0.000000   0.000003   0.000000
    31  H   -0.000000   0.000005  -0.000000   0.000003   0.000000   0.000231
    32  H   -0.000000  -0.000001   0.000000  -0.000004   0.000003  -0.000293
    33  H    0.000000  -0.000001   0.000000  -0.000006   0.000001   0.005199
    34  H    0.000007  -0.000001   0.000001   0.000010   0.002009   0.000004
    35  H   -0.000000   0.000000  -0.000000   0.000000   0.000032  -0.000000
    36  H    0.000000   0.000000   0.000000  -0.000001   0.000113   0.000008
    37  H   -0.000000   0.000000   0.000000  -0.000000  -0.000002  -0.000000
    38  H    0.000000   0.000000  -0.000000   0.000000  -0.000001  -0.000000
    39  H   -0.000000   0.000000   0.000000  -0.000000   0.000001   0.000000
    40  H    0.371546   0.000091  -0.000089   0.000003  -0.000001  -0.000000
    41  H    0.372680  -0.000026   0.004283  -0.000002   0.000003  -0.000000
    42  H    0.371941   0.005269  -0.000302  -0.000001   0.000007   0.000000
              25         26         27         28         29         30
     1  C   -0.000142  -0.001179  -0.031335  -0.036311   0.005028  -0.002376
     2  C   -0.004907   0.003058  -0.000055  -0.008278  -0.000186   0.000081
     3  C   -0.035549  -0.003957   0.000008   0.002437   0.000000  -0.000020
     4  C    0.373154  -0.037315  -0.000004   0.000034  -0.000000   0.000001
     5  C   -0.034157   0.384478  -0.000005  -0.000005   0.000003   0.000002
     6  C    0.005735  -0.045953  -0.000108   0.000635  -0.000052  -0.000060
     7  C   -0.000018  -0.005142   0.006054  -0.000111   0.005736  -0.002065
     8  C   -0.000007   0.000058   0.369671   0.377347  -0.029714  -0.038845
     9  C   -0.000000  -0.000006  -0.031702  -0.038887   0.372835   0.376723
    10  C    0.000005   0.000176   0.005516  -0.001955  -0.033091  -0.028641
    11  O    0.000180   0.002931   0.000015  -0.000943   0.000117  -0.000079
    12  C   -0.000001  -0.000151  -0.000043   0.002779  -0.010975   0.004934
    13  H    0.000002   0.001933  -0.000176  -0.000234  -0.000151  -0.000003
    14  H   -0.000000  -0.000014  -0.000236  -0.000094   0.002408  -0.009839
    15  H   -0.000153   0.002405   0.000005  -0.000019   0.000008  -0.000012
    16  C   -0.003055  -0.047252  -0.000000  -0.000000  -0.000000  -0.000000
    17  C   -0.000001   0.000004   0.000046  -0.002083   0.002765   0.000059
    18  C    0.000000   0.000008   0.000003  -0.000027   0.000453  -0.000213
    19  C    0.000009  -0.000150  -0.011383   0.005965   0.000015   0.000844
    20  H    0.003545   0.002056  -0.000140   0.000150   0.000004   0.000005
    21  H   -0.000106  -0.000074   0.002464   0.000176  -0.000002  -0.000010
    22  H   -0.009708   0.000021   0.000003  -0.000516  -0.000000   0.000000
    23  H    0.005912  -0.000106   0.000006   0.004443   0.000036   0.000003
    24  H   -0.040269   0.006012  -0.000000   0.000012   0.000000   0.000000
    25  H    0.662866  -0.008838   0.000000   0.000005   0.000000  -0.000000
    26  H   -0.008838   0.661250   0.000000  -0.000007   0.000000  -0.000000
    27  H    0.000000   0.000000   0.644203  -0.036343   0.001805  -0.009254
    28  H    0.000005  -0.000007  -0.036343   0.634467  -0.008040   0.006166
    29  H    0.000000   0.000000   0.001805  -0.008040   0.637218  -0.038043
    30  H   -0.000000  -0.000000  -0.009254   0.006166  -0.038043   0.646638
    31  H   -0.000167  -0.003714   0.000000   0.000000  -0.000000   0.000000
    32  H    0.003867  -0.003483   0.000000   0.000000   0.000000   0.000000
    33  H   -0.000285   0.005542  -0.000000  -0.000000  -0.000000   0.000000
    34  H    0.000000   0.000000   0.000032   0.004804   0.000231   0.000033
    35  H    0.000000  -0.000000   0.000001  -0.000008   0.002840  -0.000003
    36  H    0.000000   0.000000  -0.000001  -0.000101  -0.000135  -0.000004
    37  H   -0.000000  -0.000000  -0.000000   0.000002   0.000025  -0.000005
    38  H   -0.000000   0.000004  -0.000000   0.000000  -0.000002  -0.000001
    39  H   -0.000000   0.000000  -0.000000  -0.000000  -0.000019   0.000003
    40  H   -0.000000  -0.000008   0.000528  -0.000001  -0.000107   0.003061
    41  H   -0.000000   0.000003   0.004210   0.000057  -0.000013   0.000139
    42  H   -0.000000   0.000522   0.000247  -0.000223   0.000004  -0.000158
              31         32         33         34         35         36
     1  C    0.000007  -0.000000  -0.000013  -0.000154   0.000003  -0.000012
     2  C    0.000014   0.000003   0.000009  -0.000064  -0.000002   0.000001
     3  C   -0.000218   0.000058  -0.000024  -0.000459   0.000007  -0.000012
     4  C    0.004950  -0.004285  -0.005769   0.000033   0.000001   0.000003
     5  C   -0.030212  -0.030259  -0.031679  -0.000031   0.000001   0.000006
     6  C   -0.006047   0.004395  -0.007616   0.000236  -0.000245  -0.000176
     7  C   -0.000052  -0.000184   0.000279   0.000306   0.000149  -0.000142
     8  C    0.000000  -0.000000   0.000000  -0.001209   0.000166   0.000074
     9  C    0.000000  -0.000000  -0.000000   0.001307  -0.001754   0.000250
    10  C   -0.000003   0.000003   0.000024  -0.007307  -0.002467   0.005239
    11  O   -0.000055  -0.000028   0.004427  -0.000034   0.003190  -0.000480
    12  C   -0.000004   0.000003  -0.000233  -0.022642  -0.025608  -0.023141
    13  H    0.000008   0.000001  -0.000009  -0.000007   0.000000   0.000003
    14  H   -0.000000  -0.000000  -0.000001  -0.000115  -0.000004  -0.000152
    15  H    0.006140   0.000162  -0.000195   0.000019   0.000027  -0.000019
    16  C    0.371561   0.375316   0.385580   0.000000  -0.000000  -0.000001
    17  C   -0.000000  -0.000000   0.000005   0.368220   0.365826   0.373885
    18  C   -0.000004  -0.000000   0.000031   0.006193  -0.000119  -0.007852
    19  C   -0.000000  -0.000000   0.000000   0.000007  -0.000000   0.000000
    20  H    0.000005  -0.000001  -0.000001  -0.000001   0.000000   0.000000
    21  H   -0.000000   0.000000   0.000000   0.000001  -0.000000   0.000000
    22  H    0.000003  -0.000004  -0.000006   0.000010   0.000000  -0.000001
    23  H    0.000000   0.000003   0.000001   0.002009   0.000032   0.000113
    24  H    0.000231  -0.000293   0.005199   0.000004  -0.000000   0.000008
    25  H   -0.000167   0.003867  -0.000285   0.000000   0.000000   0.000000
    26  H   -0.003714  -0.003483   0.005542   0.000000  -0.000000   0.000000
    27  H    0.000000   0.000000  -0.000000   0.000032   0.000001  -0.000001
    28  H    0.000000   0.000000  -0.000000   0.004804  -0.000008  -0.000101
    29  H   -0.000000   0.000000  -0.000000   0.000231   0.002840  -0.000135
    30  H    0.000000   0.000000   0.000000   0.000033  -0.000003  -0.000004
    31  H    0.630877  -0.032205  -0.031425   0.000000   0.000000   0.000000
    32  H   -0.032205   0.624868  -0.031455  -0.000000   0.000000   0.000000
    33  H   -0.031425  -0.031455   0.590278  -0.000000  -0.000000   0.000002
    34  H    0.000000  -0.000000  -0.000000   0.606673  -0.029407  -0.032463
    35  H    0.000000   0.000000  -0.000000  -0.029407   0.616251  -0.030197
    36  H    0.000000   0.000000   0.000002  -0.032463  -0.030197   0.600605
    37  H    0.000000   0.000000   0.000000  -0.000091   0.000958   0.000228
    38  H   -0.000004  -0.000000   0.000016  -0.000234   0.000009  -0.000009
    39  H    0.000001   0.000000   0.000026  -0.000014   0.000102   0.004092
    40  H   -0.000000   0.000000  -0.000000  -0.000000  -0.000000  -0.000000
    41  H   -0.000000   0.000000  -0.000000  -0.000000   0.000000   0.000000
    42  H   -0.000000  -0.000000   0.000000  -0.000000   0.000000  -0.000000
              37         38         39         40         41         42
     1  C   -0.000007   0.000020   0.000006  -0.029885  -0.028595  -0.027753
     2  C    0.000000  -0.000000  -0.000000   0.005153  -0.004915  -0.006344
     3  C    0.000000  -0.000000  -0.000000  -0.000187   0.000082   0.000032
     4  C   -0.000000  -0.000001   0.000002  -0.000000  -0.000000  -0.000030
     5  C    0.000008  -0.000116  -0.000032   0.000007  -0.000003  -0.000011
     6  C    0.000114   0.000580  -0.000343   0.000005  -0.000135   0.000039
     7  C    0.000181   0.000469  -0.000045  -0.004923   0.004553  -0.007104
     8  C   -0.000003  -0.000007   0.000007  -0.005258  -0.006167   0.005651
     9  C   -0.000031   0.000060  -0.000165   0.001286  -0.000138  -0.000206
    10  C   -0.002140  -0.006802   0.004829   0.000889  -0.000115   0.000076
    11  O    0.003975  -0.003072   0.000104  -0.000003   0.000001   0.000001
    12  C   -0.022888  -0.025209  -0.026672   0.000030   0.000006  -0.000014
    13  H   -0.000032  -0.000153   0.000004   0.002250   0.000551   0.004258
    14  H    0.001675   0.003472   0.000419  -0.000208   0.000010   0.000009
    15  H   -0.000503   0.003523   0.000190   0.000003   0.000004  -0.000032
    16  C    0.000000   0.000003  -0.000003  -0.000000  -0.000000  -0.000002
    17  C   -0.000857   0.005526  -0.005442  -0.000000  -0.000000   0.000000
    18  C    0.352660   0.372424   0.372183   0.000000  -0.000000  -0.000000
    19  C   -0.000000   0.000000  -0.000000   0.371546   0.372680   0.371941
    20  H    0.000000   0.000000   0.000000   0.000091  -0.000026   0.005269
    21  H    0.000000  -0.000000   0.000000  -0.000089   0.004283  -0.000302
    22  H   -0.000000   0.000000  -0.000000   0.000003  -0.000002  -0.000001
    23  H   -0.000002  -0.000001   0.000001  -0.000001   0.000003   0.000007
    24  H   -0.000000  -0.000000   0.000000  -0.000000  -0.000000   0.000000
    25  H   -0.000000  -0.000000  -0.000000  -0.000000  -0.000000  -0.000000
    26  H   -0.000000   0.000004   0.000000  -0.000008   0.000003   0.000522
    27  H   -0.000000  -0.000000  -0.000000   0.000528   0.004210   0.000247
    28  H    0.000002   0.000000  -0.000000  -0.000001   0.000057  -0.000223
    29  H    0.000025  -0.000002  -0.000019  -0.000107  -0.000013   0.000004
    30  H   -0.000005  -0.000001   0.000003   0.003061   0.000139  -0.000158
    31  H    0.000000  -0.000004   0.000001  -0.000000  -0.000000  -0.000000
    32  H    0.000000  -0.000000   0.000000   0.000000   0.000000  -0.000000
    33  H    0.000000   0.000016   0.000026  -0.000000  -0.000000   0.000000
    34  H   -0.000091  -0.000234  -0.000014  -0.000000  -0.000000  -0.000000
    35  H    0.000958   0.000009   0.000102  -0.000000   0.000000   0.000000
    36  H    0.000228  -0.000009   0.004092  -0.000000   0.000000  -0.000000
    37  H    0.633603  -0.030272  -0.029820   0.000000  -0.000000   0.000000
    38  H   -0.030272   0.615313  -0.032144   0.000000  -0.000000  -0.000000
    39  H   -0.029820  -0.032144   0.608040  -0.000000   0.000000   0.000000
    40  H    0.000000   0.000000  -0.000000   0.627399  -0.032281  -0.032751
    41  H   -0.000000  -0.000000   0.000000  -0.032281   0.621688  -0.031722
    42  H    0.000000  -0.000000   0.000000  -0.032751  -0.031722   0.622850
 Mulliken charges:
               1
     1  C    0.065567
     2  C   -0.175978
     3  C   -0.195108
     4  C   -0.156177
     5  C   -0.080002
     6  C    0.203913
     7  C   -0.087481
     8  C   -0.180045
     9  C   -0.188992
    10  C   -0.115900
    11  O   -0.538422
    12  C    0.312823
    13  H    0.083246
    14  H    0.085235
    15  H    0.065062
    16  C   -0.322591
    17  C   -0.321335
    18  C   -0.309254
    19  C   -0.317709
    20  H    0.081015
    21  H    0.082499
    22  H    0.078221
    23  H    0.108595
    24  H    0.097800
    25  H    0.082080
    26  H    0.086887
    27  H    0.085965
    28  H    0.094707
    29  H    0.088999
    30  H    0.090938
    31  H    0.090315
    32  H    0.093519
    33  H    0.117289
    34  H    0.104112
    35  H    0.100251
    36  H    0.110390
    37  H    0.093222
    38  H    0.096609
    39  H    0.104688
    40  H    0.093451
    41  H    0.095845
    42  H    0.095748
 Sum of Mulliken charges =  -0.00000
 Mulliken charges with hydrogens summed into heavy atoms:
               1
     1  C    0.065567
     2  C   -0.012464
     3  C   -0.008291
     4  C    0.023704
     5  C    0.006885
     6  C    0.268974
     7  C   -0.004234
     8  C    0.000627
     9  C   -0.009056
    10  C   -0.030665
    11  O   -0.538422
    12  C    0.312823
    16  C   -0.021468
    17  C   -0.006581
    18  C   -0.014734
    19  C   -0.032665
 Electronic spatial extent (au):  <R**2>=           3304.8420
 Charge=              0.0000 electrons
 Dipole moment (field-independent basis, Debye):
    X=             -0.5961    Y=              0.8059    Z=             -0.7034  Tot=              1.2246
 Quadrupole moment (field-independent basis, Debye-Ang):
   XX=            -98.9611   YY=           -103.3676   ZZ=           -100.4685
   XY=              0.8386   XZ=             -0.5789   YZ=              0.7453
 Traceless Quadrupole moment (field-independent basis, Debye-Ang):
   XX=              1.9713   YY=             -2.4352   ZZ=              0.4639
   XY=              0.8386   XZ=             -0.5789   YZ=              0.7453
 Octapole moment (field-independent basis, Debye-Ang**2):
  XXX=             -3.6291  YYY=             -3.8412  ZZZ=              1.0644  XYY=             -3.0688
  XXY=             -2.9455  XXZ=              1.4152  XZZ=             -1.2343  YZZ=             -3.3581
  YYZ=              2.6835  XYZ=              1.1337
 Hexadecapole moment (field-independent basis, Debye-Ang**3):
 XXXX=          -1987.0245 YYYY=          -1826.8676 ZZZZ=           -728.2043 XXXY=              9.0696
 XXXZ=             -2.0815 YYYX=              2.6407 YYYZ=             -1.2119 ZZZX=              0.3546
 ZZZY=             -1.1973 XXYY=           -646.2019 XXZZ=           -456.3426 YYZZ=           -426.6845
 XXYZ=             -7.4115 YYXZ=              1.2664 ZZXY=              1.2312
 N-N= 1.300355031788D+03 E-N=-4.136161092175D+03  KE= 6.564307712238D+02
 1\1\GINC-LOCALHOST\SP\RB3LYP\6-31G(d,p)\C15H26O1\DINGLAB\09-Aug-2026\0
 \\# B3LYP/6-31G** nmr(FConly) g09default scf=noincore\\Template file\\
 0,1\C,0,-0.78126,1.5677,0.28407\C,0,-1.98256,1.19206,-0.61126\C,0,-1.7
 2833,0.07676,-1.61859\C,0,-2.06003,-1.30399,-1.06692\C,0,-1.62115,-1.5
 4522,0.38313\C,0,-0.20754,-1.04765,0.69903\C,0,-0.02385,0.42785,1.0353
 \C,0,0.30118,2.2926,-0.54678\C,0,1.59905,2.05011,0.19771\C,0,1.48101,0
 .6392,0.76455\O,0,0.70626,-1.32558,-0.3655\C,0,1.90243,-0.55606,-0.130
 34\H,0,-0.21829,0.53546,2.11245\H,0,2.04238,0.60711,1.70389\H,0,0.1502
 7,-1.61382,1.57055\C,0,-1.7262,-3.05034,0.67649\C,0,2.5174,-0.22657,-1
 .49025\C,0,2.8822,-1.47107,0.62804\C,0,-1.3175,2.56727,1.34471\H,0,-2.
 85807,0.946,0.00138\H,0,-2.27323,2.08812,-1.17771\H,0,-2.35887,0.24293
 ,-2.50354\H,0,-0.70152,0.09301,-1.98965\H,0,-1.61817,-2.05418,-1.73482
 \H,0,-3.14603,-1.45662,-1.12669\H,0,-2.32268,-1.04817,1.06304\H,0,0.10
 246,3.36686,-0.65133\H,0,0.37325,1.89549,-1.56008\H,0,2.4795,2.20362,-
 0.43516\H,0,1.68404,2.76748,1.02427\H,0,-1.53856,-3.25191,1.73667\H,0,
 -2.72862,-3.42537,0.44137\H,0,-1.00092,-3.62449,0.08963\H,0,1.84762,0.
 37893,-2.10405\H,0,3.47363,0.29419,-1.38849\H,0,2.68789,-1.14335,-2.06
 569\H,0,3.83098,-0.96196,0.82876\H,0,2.46368,-1.80747,1.58311\H,0,3.08
 745,-2.38028,0.05108\H,0,-0.51544,2.9582,1.98266\H,0,-1.80893,3.42456,
 0.87105\H,0,-2.05209,2.08338,1.99949\\Version=ES64L-G16RevA.03\State=1
 -A\HF=-662.5153249\RMSD=4.068e-09\Dipole=0.0961554,0.3716778,0.2910886
 \Quadrupole=1.4573248,-1.749092,0.2917672,0.6821413,-0.1522391,-0.7286
 092\PG=C01 [X(C15H26O1)]\\@


 A FOOL CAN ASK MORE QUESTIONS THAN
 A WISE MAN CAN ANSWER.
 Job cpu time:       0 days  1 hours  0 minutes 47.4 seconds.
 Elapsed time:       0 days  0 hours  5 minutes  5.6 seconds.
 File lengths (MBytes):  RWF=    248 Int=      0 D2E=      0 Chk=     10 Scr=      1
 Normal termination of Gaussian 16 at Sun Aug  9 02:55:04 2026.
