      -----------------------------------------------------------      
     |                   =====================                   |     
     |                           x T B                           |     
     |                   =====================                   |     
     |                         S. Grimme                         |     
     |          Mulliken Center for Theoretical Chemistry        |     
     |                    University of Bonn                     |     
      -----------------------------------------------------------      

   * xtb version 6.7.1 (edcfbbe) compiled by 'albert@albert-system' on 2024-07-22

   xtb is free software: you can redistribute it and/or modify it under
   the terms of the GNU Lesser General Public License as published by
   the Free Software Foundation, either version 3 of the License, or
   (at your option) any later version.
   
   xtb is distributed in the hope that it will be useful,
   but WITHOUT ANY WARRANTY; without even the implied warranty of
   MERCHANTABILITY or FITNESS FOR A PARTICULAR PURPOSE.  See the
   GNU Lesser General Public License for more details.
   
   Cite this work as:
   * C. Bannwarth, E. Caldeweyher, S. Ehlert, A. Hansen, P. Pracht,
     J. Seibert, S. Spicher, S. Grimme, WIREs Comput. Mol. Sci., 2020, 11,
     e01493. DOI: 10.1002/wcms.1493
   
   for GFN2-xTB:
   * C. Bannwarth, S. Ehlert and S. Grimme., J. Chem. Theory Comput., 2019,
     15, 1652-1671. DOI: 10.1021/acs.jctc.8b01176
   for GFN1-xTB:
   * S. Grimme, C. Bannwarth, P. Shushkov, J. Chem. Theory Comput., 2017,
     13, 1989-2009. DOI: 10.1021/acs.jctc.7b00118
   for GFN0-xTB:
   * P. Pracht, E. Caldeweyher, S. Ehlert, S. Grimme, ChemRxiv, 2019, preprint.
     DOI: 10.26434/chemrxiv.8326202.v1
   for GFN-FF:
   * S. Spicher and S. Grimme, Angew. Chem. Int. Ed., 2020, 59, 15665-15673.
     DOI: 10.1002/anie.202004239
   
   for ALPB and GBSA implicit solvation:
   * S. Ehlert, M. Stahn, S. Spicher, S. Grimme, J. Chem. Theory Comput.,
     2021, 17, 4250-4261. DOI: 10.1021/acs.jctc.1c00471
   
   for ddCOSMO and CPCM-X implicit solvation:
   * M. Stahn, S. Ehlert, S. Grimme, J. Phys. Chem. A,
     2023, XX, XXXX-XXXX. DOI: 10.1021/acs.jpca.3c04382
   
   for DFT-D4:
   * E. Caldeweyher, C. Bannwarth and S. Grimme, J. Chem. Phys., 2017,
     147, 034112. DOI: 10.1063/1.4993215
   * E. Caldeweyher, S. Ehlert, A. Hansen, H. Neugebauer, S. Spicher,
     C. Bannwarth and S. Grimme, J. Chem. Phys., 2019, 150, 154122.
     DOI: 10.1063/1.5090222
   * E. Caldeweyher, J.-M. Mewes, S. Ehlert and S. Grimme, Phys. Chem. Chem. Phys.
     2020, 22, 8499-8512. DOI: 10.1039/D0CP00502A
   
   for sTDA-xTB:
   * S. Grimme and C. Bannwarth, J. Chem. Phys., 2016, 145, 054103.
     DOI: 10.1063/1.4959605
   
   in the mass-spec context:
   * V. Asgeirsson, C. Bauer and S. Grimme, Chem. Sci., 2017, 8, 4879.
     DOI: 10.1039/c7sc00601b
   * J. Koopman and S. Grimme, ACS Omega 2019, 4, 12, 15120-15133.
     DOI: 10.1021/acsomega.9b02011
   
   for metadynamics refer to:
   * S. Grimme, J. Chem. Theory Comput., 2019, 155, 2847-2862
     DOI: 10.1021/acs.jctc.9b00143
   
   for SPH calculations refer to:
   * S. Spicher and S. Grimme, J. Chem. Theory Comput., 2021, 17, 1701-1714
     DOI: 10.1021/acs.jctc.0c01306
   
   for ONIOM refer to:
   * C. Plett, A. Katbashev, S. Ehlert, S. Grimme, M. Bursch,
     Phys. Chem. Chem. Phys., 2023, 25, 17860-17868. DOI: 10.1039/D3CP02178E
   
   for DIPRO refer to:
   * J. Kohn, N. Gildemeister, S. Grimme, D. Fazzi, A. Hansen,
     J. Chem. Phys., 2023, just accepted.
   
   for PTB refer to:
   * S. Grimme, M. Mueller, A. Hansen, J. Chem. Phys., 2023, 158, 124111.
     DOI: 10.1063/5.0137838
   
   with help from (in alphabetical order)
   P. Atkinson, C. Bannwarth, F. Bohle, G. Brandenburg, E. Caldeweyher
   M. Checinski, S. Dohm, S. Ehlert, S. Ehrlich, I. Gerasimov, C. Hölzer
   A. Katbashev, J. Kohn, J. Koopman, C. Lavigne, S. Lehtola, F. März, M. Müller,
   F. Musil, H. Neugebauer, J. Pisarek, C. Plett, P. Pracht, F. Pultar,
   J. Seibert, P. Shushkov, S. Spicher, M. Stahn, M. Steiner, T. Strunk,
   J. Stückrath, T. Rose, and J. Unsleber
   
 * started run on 2026/08/09 at 17:05:40.588     
   ID    Z sym.   atoms
    1    6 c      1-8, 10-13, 16
    2    8 o      9, 15
    3    1 h      14, 17-35

           -------------------------------------------------
          |                Calculation Setup                |
           -------------------------------------------------

          program call               : /home/dinglab/software/xtb_6.7.1/xtb_dist/bin/xtb coord --gfn2 --ohess vtight --alpb chcl3 --chrg 0 --enso --norestart -I xcontrol-inp --parallel 12
          hostname                   : localhost
          coordinate file            : coord
          omp threads                :                    12


           -------------------------------------------------
          |                 G F N 2 - x T B                 |
           -------------------------------------------------

        Reference                      10.1021/acs.jctc.8b01176
      * Hamiltonian:
        H0-scaling (s, p, d)           1.850000    2.230000    2.230000
        zeta-weighting                 0.500000
      * Dispersion:
        s8                             2.700000
        a1                             0.520000
        a2                             5.000000
        s9                             5.000000
      * Repulsion:
        kExp                           1.500000    1.000000
        rExp                           1.000000
      * Coulomb:
        alpha                          2.000000
        third order                    shell-resolved
        anisotropic                    true
        a3                             3.000000
        a5                             4.000000
        cn-shift                       1.200000
        cn-exp                         4.000000
        max-rad                        5.000000

      * Solvation model:               ALPB
        Solvent                        chcl3
        Parameter file                 internal GFN2-xTB/ALPB
        Dielectric constant                4.8100E+00
        Reference state                gsolv [1 M gas/solution]
        Free energy shift                  3.8910E-03 Eh       2.4417E+00 kcal/mol
        Temperature                        2.9815E+02 K
        Density                            1.4900E+00 kg/L
        Solvent mass                       1.1938E+02 g/mol
        Interaction kernel             P16
        Born radius scaling (c1)           1.3274E+00
        Born radii integrator          GBOBC
        Born offset                        0.0000E+00 a0       0.0000E+00 AA
        H-bond correction              false
        Ion screening                  false
        Surface tension                    1.0000E-05 Eh       1.5569E+01 dyn/cm
        Grid points                               974 per atom

          ...................................................
          :                      SETUP                      :
          :.................................................:
          :  # basis functions                  80          :
          :  # atomic orbitals                  80          :
          :  # shells                           50          :
          :  # electrons                        84          :
          :  max. iterations                   250          :
          :  Hamiltonian                  GFN2-xTB          :
          :  restarted?                      false          :
          :  GBSA solvation                   true          :
          :  PC potential                    false          :
          :  electronic temp.          300.0000000     K    :
          :  accuracy                    1.0000000          :
          :  -> integral cutoff          0.2500000E+02      :
          :  -> integral neglect         0.1000000E-07      :
          :  -> SCF convergence          0.1000000E-05 Eh   :
          :  -> wf. convergence          0.1000000E-03 e    :
          :  Broyden damping             0.4000000          :
          :  net charge                          0          :
          :  unpaired electrons                  0          :
          ...................................................

 iter      E             dE          RMSdq      gap      omega  full diag
   1    -46.6666378 -0.466666E+02  0.344E+00    5.00       0.0  T
   2    -46.7093300 -0.426922E-01  0.192E+00    4.97       1.0  T
   3    -46.7066125  0.271750E-02  0.739E-01    4.99       1.0  T
   4    -46.7102225 -0.360992E-02  0.363E-01    4.93       1.0  T
   5    -46.7128981 -0.267568E-02  0.836E-02    4.95       1.0  T
   6    -46.7129592 -0.610182E-04  0.440E-02    4.95       1.0  T
   7    -46.7129667 -0.755328E-05  0.138E-02    4.95       1.2  T
   8    -46.7129679 -0.122237E-05  0.384E-03    4.95       4.4  T
   9    -46.7129680 -0.107410E-06  0.228E-03    4.95       7.4  T
  10    -46.7129681 -0.594178E-07  0.100E-03    4.95      16.9  T
  11    -46.7129681 -0.861316E-08  0.411E-04    4.95      41.1  T
  12    -46.7129681 -0.982155E-09  0.101E-04    4.95     166.9  T

   *** convergence criteria satisfied after 12 iterations ***

         #    Occupation            Energy/Eh            Energy/eV
      -------------------------------------------------------------
         1        2.0000           -0.6947455             -18.9050
       ...           ...                  ...                  ...
        36        2.0000           -0.4300776             -11.7030
        37        2.0000           -0.4222888             -11.4911
        38        2.0000           -0.4163976             -11.3308
        39        2.0000           -0.4098320             -11.1521
        40        2.0000           -0.4045115             -11.0073
        41        2.0000           -0.3880426             -10.5592
        42        2.0000           -0.3861449             -10.5075 (HOMO)
        43                         -0.2042655              -5.5583 (LUMO)
        44                         -0.2018854              -5.4936
        45                         -0.0118767              -0.3232
        46                         -0.0029395              -0.0800
        47                          0.0209956               0.5713
       ...                                ...                  ...
        80                          0.6015759              16.3697
      -------------------------------------------------------------
                  HL-Gap            0.1818794 Eh            4.9492 eV
             Fermi-level           -0.2952052 Eh           -8.0329 eV

 SCC (total)                   0 d,  0 h,  0 min,  0.084 sec
 SCC setup                      ...        0 min,  0.001 sec (  0.961%)
 Dispersion                     ...        0 min,  0.000 sec (  0.433%)
 classical contributions        ...        0 min,  0.000 sec (  0.030%)
 integral evaluation            ...        0 min,  0.002 sec (  1.889%)
 iterations                     ...        0 min,  0.076 sec ( 91.258%)
 molecular gradient             ...        0 min,  0.004 sec (  5.113%)
 printout                       ...        0 min,  0.000 sec (  0.266%)

         :::::::::::::::::::::::::::::::::::::::::::::::::::::
         ::                     SUMMARY                     ::
         :::::::::::::::::::::::::::::::::::::::::::::::::::::
         :: total energy             -46.153817208447 Eh    ::
         :: total w/o Gsasa/hb       -46.141226246192 Eh    ::
         :: gradient norm              0.051381133088 Eh/a0 ::
         :: HOMO-LUMO gap              4.949189643155 eV    ::
         ::.................................................::
         :: SCC energy               -46.712301638290 Eh    ::
         :: -> isotropic ES            0.062576443078 Eh    ::
         :: -> anisotropic ES          0.008255821450 Eh    ::
         :: -> anisotropic XC          0.019499175685 Eh    ::
         :: -> dispersion             -0.035442689926 Eh    ::
         :: -> Gsolv                  -0.020807789895 Eh    ::
         ::    -> Gelec               -0.008216827639 Eh    ::
         ::    -> Gsasa               -0.016481981499 Eh    ::
         ::    -> Ghb                  0.000000000000 Eh    ::
         ::    -> Gshift               0.003891019244 Eh    ::
         :: repulsion energy           0.558484429843 Eh    ::
         :: add. restraining           0.000000000000 Eh    ::
         :: total charge               0.000000000000 e     ::
         :::::::::::::::::::::::::::::::::::::::::::::::::::::

      ----------------------------------------------------------- 
     |                   =====================                   |
     |                        A N C O P T                        |
     |                   =====================                   |
     |               Approximate Normal Coordinate               |
     |                Rational Function Optimizer                |
      ----------------------------------------------------------- 
      ----------------------------------------------------------- 
     |                   =====================                   |
     |                        A N C O P T                        |
     |                   =====================                   |
     |               Approximate Normal Coordinate               |
     |                Rational Function Optimizer                |
      ----------------------------------------------------------- 

          ...................................................
          :                      SETUP                      :
          :.................................................:
          :   optimization level         verytight          :
          :   max. optcycles                   700          :
          :   ANC micro-cycles                  20          :
          :   degrees of freedom                99          :
          :.................................................:
          :   RF solver                   davidson          :
          :   write xtbopt.log                true          :
          :   linear?                        false          :
          :   energy convergence         0.1000000E-06 Eh   :
          :   grad. convergence          0.2000000E-03 Eh/α :
          :   maxmium RF displ.          1.0000000          :
          :   Hlow (freq-cutoff)         0.1000000E-01      :
          :   Hmax (freq-cutoff)         5.0000000          :
          :   S6 in model hess.         20.0000000          :
          ...................................................

generating ANC from exact Hessian ...
Using Lindh-Hessian (1995)
 Shifting diagonal of input Hessian by   8.960399196686817E-003
 Lowest  eigenvalues of input Hessian
    0.000000    0.000000    0.000000    0.000000    0.000000    0.000000
    0.010000    0.010677    0.011014    0.012391    0.012614    0.013482
    0.014825    0.015995    0.016342    0.017684    0.018126    0.018721
 Highest eigenvalues
    1.392519    1.398528    1.405574    1.419992    1.809043    1.861770
 

........................................................................
.............................. CYCLE    1 ..............................
........................................................................

 iter      E             dE          RMSdq      gap      omega  full diag
   1    -46.7129681 -0.467130E+02  0.554E-05    4.95       0.0  T
   2    -46.7129681 -0.599698E-11  0.362E-05    4.95     466.5  T
   3    -46.7129681  0.466116E-11  0.257E-05    4.95     658.7  T
     SCC iter.                  ...        0 min,  0.005 sec
     gradient                   ...        0 min,  0.003 sec
 * total energy  :   -46.1538172 Eh     change       -0.6092193E-10 Eh
   gradient norm :     0.0513812 Eh/α   predicted     0.0000000E+00 (-100.00%)
   displ. norm   :     0.2891470 α      lambda       -0.9422491E-02
   maximum displ.:     0.0816999 α      in ANC's #43, #25, #30, ...

........................................................................
.............................. CYCLE    2 ..............................
........................................................................

 iter      E             dE          RMSdq      gap      omega  full diag
   1    -46.7643194 -0.467643E+02  0.144E-01    5.12       0.0  T
   2    -46.7643483 -0.289271E-04  0.890E-02    5.11       1.0  T
   3    -46.7643239  0.244260E-04  0.563E-02    5.12       1.0  T
   4    -46.7643782 -0.543161E-04  0.645E-03    5.12       2.6  T
   5    -46.7643786 -0.409785E-06  0.288E-03    5.12       5.9  T
   6    -46.7643786 -0.483070E-08  0.105E-03    5.12      16.2  T
   7    -46.7643786 -0.524379E-08  0.362E-04    5.12      46.7  T
   8    -46.7643786 -0.162000E-08  0.183E-04    5.12      92.5  T
     SCC iter.                  ...        0 min,  0.010 sec
     gradient                   ...        0 min,  0.003 sec
 * total energy  :   -46.1598561 Eh     change       -0.6038930E-02 Eh
   gradient norm :     0.0150919 Eh/α   predicted    -0.5105392E-02 ( -15.46%)
   displ. norm   :     0.2009106 α      lambda       -0.1443738E-02
   maximum displ.:     0.0903552 α      in ANC's #4, #12, #16, ...

........................................................................
.............................. CYCLE    3 ..............................
........................................................................

 iter      E             dE          RMSdq      gap      omega  full diag
   1    -46.7830649 -0.467831E+02  0.729E-02    5.16       0.0  T
   2    -46.7830717 -0.674744E-05  0.457E-02    5.16       1.0  T
   3    -46.7830658  0.587536E-05  0.278E-02    5.16       1.0  T
   4    -46.7830792 -0.133699E-04  0.313E-03    5.16       5.4  T
   5    -46.7830793 -0.961777E-07  0.129E-03    5.16      13.1  T
   6    -46.7830793 -0.264769E-08  0.517E-04    5.16      32.7  T
   7    -46.7830793 -0.549562E-09  0.179E-04    5.16      94.3  T
     SCC iter.                  ...        0 min,  0.009 sec
     gradient                   ...        0 min,  0.003 sec
 * total energy  :   -46.1606140 Eh     change       -0.7579069E-03 Eh
   gradient norm :     0.0048057 Eh/α   predicted    -0.7514197E-03 (  -0.86%)
   displ. norm   :     0.0925248 α      lambda       -0.1618745E-03
   maximum displ.:     0.0514788 α      in ANC's #4, #3, #16, ...

........................................................................
.............................. CYCLE    4 ..............................
........................................................................

 iter      E             dE          RMSdq      gap      omega  full diag
   1    -46.7833283 -0.467833E+02  0.318E-02    5.15       0.0  T
   2    -46.7833286 -0.288393E-06  0.191E-02    5.15       1.0  T
   3    -46.7833272  0.135214E-05  0.774E-03    5.15       2.2  T
   4    -46.7833288 -0.159435E-05  0.894E-04    5.15      18.9  T
   5    -46.7833288 -0.545074E-08  0.396E-04    5.15      42.7  T
   6    -46.7833288 -0.561883E-09  0.148E-04    5.15     114.3  T
     SCC iter.                  ...        0 min,  0.008 sec
     gradient                   ...        0 min,  0.003 sec
 * total energy  :   -46.1607064 Eh     change       -0.9236311E-04 Eh
   gradient norm :     0.0024308 Eh/α   predicted    -0.8163411E-04 ( -11.62%)
   displ. norm   :     0.1173123 α      lambda       -0.1117130E-03
   maximum displ.:     0.0819844 α      in ANC's #4, #3, #6, ...

........................................................................
.............................. CYCLE    5 ..............................
........................................................................

 iter      E             dE          RMSdq      gap      omega  full diag
   1    -46.7818305 -0.467818E+02  0.347E-02    5.15       0.0  T
   2    -46.7818308 -0.279330E-06  0.205E-02    5.15       1.0  T
   3    -46.7818302  0.623070E-06  0.528E-03    5.15       3.2  T
   4    -46.7818309 -0.759492E-06  0.984E-04    5.15      17.2  T
   5    -46.7818309 -0.745487E-08  0.460E-04    5.15      36.7  T
     SCC iter.                  ...        0 min,  0.007 sec
     gradient                   ...        0 min,  0.003 sec
 * total energy  :   -46.1607780 Eh     change       -0.7162605E-04 Eh
   gradient norm :     0.0023131 Eh/α   predicted    -0.5663489E-04 ( -20.93%)
   displ. norm   :     0.0900648 α      lambda       -0.5191172E-04
   maximum displ.:     0.0570155 α      in ANC's #4, #9, #6, ...

........................................................................
.............................. CYCLE    6 ..............................
........................................................................

 iter      E             dE          RMSdq      gap      omega  full diag
   1    -46.7808232 -0.467808E+02  0.278E-02    5.15       0.0  T
   2    -46.7808233 -0.142681E-06  0.165E-02    5.15       1.0  T
   3    -46.7808232  0.933943E-07  0.233E-03    5.15       7.3  T
   4    -46.7808234 -0.135669E-06  0.724E-04    5.15      23.3  T
   5    -46.7808234 -0.644117E-08  0.385E-04    5.15      43.9  T
     SCC iter.                  ...        0 min,  0.007 sec
     gradient                   ...        0 min,  0.003 sec
 * total energy  :   -46.1608141 Eh     change       -0.3604256E-04 Eh
   gradient norm :     0.0023707 Eh/α   predicted    -0.2616693E-04 ( -27.40%)
   displ. norm   :     0.0913768 α      lambda       -0.3687878E-04
   maximum displ.:     0.0534292 α      in ANC's #4, #9, #6, ...

........................................................................
.............................. CYCLE    7 ..............................
........................................................................

 iter      E             dE          RMSdq      gap      omega  full diag
   1    -46.7807436 -0.467807E+02  0.275E-02    5.15       0.0  T
   2    -46.7807437 -0.958249E-07  0.163E-02    5.15       1.0  T
   3    -46.7807436  0.123591E-06  0.252E-03    5.15       6.7  T
   4    -46.7807438 -0.164398E-06  0.601E-04    5.15      28.1  T
   5    -46.7807438 -0.285237E-08  0.327E-04    5.15      51.8  T
     SCC iter.                  ...        0 min,  0.007 sec
     gradient                   ...        0 min,  0.003 sec
 * total energy  :   -46.1608389 Eh     change       -0.2485761E-04 Eh
   gradient norm :     0.0017169 Eh/α   predicted    -0.1859546E-04 ( -25.19%)
   displ. norm   :     0.0948342 α      lambda       -0.1803384E-04
   maximum displ.:     0.0521119 α      in ANC's #9, #4, #2, ...

........................................................................
.............................. CYCLE    8 ..............................
........................................................................

 iter      E             dE          RMSdq      gap      omega  full diag
   1    -46.7815810 -0.467816E+02  0.314E-02    5.15       0.0  T
   2    -46.7815811 -0.115638E-06  0.185E-02    5.15       1.0  T
   3    -46.7815807  0.346271E-06  0.380E-03    5.15       4.4  T
   4    -46.7815812 -0.412621E-06  0.560E-04    5.15      30.2  T
   5    -46.7815812 -0.170196E-08  0.293E-04    5.15      57.7  T
     SCC iter.                  ...        0 min,  0.007 sec
     gradient                   ...        0 min,  0.003 sec
 * total energy  :   -46.1608527 Eh     change       -0.1381363E-04 Eh
   gradient norm :     0.0008676 Eh/α   predicted    -0.9054517E-05 ( -34.45%)
   displ. norm   :     0.0312273 α      lambda       -0.5278104E-05
   maximum displ.:     0.0179935 α      in ANC's #3, #2, #9, ...

........................................................................
.............................. CYCLE    9 ..............................
........................................................................

 iter      E             dE          RMSdq      gap      omega  full diag
   1    -46.7818115 -0.467818E+02  0.117E-02    5.15       0.0  T
   2    -46.7818115 -0.262046E-07  0.688E-03    5.15       2.5  T
   3    -46.7818115  0.445766E-07  0.134E-03    5.15      12.6  T
   4    -46.7818116 -0.522494E-07  0.269E-04    5.15      62.9  T
   5    -46.7818116 -0.133899E-08  0.104E-04    5.15     161.8  T
     SCC iter.                  ...        0 min,  0.007 sec
     gradient                   ...        0 min,  0.003 sec
 * total energy  :   -46.1608585 Eh     change       -0.5719264E-05 Eh
   gradient norm :     0.0007468 Eh/α   predicted    -0.2643688E-05 ( -53.78%)
   displ. norm   :     0.0511104 α      lambda       -0.5446554E-05
   maximum displ.:     0.0251562 α      in ANC's #2, #3, #9, ...

........................................................................
.............................. CYCLE   10 ..............................
........................................................................

 iter      E             dE          RMSdq      gap      omega  full diag
   1    -46.7816732 -0.467817E+02  0.181E-02    5.15       0.0  T
   2    -46.7816732 -0.249603E-07  0.107E-02    5.15       1.6  T
   3    -46.7816732  0.377910E-07  0.128E-03    5.15      13.2  T
   4    -46.7816732 -0.482759E-07  0.270E-04    5.15      62.6  T
   5    -46.7816732 -0.760025E-09  0.141E-04    5.15     119.5  T
     SCC iter.                  ...        0 min,  0.007 sec
     gradient                   ...        0 min,  0.003 sec
 * total energy  :   -46.1608628 Eh     change       -0.4338181E-05 Eh
   gradient norm :     0.0007010 Eh/α   predicted    -0.2730574E-05 ( -37.06%)
   displ. norm   :     0.0352815 α      lambda       -0.2649437E-05
   maximum displ.:     0.0174494 α      in ANC's #9, #2, #4, ...

........................................................................
.............................. CYCLE   11 ..............................
........................................................................

 iter      E             dE          RMSdq      gap      omega  full diag
   1    -46.7815217 -0.467815E+02  0.137E-02    5.15       0.0  T
   2    -46.7815217 -0.127720E-07  0.807E-03    5.15       2.1  T
   3    -46.7815217 -0.181274E-08  0.443E-04    5.15      38.1  T
   4    -46.7815217 -0.339546E-08  0.230E-04    5.15      73.5  T
     SCC iter.                  ...        0 min,  0.005 sec
     gradient                   ...        0 min,  0.003 sec
 * total energy  :   -46.1608637 Eh     change       -0.9346055E-06 Eh
   gradient norm :     0.0005509 Eh/α   predicted    -0.1326031E-05 (  41.88%)
   displ. norm   :     0.0096431 α      lambda       -0.1634636E-05
   maximum displ.:     0.0062282 α      in ANC's #4, #5, #3, ...

........................................................................
.............................. CYCLE   12 ..............................
........................................................................

 iter      E             dE          RMSdq      gap      omega  full diag
   1    -46.7816179 -0.467816E+02  0.458E-03    5.15       0.0  T
   2    -46.7816179 -0.505263E-08  0.274E-03    5.15       6.2  T
   3    -46.7816179  0.363548E-08  0.467E-04    5.15      36.2  T
   4    -46.7816179 -0.516877E-08  0.130E-04    5.15     130.2  T
     SCC iter.                  ...        0 min,  0.005 sec
     gradient                   ...        0 min,  0.003 sec
 * total energy  :   -46.1608651 Eh     change       -0.1324625E-05 Eh
   gradient norm :     0.0003052 Eh/α   predicted    -0.8181286E-06 ( -38.24%)
   displ. norm   :     0.0084469 α      lambda       -0.5522229E-06
   maximum displ.:     0.0045809 α      in ANC's #3, #4, #5, ...

........................................................................
.............................. CYCLE   13 ..............................
........................................................................

 iter      E             dE          RMSdq      gap      omega  full diag
   1    -46.7816880 -0.467817E+02  0.301E-03    5.15       0.0  T
   2    -46.7816880 -0.284986E-08  0.179E-03    5.15       9.4  T
   3    -46.7816880  0.292530E-09  0.231E-04    5.15      73.3  T
   4    -46.7816880 -0.999790E-09  0.967E-05    5.15     174.9  T
     SCC iter.                  ...        0 min,  0.005 sec
     gradient                   ...        0 min,  0.003 sec
 * total energy  :   -46.1608656 Eh     change       -0.4855179E-06 Eh
   gradient norm :     0.0001817 Eh/α   predicted    -0.2801767E-06 ( -42.29%)
   displ. norm   :     0.0082105 α      lambda       -0.2553080E-06
   maximum displ.:     0.0043713 α      in ANC's #5, #4, #3, ...

........................................................................
.............................. CYCLE   14 ..............................
........................................................................

 iter      E             dE          RMSdq      gap      omega  full diag
   1    -46.7815992 -0.467816E+02  0.233E-03    5.15       0.0  T
   2    -46.7815992 -0.154686E-08  0.140E-03    5.15      12.1  T
   3    -46.7815992  0.108905E-09  0.165E-04    5.15     102.4  T
   4    -46.7815992 -0.533291E-09  0.756E-05    5.15     223.6  T
     SCC iter.                  ...        0 min,  0.005 sec
     gradient                   ...        0 min,  0.003 sec
 * total energy  :   -46.1608658 Eh     change       -0.2352531E-06 Eh
   gradient norm :     0.0001262 Eh/α   predicted    -0.1311278E-06 ( -44.26%)
   displ. norm   :     0.0066933 α      lambda       -0.1101008E-06
   maximum displ.:     0.0038313 α      in ANC's #5, #4, #1, ...

........................................................................
.............................. CYCLE   15 ..............................
........................................................................

 iter      E             dE          RMSdq      gap      omega  full diag
   1    -46.7816017 -0.467816E+02  0.187E-03    5.15       0.0  T
   2    -46.7816017 -0.950791E-09  0.112E-03    5.15      15.1  T
   3    -46.7816017 -0.275477E-10  0.113E-04    5.15     149.7  T
   4    -46.7816017 -0.237577E-09  0.485E-05    5.15     348.3  T
     SCC iter.                  ...        0 min,  0.005 sec
     gradient                   ...        0 min,  0.003 sec
 * total energy  :   -46.1608659 Eh     change       -0.8265275E-07 Eh
   gradient norm :     0.0000672 Eh/α   predicted    -0.5714363E-07 ( -30.86%)
   displ. norm   :     0.0026382 α      lambda        0.6604779E-08
   maximum displ.:     0.0014567 α      in ANC's #5, #9, #3, ...

   *** GEOMETRY OPTIMIZATION CONVERGED AFTER 15 ITERATIONS ***

------------------------------------------------------------------------
 total energy gain   :        -0.0070487 Eh       -4.4231 kcal/mol
 total RMSD          :         0.1317882 a0        0.0697 Å
 total power (kW/mol):        -1.2337503 (step)  -73.5944 (real)
------------------------------------------------------------------------

 ANCopt (total)                0 d,  0 h,  0 min,  0.251 sec
 optimizer setup                ...        0 min,  0.000 sec (  0.083%)
 model hessian                  ...        0 min,  0.075 sec ( 29.771%)
 ANC generation                 ...        0 min,  0.002 sec (  0.726%)
 coordinate transformation      ...        0 min,  0.000 sec (  0.083%)
 single point calculation       ...        0 min,  0.170 sec ( 67.793%)
 optimization log               ...        0 min,  0.002 sec (  0.750%)
 hessian update                 ...        0 min,  0.000 sec (  0.095%)
 rational function              ...        0 min,  0.001 sec (  0.405%)

================
 final structure:
================
$coord
        0.17969441924990       -1.17911581884542        0.20117235421159      c
       -1.76939683931297        0.75224399919155        1.23462041255903      c
       -0.60964786780751        3.42213001786381        1.39265523888433      c
        1.08822935969840        4.16545702456543       -0.82607942243107      c
        2.82990813629901        1.97339349346170       -1.55627791035265      c
        1.19197100524838       -0.26411483086775       -2.37372126093689      c
        2.58425321845731       -1.12433095300414        1.84631574061698      c
        4.15933456355761        0.98116148561594        0.75604497617937      c
        2.75274488534180       -2.05836893312803       -3.61416572712069      o
       -0.94697205079466       -3.84625681420278        0.04784435238919      c
        6.32612429667657        1.81601107660217        1.66848606827245      c
       -4.29972255793202        0.68339518990719       -0.10982686738273      c
       -4.81719647286002        1.82224734121844       -2.27853355978874      c
       -2.16726903400739        0.16208519936335        3.18035983789651      h
       -1.85357297288862       -4.75695117147193        2.38842808274172      o
       -6.33427421482178       -0.70409589053443        1.30240789613117      c
       -2.13701460266886        4.79580448021356        1.58078761678949      h
        0.52657822564539        3.52404633424215        3.11174175125925      h
       -0.02761674831757        4.71657279538183       -2.46798262351746      h
        2.23042135410175        5.79288101423763       -0.27569522554171      h
        4.14444972170308        2.53486833224779       -3.04243085737632      h
       -0.33839740307646        0.30241138022399       -3.64194196810167      h
        3.61505337018542       -2.90455571512357        1.64629092029165      h
        2.18313797534831       -0.82823288872569        3.84599321688360      h
        1.69675245576365       -3.33415489238233       -4.37209574311867      h
        0.49110453017200       -5.15181498258030       -0.68905770629730      h
       -2.57245511012532       -3.86383898297893       -1.22683326073302      h
        7.15655514505640        1.03155690626032        3.35387026175917      h
        7.36157073662440        3.31462674601035        0.76181091237445      h
       -6.68081123156276        1.71697048051475       -3.09593052697961      h
       -3.46957642161981        2.92126815928629       -3.32669462642604      h
       -0.46487899914418       -4.75273459329412        3.57296176238507      h
       -5.67089427918153       -2.54778715219922        1.92370836360815      h
       -6.85144944990218        0.36794925544640        2.98532223629424      h
       -8.01460771356591       -0.94438561659517        0.14515281213005      h
$end
 
 Bond Distances (Angstroems)
 ---------------------------
C1-C2=1.5516         C1-C6=1.5421         C1-C7=1.5420         C1-C10=1.5343        C2-C1=1.5516         C2-C3=1.5426         
C2-C12=1.5167        C2-H14=1.0964        C3-C2=1.5426         C3-C4=1.5299         C3-H17=1.0916        C3-H18=1.0918        
C4-C3=1.5299         C4-C5=1.5311         C4-H19=1.0902        C4-H20=1.0917        C5-C4=1.5311         C5-C6=1.5298         
C5-C8=1.5059         C5-H21=1.0912        C6-C1=1.5421         C6-C5=1.5298         C6-O9=1.4193         C6-H22=1.0937        
C7-C1=1.5420         C7-C8=1.5063         C7-H23=1.0937        C7-H24=1.0906        C8-C5=1.5059         C8-C7=1.5063         
C8-C11=1.3202        O9-C6=1.4193         O9-H25=0.9638        C10-C1=1.5343        C10-O15=1.4130       C10-H26=1.0993       
C10-H27=1.0931       C11-C8=1.3202        C11-H28=1.0774       C11-H29=1.0767       C12-C2=1.5167        C12-C13=1.3249       
C12-C16=1.5022       C13-C12=1.3249       C13-H30=1.0783       C13-H31=1.0744       H14-C2=1.0964        O15-C10=1.4130       
O15-H32=0.9659       C16-C12=1.5022       C16-H33=1.0878       C16-H34=1.0908       C16-H35=1.0871       H17-C3=1.0916        
H18-C3=1.0918        H19-C4=1.0902        H20-C4=1.0917        H21-C5=1.0912        H22-C6=1.0937        H23-C7=1.0937        
H24-C7=1.0906        H25-O9=0.9638        H26-C10=1.0993       H27-C10=1.0931       H28-C11=1.0774       H29-C11=1.0767       
H30-C13=1.0783       H31-C13=1.0744       H32-O15=0.9659       H33-C16=1.0878       H34-C16=1.0908       H35-C16=1.0871       
 C  H  Rav=1.0887 sigma=0.0069  Rmin=1.0744  Rmax=1.0993    18
 C  C  Rav=1.4986 sigma=0.0733  Rmin=1.3202  Rmax=1.5516    14
 O  H  Rav=0.9648 sigma=0.0010  Rmin=0.9638  Rmax=0.9659     2
 O  C  Rav=1.4162 sigma=0.0032  Rmin=1.4130  Rmax=1.4193     2
 
 selected bond angles (degree)
 --------------------
C6-C1-C2=109.60                C7-C1-C2=109.70                C7-C1-C6=101.91                C10-C1-C2=111.49               
C10-C1-C6=112.15               C10-C1-C7=111.58               C3-C2-C1=110.97                C12-C2-C1=113.94               
C12-C2-C3=113.49               H14-C2-C1=105.73               H14-C2-C3=106.64               H14-C2-C12=105.32              
C4-C3-C2=115.31                H17-C3-C2=108.68               H17-C3-C4=109.49               H18-C3-C2=108.03               
H18-C3-C4=107.66               H18-C3-H17=107.39              C5-C4-C3=110.63                H19-C4-C3=111.24               
H19-C4-C5=109.12               H20-C4-C3=108.86               H20-C4-C5=109.37               H20-C4-H19=107.54              
C6-C5-C4=108.46                C8-C5-C4=109.89                C8-C5-C6=102.98                H21-C5-C4=111.06               
H21-C5-C6=111.60               H21-C5-C8=112.50               C5-C6-C1=100.95                O9-C6-C1=113.62                
O9-C6-C5=108.59                H22-C6-C1=111.78               H22-C6-C5=112.39               H22-C6-O9=109.30               
C8-C7-C1=104.73                H23-C7-C1=109.92               H23-C7-C8=108.91               H24-C7-C1=112.95               
H24-C7-C8=111.90               H24-C7-H23=108.34              C7-C8-C5=108.10                C11-C8-C5=125.89               
C11-C8-C7=126.02               H25-O9-C6=108.88               O15-C10-C1=113.54              H26-C10-C1=109.14              
H26-C10-O15=109.37             H27-C10-C1=110.26              H27-C10-O15=105.71             H27-C10-H26=108.69             
 
 selected dihedral angles (degree)
 ---------------------------------
C3-C2-C1-C6=304.48            C3-C2-C1-C7= 55.59            C3-C2-C1-C10=179.70           C12-C2-C1-C6= 74.07           
C12-C2-C1-C7=185.18           C12-C2-C1-C10=309.29          H14-C2-C1-C6=189.23           H14-C2-C1-C7=300.34           
H14-C2-C1-C10= 64.45          C4-C3-C2-C1= 40.22            C4-C3-C2-C12=270.40           C4-C3-C2-H14=154.90           
H17-C3-C2-C1=163.55           H17-C3-C2-C12= 33.73          H17-C3-C2-H14=278.23          H18-C3-C2-C1=279.77           
H18-C3-C2-C12=149.95          H18-C3-C2-H14= 34.45          C5-C4-C3-C2=317.00            C5-C4-C3-H17=194.10           
C5-C4-C3-H18= 77.65           H19-C4-C3-C2= 78.46           H19-C4-C3-H17=315.56          H19-C4-C3-H18=199.11          
H20-C4-C3-C2=196.79           H20-C4-C3-H17= 73.89          H20-C4-C3-H18=317.44          C6-C5-C4-C3= 61.30            
C6-C5-C4-H19=298.59           C6-C5-C4-H20=181.20           C8-C5-C4-C3=309.42            C8-C5-C4-H19=186.72           
C8-C5-C4-H20= 69.32           H21-C5-C4-C3=184.28           H21-C5-C4-H19= 61.58          H21-C5-C4-H20=304.19          
C5-C6-C1-C2= 71.30            C5-C6-C1-C7=315.14            C5-C6-C1-C10=195.68           O9-C6-C1-C2=187.34            
O9-C6-C1-C7= 71.18            O9-C6-C1-C10=311.73           H22-C6-C1-C2=311.62           H22-C6-C1-C7=195.46           
H22-C6-C1-C10= 76.01          C1-C6-C5-C4=285.85            C1-C6-C5-C8= 42.28            C1-C6-C5-H21=163.19           
O9-C6-C5-C4=166.13            O9-C6-C5-C8=282.56            O9-C6-C5-H21= 43.47           H22-C6-C5-C4= 45.09           
H22-C6-C5-C8=161.52           H22-C6-C5-H21=282.43          C8-C7-C1-C2=274.42            C8-C7-C1-C6= 30.50            
C8-C7-C1-C10=150.36           H23-C7-C1-C2=157.57           H23-C7-C1-C6=273.65           H23-C7-C1-C10= 33.51          
H24-C7-C1-C2= 36.44           H24-C7-C1-C6=152.52           H24-C7-C1-C10=272.38          C7-C8-C5-C4= 91.60            
C7-C8-C5-C6=336.19            C7-C8-C5-H21=215.90           C11-C8-C5-C4=271.69           C11-C8-C5-C6=156.29           
C11-C8-C5-H21= 36.00          C5-C8-C7-C1=355.64            C5-C8-C7-H23=113.18           C5-C8-C7-H24=232.94           
C11-C8-C7-C1=175.54           C11-C8-C7-H23=293.09          C11-C8-C7-H24= 52.84          H25-O9-C6-C1= 77.79           
H25-O9-C6-C5=189.25           H25-O9-C6-H22=312.18          O15-C10-C1-C2=302.33          O15-C10-C1-C6=178.99          
O15-C10-C1-C7= 65.38          H26-C10-C1-C2=180.05          H26-C10-C1-C6= 56.71          H26-C10-C1-C7=303.10          
H27-C10-C1-C2= 60.73          H27-C10-C1-C6=297.39          H27-C10-C1-C7=183.78          
           -------------------------------------------------
          |                Final Singlepoint                |
           -------------------------------------------------

          ...................................................
          :                      SETUP                      :
          :.................................................:
          :  # basis functions                  80          :
          :  # atomic orbitals                  80          :
          :  # shells                           50          :
          :  # electrons                        84          :
          :  max. iterations                   250          :
          :  Hamiltonian                  GFN2-xTB          :
          :  restarted?                      false          :
          :  GBSA solvation                   true          :
          :  PC potential                    false          :
          :  electronic temp.          300.0000000     K    :
          :  accuracy                    1.0000000          :
          :  -> integral cutoff          0.2500000E+02      :
          :  -> integral neglect         0.1000000E-07      :
          :  -> SCF convergence          0.1000000E-05 Eh   :
          :  -> wf. convergence          0.1000000E-03 e    :
          :  Broyden damping             0.4000000          :
          :  net charge                          0          :
          :  unpaired electrons                  0          :
          ...................................................

 iter      E             dE          RMSdq      gap      omega  full diag
   1    -46.7816017 -0.467816E+02  0.296E-05    5.15       0.0  T
   2    -46.7816017 -0.308376E-11  0.205E-05    5.15     824.1  T
   3    -46.7816017 -0.505196E-11  0.121E-05    5.15    1397.2  T

   *** convergence criteria satisfied after 3 iterations ***

         #    Occupation            Energy/Eh            Energy/eV
      -------------------------------------------------------------
         1        2.0000           -0.6990534             -19.0222
       ...           ...                  ...                  ...
        36        2.0000           -0.4300489             -11.7022
        37        2.0000           -0.4221267             -11.4867
        38        2.0000           -0.4155155             -11.3068
        39        2.0000           -0.4093686             -11.1395
        40        2.0000           -0.4029916             -10.9660
        41        2.0000           -0.3894068             -10.5963
        42        2.0000           -0.3874357             -10.5427 (HOMO)
        43                         -0.1982127              -5.3936 (LUMO)
        44                         -0.1969730              -5.3599
        45                          0.0120339               0.3275
        46                          0.0158529               0.4314
        47                          0.0393528               1.0708
       ...                                ...                  ...
        80                          0.6521029              17.7446
      -------------------------------------------------------------
                  HL-Gap            0.1892230 Eh            5.1490 eV
             Fermi-level           -0.2928242 Eh           -7.9682 eV

 SCC (total)                   0 d,  0 h,  0 min,  0.009 sec
 SCC setup                      ...        0 min,  0.001 sec (  6.031%)
 Dispersion                     ...        0 min,  0.000 sec (  1.848%)
 classical contributions        ...        0 min,  0.000 sec (  0.241%)
 integral evaluation            ...        0 min,  0.001 sec ( 12.044%)
 iterations                     ...        0 min,  0.004 sec ( 44.739%)
 molecular gradient             ...        0 min,  0.003 sec ( 33.566%)
 printout                       ...        0 min,  0.000 sec (  1.168%)

         :::::::::::::::::::::::::::::::::::::::::::::::::::::
         ::                     SUMMARY                     ::
         :::::::::::::::::::::::::::::::::::::::::::::::::::::
         :: total energy             -46.160865868749 Eh    ::
         :: total w/o Gsasa/hb       -46.148641229403 Eh    ::
         :: gradient norm              0.000067165460 Eh/a0 ::
         :: HOMO-LUMO gap              5.149019570106 eV    ::
         ::.................................................::
         :: SCC energy               -46.780937458862 Eh    ::
         :: -> isotropic ES            0.062167998708 Eh    ::
         :: -> anisotropic ES          0.006142994649 Eh    ::
         :: -> anisotropic XC          0.017209469320 Eh    ::
         :: -> dispersion             -0.036182433368 Eh    ::
         :: -> Gsolv                  -0.020108281480 Eh    ::
         ::    -> Gelec               -0.007883642134 Eh    ::
         ::    -> Gsasa               -0.016115658590 Eh    ::
         ::    -> Ghb                  0.000000000000 Eh    ::
         ::    -> Gshift               0.003891019244 Eh    ::
         :: repulsion energy           0.620071590113 Eh    ::
         :: add. restraining           0.000000000000 Eh    ::
         :: total charge               0.000000000000 e     ::
         :::::::::::::::::::::::::::::::::::::::::::::::::::::

           ------------------------------------------------- 
          |                Numerical Hessian                |
           ------------------------------------------------- 
step length          :   0.00500
SCC accuracy         :   0.30000
Hessian scale factor :   1.00000
frozen atoms in %    :   0.00000    0
RMS gradient         :   0.00007
estimated CPU  time      1.55 min
estimated wall time      0.13 min

writing file <hessian>.

 projected vibrational frequencies (cm⁻¹)
eigval :       -0.00    -0.00    -0.00    -0.00     0.00     0.00
eigval :       64.60    91.46   119.65   122.77   143.14   167.00
eigval :      180.79   217.64   250.56   272.06   283.93   299.92
eigval :      308.03   312.93   333.25   351.93   395.92   422.60
eigval :      436.15   458.70   504.57   538.00   554.89   608.32
eigval :      678.27   685.96   716.63   724.49   801.53   825.55
eigval :      878.58   887.26   892.10   895.18   912.80   934.09
eigval :      941.68   952.43   955.32   995.77  1022.78  1039.28
eigval :     1051.18  1053.66  1063.48  1079.36  1094.82  1101.00
eigval :     1120.66  1136.67  1157.20  1170.03  1193.72  1203.68
eigval :     1215.71  1232.38  1249.38  1258.17  1261.75  1279.37
eigval :     1292.40  1308.38  1316.54  1327.54  1345.50  1349.21
eigval :     1351.32  1364.37  1402.63  1413.28  1423.61  1451.78
eigval :     1476.07  1477.21  1480.92  1490.92  1494.53  1720.52
eigval :     1741.05  2877.95  2920.22  2936.58  2946.18  2965.70
eigval :     2973.06  2973.83  2975.71  2979.54  2987.66  2991.42
eigval :     2994.35  3038.70  3042.13  3093.95  3098.41  3120.04
eigval :     3140.33  3515.66  3544.56
           -------------------------------------------------
          |                Property Printout                |
           -------------------------------------------------

    * Orbital Energies and Occupations

         #    Occupation            Energy/Eh            Energy/eV
      -------------------------------------------------------------
         1        2.0000           -0.6990534             -19.0222
       ...           ...                  ...                  ...
        30        2.0000           -0.4677934             -12.7293
        31        2.0000           -0.4574537             -12.4479
        32        2.0000           -0.4510427             -12.2735
        33        2.0000           -0.4447318             -12.1018
        34        2.0000           -0.4386037             -11.9350
        35        2.0000           -0.4348560             -11.8330
        36        2.0000           -0.4300489             -11.7022
        37        2.0000           -0.4221267             -11.4867
        38        2.0000           -0.4155155             -11.3068
        39        2.0000           -0.4093686             -11.1395
        40        2.0000           -0.4029917             -10.9660
        41        2.0000           -0.3894068             -10.5963
        42        2.0000           -0.3874357             -10.5427 (HOMO)
        43                         -0.1982127              -5.3936 (LUMO)
        44                         -0.1969730              -5.3599
        45                          0.0120339               0.3275
        46                          0.0158528               0.4314
        47                          0.0393528               1.0708
        48                          0.0512356               1.3942
        49                          0.0686723               1.8687
        50                          0.0774730               2.1081
        51                          0.0853319               2.3220
        52                          0.0908932               2.4733
        53                          0.0952852               2.5928
       ...                                ...                  ...
        80                          0.6521029              17.7446
      -------------------------------------------------------------
                  HL-Gap            0.1892230 Eh            5.1490 eV
             Fermi-level           -0.2928242 Eh           -7.9682 eV

     #   Z          covCN         q      C6AA      α(0)
     1   6 c        3.935    -0.007    20.637     6.456
     2   6 c        3.857    -0.033    21.131     6.538
     3   6 c        3.803    -0.063    21.701     6.632
     4   6 c        3.809    -0.059    21.633     6.621
     5   6 c        3.891    -0.028    21.018     6.517
     6   6 c        3.771     0.111    18.795     6.178
     7   6 c        3.833    -0.068    21.777     6.639
     8   6 c        2.975     0.018    27.607     8.619
     9   8 o        1.655    -0.483    22.533     6.408
    10   6 c        3.677     0.081    19.453     6.319
    11   6 c        2.838    -0.113    30.849     9.102
    12   6 c        2.936     0.013    27.735     8.637
    13   6 c        2.843    -0.114    30.882     9.107
    14   1 h        0.924     0.052     2.296     2.370
    15   8 o        1.655    -0.478    22.419     6.392
    16   6 c        3.761    -0.118    22.798     6.807
    17   1 h        0.924     0.041     2.435     2.440
    18   1 h        0.924     0.041     2.434     2.440
    19   1 h        0.924     0.038     2.478     2.462
    20   1 h        0.924     0.042     2.419     2.432
    21   1 h        0.924     0.046     2.371     2.408
    22   1 h        0.924     0.022     2.698     2.569
    23   1 h        0.924     0.051     2.312     2.378
    24   1 h        0.924     0.048     2.347     2.396
    25   1 h        0.805     0.304     0.708     1.322
    26   1 h        0.923     0.026     2.649     2.545
    27   1 h        0.924     0.044     2.390     2.418
    28   1 h        0.926     0.034     2.529     2.487
    29   1 h        0.926     0.034     2.527     2.486
    30   1 h        0.926     0.029     2.606     2.524
    31   1 h        0.926     0.030     2.581     2.512
    32   1 h        0.805     0.310     0.690     1.305
    33   1 h        0.925     0.062     2.173     2.305
    34   1 h        0.924     0.047     2.358     2.401
    35   1 h        0.925     0.039     2.457     2.451

 Mol. C6AA /au·bohr⁶  :      10390.899244
 Mol. C8AA /au·bohr⁸  :     233588.143729
 Mol. α(0) /au        :        153.621760


Wiberg/Mayer (AO) data.
largest (>0.10) Wiberg bond orders for each atom

 ---------------------------------------------------------------------------
     #   Z sym  total        # sym  WBO       # sym  WBO       # sym  WBO
 ---------------------------------------------------------------------------
     1   6 c    3.989 --     7 c    0.982    10 c    0.980     6 c    0.960
                             2 c    0.958
     2   6 c    3.992 --    12 c    0.996     3 c    0.986    14 h    0.962
                             1 c    0.958
     3   6 c    3.996 --     4 c    1.008     2 c    0.986    18 h    0.977
                            17 h    0.976
     4   6 c    3.996 --     3 c    1.008     5 c    0.979    20 h    0.976
                            19 h    0.970
     5   6 c    3.994 --     8 c    0.995     4 c    0.979     6 c    0.978
                            21 h    0.963
     6   6 c    3.946 --     5 c    0.978     9 o    0.977     1 c    0.960
                            22 h    0.959
     7   6 c    3.997 --     8 c    1.005     1 c    0.982    24 h    0.965
                            23 h    0.958
     8   6 c    3.986 --    11 c    1.938     7 c    1.005     5 c    0.995
     9   8 o    1.939 --     6 c    0.977    25 h    0.891
    10   6 c    3.950 --    15 o    0.992     1 c    0.980    27 h    0.970
                            26 h    0.966
    11   6 c    3.988 --     8 c    1.938    28 h    0.975    29 h    0.975
    12   6 c    3.986 --    13 c    1.927    16 c    1.026     2 c    0.996
    13   6 c    3.987 --    12 c    1.927    30 h    0.974    31 h    0.967
    14   1 h    0.997 --     2 c    0.962
    15   8 o    1.943 --    10 c    0.992    32 h    0.887
    16   6 c    3.995 --    12 c    1.026    35 h    0.984    33 h    0.968
                            34 h    0.967
    17   1 h    0.998 --     3 c    0.976
    18   1 h    0.998 --     3 c    0.977
    19   1 h    0.999 --     4 c    0.970
    20   1 h    0.997 --     4 c    0.976
    21   1 h    0.997 --     5 c    0.963
    22   1 h    0.999 --     6 c    0.959
    23   1 h    0.997 --     7 c    0.958
    24   1 h    0.998 --     7 c    0.965
    25   1 h    0.907 --     9 o    0.891
    26   1 h    0.999 --    10 c    0.966
    27   1 h    0.998 --    10 c    0.970
    28   1 h    0.998 --    11 c    0.975
    29   1 h    0.998 --    11 c    0.975
    30   1 h    0.999 --    13 c    0.974
    31   1 h    0.999 --    13 c    0.967
    32   1 h    0.904 --    15 o    0.887
    33   1 h    0.996 --    16 c    0.968
    34   1 h    0.998 --    16 c    0.967
    35   1 h    0.998 --    16 c    0.984
 ---------------------------------------------------------------------------

Topologies differ in total number of bonds
Writing topology from bond orders to xtbtopo.mol

molecular dipole:
                 x           y           z       tot (Debye)
 q only:       -0.148       0.192       0.336
   full:       -0.158       0.093       0.268       0.825
molecular quadrupole (traceless):
                xx          xy          yy          xz          yz          zz
 q only:       -5.387      -1.706       1.686       3.741       1.073       3.701
  q+dip:       -6.290      -2.386       0.674       7.542       0.111       5.616
   full:       -6.775      -2.750       1.457       6.384       1.156       5.318

           -------------------------------------------------
          |                Geometry Summary                 |
           -------------------------------------------------

      molecular mass/u    :      208.2971915
   center of mass at/Å    :        0.0007842      -0.0001635       0.0001654
  moments of inertia/u·Å² :        0.5744757E+03   0.9178517E+03   0.1081990E+04
rotational constants/cm⁻¹ :        0.2934438E-01   0.1836640E-01   0.1558022E-01

 * 30 selected distances

     #   Z          #   Z                                           value/Å
     3   6 c        4   6 c                                       1.5298720
     4   6 c        5   6 c                                       1.5311227
     1   6 c        6   6 c                                       1.5420781 (max)
     5   6 c        6   6 c                                       1.5298161
     1   6 c        7   6 c                                       1.5420230
     6   6 c        9   8 o                                       1.4193463
     1   6 c       10   6 c                                       1.5342972
     8   6 c       11   6 c                                       1.3202416
    12   6 c       13   6 c                                       1.3248523
     2   6 c       14   1 h                                       1.0963669
    10   6 c       15   8 o                                       1.4129748
     3   6 c       17   1 h                                       1.0915972
     3   6 c       18   1 h                                       1.0917807
     4   6 c       19   1 h                                       1.0902448
     4   6 c       20   1 h                                       1.0917010
     5   6 c       21   1 h                                       1.0911738
     6   6 c       22   1 h                                       1.0936653
     7   6 c       23   1 h                                       1.0937160
     7   6 c       24   1 h                                       1.0905774
     9   8 o       25   1 h                                       0.9638013 (min)
    10   6 c       26   1 h                                       1.0993103
    10   6 c       27   1 h                                       1.0931459
    11   6 c       28   1 h                                       1.0774319
    11   6 c       29   1 h                                       1.0767240
    13   6 c       30   1 h                                       1.0783123
    13   6 c       31   1 h                                       1.0744472
    15   8 o       32   1 h                                       0.9658911
    16   6 c       33   1 h                                       1.0877502
    16   6 c       34   1 h                                       1.0907923
    16   6 c       35   1 h                                       1.0871340

 * 4 distinct bonds (by element types)

   Z      Z             #   av. dist./Å        max./Å        min./Å
   1 H    6 C          18     1.0886595     1.0993103     1.0744472
   6 C    6 C           8     1.4817879     1.5420781     1.3202416
   1 H    8 O           2     0.9648462     0.9658911     0.9638013
   6 C    8 O           2     1.4161605     1.4193463     1.4129748

           -------------------------------------------------
          |               Frequency Printout                |
           -------------------------------------------------
 projected vibrational frequencies (cm⁻¹)
eigval :       -0.00    -0.00    -0.00    -0.00     0.00     0.00
eigval :       64.60    91.46   119.65   122.77   143.14   167.00
eigval :      180.79   217.64   250.56   272.06   283.93   299.92
eigval :      308.03   312.93   333.25   351.93   395.92   422.60
eigval :      436.15   458.70   504.57   538.00   554.89   608.32
eigval :      678.27   685.96   716.63   724.49   801.53   825.55
eigval :      878.58   887.26   892.10   895.18   912.80   934.09
eigval :      941.68   952.43   955.32   995.77  1022.78  1039.28
eigval :     1051.18  1053.66  1063.48  1079.36  1094.82  1101.00
eigval :     1120.66  1136.67  1157.20  1170.03  1193.72  1203.68
eigval :     1215.71  1232.38  1249.38  1258.17  1261.75  1279.37
eigval :     1292.40  1308.38  1316.54  1327.54  1345.50  1349.21
eigval :     1351.32  1364.37  1402.63  1413.28  1423.61  1451.78
eigval :     1476.07  1477.21  1480.92  1490.92  1494.53  1720.52
eigval :     1741.05  2877.95  2920.22  2936.58  2946.18  2965.70
eigval :     2973.06  2973.83  2975.71  2979.54  2987.66  2991.42
eigval :     2994.35  3038.70  3042.13  3093.95  3098.41  3120.04
eigval :     3140.33  3515.66  3544.56
 reduced masses (amu)
   1: 10.88   2: 11.13   3: 11.26   4: 11.42   5: 11.20   6: 12.06   7:  9.58   8:  9.98
   9: 10.30  10: 11.35  11: 11.82  12: 12.03  13:  6.88  14:  5.20  15: 11.84  16:  7.43
  17:  8.30  18:  6.23  19:  9.04  20:  4.86  21:  8.33  22:  5.58  23:  7.83  24: 10.14
  25: 10.75  26:  9.18  27:  8.63  28:  9.41  29:  8.48  30:  9.63  31:  8.29  32:  5.55
  33:  4.80  34:  5.42  35:  9.85  36:  7.49  37:  8.44  38:  5.52  39:  4.14  40:  6.28
  41:  6.53  42:  6.78  43:  7.07  44:  5.82  45:  5.32  46:  6.58  47:  5.75  48:  6.64
  49:  5.38  50:  9.22  51:  6.41  52: 10.26  53:  6.98  54:  5.89  55:  7.30  56:  4.86
  57:  4.01  58:  3.63  59:  6.85  60:  6.21  61:  5.93  62:  7.36  63:  8.26  64:  5.00
  65:  5.14  66:  7.53  67:  4.80  68:  4.93  69:  3.58  70:  4.53  71:  4.10  72:  4.03
  73:  4.65  74:  4.53  75:  2.85  76:  2.37  77:  2.53  78:  1.91  79:  1.74  80:  1.59
  81:  1.84  82:  1.70  83:  1.93  84: 11.22  85: 11.58  86:  1.74  87:  1.76  88:  1.74
  89:  1.87  90:  1.94  91:  1.77  92:  1.69  93:  1.92  94:  1.62  95:  1.56  96:  1.79
  97:  1.53  98:  1.65  99:  1.69 100:  1.71 101:  1.53 102:  2.07 103:  1.89 104:  1.87
 105:  1.88
 IR intensities (km·mol⁻¹)
   1:  0.02   2:  0.00   3:  0.02   4:  0.01   5:  0.00   6:  0.02   7:  0.26   8:  0.52
   9:  0.33  10:  8.01  11:  1.90  12:  5.08  13:  4.76  14:  5.29  15: 26.73  16:  2.52
  17: 21.09  18: 32.55  19:  2.10  20: 87.04  21: 31.73  22: 68.73  23: 92.67  24:  8.68
  25:  5.74  26:  3.18  27:  2.25  28:  9.64  29:  1.21  30:  4.02  31:  1.74  32:  4.95
  33:  3.13  34:  2.02  35:  3.85  36:  6.82  37:  1.97  38: 10.68  39: 38.27  40:  3.01
  41: 13.85  42:  1.05  43: 16.21  44:  2.85  45:  0.48  46: 12.72  47: 26.73  48: 44.61
  49: 18.45  50: 31.36  51: 50.10  52: 85.34  53: 19.51  54: 12.29  55: 17.05  56:  1.87
  57: 23.24  58: 18.59  59: 24.88  60: 13.36  61: 12.34  62:  7.28  63: 24.61  64:  6.60
  65: 49.98  66:  6.20  67: 20.25  68:  7.42  69: 29.52  70:  4.59  71: 41.75  72: 28.94
  73:  4.02  74:  3.25  75:  9.45  76:  4.28  77: 16.05  78:  0.39  79:  1.21  80:  2.76
  81:  1.39  82:  7.28  83:  0.36  84: 29.37  85: 31.21  86: 77.11  87: 45.23  88: 56.74
  89: 45.74  90: 13.46  91: 29.71  92: 36.31  93:100.24  94: 61.17  95: 82.25  96: 58.34
  97: 98.38  98: 53.04  99: 11.00 100: 73.32 101: 41.91 102: 61.33 103: 53.81 104: 34.44
 105: 27.61
 Raman intensities (Ä⁴*amu⁻¹)
   1:  0.00   2:  0.00   3:  0.00   4:  0.00   5:  0.00   6:  0.00   7:  0.00   8:  0.00
   9:  0.00  10:  0.00  11:  0.00  12:  0.00  13:  0.00  14:  0.00  15:  0.00  16:  0.00
  17:  0.00  18:  0.00  19:  0.00  20:  0.00  21:  0.00  22:  0.00  23:  0.00  24:  0.00
  25:  0.00  26:  0.00  27:  0.00  28:  0.00  29:  0.00  30:  0.00  31:  0.00  32:  0.00
  33:  0.00  34:  0.00  35:  0.00  36:  0.00  37:  0.00  38:  0.00  39:  0.00  40:  0.00
  41:  0.00  42:  0.00  43:  0.00  44:  0.00  45:  0.00  46:  0.00  47:  0.00  48:  0.00
  49:  0.00  50:  0.00  51:  0.00  52:  0.00  53:  0.00  54:  0.00  55:  0.00  56:  0.00
  57:  0.00  58:  0.00  59:  0.00  60:  0.00  61:  0.00  62:  0.00  63:  0.00  64:  0.00
  65:  0.00  66:  0.00  67:  0.00  68:  0.00  69:  0.00  70:  0.00  71:  0.00  72:  0.00
  73:  0.00  74:  0.00  75:  0.00  76:  0.00  77:  0.00  78:  0.00  79:  0.00  80:  0.00
  81:  0.00  82:  0.00  83:  0.00  84:  0.00  85:  0.00  86:  0.00  87:  0.00  88:  0.00
  89:  0.00  90:  0.00  91:  0.00  92:  0.00  93:  0.00  94:  0.00  95:  0.00  96:  0.00
  97:  0.00  98:  0.00  99:  0.00 100:  0.00 101:  0.00 102:  0.00 103:  0.00 104:  0.00
 105:  0.00
 output can be read by thermo (or use thermo option).
 writing <g98.out> molden fake output.
 recommended (thermochemical) frequency scaling factor: 1.0
           -------------------------------------------------
          |             Thermodynamic Functions             |
           -------------------------------------------------

Molecule has no symmetry elements
It seems to be the C1 point group
c1  symmetry found (for desy threshold:  0.10E+00) used in thermo

          ...................................................
          :                      SETUP                      :
          :.................................................:
          :  # frequencies                          99      :
          :  # imaginary freq.                       0      :
          :  linear?                             false      :
          :  only rotor calc.                    false      :
          :  symmetry                               c1      :
          :  rotational number                       1      :
          :  scaling factor                  1.0000000      :
          :  rotor cutoff                   50.0000000 cm⁻¹ :
          :  imag. cutoff                  -50.0000000 cm⁻¹ :
          :.................................................:

    mode    ω/cm⁻¹     T·S(HO)/kcal·mol⁻¹    T·S(FR)/kcal·mol⁻¹   T·S(vib)
   ------------------------------------------------------------------------
       1     64.60    -1.28547 ( 73.59%)    -0.98057 ( 26.41%)    -1.20495
       2     91.46    -1.08185 ( 91.80%)    -0.87758 (  8.20%)    -1.06510
       3    119.65    -0.92607 ( 97.04%)    -0.79802 (  2.96%)    -0.92228
       4    122.77    -0.91124 ( 97.32%)    -0.79040 (  2.68%)    -0.90801
       5    143.14    -0.82335 ( 98.53%)    -0.74493 (  1.47%)    -0.82220
       6    167.00    -0.73614 ( 99.20%)    -0.69926 (  0.80%)    -0.73584
       7    180.79    -0.69179 ( 99.42%)    -0.67576 (  0.58%)    -0.69169
       8    217.64    -0.58994 ( 99.72%)    -0.62081 (  0.28%)    -0.59002
       9    250.56    -0.51479 ( 99.84%)    -0.57908 (  0.16%)    -0.51489
      10    272.06    -0.47199 ( 99.89%)    -0.55469 (  0.11%)    -0.47209
      11    283.93    -0.45016 ( 99.90%)    -0.54204 (  0.10%)    -0.45025
      12    299.92    -0.42259 ( 99.92%)    -0.52582 (  0.08%)    -0.42267
   ------------------------------------------------------------------------

   temp. (K)  partition function   enthalpy   heat capacity  entropy
                                   cal/mol     cal/K/mol   cal/K/mol   J/K/mol
 298.15  VIB  0.154E+05             7689.180     54.504     44.594
         ROT  0.182E+07              888.752      2.981     31.631
         INT  0.280E+11             8577.933     57.485     76.225
         TR   0.291E+28             1481.254      4.968     41.886
         TOT                       10059.1865    62.4527   118.1113   494.1778

       T/K    H(0)-H(T)+PV         H(T)/Eh          T*S/Eh         G(T)/Eh
   ------------------------------------------------------------------------
    298.15    0.160303E-01    0.317761E+00    0.561185E-01    0.261642E+00
   ------------------------------------------------------------------------

         :::::::::::::::::::::::::::::::::::::::::::::::::::::
         ::                  THERMODYNAMIC                  ::
         :::::::::::::::::::::::::::::::::::::::::::::::::::::
         :: total free energy         -45.899223382515 Eh   ::
         ::.................................................::
         :: total energy              -46.160865868582 Eh   ::
         :: zero point energy           0.301730656824 Eh   ::
         :: G(RRHO) w/o ZPVE           -0.040088170757 Eh   ::
         :: G(RRHO) contrib.            0.261642486067 Eh   ::
         :::::::::::::::::::::::::::::::::::::::::::::::::::::

optimized geometry written to: xtbopt.coord


           -------------------------------------------------
          | TOTAL ENERGY              -46.160865868582 Eh   |
          | TOTAL ENTHALPY            -45.843104877760 Eh   |
          | TOTAL FREE ENERGY         -45.899223382515 Eh   |
          | GRADIENT NORM               0.000067121358 Eh/α |
          | HOMO-LUMO GAP               5.149019516648 eV   |
           -------------------------------------------------

------------------------------------------------------------------------
 * finished run on 2026/08/09 at 17:05:41.742     
------------------------------------------------------------------------
 total:
 * wall-time:     0 d,  0 h,  0 min,  1.153 sec
 *  cpu-time:     0 d,  0 h,  0 min, 13.532 sec
 * ratio c/w:    11.734 speedup
 SCF:
 * wall-time:     0 d,  0 h,  0 min,  0.084 sec
 *  cpu-time:     0 d,  0 h,  0 min,  0.936 sec
 * ratio c/w:    11.124 speedup
 ANC optimizer:
 * wall-time:     0 d,  0 h,  0 min,  0.262 sec
 *  cpu-time:     0 d,  0 h,  0 min,  3.134 sec
 * ratio c/w:    11.968 speedup
 analytical hessian:
 * wall-time:     0 d,  0 h,  0 min,  0.771 sec
 *  cpu-time:     0 d,  0 h,  0 min,  9.208 sec
 * ratio c/w:    11.943 speedup

normal termination of xtb
